<?xml version="1.0"?>
<VTKFile type="UnstructuredGrid" version="0.1" byte_order="LittleEndian">
<UnstructuredGrid>
<Piece NumberOfPoints="30881" NumberOfCells="10862">
<Points>
<DataArray type="Float64" NumberOfComponents="3" format="ascii">
-0.49999999999999828 -0.48677703703187492 0 -0.5 -0.5 0 -0.48129281494584059 -0.49338851851593718 0 -0.5 -0.5 0 -0.48129281494584059 -0.49338851851593718 0 -0.46258562989168328 -0.5 0 -0.49999999999999828 -0.48677703703187492 0 -0.48129281494584059 -0.49338851851593718 0 -0.49999999999999828 -0.48677703703187492 0 -0.4824545428279598 -0.47451624516148783 0 -0.48129281494584059 -0.49338851851593718 0 -0.49999999999999828 -0.48677703703187492 0 -0.4824545428279598 -0.47451624516148783 0 -0.5 -0.46599539173150673 0 -0.4824545428279598 -0.47451624516148783 0 -0.46853075243710779 -0.48354990242643758 0 -0.46411508256092049 -0.46598235294430129 0 -0.4824545428279598 -0.47451624516148783 0 -0.48129281494584059 -0.49338851851593718 0 -0.46853075243710779 -0.48354990242643758 0 -0.48129281494584059 -0.49338851851593718 0 -0.46258562989168328 -0.5 0 -0.48129281494584059 -0.49338851851593718 0 -0.46258562989168328 -0.5 0 -0.46853075243710779 -0.48354990242643758 0 -0.46258562989168328 -0.5 0 -0.46853075243710779 -0.48354990242643758 0 -0.45147378687733691 -0.48362213557840178 0 -0.46853075243710779 -0.48354990242643758 0 -0.45147378687733691 -0.48362213557840178 0 -0.46411508256092049 -0.46598235294430129 0 -0.4457251648104853 -0.47020164095208389 0 -0.45147378687733691 -0.48362213557840178 0 -0.46411508256092049 -0.46598235294430129 0 -0.4457251648104853 -0.47020164095208389 0 -0.45147378687733691 -0.48362213557840178 0 -0.43513446131126993 -0.48199891714758791 0 -0.45147378687733691 -0.48362213557840178 0 -0.43275163025255442 -0.5 0 -0.43513446131126993 -0.48199891714758791 0 -0.46258562989168328 -0.5 0 -0.45147378687733691 -0.48362213557840178 0 -0.43275163025255442 -0.5 0 -0.4467190029717853 -0.45478934699519452 0 -0.4422915115958943 -0.43555510214664611 0 -0.43246707723660932 -0.44794326854796312 0 -0.4457251648104853 -0.47020164095208389 0 -0.4467190029717853 -0.45478934699519452 0 -0.46411508256092049 -0.46598235294430129 0 -0.4457251648104853 -0.47020164095208389 0 -0.4467190029717853 -0.45478934699519452 0 -0.43016578207734568 -0.46313500011938619 0 -0.4467190029717853 -0.45478934699519452 0 -0.46411508256092049 -0.46598235294430129 0 -0.47114575579794699 -0.4403844242888923 0 -0.4467190029717853 -0.45478934699519452 0 -0.47114575579794699 -0.4403844242888923 0 -0.4422915115958943 -0.43555510214664611 0 -0.47114575579794699 -0.4403844242888923 0 -0.4422915115958943 -0.43555510214664611 0 -0.46411508256092049 -0.46598235294430129 0 -0.47114575579794699 -0.4403844242888923 0 -0.48354307623736548 -0.45841843211146538 0 -0.4824545428279598 -0.47451624516148783 0 -0.46411508256092049 -0.46598235294430129 0 -0.48354307623736548 -0.45841843211146538 0 -0.4824545428279598 -0.47451624516148783 0 -0.48354307623736548 -0.45841843211146538 0 -0.5 -0.46599539173150673 0 -0.48354307623736548 -0.45841843211146538 0 -0.5 -0.46599539173150673 0 -0.49999999999999972 -0.44521374643113848 0 -0.47114575579794699 -0.4403844242888923 0 -0.49999999999999972 -0.44521374643113848 0 -0.47114575579794699 -0.4403844242888923 0 -0.49999999999999972 -0.44521374643113848 0 -0.48704432221743971 -0.42935617662229603 0 -0.47114575579794699 -0.4403844242888923 0 -0.48354307623736548 -0.45841843211146538 0 -0.49999999999999972 -0.44521374643113848 0 -0.49999999999999972 -0.44521374643113848 0 -0.48704432221743971 -0.42935617662229603 0 -0.5 -0.41591957503128979 0 -0.48704432221743971 -0.42935617662229603 0 -0.5 -0.41591957503128979 0 -0.47703153307181151 -0.41590696073786332 0 -0.5 -0.41591957503128979 0 -0.47703153307181151 -0.41590696073786332 0 -0.48817838912021821 -0.4022119694541284 0 -0.47114575579794699 -0.4403844242888923 0 -0.48704432221743971 -0.42935617662229603 0 -0.47703153307181151 -0.41590696073786332 0 -0.5 -0.38662540363144121 0 -0.47568202340906118 -0.39039593841591919 0 -0.4947615751445838 -0.37332156409002909 0 -0.47568202340906118 -0.39039593841591919 0 -0.4947615751445838 -0.37332156409002909 0 -0.5 -0.38662540363144121 0 -0.48817838912021821 -0.4022119694541284 0 -0.47568202340906118 -0.39039593841591919 0 -0.5 -0.41591957503128979 0 -0.5 -0.38662540363144121 0 -0.48817838912021821 -0.4022119694541284 0 -0.47703153307181151 -0.41590696073786332 0 -0.48817838912021821 -0.4022119694541284 0 -0.47568202340906118 -0.39039593841591919 0 -0.47703153307181151 -0.41590696073786332 0 -0.47568202340906118 -0.39039593841591919 0 -0.45660247167353862 -0.40747031274180939 0 -0.47568202340906118 -0.39039593841591919 0 -0.48030931097003587 -0.37191064435083931 0 -0.46669490250066459 -0.37481721741951951 0 -0.47568202340906118 -0.39039593841591919 0 -0.4947615751445838 -0.37332156409002909 0 -0.48030931097003587 -0.37191064435083931 0 -0.45332061783919553 -0.38729481725706361 0 -0.46669490250066459 -0.37481721741951951 0 -0.45095991715087752 -0.36968037302039969 0 -0.47568202340906118 -0.39039593841591919 0 -0.45332061783919553 -0.38729481725706361 0 -0.46669490250066459 -0.37481721741951951 0 -0.47568202340906118 -0.39039593841591919 0 -0.45660247167353862 -0.40747031274180939 0 -0.47568202340906118 -0.39039593841591919 0 -0.45332061783919553 -0.38729481725706361 0 -0.45660247167353862 -0.40747031274180939 0 -0.44332653075004852 -0.401690115615219 0 -0.44646247228389868 -0.41654464256061052 0 -0.42870657106664078 -0.39987574649354879 0 -0.45332061783919553 -0.38729481725706361 0 -0.44332653075004852 -0.401690115615219 0 -0.43479631603355468 -0.39077639303142497 0 -0.45332061783919553 -0.38729481725706361 0 -0.44332653075004852 -0.401690115615219 0 -0.45660247167353862 -0.40747031274180939 0 -0.45332061783919553 -0.38729481725706361 0 -0.43421362475025049 -0.37527491429266319 0 -0.43479631603355468 -0.39077639303142497 0 -0.45332061783919553 -0.38729481725706361 0 -0.43421362475025049 -0.37527491429266319 0 -0.45095991715087752 -0.36968037302039969 0 -0.47114575579794699 -0.4403844242888923 0 -0.45663439814062529 -0.42533932462455271 0 -0.4422915115958943 -0.43555510214664611 0 -0.47114575579794699 -0.4403844242888923 0 -0.47703153307181151 -0.41590696073786332 0 -0.45663439814062529 -0.42533932462455271 0 -0.45663439814062529 -0.42533932462455271 0 -0.45660247167353862 -0.40747031274180939 0 -0.44646247228389868 -0.41654464256061052 0 -0.47703153307181151 -0.41590696073786332 0 -0.45663439814062529 -0.42533932462455271 0 -0.45660247167353862 -0.40747031274180939 0 -0.44332653075004852 -0.401690115615219 0 -0.45660247167353862 -0.40747031274180939 0 -0.44646247228389868 -0.41654464256061052 0 -0.45660247167353862 -0.40747031274180939 0 -0.44646247228389868 -0.41654464256061052 0 -0.44646247228389868 -0.41654464256061052 0 -0.4375229199380159 -0.42454468706769971 0 -0.45663439814062529 -0.42533932462455271 0 -0.4375229199380159 -0.42454468706769971 0 -0.4422915115958943 -0.43555510214664611 0 -0.45663439814062529 -0.42533932462455271 0 -0.44646247228389868 -0.41654464256061052 0 -0.4375229199380159 -0.42454468706769971 0 -0.4375229199380159 -0.42454468706769971 0 -0.4422915115958943 -0.43555510214664611 0 -0.43077617074680319 -0.43406335077952207 0 -0.43077617074680319 -0.43406335077952207 0 -0.42550232634077589 -0.42345940056268039 0 -0.41950844772475421 -0.43888456563633732 0 -0.4375229199380159 -0.42454468706769971 0 -0.43077617074680319 -0.43406335077952207 0 -0.42550232634077589 -0.42345940056268039 0 -0.44646247228389868 -0.41654464256061052 0 -0.41657232816672918 -0.41306671883907142 0 -0.42870657106664078 -0.39987574649354879 0 -0.44646247228389868 -0.41654464256061052 0 -0.4375229199380159 -0.42454468706769971 0 -0.42550232634077589 -0.42345940056268039 0 -0.44646247228389868 -0.41654464256061052 0 -0.42550232634077589 -0.42345940056268039 0 -0.41657232816672918 -0.41306671883907142 0 -0.44646247228389868 -0.41654464256061052 0 -0.41657232816672918 -0.41306671883907142 0 -0.42550232634077589 -0.42345940056268039 0 -0.41657232816672918 -0.41306671883907142 0 -0.41333489101611293 -0.42699700567040988 0 -0.41657232816672918 -0.41306671883907142 0 -0.41333489101611293 -0.42699700567040988 0 -0.39893236021425188 -0.42931692235905211 0 -0.41333489101611293 -0.42699700567040988 0 -0.39893236021425188 -0.42931692235905211 0 -0.41950844772475421 -0.43888456563633732 0 -0.42550232634077589 -0.42345940056268039 0 -0.41333489101611293 -0.42699700567040988 0 -0.41950844772475421 -0.43888456563633732 0 -0.43421362475025049 -0.37527491429266319 0 -0.42478231784314502 -0.38643128255249681 0 -0.41656514696884139 -0.37636588688318029 0 -0.43421362475025049 -0.37527491429266319 0 -0.42478231784314502 -0.38643128255249681 0 -0.43479631603355468 -0.39077639303142497 0 -0.42478231784314502 -0.38643128255249681 0 -0.43479631603355468 -0.39077639303142497 0 -0.42870657106664078 -0.39987574649354879 0 -0.44332653075004852 -0.401690115615219 0 -0.43479631603355468 -0.39077639303142497 0 -0.42870657106664078 -0.39987574649354879 0 -0.41657232816672918 -0.41306671883907142 0 -0.40962993039643741 -0.3898634720616666 0 -0.3946356370269814 -0.39577424904278191 0 -0.42478231784314502 -0.38643128255249681 0 -0.42870657106664078 -0.39987574649354879 0 -0.40962993039643741 -0.3898634720616666 0 -0.41657232816672918 -0.41306671883907142 0 -0.42870657106664078 -0.39987574649354879 0 -0.40962993039643741 -0.3898634720616666 0 -0.42478231784314502 -0.38643128255249681 0 -0.40962993039643741 -0.3898634720616666 0 -0.41656514696884139 -0.37636588688318029 0 -0.40962993039643741 -0.3898634720616666 0 -0.41656514696884139 -0.37636588688318029 0 -0.40465459864295228 -0.37650109000307358 0 -0.39431275766669582 -0.38061373190328529 0 -0.40465459864295228 -0.37650109000307358 0 -0.3968495855878465 -0.36923685638487008 0 -0.40962993039643741 -0.3898634720616666 0 -0.39431275766669582 -0.38061373190328529 0 -0.40465459864295228 -0.37650109000307358 0 -0.40962993039643741 -0.3898634720616666 0 -0.39431275766669582 -0.38061373190328529 0 -0.3946356370269814 -0.39577424904278191 0 -0.3946356370269814 -0.39577424904278191 0 -0.38704143117499401 -0.40999023144455299 0 -0.37464038230528551 -0.396492613407532 0 -0.3946356370269814 -0.39577424904278191 0 -0.37522403377147279 -0.38060127254172499 0 -0.37464038230528551 -0.396492613407532 0 -0.39431275766669582 -0.38061373190328529 0 -0.3946356370269814 -0.39577424904278191 0 -0.37522403377147279 -0.38060127254172499 0 -0.39431275766669582 -0.38061373190328529 0 -0.37522403377147279 -0.38060127254172499 0 -0.38569326772338258 -0.37053454129240582 0 -0.41657232816672918 -0.41306671883907142 0 -0.39893236021425188 -0.42931692235905211 0 -0.38704143117499401 -0.40999023144455299 0 -0.41657232816672918 -0.41306671883907142 0 -0.3946356370269814 -0.39577424904278191 0 -0.38704143117499401 -0.40999023144455299 0 -0.41657232816672918 -0.41306671883907142 0 -0.38704143117499401 -0.40999023144455299 0 -0.38704143117499401 -0.40999023144455299 0 -0.38131756488089769 -0.42670085612339947 0 -0.36377437909963828 -0.41972983174959272 0 -0.38131756488089769 -0.42670085612339947 0 -0.38339996822118783 -0.44368928783448319 0 -0.36866352395763108 -0.4313760290561211 0 -0.39893236021425188 -0.42931692235905211 0 -0.38131756488089769 -0.42670085612339947 0 -0.38339996822118783 -0.44368928783448319 0 -0.39893236021425188 -0.42931692235905211 0 -0.38704143117499401 -0.40999023144455299 0 -0.38131756488089769 -0.42670085612339947 0 -0.38339996822118783 -0.44368928783448319 0 -0.40446438048225181 -0.45117017211807442 0 -0.3895931593355052 -0.46351353191466821 0 -0.39893236021425188 -0.42931692235905211 0 -0.38339996822118783 -0.44368928783448319 0 -0.40446438048225181 -0.45117017211807442 0 -0.40446438048225181 -0.45117017211807442 0 -0.3895931593355052 -0.46351353191466821 0 -0.40280611050484572 -0.47090640128894168 0 -0.38339996822118783 -0.44368928783448319 0 -0.3895931593355052 -0.46351353191466821 0 -0.37415472949075129 -0.45946062715310632 0 -0.3895931593355052 -0.46351353191466821 0 -0.38039451612360919 -0.47713749807852829 0 -0.37415472949075129 -0.45946062715310632 0 -0.38039451612360919 -0.47713749807852829 0 -0.39198476482648659 -0.49312537606366408 0 -0.39366244928105898 -0.47747566409097131 0 -0.3895931593355052 -0.46351353191466821 0 -0.38039451612360919 -0.47713749807852829 0 -0.39366244928105898 -0.47747566409097131 0 -0.39198476482648659 -0.49312537606366408 0 -0.37055643484088358 -0.49425936316784103 0 -0.39198476482648659 -0.49312537606366408 0 -0.40291763061342539 -0.5 0 -0.37308363097429631 -0.50000000000000244 0 -0.39198476482648659 -0.49312537606366408 0 -0.37055643484088358 -0.49425936316784103 0 -0.37308363097429631 -0.50000000000000244 0 -0.38039451612360919 -0.47713749807852829 0 -0.39198476482648659 -0.49312537606366408 0 -0.37055643484088358 -0.49425936316784103 0 -0.39198476482648659 -0.49312537606366408 0 -0.41341309481208982 -0.49199138895948757 0 -0.39198476482648659 -0.49312537606366408 0 -0.39366244928105898 -0.47747566409097131 0 -0.40353369561484831 -0.48269551310905429 0 -0.39198476482648659 -0.49312537606366408 0 -0.40291763061342539 -0.5 0 -0.41341309481208982 -0.49199138895948757 0 -0.39198476482648659 -0.49312537606366408 0 -0.40353369561484831 -0.48269551310905429 0 -0.41341309481208982 -0.49199138895948757 0 -0.3895931593355052 -0.46351353191466821 0 -0.39366244928105898 -0.47747566409097131 0 -0.40280611050484572 -0.47090640128894168 0 -0.39366244928105898 -0.47747566409097131 0 -0.40353369561484831 -0.48269551310905429 0 -0.40280611050484572 -0.47090640128894168 0 -0.40280611050484572 -0.47090640128894168 0 -0.41792735015940108 -0.47619959015896091 0 -0.41524515795200517 -0.46243146669528151 0 -0.40353369561484831 -0.48269551310905429 0 -0.41792735015940108 -0.47619959015896091 0 -0.41341309481208982 -0.49199138895948757 0 -0.40353369561484831 -0.48269551310905429 0 -0.40280611050484572 -0.47090640128894168 0 -0.41792735015940108 -0.47619959015896091 0 -0.41792735015940108 -0.47619959015896091 0 -0.41341309481208982 -0.49199138895948757 0 -0.42480663413382869 -0.48754747406650911 0 -0.40291763061342539 -0.5 0 -0.41341309481208982 -0.49199138895948757 0 -0.43275163025255442 -0.5 0 -0.41341309481208982 -0.49199138895948757 0 -0.42480663413382869 -0.48754747406650911 0 -0.43275163025255442 -0.5 0 -0.42480663413382869 -0.48754747406650911 0 -0.43275163025255442 -0.5 0 -0.43513446131126993 -0.48199891714758791 0 -0.4457251648104853 -0.47020164095208389 0 -0.43513446131126993 -0.48199891714758791 0 -0.43016578207734568 -0.46313500011938619 0 -0.41792735015940108 -0.47619959015896091 0 -0.43513446131126993 -0.48199891714758791 0 -0.43016578207734568 -0.46313500011938619 0 -0.41792735015940108 -0.47619959015896091 0 -0.42480663413382869 -0.48754747406650911 0 -0.43513446131126993 -0.48199891714758791 0 -0.4467190029717853 -0.45478934699519452 0 -0.43016578207734568 -0.46313500011938619 0 -0.43246707723660932 -0.44794326854796312 0 -0.43016578207734568 -0.46313500011938619 0 -0.42051073979218989 -0.45215097324273301 0 -0.41524515795200517 -0.46243146669528151 0 -0.43016578207734568 -0.46313500011938619 0 -0.43246707723660932 -0.44794326854796312 0 -0.42051073979218989 -0.45215097324273301 0 -0.4422915115958943 -0.43555510214664611 0 -0.43077617074680319 -0.43406335077952207 0 -0.43246707723660932 -0.44794326854796312 0 -0.43077617074680319 -0.43406335077952207 0 -0.43246707723660932 -0.44794326854796312 0 -0.41950844772475421 -0.43888456563633732 0 -0.43246707723660932 -0.44794326854796312 0 -0.42051073979218989 -0.45215097324273301 0 -0.41950844772475421 -0.43888456563633732 0 -0.39893236021425188 -0.42931692235905211 0 -0.40446438048225181 -0.45117017211807442 0 -0.41950844772475421 -0.43888456563633732 0 -0.40446438048225181 -0.45117017211807442 0 -0.42051073979218989 -0.45215097324273301 0 -0.41950844772475421 -0.43888456563633732 0 -0.40446438048225181 -0.45117017211807442 0 -0.42051073979218989 -0.45215097324273301 0 -0.41524515795200517 -0.46243146669528151 0 -0.40446438048225181 -0.45117017211807442 0 -0.40280611050484572 -0.47090640128894168 0 -0.41524515795200517 -0.46243146669528151 0 -0.41792735015940108 -0.47619959015896091 0 -0.43016578207734568 -0.46313500011938619 0 -0.41524515795200517 -0.46243146669528151 0 -0.45018232007011222 -0.256765034028549 0 -0.429874989515865 -0.26165756953837482 0 -0.43598079583492633 -0.24721882136819351 0 -0.45018232007011222 -0.256765034028549 0 -0.43765198640052377 -0.27443700488157741 0 -0.429874989515865 -0.26165756953837482 0 -0.45018232007011222 -0.256765034028549 0 -0.43598079583492633 -0.24721882136819351 0 -0.45139902778349827 -0.24711062934306771 0 -0.45018232007011222 -0.256765034028549 0 -0.43765198640052377 -0.27443700488157741 0 -0.46196722525855399 -0.27174391220054139 0 -0.43765198640052377 -0.27443700488157741 0 -0.46196722525855399 -0.27174391220054139 0 -0.4476129789611048 -0.29283803371489903 0 -0.46196722525855399 -0.27174391220054139 0 -0.48050148842732221 -0.25523221810557922 0 -0.46267023581878858 -0.24817136713935201 0 -0.45018232007011222 -0.256765034028549 0 -0.46196722525855399 -0.27174391220054139 0 -0.46267023581878858 -0.24817136713935201 0 -0.45018232007011222 -0.256765034028549 0 -0.46267023581878858 -0.24817136713935201 0 -0.45139902778349827 -0.24711062934306771 0 -0.48050148842732221 -0.25523221810557922 0 -0.5 -0.26944871803204617 0 -0.5 -0.2401545466321974 0 -0.48050148842732221 -0.25523221810557922 0 -0.5 -0.26944871803204617 0 -0.48245797385404121 -0.28063059353633901 0 -0.46196722525855399 -0.27174391220054139 0 -0.48050148842732221 -0.25523221810557922 0 -0.48245797385404121 -0.28063059353633901 0 -0.46196722525855399 -0.27174391220054139 0 -0.48245797385404121 -0.28063059353633901 0 -0.46937090116945868 -0.29821258941183898 0 -0.48245797385404121 -0.28063059353633901 0 -0.5 -0.29874288943189498 0 -0.46937090116945868 -0.29821258941183898 0 -0.5 -0.26944871803204617 0 -0.48245797385404121 -0.28063059353633901 0 -0.5 -0.29874288943189498 0 -0.5 -0.29874288943189498 0 -0.46937090116945868 -0.29821258941183898 0 -0.47623524987602139 -0.32201367690444971 0 -0.46937090116945868 -0.29821258941183898 0 -0.4476129789611048 -0.29283803371489903 0 -0.45018982867155483 -0.32180400573951162 0 -0.46196722525855399 -0.27174391220054139 0 -0.46937090116945868 -0.29821258941183898 0 -0.4476129789611048 -0.29283803371489903 0 -0.43765198640052377 -0.27443700488157741 0 -0.4476129789611048 -0.29283803371489903 0 -0.43236213870239748 -0.29002705800971151 0 -0.4476129789611048 -0.29283803371489903 0 -0.45018982867155483 -0.32180400573951162 0 -0.4314578060398388 -0.3048790663939604 0 -0.45018982867155483 -0.32180400573951162 0 -0.4314578060398388 -0.3048790663939604 0 -0.45018982867155483 -0.32180400573951162 0 -0.46157657978994598 -0.34139555482026068 0 -0.43521386225128428 -0.33802231259611382 0 -0.46157657978994598 -0.34139555482026068 0 -0.43521386225128428 -0.33802231259611382 0 -0.45018982867155483 -0.32180400573951162 0 -0.46157657978994598 -0.34139555482026068 0 -0.47623524987602139 -0.32201367690444971 0 -0.46937090116945868 -0.29821258941183898 0 -0.45018982867155483 -0.32180400573951162 0 -0.47623524987602139 -0.32201367690444971 0 -0.5 -0.29874288943189498 0 -0.47623524987602139 -0.32201367690444971 0 -0.5 -0.32803706083174372 0 -0.47623524987602139 -0.32201367690444971 0 -0.5 -0.32803706083174372 0 -0.48561656391384522 -0.34384835974822991 0 -0.5 -0.32803706083174372 0 -0.5 -0.35733123223159241 0 -0.48561656391384522 -0.34384835974822991 0 -0.46157657978994598 -0.34139555482026068 0 -0.47623524987602139 -0.32201367690444971 0 -0.48561656391384522 -0.34384835974822991 0 -0.46157657978994598 -0.34139555482026068 0 -0.47568148196104371 -0.35852722048879659 0 -0.48561656391384522 -0.34384835974822991 0 -0.47568148196104371 -0.35852722048879659 0 -0.48561656391384522 -0.34384835974822991 0 -0.48768886795130861 -0.36141736908419309 0 -0.5 -0.35733123223159241 0 -0.48561656391384522 -0.34384835974822991 0 -0.48768886795130861 -0.36141736908419309 0 -0.5 -0.35733123223159241 0 -0.4947615751445838 -0.37332156409002909 0 -0.48768886795130861 -0.36141736908419309 0 -0.5 -0.38662540363144121 0 -0.5 -0.35733123223159241 0 -0.4947615751445838 -0.37332156409002909 0 -0.4947615751445838 -0.37332156409002909 0 -0.48768886795130861 -0.36141736908419309 0 -0.48030931097003587 -0.37191064435083931 0 -0.47568148196104371 -0.35852722048879659 0 -0.48030931097003587 -0.37191064435083931 0 -0.46669490250066459 -0.37481721741951951 0 -0.47568148196104371 -0.35852722048879659 0 -0.48768886795130861 -0.36141736908419309 0 -0.48030931097003587 -0.37191064435083931 0 -0.46669490250066459 -0.37481721741951951 0 -0.45985290530711531 -0.35919053618658509 0 -0.45095991715087752 -0.36968037302039969 0 -0.47568148196104371 -0.35852722048879659 0 -0.46669490250066459 -0.37481721741951951 0 -0.45985290530711531 -0.35919053618658509 0 -0.46157657978994598 -0.34139555482026068 0 -0.47568148196104371 -0.35852722048879659 0 -0.45985290530711531 -0.35919053618658509 0 -0.46157657978994598 -0.34139555482026068 0 -0.45985290530711531 -0.35919053618658509 0 -0.44091292170358748 -0.35617636658334351 0 -0.46157657978994598 -0.34139555482026068 0 -0.44091292170358748 -0.35617636658334351 0 -0.43521386225128428 -0.33802231259611382 0 -0.43421362475025049 -0.37527491429266319 0 -0.44091292170358748 -0.35617636658334351 0 -0.45095991715087752 -0.36968037302039969 0 -0.45985290530711531 -0.35919053618658509 0 -0.44091292170358748 -0.35617636658334351 0 -0.45095991715087752 -0.36968037302039969 0 -0.43421362475025049 -0.37527491429266319 0 -0.41656514696884139 -0.37636588688318029 0 -0.42218579342164808 -0.36334977441807748 0 -0.43421362475025049 -0.37527491429266319 0 -0.44091292170358748 -0.35617636658334351 0 -0.42218579342164808 -0.36334977441807748 0 -0.44091292170358748 -0.35617636658334351 0 -0.42218579342164808 -0.36334977441807748 0 -0.42066840753926321 -0.34864312644900147 0 -0.44091292170358748 -0.35617636658334351 0 -0.42066840753926321 -0.34864312644900147 0 -0.43521386225128428 -0.33802231259611382 0 -0.42218579342164808 -0.36334977441807748 0 -0.42066840753926321 -0.34864312644900147 0 -0.40690054455725883 -0.35815659477868023 0 -0.40690054455725883 -0.35815659477868023 0 -0.40885114471262263 -0.334649070371968 0 -0.42066840753926321 -0.34864312644900147 0 -0.40690054455725883 -0.35815659477868023 0 -0.40885114471262263 -0.334649070371968 0 -0.42218579342164808 -0.36334977441807748 0 -0.40690054455725883 -0.35815659477868023 0 -0.40625971269279348 -0.36587953617857771 0 -0.40690054455725883 -0.35815659477868023 0 -0.40625971269279348 -0.36587953617857771 0 -0.41656514696884139 -0.37636588688318029 0 -0.42218579342164808 -0.36334977441807748 0 -0.40625971269279348 -0.36587953617857771 0 -0.42218579342164808 -0.36334977441807748 0 -0.40690054455725883 -0.35815659477868023 0 -0.41656514696884139 -0.37636588688318029 0 -0.40465459864295228 -0.37650109000307358 0 -0.40625971269279348 -0.36587953617857771 0 -0.40465459864295228 -0.37650109000307358 0 -0.40625971269279348 -0.36587953617857771 0 -0.3968495855878465 -0.36923685638487008 0 -0.40690054455725883 -0.35815659477868023 0 -0.40029228617445223 -0.36350286704594809 0 -0.3911593018599101 -0.36073848084166482 0 -0.40625971269279348 -0.36587953617857771 0 -0.40029228617445223 -0.36350286704594809 0 -0.3968495855878465 -0.36923685638487008 0 -0.40690054455725883 -0.35815659477868023 0 -0.40625971269279348 -0.36587953617857771 0 -0.40029228617445223 -0.36350286704594809 0 -0.3911593018599101 -0.36073848084166482 0 -0.3968495855878465 -0.36923685638487008 0 -0.38569326772338258 -0.37053454129240582 0 -0.40029228617445223 -0.36350286704594809 0 -0.3911593018599101 -0.36073848084166482 0 -0.3968495855878465 -0.36923685638487008 0 -0.39431275766669582 -0.38061373190328529 0 -0.3968495855878465 -0.36923685638487008 0 -0.38569326772338258 -0.37053454129240582 0 -0.3911593018599101 -0.36073848084166482 0 -0.38569326772338258 -0.37053454129240582 0 -0.37568472164775779 -0.36524225821647011 0 -0.37522403377147279 -0.38060127254172499 0 -0.38569326772338258 -0.37053454129240582 0 -0.37568472164775779 -0.36524225821647011 0 -0.3911593018599101 -0.36073848084166482 0 -0.37568472164775779 -0.36524225821647011 0 -0.38024887903539811 -0.3491016629308506 0 -0.40690054455725883 -0.35815659477868023 0 -0.3911593018599101 -0.36073848084166482 0 -0.38024887903539811 -0.3491016629308506 0 -0.40690054455725883 -0.35815659477868023 0 -0.38024887903539811 -0.3491016629308506 0 -0.39533213247953691 -0.34338662223350158 0 -0.40690054455725883 -0.35815659477868023 0 -0.39533213247953691 -0.34338662223350158 0 -0.40885114471262263 -0.334649070371968 0 -0.40690054455725883 -0.35815659477868023 0 -0.38024887903539811 -0.3491016629308506 0 -0.39533213247953691 -0.34338662223350158 0 -0.38532796161286798 -0.33163916085250739 0 -0.40885114471262263 -0.334649070371968 0 -0.38532796161286798 -0.33163916085250739 0 -0.40885114471262263 -0.334649070371968 0 -0.38024887903539811 -0.3491016629308506 0 -0.39533213247953691 -0.34338662223350158 0 -0.38532796161286798 -0.33163916085250739 0 -0.38024887903539811 -0.3491016629308506 0 -0.38532796161286798 -0.33163916085250739 0 -0.37024470816872912 -0.33735420154985679 0 -0.38532796161286798 -0.33163916085250739 0 -0.37601492727600683 -0.3197696392392384 0 -0.39293033406270472 -0.31505081143976649 0 -0.37601492727600683 -0.3197696392392384 0 -0.39293033406270472 -0.31505081143976649 0 -0.37651642550459341 -0.307078797330949 0 -0.38532796161286798 -0.33163916085250739 0 -0.39293033406270472 -0.31505081143976649 0 -0.40885114471262263 -0.334649070371968 0 -0.39293033406270472 -0.31505081143976649 0 -0.40885114471262263 -0.334649070371968 0 -0.41078846406037228 -0.3113015987101887 0 -0.40885114471262263 -0.334649070371968 0 -0.42554877913925399 -0.3223331804902434 0 -0.41078846406037228 -0.3113015987101887 0 -0.40885114471262263 -0.334649070371968 0 -0.41078846406037228 -0.3113015987101887 0 -0.42066840753926321 -0.34864312644900147 0 -0.40885114471262263 -0.334649070371968 0 -0.43521386225128428 -0.33802231259611382 0 -0.40885114471262263 -0.334649070371968 0 -0.43521386225128428 -0.33802231259611382 0 -0.40885114471262263 -0.334649070371968 0 -0.43521386225128428 -0.33802231259611382 0 -0.42554877913925399 -0.3223331804902434 0 -0.42554877913925399 -0.3223331804902434 0 -0.4314578060398388 -0.3048790663939604 0 -0.41078846406037228 -0.3113015987101887 0 -0.45018982867155483 -0.32180400573951162 0 -0.43521386225128428 -0.33802231259611382 0 -0.42554877913925399 -0.3223331804902434 0 -0.45018982867155483 -0.32180400573951162 0 -0.42554877913925399 -0.3223331804902434 0 -0.4314578060398388 -0.3048790663939604 0 -0.4476129789611048 -0.29283803371489903 0 -0.4314578060398388 -0.3048790663939604 0 -0.43236213870239748 -0.29002705800971151 0 -0.4314578060398388 -0.3048790663939604 0 -0.43236213870239748 -0.29002705800971151 0 -0.41272578340812272 -0.2879541270484095 0 -0.4314578060398388 -0.3048790663939604 0 -0.41272578340812272 -0.2879541270484095 0 -0.43765198640052377 -0.27443700488157741 0 -0.43236213870239748 -0.29002705800971151 0 -0.41272578340812272 -0.2879541270484095 0 -0.4314578060398388 -0.3048790663939604 0 -0.41272578340812272 -0.2879541270484095 0 -0.41078846406037228 -0.3113015987101887 0 -0.41272578340812272 -0.2879541270484095 0 -0.41078846406037228 -0.3113015987101887 0 -0.41272578340812272 -0.2879541270484095 0 -0.41078846406037228 -0.3113015987101887 0 -0.39233272698174793 -0.29435547039456872 0 -0.39293033406270472 -0.31505081143976649 0 -0.41078846406037228 -0.3113015987101887 0 -0.39233272698174793 -0.29435547039456872 0 -0.39293033406270472 -0.31505081143976649 0 -0.37651642550459341 -0.307078797330949 0 -0.39233272698174793 -0.29435547039456872 0 -0.39233272698174793 -0.29435547039456872 0 -0.39278725088820249 -0.26993907014966689 0 -0.37040839911066209 -0.28171057629616708 0 -0.37651642550459341 -0.307078797330949 0 -0.39233272698174793 -0.29435547039456872 0 -0.37040839911066209 -0.28171057629616708 0 -0.41272578340812272 -0.2879541270484095 0 -0.39233272698174793 -0.29435547039456872 0 -0.39278725088820249 -0.26993907014966689 0 -0.41272578340812272 -0.2879541270484095 0 -0.39278725088820249 -0.26993907014966689 0 -0.39278725088820249 -0.26993907014966689 0 -0.37040839911066209 -0.28171057629616708 0 -0.39278725088820249 -0.26993907014966689 0 -0.37533687834285862 -0.25417213976024849 0 -0.37040839911066209 -0.28171057629616708 0 -0.39278725088820249 -0.26993907014966689 0 -0.37533687834285862 -0.25417213976024849 0 -0.39826986996263802 -0.25360934065352753 0 -0.39278725088820249 -0.26993907014966689 0 -0.37533687834285862 -0.25417213976024849 0 -0.39278725088820249 -0.26993907014966689 0 -0.39826986996263802 -0.25360934065352753 0 -0.41519883225968468 -0.25815034790020708 0 -0.39278725088820249 -0.26993907014966689 0 -0.41519883225968468 -0.25815034790020708 0 -0.39826986996263802 -0.25360934065352753 0 -0.41519883225968468 -0.25815034790020708 0 -0.41615383063077721 -0.2466412503256647 0 -0.41519883225968468 -0.25815034790020708 0 -0.41615383063077721 -0.2466412503256647 0 -0.41272578340812272 -0.2879541270484095 0 -0.41519883225968468 -0.25815034790020708 0 -0.41272578340812272 -0.2879541270484095 0 -0.41519883225968468 -0.25815034790020708 0 -0.429874989515865 -0.26165756953837482 0 -0.41272578340812272 -0.2879541270484095 0 -0.39278725088820249 -0.26993907014966689 0 -0.41519883225968468 -0.25815034790020708 0 -0.43765198640052377 -0.27443700488157741 0 -0.41272578340812272 -0.2879541270484095 0 -0.429874989515865 -0.26165756953837482 0 -0.41519883225968468 -0.25815034790020708 0 -0.43598079583492633 -0.24721882136819351 0 -0.41519883225968468 -0.25815034790020708 0 -0.429874989515865 -0.26165756953837482 0 -0.43598079583492633 -0.24721882136819351 0 -0.41519883225968468 -0.25815034790020708 0 -0.43598079583492633 -0.24721882136819351 0 -0.41615383063077721 -0.2466412503256647 0 -0.31968345090478489 -0.25798973640781447 0 -0.33623326073948312 -0.25365348176558788 0 -0.32213598881581812 -0.2442700999577708 0 -0.31968345090478489 -0.25798973640781447 0 -0.31319680135340772 -0.27337899374224139 0 -0.30564385326437488 -0.26015983685037081 0 -0.31968345090478489 -0.25798973640781447 0 -0.31319680135340772 -0.27337899374224139 0 -0.33256675641106698 -0.27199424518209242 0 -0.31319680135340772 -0.27337899374224139 0 -0.33256675641106698 -0.27199424518209242 0 -0.3219330120753135 -0.28752383142540722 0 -0.33256675641106698 -0.27199424518209242 0 -0.33623326073948312 -0.25365348176558788 0 -0.35329637777243872 -0.26495799818728782 0 -0.31968345090478489 -0.25798973640781447 0 -0.33256675641106698 -0.27199424518209242 0 -0.33623326073948312 -0.25365348176558788 0 -0.33623326073948312 -0.25365348176558788 0 -0.35329637777243872 -0.26495799818728782 0 -0.35305879752332059 -0.24486073726717009 0 -0.37533687834285862 -0.25417213976024849 0 -0.35329637777243872 -0.26495799818728782 0 -0.35305879752332059 -0.24486073726717009 0 -0.37533687834285862 -0.25417213976024849 0 -0.35329637777243872 -0.26495799818728782 0 -0.37040839911066209 -0.28171057629616708 0 -0.35329637777243872 -0.26495799818728782 0 -0.34802954733312141 -0.29348208244266671 0 -0.37040839911066209 -0.28171057629616708 0 -0.33256675641106698 -0.27199424518209242 0 -0.35329637777243872 -0.26495799818728782 0 -0.34802954733312141 -0.29348208244266671 0 -0.34802954733312141 -0.29348208244266671 0 -0.37040839911066209 -0.28171057629616708 0 -0.37651642550459341 -0.307078797330949 0 -0.37040839911066209 -0.28171057629616708 0 -0.36249180620921062 -0.30132401124355712 0 -0.34802954733312141 -0.29348208244266671 0 -0.37040839911066209 -0.28171057629616708 0 -0.36249180620921062 -0.30132401124355712 0 -0.37651642550459341 -0.307078797330949 0 -0.36249180620921062 -0.30132401124355712 0 -0.36514172279026702 -0.314674684486903 0 -0.36249180620921062 -0.30132401124355712 0 -0.35217384865543538 -0.31302074178168637 0 -0.36514172279026702 -0.314674684486903 0 -0.34802954733312141 -0.29348208244266671 0 -0.33894022777705518 -0.31261958861733652 0 -0.35217384865543538 -0.31302074178168637 0 -0.34802954733312141 -0.29348208244266671 0 -0.36249180620921062 -0.30132401124355712 0 -0.35217384865543538 -0.31302074178168637 0 -0.34802954733312141 -0.29348208244266671 0 -0.32565069555558063 -0.30525358858916618 0 -0.33894022777705518 -0.31261958861733652 0 -0.34802954733312141 -0.29348208244266671 0 -0.32565069555558063 -0.30525358858916618 0 -0.32565069555558063 -0.30525358858916618 0 -0.32940773276489932 -0.31652548782855527 0 -0.33894022777705518 -0.31261958861733652 0 -0.33256675641106698 -0.27199424518209242 0 -0.34802954733312141 -0.29348208244266671 0 -0.3219330120753135 -0.28752383142540722 0 -0.34802954733312141 -0.29348208244266671 0 -0.3219330120753135 -0.28752383142540722 0 -0.32565069555558063 -0.30525358858916618 0 -0.3219330120753135 -0.28752383142540722 0 -0.31228269981280887 -0.29918463989613459 0 -0.30483638085835207 -0.28788342401786787 0 -0.31319680135340772 -0.27337899374224139 0 -0.3219330120753135 -0.28752383142540722 0 -0.30483638085835207 -0.28788342401786787 0 -0.32565069555558063 -0.30525358858916618 0 -0.30327184377803978 -0.31702509473566581 0 -0.31228269981280887 -0.29918463989613459 0 -0.3219330120753135 -0.28752383142540722 0 -0.32565069555558063 -0.30525358858916618 0 -0.31228269981280887 -0.29918463989613459 0 -0.32565069555558063 -0.30525358858916618 0 -0.30327184377803978 -0.31702509473566581 0 -0.31475841231360341 -0.32260943229412947 0 -0.32694554799167658 -0.33099179923519167 0 -0.33828159541335823 -0.32561934181358893 0 -0.32565069555558063 -0.30525358858916618 0 -0.31475841231360341 -0.32260943229412947 0 -0.30327184377803978 -0.31702509473566581 0 -0.31475841231360341 -0.32260943229412947 0 -0.33828159541335823 -0.32561934181358893 0 -0.32940773276489932 -0.31652548782855527 0 -0.32565069555558063 -0.30525358858916618 0 -0.31475841231360341 -0.32260943229412947 0 -0.32940773276489932 -0.31652548782855527 0 -0.31475841231360341 -0.32260943229412947 0 -0.33828159541335823 -0.32561934181358893 0 -0.31475841231360341 -0.32260943229412947 0 -0.31372637242327511 -0.33497634201883658 0 -0.32694554799167658 -0.33099179923519167 0 -0.32694554799167658 -0.33099179923519167 0 -0.32737612656656928 -0.35021722948502532 0 -0.3170311031704231 -0.34491623006635341 0 -0.31372637242327511 -0.33497634201883658 0 -0.32694554799167658 -0.33099179923519167 0 -0.3170311031704231 -0.34491623006635341 0 -0.31372637242327511 -0.33497634201883658 0 -0.3170311031704231 -0.34491623006635341 0 -0.30849554643820359 -0.34481279163420842 0 -0.32694554799167658 -0.33099179923519167 0 -0.33828159541335823 -0.32561934181358893 0 -0.35359721351353718 -0.34004673108302108 0 -0.32694554799167658 -0.33099179923519167 0 -0.35359721351353718 -0.34004673108302108 0 -0.33765025977867152 -0.34480892108230998 0 -0.32694554799167658 -0.33099179923519167 0 -0.35359721351353718 -0.34004673108302108 0 -0.32694554799167658 -0.33099179923519167 0 -0.33765025977867152 -0.34480892108230998 0 -0.32737612656656928 -0.35021722948502532 0 -0.33828159541335823 -0.32561934181358893 0 -0.32940773276489932 -0.31652548782855527 0 -0.33894022777705518 -0.31261958861733652 0 -0.33828159541335823 -0.32561934181358893 0 -0.33894022777705518 -0.31261958861733652 0 -0.35217384865543538 -0.31302074178168637 0 -0.33828159541335823 -0.32561934181358893 0 -0.3618047785131131 -0.32862925133304821 0 -0.33828159541335823 -0.32561934181358893 0 -0.35217384865543538 -0.31302074178168637 0 -0.3618047785131131 -0.32862925133304821 0 -0.38532796161286798 -0.33163916085250739 0 -0.37601492727600683 -0.3197696392392384 0 -0.3618047785131131 -0.32862925133304821 0 -0.35217384865543538 -0.31302074178168637 0 -0.36514172279026702 -0.314674684486903 0 -0.3618047785131131 -0.32862925133304821 0 -0.37601492727600683 -0.3197696392392384 0 -0.36514172279026702 -0.314674684486903 0 -0.3618047785131131 -0.32862925133304821 0 -0.37601492727600683 -0.3197696392392384 0 -0.37651642550459341 -0.307078797330949 0 -0.36514172279026702 -0.314674684486903 0 -0.38532796161286798 -0.33163916085250739 0 -0.37024470816872912 -0.33735420154985679 0 -0.3618047785131131 -0.32862925133304821 0 -0.37024470816872912 -0.33735420154985679 0 -0.3618047785131131 -0.32862925133304821 0 -0.35359721351353718 -0.34004673108302108 0 -0.38532796161286798 -0.33163916085250739 0 -0.3618047785131131 -0.32862925133304821 0 -0.38024887903539811 -0.3491016629308506 0 -0.37024470816872912 -0.33735420154985679 0 -0.35359721351353718 -0.34004673108302108 0 -0.33828159541335823 -0.32561934181358893 0 -0.3618047785131131 -0.32862925133304821 0 -0.35359721351353718 -0.34004673108302108 0 -0.35359721351353718 -0.34004673108302108 0 -0.36247207576052709 -0.35740109745143939 0 -0.34268215104290278 -0.35797992452600158 0 -0.35359721351353718 -0.34004673108302108 0 -0.34268215104290278 -0.35797992452600158 0 -0.33765025977867152 -0.34480892108230998 0 -0.37568472164775779 -0.36524225821647011 0 -0.38024887903539811 -0.3491016629308506 0 -0.36247207576052709 -0.35740109745143939 0 -0.38024887903539811 -0.3491016629308506 0 -0.35359721351353718 -0.34004673108302108 0 -0.36247207576052709 -0.35740109745143939 0 -0.38024887903539811 -0.3491016629308506 0 -0.35359721351353718 -0.34004673108302108 0 -0.37522403377147279 -0.38060127254172499 0 -0.37568472164775779 -0.36524225821647011 0 -0.35964608014779109 -0.37334112637938882 0 -0.37568472164775779 -0.36524225821647011 0 -0.36247207576052709 -0.35740109745143939 0 -0.35964608014779109 -0.37334112637938882 0 -0.36247207576052709 -0.35740109745143939 0 -0.35964608014779109 -0.37334112637938882 0 -0.34268215104290278 -0.35797992452600158 0 -0.35964608014779109 -0.37334112637938882 0 -0.34268215104290278 -0.35797992452600158 0 -0.34254000635277743 -0.38197763020755832 0 -0.34268215104290278 -0.35797992452600158 0 -0.32737612656656928 -0.35021722948502532 0 -0.32270418411731933 -0.37181077970513959 0 -0.34268215104290278 -0.35797992452600158 0 -0.32270418411731933 -0.37181077970513959 0 -0.34254000635277743 -0.38197763020755832 0 -0.34268215104290278 -0.35797992452600158 0 -0.34254000635277743 -0.38197763020755832 0 -0.34268215104290278 -0.35797992452600158 0 -0.33765025977867152 -0.34480892108230998 0 -0.32737612656656928 -0.35021722948502532 0 -0.32737612656656928 -0.35021722948502532 0 -0.31662274924076123 -0.35606216629487569 0 -0.32270418411731933 -0.37181077970513959 0 -0.32737612656656928 -0.35021722948502532 0 -0.3170311031704231 -0.34491623006635341 0 -0.31662274924076123 -0.35606216629487569 0 -0.3170311031704231 -0.34491623006635341 0 -0.31662274924076123 -0.35606216629487569 0 -0.30902027636205309 -0.35243705172998302 0 -0.31662274924076123 -0.35606216629487569 0 -0.32270418411731933 -0.37181077970513959 0 -0.30796050174877349 -0.36016317053514468 0 -0.32270418411731933 -0.37181077970513959 0 -0.29719619905707523 -0.36594012765828582 0 -0.30796050174877349 -0.36016317053514468 0 -0.32270418411731933 -0.37181077970513959 0 -0.29719619905707523 -0.36594012765828582 0 -0.3103864423796594 -0.37828470113645102 0 -0.32270418411731933 -0.37181077970513959 0 -0.29719619905707523 -0.36594012765828582 0 -0.29719619905707523 -0.36594012765828582 0 -0.29943295026653399 -0.35953932364306618 0 -0.30796050174877349 -0.36016317053514468 0 -0.29719619905707523 -0.36594012765828582 0 -0.29584447723995128 -0.37444813956539807 0 -0.3103864423796594 -0.37828470113645102 0 -0.31662274924076123 -0.35606216629487569 0 -0.30796050174877349 -0.36016317053514468 0 -0.30902027636205309 -0.35243705172998302 0 -0.30796050174877349 -0.36016317053514468 0 -0.30902027636205309 -0.35243705172998302 0 -0.30278665144889838 -0.35518957417951802 0 -0.3170311031704231 -0.34491623006635341 0 -0.30902027636205309 -0.35243705172998302 0 -0.30849554643820359 -0.34481279163420842 0 -0.30902027636205309 -0.35243705172998302 0 -0.30849554643820359 -0.34481279163420842 0 -0.30076474035813339 -0.34759465108555682 0 -0.30849554643820359 -0.34481279163420842 0 -0.30076474035813339 -0.34759465108555682 0 -0.30398917998114899 -0.33934800480643368 0 -0.30902027636205309 -0.35243705172998302 0 -0.30076474035813339 -0.34759465108555682 0 -0.30278665144889838 -0.35518957417951802 0 -0.29943295026653399 -0.35953932364306618 0 -0.30796050174877349 -0.36016317053514468 0 -0.30278665144889838 -0.35518957417951802 0 -0.30076474035813339 -0.34759465108555682 0 -0.30278665144889838 -0.35518957417951802 0 -0.29719830368448108 -0.35301728683459582 0 -0.29943295026653399 -0.35953932364306618 0 -0.30278665144889838 -0.35518957417951802 0 -0.29719830368448108 -0.35301728683459582 0 -0.29943295026653399 -0.35953932364306618 0 -0.29719830368448108 -0.35301728683459582 0 -0.29016743694869812 -0.35649807524262711 0 -0.29016743694869812 -0.35649807524262711 0 -0.28284547851944208 -0.35047845284871731 0 -0.27168821399683141 -0.36006947561143121 0 -0.29719830368448108 -0.35301728683459582 0 -0.29016743694869812 -0.35649807524262711 0 -0.2925915294609488 -0.34919256188026188 0 -0.2925915294609488 -0.34919256188026188 0 -0.28611540962297188 -0.3426453659285974 0 -0.29619358151489988 -0.34015641309103278 0 -0.30076474035813339 -0.34759465108555682 0 -0.29719830368448108 -0.35301728683459582 0 -0.2925915294609488 -0.34919256188026188 0 -0.30076474035813339 -0.34759465108555682 0 -0.2925915294609488 -0.34919256188026188 0 -0.29619358151489988 -0.34015641309103278 0 -0.2925915294609488 -0.34919256188026188 0 -0.28284547851944208 -0.35047845284871731 0 -0.28611540962297188 -0.3426453659285974 0 -0.28284547851944208 -0.35047845284871731 0 -0.27676447355633299 -0.3457480812413124 0 -0.28611540962297188 -0.3426453659285974 0 -0.29016743694869812 -0.35649807524262711 0 -0.2925915294609488 -0.34919256188026188 0 -0.28284547851944208 -0.35047845284871731 0 -0.29202770366946113 -0.36668513997228358 0 -0.27168821399683141 -0.36006947561143121 0 -0.28307956849111848 -0.3828068929804474 0 -0.29719619905707523 -0.36594012765828582 0 -0.27168821399683141 -0.36006947561143121 0 -0.29202770366946113 -0.36668513997228358 0 -0.28307956849111848 -0.3828068929804474 0 -0.29202770366946113 -0.36668513997228358 0 -0.29584447723995128 -0.37444813956539807 0 -0.28307956849111848 -0.3828068929804474 0 -0.29719619905707523 -0.36594012765828582 0 -0.29016743694869812 -0.35649807524262711 0 -0.27168821399683141 -0.36006947561143121 0 -0.29719619905707523 -0.36594012765828582 0 -0.29202770366946113 -0.36668513997228358 0 -0.27168821399683141 -0.36006947561143121 0 -0.29719619905707523 -0.36594012765828582 0 -0.29943295026653399 -0.35953932364306618 0 -0.29016743694869812 -0.35649807524262711 0 -0.29719619905707523 -0.36594012765828582 0 -0.29202770366946113 -0.36668513997228358 0 -0.29584447723995128 -0.37444813956539807 0 -0.27168821399683141 -0.36006947561143121 0 -0.28307956849111848 -0.3828068929804474 0 -0.27168821399683141 -0.36006947561143121 0 -0.28307956849111848 -0.3828068929804474 0 -0.26050234447883253 -0.38027693877573482 0 -0.27168821399683141 -0.36006947561143121 0 -0.25721723303835431 -0.36623646057876708 0 -0.26050234447883253 -0.38027693877573482 0 -0.27168821399683141 -0.36006947561143121 0 -0.25721723303835431 -0.36623646057876708 0 -0.24850069890613241 -0.35473287875334369 0 -0.25721723303835431 -0.36623646057876708 0 -0.24817767477162081 -0.36986654917455902 0 -0.24850069890613241 -0.35473287875334369 0 -0.25721723303835431 -0.36623646057876708 0 -0.26050234447883253 -0.38027693877573482 0 -0.24817767477162081 -0.36986654917455902 0 -0.27168821399683141 -0.36006947561143121 0 -0.25445926970156468 -0.34270101061729968 0 -0.24850069890613241 -0.35473287875334369 0 -0.27168821399683141 -0.36006947561143121 0 -0.26120815563270988 -0.3391510272218049 0 -0.25445926970156468 -0.34270101061729968 0 -0.27168821399683141 -0.36006947561143121 0 -0.24850069890613241 -0.35473287875334369 0 -0.27168821399683141 -0.36006947561143121 0 -0.27676447355633299 -0.3457480812413124 0 -0.26120815563270988 -0.3391510272218049 0 -0.27168821399683141 -0.36006947561143121 0 -0.26120815563270988 -0.3391510272218049 0 -0.28284547851944208 -0.35047845284871731 0 -0.27168821399683141 -0.36006947561143121 0 -0.27676447355633299 -0.3457480812413124 0 -0.27676447355633299 -0.3457480812413124 0 -0.27858368134566353 -0.33798527866036399 0 -0.28611540962297188 -0.3426453659285974 0 -0.27676447355633299 -0.3457480812413124 0 -0.27858368134566353 -0.33798527866036399 0 -0.26120815563270988 -0.3391510272218049 0 -0.28089299200049878 -0.32879660088216478 0 -0.26120815563270988 -0.3391510272218049 0 -0.28089299200049878 -0.32879660088216478 0 -0.26120815563270988 -0.3391510272218049 0 -0.26730676106940449 -0.32685643845792262 0 -0.27858368134566353 -0.33798527866036399 0 -0.28089299200049878 -0.32879660088216478 0 -0.26120815563270988 -0.3391510272218049 0 -0.26120815563270988 -0.3391510272218049 0 -0.26057751607960811 -0.32279583566460812 0 -0.26730676106940449 -0.32685643845792262 0 -0.26120815563270988 -0.3391510272218049 0 -0.25273748935779161 -0.32224337373924072 0 -0.26120815563270988 -0.3391510272218049 0 -0.25207330520806498 -0.33378255792528982 0 -0.25273748935779161 -0.32224337373924072 0 -0.26120815563270988 -0.3391510272218049 0 -0.25445926970156468 -0.34270101061729968 0 -0.25207330520806498 -0.33378255792528982 0 -0.25445926970156468 -0.34270101061729968 0 -0.2460450098649074 -0.33743905859998191 0 -0.26120815563270988 -0.3391510272218049 0 -0.25207330520806498 -0.33378255792528982 0 -0.25445926970156468 -0.34270101061729968 0 -0.25273748935779161 -0.32224337373924072 0 -0.26050456352867191 -0.3149367065078193 0 -0.24426682308287331 -0.30533572025667649 0 -0.26120815563270988 -0.3391510272218049 0 -0.25273748935779161 -0.32224337373924072 0 -0.26057751607960811 -0.32279583566460812 0 -0.26057751607960811 -0.32279583566460812 0 -0.26050456352867191 -0.3149367065078193 0 -0.26730676106940449 -0.32685643845792262 0 -0.25273748935779161 -0.32224337373924072 0 -0.26057751607960811 -0.32279583566460812 0 -0.26050456352867191 -0.3149367065078193 0 -0.28089299200049878 -0.32879660088216478 0 -0.26050456352867191 -0.3149367065078193 0 -0.27445713665833338 -0.31633796571173628 0 -0.28089299200049878 -0.32879660088216478 0 -0.26050456352867191 -0.3149367065078193 0 -0.26050456352867191 -0.3149367065078193 0 -0.27445713665833338 -0.31633796571173628 0 -0.26793999894844561 -0.31004618489902153 0 -0.28089299200049878 -0.32879660088216478 0 -0.26050456352867191 -0.3149367065078193 0 -0.26730676106940449 -0.32685643845792262 0 -0.28089299200049878 -0.32879660088216478 0 -0.27445713665833338 -0.31633796571173628 0 -0.28125105682705043 -0.31976055402590231 0 -0.27445713665833338 -0.31633796571173628 0 -0.28252008875028978 -0.31254235777143202 0 -0.28125105682705043 -0.31976055402590231 0 -0.28252008875028978 -0.31254235777143202 0 -0.28823329624350208 -0.31711313423980658 0 -0.29327146190654751 -0.30876504511160502 0 -0.28089299200049878 -0.32879660088216478 0 -0.28823329624350208 -0.31711313423980658 0 -0.30327184377803978 -0.31702509473566581 0 -0.28089299200049878 -0.32879660088216478 0 -0.29457520052377689 -0.33013191680287202 0 -0.30327184377803978 -0.31702509473566581 0 -0.28089299200049878 -0.32879660088216478 0 -0.30327184377803978 -0.31702509473566581 0 -0.28252008875028978 -0.31254235777143202 0 -0.28125105682705043 -0.31976055402590231 0 -0.28823329624350208 -0.31711313423980658 0 -0.28823329624350208 -0.31711313423980658 0 -0.30327184377803978 -0.31702509473566581 0 -0.29327146190654751 -0.30876504511160502 0 -0.28089299200049878 -0.32879660088216478 0 -0.28125105682705043 -0.31976055402590231 0 -0.28823329624350208 -0.31711313423980658 0 -0.28089299200049878 -0.32879660088216478 0 -0.28793737591580382 -0.33358531802794061 0 -0.27858368134566353 -0.33798527866036399 0 -0.28089299200049878 -0.32879660088216478 0 -0.28793737591580382 -0.33358531802794061 0 -0.28089299200049878 -0.32879660088216478 0 -0.28793737591580382 -0.33358531802794061 0 -0.29457520052377689 -0.33013191680287202 0 -0.27858368134566353 -0.33798527866036399 0 -0.28793737591580382 -0.33358531802794061 0 -0.28611540962297188 -0.3426453659285974 0 -0.28793737591580382 -0.33358531802794061 0 -0.28611540962297188 -0.3426453659285974 0 -0.29619358151489988 -0.34015641309103278 0 -0.28793737591580382 -0.33358531802794061 0 -0.29619358151489988 -0.34015641309103278 0 -0.29457520052377689 -0.33013191680287202 0 -0.29619358151489988 -0.34015641309103278 0 -0.29457520052377689 -0.33013191680287202 0 -0.30458020940964259 -0.3310961572775562 0 -0.30076474035813339 -0.34759465108555682 0 -0.29619358151489988 -0.34015641309103278 0 -0.30398917998114899 -0.33934800480643368 0 -0.29619358151489988 -0.34015641309103278 0 -0.30458020940964259 -0.3310961572775562 0 -0.30398917998114899 -0.33934800480643368 0 -0.31372637242327511 -0.33497634201883658 0 -0.30849554643820359 -0.34481279163420842 0 -0.30398917998114899 -0.33934800480643368 0 -0.31475841231360341 -0.32260943229412947 0 -0.31372637242327511 -0.33497634201883658 0 -0.30458020940964259 -0.3310961572775562 0 -0.31372637242327511 -0.33497634201883658 0 -0.30458020940964259 -0.3310961572775562 0 -0.30398917998114899 -0.33934800480643368 0 -0.31475841231360341 -0.32260943229412947 0 -0.30458020940964259 -0.3310961572775562 0 -0.30327184377803978 -0.31702509473566581 0 -0.29457520052377689 -0.33013191680287202 0 -0.30458020940964259 -0.3310961572775562 0 -0.30327184377803978 -0.31702509473566581 0 -0.30327184377803978 -0.31702509473566581 0 -0.30068554560480582 -0.30112982209441241 0 -0.31228269981280887 -0.29918463989613459 0 -0.30327184377803978 -0.31702509473566581 0 -0.30068554560480582 -0.30112982209441241 0 -0.29327146190654751 -0.30876504511160502 0 -0.30068554560480582 -0.30112982209441241 0 -0.30483638085835207 -0.28788342401786787 0 -0.28888361246081401 -0.29493054457851903 0 -0.30068554560480582 -0.30112982209441241 0 -0.31228269981280887 -0.29918463989613459 0 -0.30483638085835207 -0.28788342401786787 0 -0.28888361246081401 -0.29493054457851903 0 -0.28078806465599399 -0.28300047521785149 0 -0.29451735460655398 -0.27472288856989607 0 -0.30483638085835207 -0.28788342401786787 0 -0.28888361246081401 -0.29493054457851903 0 -0.29451735460655398 -0.27472288856989607 0 -0.28888361246081401 -0.29493054457851903 0 -0.28295382644196537 -0.3038897035906043 0 -0.27388309143310768 -0.29511411685975181 0 -0.28888361246081401 -0.29493054457851903 0 -0.28295382644196537 -0.3038897035906043 0 -0.29327146190654751 -0.30876504511160502 0 -0.30068554560480582 -0.30112982209441241 0 -0.28888361246081401 -0.29493054457851903 0 -0.29327146190654751 -0.30876504511160502 0 -0.28252008875028978 -0.31254235777143202 0 -0.28295382644196537 -0.3038897035906043 0 -0.29327146190654751 -0.30876504511160502 0 -0.27445713665833338 -0.31633796571173628 0 -0.28252008875028978 -0.31254235777143202 0 -0.27524002690986649 -0.30828041126704497 0 -0.28252008875028978 -0.31254235777143202 0 -0.28295382644196537 -0.3038897035906043 0 -0.27524002690986649 -0.30828041126704497 0 -0.28295382644196537 -0.3038897035906043 0 -0.27524002690986649 -0.30828041126704497 0 -0.27388309143310768 -0.29511411685975181 0 -0.26808679199009749 -0.30362992927208171 0 -0.26252268864995981 -0.29761987486456531 0 -0.27388309143310768 -0.29511411685975181 0 -0.27524002690986649 -0.30828041126704497 0 -0.26808679199009749 -0.30362992927208171 0 -0.27388309143310768 -0.29511411685975181 0 -0.27445713665833338 -0.31633796571173628 0 -0.27524002690986649 -0.30828041126704497 0 -0.26793999894844561 -0.31004618489902153 0 -0.27524002690986649 -0.30828041126704497 0 -0.26808679199009749 -0.30362992927208171 0 -0.26793999894844561 -0.31004618489902153 0 -0.26808679199009749 -0.30362992927208171 0 -0.26793999894844561 -0.31004618489902153 0 -0.26278193746552841 -0.30551063084933561 0 -0.26050456352867191 -0.3149367065078193 0 -0.25485564421046719 -0.30132045870319019 0 -0.24011613505684479 -0.30107681213347393 0 -0.26050456352867191 -0.3149367065078193 0 -0.24011613505684479 -0.30107681213347393 0 -0.26050456352867191 -0.3149367065078193 0 -0.26278193746552841 -0.30551063084933561 0 -0.25485564421046719 -0.30132045870319019 0 -0.26050456352867191 -0.3149367065078193 0 -0.26793999894844561 -0.31004618489902153 0 -0.26278193746552841 -0.30551063084933561 0 -0.26278193746552841 -0.30551063084933561 0 -0.26252268864995981 -0.29761987486456531 0 -0.25485564421046719 -0.30132045870319019 0 -0.26252268864995981 -0.29761987486456531 0 -0.25485564421046719 -0.30132045870319019 0 -0.2567143935458242 -0.29223768812186002 0 -0.26808679199009749 -0.30362992927208171 0 -0.26278193746552841 -0.30551063084933561 0 -0.26252268864995981 -0.29761987486456531 0 -0.25608276685525683 -0.28295324223861612 0 -0.2567143935458242 -0.29223768812186002 0 -0.24732420154209239 -0.29033586459568173 0 -0.25485564421046719 -0.30132045870319019 0 -0.2567143935458242 -0.29223768812186002 0 -0.24732420154209239 -0.29033586459568173 0 -0.26252268864995981 -0.29761987486456531 0 -0.2567143935458242 -0.29223768812186002 0 -0.26350989061834318 -0.28909490770035701 0 -0.25608276685525683 -0.28295324223861612 0 -0.26350989061834318 -0.28909490770035701 0 -0.26907982973782107 -0.2804670883869903 0 -0.25608276685525683 -0.28295324223861612 0 -0.2567143935458242 -0.29223768812186002 0 -0.26350989061834318 -0.28909490770035701 0 -0.26350989061834318 -0.28909490770035701 0 -0.27388309143310768 -0.29511411685975181 0 -0.26907982973782107 -0.2804670883869903 0 -0.26252268864995981 -0.29761987486456531 0 -0.26350989061834318 -0.28909490770035701 0 -0.27388309143310768 -0.29511411685975181 0 -0.28888361246081401 -0.29493054457851903 0 -0.27388309143310768 -0.29511411685975181 0 -0.28078806465599399 -0.28300047521785149 0 -0.27388309143310768 -0.29511411685975181 0 -0.28078806465599399 -0.28300047521785149 0 -0.26907982973782107 -0.2804670883869903 0 -0.27772768471542669 -0.26767482265106679 0 -0.26907982973782107 -0.2804670883869903 0 -0.25958550566062261 -0.27102626557679149 0 -0.28078806465599399 -0.28300047521785149 0 -0.27772768471542669 -0.26767482265106679 0 -0.26907982973782107 -0.2804670883869903 0 -0.25608276685525683 -0.28295324223861612 0 -0.26907982973782107 -0.2804670883869903 0 -0.25958550566062261 -0.27102626557679149 0 -0.25608276685525683 -0.28295324223861612 0 -0.25958550566062261 -0.27102626557679149 0 -0.2444485511135471 -0.27534046621033159 0 -0.26398002587916253 -0.25656090854441049 0 -0.24465976002352091 -0.25387891845332877 0 -0.25992972331208369 -0.2410680052130979 0 -0.25958550566062261 -0.27102626557679149 0 -0.26398002587916253 -0.25656090854441049 0 -0.24465976002352091 -0.25387891845332877 0 -0.27772768471542669 -0.26767482265106679 0 -0.26398002587916253 -0.25656090854441049 0 -0.27722523139620658 -0.24922189107985179 0 -0.27772768471542669 -0.26767482265106679 0 -0.25958550566062261 -0.27102626557679149 0 -0.26398002587916253 -0.25656090854441049 0 -0.27772768471542669 -0.26767482265106679 0 -0.29131753467172561 -0.25675805269722002 0 -0.27722523139620658 -0.24922189107985179 0 -0.28078806465599399 -0.28300047521785149 0 -0.27772768471542669 -0.26767482265106679 0 -0.29451735460655398 -0.27472288856989607 0 -0.27772768471542669 -0.26767482265106679 0 -0.29131753467172561 -0.25675805269722002 0 -0.29451735460655398 -0.27472288856989607 0 -0.31319680135340772 -0.27337899374224139 0 -0.29451735460655398 -0.27472288856989607 0 -0.30564385326437488 -0.26015983685037081 0 -0.31319680135340772 -0.27337899374224139 0 -0.30483638085835207 -0.28788342401786787 0 -0.29451735460655398 -0.27472288856989607 0 -0.29131753467172561 -0.25675805269722002 0 -0.29451735460655398 -0.27472288856989607 0 -0.30564385326437488 -0.26015983685037081 0 -0.29131753467172561 -0.25675805269722002 0 -0.30564385326437488 -0.26015983685037081 0 -0.30769212114973271 -0.24578220261295139 0 -0.31968345090478489 -0.25798973640781447 0 -0.30564385326437488 -0.26015983685037081 0 -0.30769212114973271 -0.24578220261295139 0 -0.34207866423036198 -0.45986413066326443 0 -0.33141508850449702 -0.45187214799378478 0 -0.32594289259428999 -0.46085836632795257 0 -0.34207866423036198 -0.45986413066326443 0 -0.32594289259428999 -0.46085836632795257 0 -0.33264581849560632 -0.47431014716802089 0 -0.34207866423036198 -0.45986413066326443 0 -0.34225571697252682 -0.42997304157067162 0 -0.34207866423036198 -0.45986413066326443 0 -0.33358626016413989 -0.44229992863572659 0 -0.33141508850449702 -0.45187214799378478 0 -0.34207866423036198 -0.45986413066326443 0 -0.33358626016413989 -0.44229992863572659 0 -0.34225571697252682 -0.42997304157067162 0 -0.33358626016413989 -0.44229992863572659 0 -0.33141508850449702 -0.45187214799378478 0 -0.32300139100864811 -0.44723989508536771 0 -0.33358626016413989 -0.44229992863572659 0 -0.32300139100864811 -0.44723989508536771 0 -0.32413493920603592 -0.43586432580396972 0 -0.32300139100864811 -0.44723989508536771 0 -0.31385630152515048 -0.44199725430357722 0 -0.32413493920603592 -0.43586432580396972 0 -0.32300139100864811 -0.44723989508536771 0 -0.31385630152515048 -0.44199725430357722 0 -0.31044958537109257 -0.45255960714027171 0 -0.32594289259428999 -0.46085836632795257 0 -0.31333683559556219 -0.46686726284272168 0 -0.31044958537109257 -0.45255960714027171 0 -0.32594289259428999 -0.46085836632795257 0 -0.31333683559556219 -0.46686726284272168 0 -0.32224857144892449 -0.47649828689453749 0 -0.32300139100864811 -0.44723989508536771 0 -0.32594289259428999 -0.46085836632795257 0 -0.31044958537109257 -0.45255960714027171 0 -0.33141508850449702 -0.45187214799378478 0 -0.32300139100864811 -0.44723989508536771 0 -0.32594289259428999 -0.46085836632795257 0 -0.31333683559556219 -0.46686726284272168 0 -0.32224857144892449 -0.47649828689453749 0 -0.30503152439861497 -0.48190266549989857 0 -0.32224857144892449 -0.47649828689453749 0 -0.32279626626388608 -0.48781718170045291 0 -0.30503152439861497 -0.48190266549989857 0 -0.32594289259428999 -0.46085836632795257 0 -0.32224857144892449 -0.47649828689453749 0 -0.33264581849560632 -0.47431014716802089 0 -0.32224857144892449 -0.47649828689453749 0 -0.32279626626388608 -0.48781718170045291 0 -0.33105735271625752 -0.4845747321984929 0 -0.32006214434654462 -0.5 0 -0.32279626626388608 -0.48781718170045291 0 -0.30503152439861497 -0.48190266549989857 0 -0.32006214434654462 -0.5 0 -0.32279626626388608 -0.48781718170045291 0 -0.33558173840908911 -0.49611022390933512 0 -0.32006214434654462 -0.5 0 -0.33558173840908911 -0.49611022390933512 0 -0.34657288766042038 -0.5 0 -0.33558173840908911 -0.49611022390933512 0 -0.34190161148819742 -0.48975521975585701 0 -0.35306908662498632 -0.4951847935385878 0 -0.32279626626388608 -0.48781718170045291 0 -0.33558173840908911 -0.49611022390933512 0 -0.33105735271625752 -0.4845747321984929 0 -0.33558173840908911 -0.49611022390933512 0 -0.33105735271625752 -0.4845747321984929 0 -0.34190161148819742 -0.48975521975585701 0 -0.34207866423036198 -0.45986413066326443 0 -0.34190161148819742 -0.48975521975585701 0 -0.34207866423036198 -0.45986413066326443 0 -0.34190161148819742 -0.48975521975585701 0 -0.33264581849560632 -0.47431014716802089 0 -0.33105735271625752 -0.4845747321984929 0 -0.34190161148819742 -0.48975521975585701 0 -0.33264581849560632 -0.47431014716802089 0 -0.32224857144892449 -0.47649828689453749 0 -0.33105735271625752 -0.4845747321984929 0 -0.33264581849560632 -0.47431014716802089 0 -0.34190161148819742 -0.48975521975585701 0 -0.35001641252228072 -0.47142734906239081 0 -0.35328963507943428 -0.48328499015431992 0 -0.34207866423036198 -0.45986413066326443 0 -0.34190161148819742 -0.48975521975585701 0 -0.35001641252228072 -0.47142734906239081 0 -0.35328963507943428 -0.48328499015431992 0 -0.35950950469085041 -0.48638993404071668 0 -0.36112286221809747 -0.47283058930211808 0 -0.35001641252228072 -0.47142734906239081 0 -0.35328963507943428 -0.48328499015431992 0 -0.36112286221809747 -0.47283058930211808 0 -0.33558173840908911 -0.49611022390933512 0 -0.35306908662498632 -0.4951847935385878 0 -0.33558173840908911 -0.49611022390933512 0 -0.34657288766042038 -0.5 0 -0.35306908662498632 -0.4951847935385878 0 -0.34657288766042038 -0.5 0 -0.35306908662498632 -0.4951847935385878 0 -0.37308363097429631 -0.50000000000000244 0 -0.34190161148819742 -0.48975521975585701 0 -0.35328963507943428 -0.48328499015431992 0 -0.35306908662498632 -0.4951847935385878 0 -0.35328963507943428 -0.48328499015431992 0 -0.35306908662498632 -0.4951847935385878 0 -0.35950950469085041 -0.48638993404071668 0 -0.35306908662498632 -0.4951847935385878 0 -0.35950950469085041 -0.48638993404071668 0 -0.37055643484088358 -0.49425936316784103 0 -0.35306908662498632 -0.4951847935385878 0 -0.37055643484088358 -0.49425936316784103 0 -0.35950950469085041 -0.48638993404071668 0 -0.37055643484088358 -0.49425936316784103 0 -0.36112286221809747 -0.47283058930211808 0 -0.35306908662498632 -0.4951847935385878 0 -0.37055643484088358 -0.49425936316784103 0 -0.37308363097429631 -0.50000000000000244 0 -0.37055643484088358 -0.49425936316784103 0 -0.37308363097429631 -0.50000000000000244 0 -0.38039451612360919 -0.47713749807852829 0 -0.37055643484088358 -0.49425936316784103 0 -0.36112286221809747 -0.47283058930211808 0 -0.37055643484088358 -0.49425936316784103 0 -0.36112286221809747 -0.47283058930211808 0 -0.38039451612360919 -0.47713749807852829 0 -0.36112286221809747 -0.47283058930211808 0 -0.37415472949075129 -0.45946062715310632 0 -0.37415472949075129 -0.45946062715310632 0 -0.3629811744391212 -0.45722253899736259 0 -0.36406731613876331 -0.44506275929787698 0 -0.36112286221809747 -0.47283058930211808 0 -0.37415472949075129 -0.45946062715310632 0 -0.3629811744391212 -0.45722253899736259 0 -0.36112286221809747 -0.47283058930211808 0 -0.3629811744391212 -0.45722253899736259 0 -0.35168928959531232 -0.4514018154363949 0 -0.36112286221809747 -0.47283058930211808 0 -0.35168928959531232 -0.4514018154363949 0 -0.35001641252228072 -0.47142734906239081 0 -0.36112286221809747 -0.47283058930211808 0 -0.35168928959531232 -0.4514018154363949 0 -0.34207866423036198 -0.45986413066326443 0 -0.35001641252228072 -0.47142734906239081 0 -0.35168928959531232 -0.4514018154363949 0 -0.35168928959531232 -0.4514018154363949 0 -0.34225571697252682 -0.42997304157067162 0 -0.35168928959531232 -0.4514018154363949 0 -0.36406731613876331 -0.44506275929787698 0 -0.34225571697252682 -0.42997304157067162 0 -0.34207866423036198 -0.45986413066326443 0 -0.35168928959531232 -0.4514018154363949 0 -0.34225571697252682 -0.42997304157067162 0 -0.38339996822118783 -0.44368928783448319 0 -0.36406731613876331 -0.44506275929787698 0 -0.36866352395763108 -0.4313760290561211 0 -0.38339996822118783 -0.44368928783448319 0 -0.37415472949075129 -0.45946062715310632 0 -0.36406731613876331 -0.44506275929787698 0 -0.3629811744391212 -0.45722253899736259 0 -0.35168928959531232 -0.4514018154363949 0 -0.36406731613876331 -0.44506275929787698 0 -0.38131756488089769 -0.42670085612339947 0 -0.36866352395763108 -0.4313760290561211 0 -0.36377437909963828 -0.41972983174959272 0 -0.38704143117499401 -0.40999023144455299 0 -0.3575105341832589 -0.40691374405003478 0 -0.38704143117499401 -0.40999023144455299 0 -0.36377437909963828 -0.41972983174959272 0 -0.3575105341832589 -0.40691374405003478 0 -0.35062038894632092 -0.41624612172537079 0 -0.34239786166265201 -0.40597533588911489 0 -0.34225571697252682 -0.42997304157067162 0 -0.36377437909963828 -0.41972983174959272 0 -0.3575105341832589 -0.40691374405003478 0 -0.35062038894632092 -0.41624612172537079 0 -0.3575105341832589 -0.40691374405003478 0 -0.35062038894632092 -0.41624612172537079 0 -0.34239786166265201 -0.40597533588911489 0 -0.36406731613876331 -0.44506275929787698 0 -0.36866352395763108 -0.4313760290561211 0 -0.34225571697252682 -0.42997304157067162 0 -0.36866352395763108 -0.4313760290561211 0 -0.36377437909963828 -0.41972983174959272 0 -0.34225571697252682 -0.42997304157067162 0 -0.36377437909963828 -0.41972983174959272 0 -0.35062038894632092 -0.41624612172537079 0 -0.34225571697252682 -0.42997304157067162 0 -0.37522403377147279 -0.38060127254172499 0 -0.37464038230528551 -0.396492613407532 0 -0.35879027536972019 -0.3891835699585654 0 -0.37522403377147279 -0.38060127254172499 0 -0.35964608014779109 -0.37334112637938882 0 -0.35879027536972019 -0.3891835699585654 0 -0.38704143117499401 -0.40999023144455299 0 -0.3575105341832589 -0.40691374405003478 0 -0.37464038230528551 -0.396492613407532 0 -0.3575105341832589 -0.40691374405003478 0 -0.37464038230528551 -0.396492613407532 0 -0.35879027536972019 -0.3891835699585654 0 -0.3575105341832589 -0.40691374405003478 0 -0.35030966939210212 -0.39601257002631829 0 -0.35879027536972019 -0.3891835699585654 0 -0.35030966939210212 -0.39601257002631829 0 -0.34254000635277743 -0.38197763020755832 0 -0.34239786166265201 -0.40597533588911489 0 -0.3575105341832589 -0.40691374405003478 0 -0.35030966939210212 -0.39601257002631829 0 -0.34239786166265201 -0.40597533588911489 0 -0.35964608014779109 -0.37334112637938882 0 -0.35879027536972019 -0.3891835699585654 0 -0.34254000635277743 -0.38197763020755832 0 -0.35030966939210212 -0.39601257002631829 0 -0.35879027536972019 -0.3891835699585654 0 -0.34254000635277743 -0.38197763020755832 0 -0.32270418411731933 -0.37181077970513959 0 -0.34254000635277743 -0.38197763020755832 0 -0.32435131947256218 -0.38428518727128619 0 -0.34254000635277743 -0.38197763020755832 0 -0.33211028503505757 -0.39455092735479258 0 -0.32435131947256218 -0.38428518727128619 0 -0.34254000635277743 -0.38197763020755832 0 -0.33211028503505757 -0.39455092735479258 0 -0.34239786166265201 -0.40597533588911489 0 -0.34254000635277743 -0.38197763020755832 0 -0.34239786166265201 -0.40597533588911489 0 -0.33211028503505757 -0.39455092735479258 0 -0.32627218782356721 -0.40254155632103228 0 -0.33325599186729038 -0.40952977136485508 0 -0.33211028503505757 -0.39455092735479258 0 -0.34239786166265201 -0.40597533588911489 0 -0.33325599186729038 -0.40952977136485508 0 -0.32627218782356721 -0.40254155632103228 0 -0.31778611784491262 -0.39429551077659458 0 -0.31836523457261151 -0.40628576827473822 0 -0.31778611784491262 -0.39429551077659458 0 -0.31836523457261151 -0.40628576827473822 0 -0.30856762168503782 -0.40330407176644772 0 -0.33211028503505757 -0.39455092735479258 0 -0.32627218782356721 -0.40254155632103228 0 -0.31778611784491262 -0.39429551077659458 0 -0.33211028503505757 -0.39455092735479258 0 -0.31778611784491262 -0.39429551077659458 0 -0.32435131947256218 -0.38428518727128619 0 -0.31778611784491262 -0.39429551077659458 0 -0.32435131947256218 -0.38428518727128619 0 -0.3103864423796594 -0.37828470113645102 0 -0.32270418411731933 -0.37181077970513959 0 -0.32435131947256218 -0.38428518727128619 0 -0.3103864423796594 -0.37828470113645102 0 -0.34225571697252682 -0.42997304157067162 0 -0.32127707919304882 -0.42450406978857058 0 -0.32413493920603592 -0.43586432580396972 0 -0.33358626016413989 -0.44229992863572659 0 -0.34225571697252682 -0.42997304157067162 0 -0.32413493920603592 -0.43586432580396972 0 -0.34225571697252682 -0.42997304157067162 0 -0.32547848823970138 -0.41505510354763547 0 -0.32127707919304882 -0.42450406978857058 0 -0.34225571697252682 -0.42997304157067162 0 -0.33325599186729038 -0.40952977136485508 0 -0.34239786166265201 -0.40597533588911489 0 -0.34225571697252682 -0.42997304157067162 0 -0.34225571697252682 -0.42997304157067162 0 -0.33325599186729038 -0.40952977136485508 0 -0.32547848823970138 -0.41505510354763547 0 -0.34239786166265201 -0.40597533588911489 0 -0.34225571697252682 -0.42997304157067162 0 -0.33325599186729038 -0.40952977136485508 0 -0.32627218782356721 -0.40254155632103228 0 -0.33325599186729038 -0.40952977136485508 0 -0.32547848823970138 -0.41505510354763547 0 -0.32547848823970138 -0.41505510354763547 0 -0.3149711123139971 -0.41411215899080989 0 -0.32127707919304882 -0.42450406978857058 0 -0.32627218782356721 -0.40254155632103228 0 -0.32547848823970138 -0.41505510354763547 0 -0.31836523457261151 -0.40628576827473822 0 -0.32547848823970138 -0.41505510354763547 0 -0.31836523457261151 -0.40628576827473822 0 -0.3149711123139971 -0.41411215899080989 0 -0.31836523457261151 -0.40628576827473822 0 -0.3149711123139971 -0.41411215899080989 0 -0.30856762168503782 -0.40330407176644772 0 -0.3149711123139971 -0.41411215899080989 0 -0.32127707919304882 -0.42450406978857058 0 -0.31068047406536009 -0.42124040027518911 0 -0.32127707919304882 -0.42450406978857058 0 -0.31073004788055869 -0.43167813375356229 0 -0.31068047406536009 -0.42124040027518911 0 -0.32127707919304882 -0.42450406978857058 0 -0.32413493920603592 -0.43586432580396972 0 -0.31073004788055869 -0.43167813375356229 0 -0.31385630152515048 -0.44199725430357722 0 -0.32413493920603592 -0.43586432580396972 0 -0.31073004788055869 -0.43167813375356229 0 -0.31073004788055869 -0.43167813375356229 0 -0.29829421210859891 -0.43220714453990322 0 -0.30286215921622678 -0.44210958888768459 0 -0.31073004788055869 -0.43167813375356229 0 -0.29829421210859891 -0.43220714453990322 0 -0.30293836312512551 -0.42244552438862548 0 -0.29829421210859891 -0.43220714453990322 0 -0.30293836312512551 -0.42244552438862548 0 -0.29038846928103268 -0.42353273433611682 0 -0.31073004788055869 -0.43167813375356229 0 -0.30293836312512551 -0.42244552438862548 0 -0.31068047406536009 -0.42124040027518911 0 -0.3149711123139971 -0.41411215899080989 0 -0.31068047406536009 -0.42124040027518911 0 -0.30545777612822328 -0.41428354029227837 0 -0.30293836312512551 -0.42244552438862548 0 -0.31068047406536009 -0.42124040027518911 0 -0.30545777612822328 -0.41428354029227837 0 -0.3149711123139971 -0.41411215899080989 0 -0.30545777612822328 -0.41428354029227837 0 -0.30856762168503782 -0.40330407176644772 0 -0.30545777612822328 -0.41428354029227837 0 -0.30856762168503782 -0.40330407176644772 0 -0.30079847364115991 -0.40578130343003371 0 -0.30545777612822328 -0.41428354029227837 0 -0.2987732092282892 -0.41413177709842958 0 -0.30079847364115991 -0.40578130343003371 0 -0.30293836312512551 -0.42244552438862548 0 -0.2987732092282892 -0.41413177709842958 0 -0.29038846928103268 -0.42353273433611682 0 -0.30293836312512551 -0.42244552438862548 0 -0.2987732092282892 -0.41413177709842958 0 -0.30293836312512551 -0.42244552438862548 0 -0.30545777612822328 -0.41428354029227837 0 -0.2987732092282892 -0.41413177709842958 0 -0.30545777612822328 -0.41428354029227837 0 -0.2987732092282892 -0.41413177709842958 0 -0.2987732092282892 -0.41413177709842958 0 -0.29092638885970451 -0.39846933503943821 0 -0.2987732092282892 -0.41413177709842958 0 -0.28243901841779939 -0.41376093348156762 0 -0.29092638885970451 -0.39846933503943821 0 -0.2987732092282892 -0.41413177709842958 0 -0.28243901841779939 -0.41376093348156762 0 -0.29038846928103268 -0.42353273433611682 0 -0.2987732092282892 -0.41413177709842958 0 -0.28243901841779939 -0.41376093348156762 0 -0.28243901841779939 -0.41376093348156762 0 -0.29038846928103268 -0.42353273433611682 0 -0.27500508569675858 -0.42792788340523652 0 -0.29038846928103268 -0.42353273433611682 0 -0.27500508569675858 -0.42792788340523652 0 -0.28620792983366777 -0.44117103379144762 0 -0.29829421210859891 -0.43220714453990322 0 -0.29038846928103268 -0.42353273433611682 0 -0.28620792983366777 -0.44117103379144762 0 -0.31778611784491262 -0.39429551077659458 0 -0.3103864423796594 -0.37828470113645102 0 -0.30424293331838692 -0.39073887816822978 0 -0.29584447723995128 -0.37444813956539807 0 -0.29713407365637251 -0.38186722723828942 0 -0.3103864423796594 -0.37828470113645102 0 -0.29713407365637251 -0.38186722723828942 0 -0.30424293331838692 -0.39073887816822978 0 -0.29406976999373469 -0.38920344929064732 0 -0.29713407365637251 -0.38186722723828942 0 -0.3103864423796594 -0.37828470113645102 0 -0.30424293331838692 -0.39073887816822978 0 -0.29998863005712628 -0.39809616774203599 0 -0.30424293331838692 -0.39073887816822978 0 -0.30856762168503782 -0.40330407176644772 0 -0.29998863005712628 -0.39809616774203599 0 -0.30424293331838692 -0.39073887816822978 0 -0.29406976999373469 -0.38920344929064732 0 -0.31778611784491262 -0.39429551077659458 0 -0.30424293331838692 -0.39073887816822978 0 -0.30856762168503782 -0.40330407176644772 0 -0.29998863005712628 -0.39809616774203599 0 -0.30079847364115991 -0.40578130343003371 0 -0.29092638885970451 -0.39846933503943821 0 -0.29998863005712628 -0.39809616774203599 0 -0.30856762168503782 -0.40330407176644772 0 -0.30079847364115991 -0.40578130343003371 0 -0.2987732092282892 -0.41413177709842958 0 -0.30079847364115991 -0.40578130343003371 0 -0.29092638885970451 -0.39846933503943821 0 -0.29092638885970451 -0.39846933503943821 0 -0.28307956849111848 -0.3828068929804474 0 -0.29092638885970451 -0.39846933503943821 0 -0.28307956849111848 -0.3828068929804474 0 -0.27459219804921331 -0.39809849142257658 0 -0.28243901841779939 -0.41376093348156762 0 -0.29092638885970451 -0.39846933503943821 0 -0.27459219804921331 -0.39809849142257658 0 -0.29998863005712628 -0.39809616774203599 0 -0.29092638885970451 -0.39846933503943821 0 -0.29406976999373469 -0.38920344929064732 0 -0.29092638885970451 -0.39846933503943821 0 -0.29406976999373469 -0.38920344929064732 0 -0.28307956849111848 -0.3828068929804474 0 -0.29713407365637251 -0.38186722723828942 0 -0.29406976999373469 -0.38920344929064732 0 -0.28307956849111848 -0.3828068929804474 0 -0.29584447723995128 -0.37444813956539807 0 -0.29713407365637251 -0.38186722723828942 0 -0.28307956849111848 -0.3828068929804474 0 -0.28307956849111848 -0.3828068929804474 0 -0.27459219804921331 -0.39809849142257658 0 -0.26050234447883253 -0.38027693877573482 0 -0.28307956849111848 -0.3828068929804474 0 -0.27459219804921331 -0.39809849142257658 0 -0.27459219804921331 -0.39809849142257658 0 -0.26610482760730952 -0.4133900898647066 0 -0.27459219804921331 -0.39809849142257658 0 -0.26088670843651829 -0.40068536336094251 0 -0.26610482760730952 -0.4133900898647066 0 -0.26088670843651829 -0.40068536336094251 0 -0.26050234447883253 -0.38027693877573482 0 -0.2487824818667288 -0.3954643368039899 0 -0.27459219804921331 -0.39809849142257658 0 -0.26088670843651829 -0.40068536336094251 0 -0.26050234447883253 -0.38027693877573482 0 -0.26088670843651829 -0.40068536336094251 0 -0.24694430377570939 -0.41295507854145541 0 -0.2487824818667288 -0.3954643368039899 0 -0.27500508569675858 -0.42792788340523652 0 -0.25298523514652932 -0.43702750984159111 0 -0.27028712802556781 -0.44002206955302048 0 -0.27500508569675858 -0.42792788340523652 0 -0.27028712802556781 -0.44002206955302048 0 -0.28620792983366777 -0.44117103379144762 0 -0.28243901841779939 -0.41376093348156762 0 -0.27500508569675858 -0.42792788340523652 0 -0.26610482760730952 -0.4133900898647066 0 -0.28243901841779939 -0.41376093348156762 0 -0.27459219804921331 -0.39809849142257658 0 -0.26610482760730952 -0.4133900898647066 0 -0.28243901841779939 -0.41376093348156762 0 -0.26610482760730952 -0.4133900898647066 0 -0.26610482760730952 -0.4133900898647066 0 -0.24694430377570939 -0.41295507854145541 0 -0.26610482760730952 -0.4133900898647066 0 -0.25298523514652932 -0.43702750984159111 0 -0.24694430377570939 -0.41295507854145541 0 -0.26088670843651829 -0.40068536336094251 0 -0.26610482760730952 -0.4133900898647066 0 -0.24694430377570939 -0.41295507854145541 0 -0.27500508569675858 -0.42792788340523652 0 -0.26610482760730952 -0.4133900898647066 0 -0.25298523514652932 -0.43702750984159111 0 -0.26610482760730952 -0.4133900898647066 0 -0.25298523514652932 -0.43702750984159111 0 -0.25298523514652932 -0.43702750984159111 0 -0.25823473398406083 -0.46259190486934387 0 -0.27139768853026319 -0.45350369328431828 0 -0.25298523514652932 -0.43702750984159111 0 -0.27139768853026319 -0.45350369328431828 0 -0.27028712802556781 -0.44002206955302048 0 -0.25298523514652932 -0.43702750984159111 0 -0.25823473398406083 -0.46259190486934387 0 -0.2398656426857485 -0.46066492981847512 0 -0.27139768853026319 -0.45350369328431828 0 -0.28665438526504589 -0.45880473289459528 0 -0.27499686831673542 -0.4693274569635677 0 -0.25823473398406083 -0.46259190486934387 0 -0.27139768853026319 -0.45350369328431828 0 -0.27499686831673542 -0.4693274569635677 0 -0.27139768853026319 -0.45350369328431828 0 -0.27028712802556781 -0.44002206955302048 0 -0.28620792983366777 -0.44117103379144762 0 -0.28620792983366777 -0.44117103379144762 0 -0.29665932401628559 -0.4519210782245337 0 -0.28665438526504589 -0.45880473289459528 0 -0.28620792983366777 -0.44117103379144762 0 -0.29665932401628559 -0.4519210782245337 0 -0.30286215921622678 -0.44210958888768459 0 -0.27139768853026319 -0.45350369328431828 0 -0.28620792983366777 -0.44117103379144762 0 -0.28665438526504589 -0.45880473289459528 0 -0.29829421210859891 -0.43220714453990322 0 -0.28620792983366777 -0.44117103379144762 0 -0.30286215921622678 -0.44210958888768459 0 -0.28665438526504589 -0.45880473289459528 0 -0.28928475434474438 -0.47221518125428918 0 -0.27499686831673542 -0.4693274569635677 0 -0.28665438526504589 -0.45880473289459528 0 -0.30029558254474148 -0.46389675841394568 0 -0.28928475434474438 -0.47221518125428918 0 -0.29665932401628559 -0.4519210782245337 0 -0.28665438526504589 -0.45880473289459528 0 -0.30029558254474148 -0.46389675841394568 0 -0.29665932401628559 -0.4519210782245337 0 -0.30029558254474148 -0.46389675841394568 0 -0.31044958537109257 -0.45255960714027171 0 -0.31333683559556219 -0.46686726284272168 0 -0.30029558254474148 -0.46389675841394568 0 -0.31044958537109257 -0.45255960714027171 0 -0.31385630152515048 -0.44199725430357722 0 -0.31044958537109257 -0.45255960714027171 0 -0.30286215921622678 -0.44210958888768459 0 -0.31385630152515048 -0.44199725430357722 0 -0.31073004788055869 -0.43167813375356229 0 -0.30286215921622678 -0.44210958888768459 0 -0.29665932401628559 -0.4519210782245337 0 -0.31044958537109257 -0.45255960714027171 0 -0.30286215921622678 -0.44210958888768459 0 -0.32006214434654462 -0.5 0 -0.30503152439861497 -0.48190266549989857 0 -0.29355140103266869 -0.5 0 -0.30029558254474148 -0.46389675841394568 0 -0.30503152439861497 -0.48190266549989857 0 -0.28928475434474438 -0.47221518125428918 0 -0.31333683559556219 -0.46686726284272168 0 -0.30029558254474148 -0.46389675841394568 0 -0.30503152439861497 -0.48190266549989857 0 -0.30503152439861497 -0.48190266549989857 0 -0.28928475434474438 -0.47221518125428918 0 -0.27944541119858413 -0.48714429249943858 0 -0.30503152439861497 -0.48190266549989857 0 -0.29355140103266869 -0.5 0 -0.27944541119858413 -0.48714429249943858 0 -0.26704065771879287 -0.5 0 -0.27944541119858413 -0.48714429249943858 0 -0.26377894750559139 -0.4817410620592058 0 -0.29355140103266869 -0.5 0 -0.26704065771879287 -0.5 0 -0.27944541119858413 -0.48714429249943858 0 -0.27944541119858413 -0.48714429249943858 0 -0.27499686831673542 -0.4693274569635677 0 -0.26377894750559139 -0.4817410620592058 0 -0.28928475434474438 -0.47221518125428918 0 -0.27944541119858413 -0.48714429249943858 0 -0.27499686831673542 -0.4693274569635677 0 -0.25823473398406083 -0.46259190486934387 0 -0.27499686831673542 -0.4693274569635677 0 -0.26377894750559139 -0.4817410620592058 0 -0.25823473398406083 -0.46259190486934387 0 -0.26377894750559139 -0.4817410620592058 0 -0.24769273461092009 -0.47775775457152359 0 -0.26704065771879287 -0.5 0 -0.26377894750559139 -0.4817410620592058 0 -0.24052991440491719 -0.5 0 -0.26377894750559139 -0.4817410620592058 0 -0.24052991440491719 -0.5 0 -0.24769273461092009 -0.47775775457152359 0 -0.24052991440491719 -0.5 0 -0.24769273461092009 -0.47775775457152359 0 -0.2238647917587385 -0.47868470982513422 0 -0.24769273461092009 -0.47775775457152359 0 -0.2238647917587385 -0.47868470982513422 0 -0.2253613830811457 -0.45761053917550981 0 -0.24052991440491719 -0.5 0 -0.2238647917587385 -0.47868470982513422 0 -0.2140191710910414 -0.49999999999999972 0 -0.25298523514652932 -0.43702750984159111 0 -0.23591515519085041 -0.44398209369878189 0 -0.2398656426857485 -0.46066492981847512 0 -0.25298523514652932 -0.43702750984159111 0 -0.2398656426857485 -0.46066492981847512 0 -0.25823473398406083 -0.46259190486934387 0 -0.24769273461092009 -0.47775775457152359 0 -0.2398656426857485 -0.46066492981847512 0 -0.24769273461092009 -0.47775775457152359 0 -0.2398656426857485 -0.46066492981847512 0 -0.2253613830811457 -0.45761053917550981 0 -0.24769273461092009 -0.47775775457152359 0 -0.2253613830811457 -0.45761053917550981 0 -0.2238647917587385 -0.47868470982513422 0 -0.2253613830811457 -0.45761053917550981 0 -0.20999779143719291 -0.46083672605530768 0 -0.23591515519085041 -0.44398209369878189 0 -0.2398656426857485 -0.46066492981847512 0 -0.2253613830811457 -0.45761053917550981 0 -0.23591515519085041 -0.44398209369878189 0 -0.2253613830811457 -0.45761053917550981 0 -0.22549954629610269 -0.43500765649169948 0 -0.2253613830811457 -0.45761053917550981 0 -0.20999779143719291 -0.46083672605530768 0 -0.2030300315513712 -0.43746332377949593 0 -0.2253613830811457 -0.45761053917550981 0 -0.2030300315513712 -0.43746332377949593 0 -0.20999779143719291 -0.46083672605530768 0 -0.19715634076338631 -0.4518064782969281 0 -0.2030300315513712 -0.43746332377949593 0 -0.2253613830811457 -0.45761053917550981 0 -0.2030300315513712 -0.43746332377949593 0 -0.22549954629610269 -0.43500765649169948 0 -0.20999779143719291 -0.46083672605530768 0 -0.19715634076338631 -0.4518064782969281 0 -0.2055877559272139 -0.47590323914846377 0 -0.19715634076338631 -0.4518064782969281 0 -0.2055877559272139 -0.47590323914846377 0 -0.19179305986328829 -0.46711759196808689 0 -0.19715634076338631 -0.4518064782969281 0 -0.2055877559272139 -0.47590323914846377 0 -0.19179305986328829 -0.46711759196808689 0 -0.19715634076338631 -0.4518064782969281 0 -0.184822707974968 -0.45592422963236362 0 -0.19715634076338631 -0.4518064782969281 0 -0.2030300315513712 -0.43746332377949593 0 -0.18872492559955881 -0.42770971744539221 0 -0.19715634076338631 -0.4518064782969281 0 -0.18872492559955881 -0.42770971744539221 0 -0.19715634076338631 -0.4518064782969281 0 -0.1870173619903012 -0.44414077979923022 0 -0.18872492559955881 -0.42770971744539221 0 -0.19715634076338631 -0.4518064782969281 0 -0.184822707974968 -0.45592422963236362 0 -0.1870173619903012 -0.44414077979923022 0 -0.2140191710910414 -0.49999999999999972 0 -0.2055877559272139 -0.47590323914846377 0 -0.2140191710910414 -0.49999999999999972 0 -0.2055877559272139 -0.47590323914846377 0 -0.1915741566131953 -0.48274482478870012 0 -0.2238647917587385 -0.47868470982513422 0 -0.2140191710910414 -0.49999999999999972 0 -0.2055877559272139 -0.47590323914846377 0 -0.2238647917587385 -0.47868470982513422 0 -0.20999779143719291 -0.46083672605530768 0 -0.2055877559272139 -0.47590323914846377 0 -0.19179305986328829 -0.46711759196808689 0 -0.2055877559272139 -0.47590323914846377 0 -0.1915741566131953 -0.48274482478870012 0 -0.19179305986328829 -0.46711759196808689 0 -0.1915741566131953 -0.48274482478870012 0 -0.17982433803767831 -0.46920918797397909 0 -0.2140191710910414 -0.49999999999999972 0 -0.1915741566131953 -0.48274482478870012 0 -0.1841956238768391 -0.5 0 -0.1915741566131953 -0.48274482478870012 0 -0.1841956238768391 -0.5 0 -0.17247084166804699 -0.48396500267038112 0 -0.1841956238768391 -0.5 0 -0.17247084166804699 -0.48396500267038112 0 -0.15437207666263669 -0.50000000000000022 0 -0.15669106487963419 -0.47716915445828201 0 -0.17247084166804699 -0.48396500267038112 0 -0.15437207666263669 -0.50000000000000022 0 -0.15669106487963419 -0.47716915445828201 0 -0.17247084166804699 -0.48396500267038112 0 -0.1680230602922401 -0.4683158249620154 0 -0.17247084166804699 -0.48396500267038112 0 -0.17982433803767831 -0.46920918797397909 0 -0.1680230602922401 -0.4683158249620154 0 -0.1915741566131953 -0.48274482478870012 0 -0.17247084166804699 -0.48396500267038112 0 -0.17982433803767831 -0.46920918797397909 0 -0.19179305986328829 -0.46711759196808689 0 -0.17982433803767831 -0.46920918797397909 0 -0.184822707974968 -0.45592422963236362 0 -0.17982433803767831 -0.46920918797397909 0 -0.184822707974968 -0.45592422963236362 0 -0.17211900377920919 -0.45689747079087062 0 -0.17982433803767831 -0.46920918797397909 0 -0.17211900377920919 -0.45689747079087062 0 -0.1680230602922401 -0.4683158249620154 0 -0.1870173619903012 -0.44414077979923022 0 -0.17843006300647921 -0.44542980211747812 0 -0.1823118302108766 -0.43680876328769058 0 -0.184822707974968 -0.45592422963236362 0 -0.1870173619903012 -0.44414077979923022 0 -0.17843006300647921 -0.44542980211747812 0 -0.17211900377920919 -0.45689747079087062 0 -0.17843006300647921 -0.44542980211747812 0 -0.16919262628862339 -0.44362555979768409 0 -0.184822707974968 -0.45592422963236362 0 -0.17211900377920919 -0.45689747079087062 0 -0.17843006300647921 -0.44542980211747812 0 -0.17843006300647921 -0.44542980211747812 0 -0.16919262628862339 -0.44362555979768409 0 -0.17507497024716731 -0.42995475378866199 0 -0.1590100530966318 -0.45433830891656402 0 -0.148881704538534 -0.44296791951084241 0 -0.1613290413136293 -0.43150746337484569 0 -0.1590100530966318 -0.45433830891656402 0 -0.1613290413136293 -0.43150746337484569 0 -0.16919262628862339 -0.44362555979768409 0 -0.1590100530966318 -0.45433830891656402 0 -0.1613290413136293 -0.43150746337484569 0 -0.17211900377920919 -0.45689747079087062 0 -0.16919262628862339 -0.44362555979768409 0 -0.1590100530966318 -0.45433830891656402 0 -0.15669106487963419 -0.47716915445828201 0 -0.1680230602922401 -0.4683158249620154 0 -0.1590100530966318 -0.45433830891656402 0 -0.15669106487963419 -0.47716915445828201 0 -0.1590100530966318 -0.45433830891656402 0 -0.17211900377920919 -0.45689747079087062 0 -0.1680230602922401 -0.4683158249620154 0 -0.1590100530966318 -0.45433830891656402 0 -0.15669106487963419 -0.47716915445828201 0 -0.1590100530966318 -0.45433830891656402 0 -0.1472923250818238 -0.46077477567243558 0 -0.1590100530966318 -0.45433830891656402 0 -0.1472923250818238 -0.46077477567243558 0 -0.148881704538534 -0.44296791951084241 0 -0.1472923250818238 -0.46077477567243558 0 -0.148881704538534 -0.44296791951084241 0 -0.13194602454298601 -0.43962244526902572 0 -0.13194602454298601 -0.43962244526902572 0 -0.13077987840644981 -0.46069854066347632 0 -0.11615585050415531 -0.45102464773050138 0 -0.1472923250818238 -0.46077477567243558 0 -0.13194602454298601 -0.43962244526902572 0 -0.1472923250818238 -0.46077477567243558 0 -0.13077987840644981 -0.46069854066347632 0 -0.13742439756140509 -0.48004162281001828 0 -0.1472923250818238 -0.46077477567243558 0 -0.13194602454298601 -0.43962244526902572 0 -0.13077987840644981 -0.46069854066347632 0 -0.13742439756140509 -0.48004162281001828 0 -0.12108079434187891 -0.47202921183540031 0 -0.1206292342060253 -0.48641385964910883 0 -0.13077987840644981 -0.46069854066347632 0 -0.13742439756140509 -0.48004162281001828 0 -0.12108079434187891 -0.47202921183540031 0 -0.13742439756140509 -0.48004162281001828 0 -0.131118449396015 -0.5 0 -0.1206292342060253 -0.48641385964910883 0 -0.15669106487963419 -0.47716915445828201 0 -0.13742439756140509 -0.48004162281001828 0 -0.15437207666263669 -0.50000000000000022 0 -0.15669106487963419 -0.47716915445828201 0 -0.15437207666263669 -0.50000000000000022 0 -0.13742439756140509 -0.48004162281001828 0 -0.131118449396015 -0.5 0 -0.15437207666263669 -0.50000000000000022 0 -0.15669106487963419 -0.47716915445828201 0 -0.1472923250818238 -0.46077477567243558 0 -0.13742439756140509 -0.48004162281001828 0 -0.13678826443221431 -0.39755243580027871 0 -0.14931675495270949 -0.41057852288770358 0 -0.15761740849691311 -0.38818340141201402 0 -0.1369224961495438 -0.38192389563367207 0 -0.13678826443221431 -0.39755243580027871 0 -0.15761740849691311 -0.38818340141201402 0 -0.1369224961495438 -0.38192389563367207 0 -0.15761740849691311 -0.38818340141201402 0 -0.148308101659717 -0.36695316985008092 0 -0.1369224961495438 -0.38192389563367207 0 -0.12526638733901391 -0.39147447277512609 0 -0.13678826443221431 -0.39755243580027871 0 -0.1369224961495438 -0.38192389563367207 0 -0.1303219987982592 -0.3665496015062627 0 -0.12201267174342199 -0.37938718301114999 0 -0.1369224961495438 -0.38192389563367207 0 -0.12526638733901391 -0.39147447277512609 0 -0.12201267174342199 -0.37938718301114999 0 -0.12526638733901391 -0.39147447277512609 0 -0.13678826443221431 -0.39755243580027871 0 -0.12592730430259419 -0.40432488328170318 0 -0.13678826443221431 -0.39755243580027871 0 -0.12592730430259419 -0.40432488328170318 0 -0.1345256340888337 -0.41538851269275129 0 -0.13678826443221431 -0.39755243580027871 0 -0.1345256340888337 -0.41538851269275129 0 -0.14931675495270949 -0.41057852288770358 0 -0.12592730430259419 -0.40432488328170318 0 -0.1345256340888337 -0.41538851269275129 0 -0.1165997240041481 -0.41847011486561592 0 -0.13194602454298601 -0.43962244526902572 0 -0.1345256340888337 -0.41538851269275129 0 -0.14483107865759889 -0.42859660432134139 0 -0.13194602454298601 -0.43962244526902572 0 -0.1345256340888337 -0.41538851269275129 0 -0.1165997240041481 -0.41847011486561592 0 -0.148881704538534 -0.44296791951084241 0 -0.14483107865759889 -0.42859660432134139 0 -0.1613290413136293 -0.43150746337484569 0 -0.148881704538534 -0.44296791951084241 0 -0.13194602454298601 -0.43962244526902572 0 -0.14483107865759889 -0.42859660432134139 0 -0.14483107865759889 -0.42859660432134139 0 -0.14931675495270949 -0.41057852288770358 0 -0.1613290413136293 -0.43150746337484569 0 -0.1345256340888337 -0.41538851269275129 0 -0.14483107865759889 -0.42859660432134139 0 -0.14931675495270949 -0.41057852288770358 0 -0.16364802953062679 -0.40867661783312748 0 -0.1613290413136293 -0.43150746337484569 0 -0.14931675495270949 -0.41057852288770358 0 -0.16364802953062679 -0.40867661783312748 0 -0.1613290413136293 -0.43150746337484569 0 -0.16364802953062679 -0.40867661783312748 0 -0.1613290413136293 -0.43150746337484569 0 -0.17507497024716731 -0.42995475378866199 0 -0.16919262628862339 -0.44362555979768409 0 -0.1613290413136293 -0.43150746337484569 0 -0.17507497024716731 -0.42995475378866199 0 -0.1870173619903012 -0.44414077979923022 0 -0.1823118302108766 -0.43680876328769058 0 -0.18872492559955881 -0.42770971744539221 0 -0.17843006300647921 -0.44542980211747812 0 -0.17507497024716731 -0.42995475378866199 0 -0.1823118302108766 -0.43680876328769058 0 -0.17507497024716731 -0.42995475378866199 0 -0.1806986800215967 -0.4173161083834821 0 -0.18872492559955881 -0.42770971744539221 0 -0.17507497024716731 -0.42995475378866199 0 -0.1823118302108766 -0.43680876328769058 0 -0.18872492559955881 -0.42770971744539221 0 -0.1806986800215967 -0.4173161083834821 0 -0.18228064084688081 -0.39610998094782668 0 -0.19209360216251761 -0.40824625574224149 0 -0.16364802953062679 -0.40867661783312748 0 -0.17507497024716731 -0.42995475378866199 0 -0.1806986800215967 -0.4173161083834821 0 -0.16364802953062679 -0.40867661783312748 0 -0.1806986800215967 -0.4173161083834821 0 -0.18228064084688081 -0.39610998094782668 0 -0.16364802953062679 -0.40867661783312748 0 -0.18228064084688081 -0.39610998094782668 0 -0.15761740849691311 -0.38818340141201402 0 -0.14931675495270949 -0.41057852288770358 0 -0.16364802953062679 -0.40867661783312748 0 -0.15761740849691311 -0.38818340141201402 0 -0.15761740849691311 -0.38818340141201402 0 -0.183603859264966 -0.3766054584014627 0 -0.1661931572416451 -0.36889933283976362 0 -0.18228064084688081 -0.39610998094782668 0 -0.15761740849691311 -0.38818340141201402 0 -0.183603859264966 -0.3766054584014627 0 -0.18228064084688081 -0.39610998094782668 0 -0.183603859264966 -0.3766054584014627 0 -0.20216487974800659 -0.3829991661375407 0 -0.18228064084688081 -0.39610998094782668 0 -0.20343785588976751 -0.39944649130885712 0 -0.19209360216251761 -0.40824625574224149 0 -0.18228064084688081 -0.39610998094782668 0 -0.20216487974800659 -0.3829991661375407 0 -0.20343785588976751 -0.39944649130885712 0 -0.20343785588976751 -0.39944649130885712 0 -0.21350444502423929 -0.40864471589815532 0 -0.22035180610084079 -0.39356726900625483 0 -0.20216487974800659 -0.3829991661375407 0 -0.20343785588976751 -0.39944649130885712 0 -0.22035180610084079 -0.39356726900625483 0 -0.20216487974800659 -0.3829991661375407 0 -0.22035180610084079 -0.39356726900625483 0 -0.219169022554425 -0.37113875127287832 0 -0.1806986800215967 -0.4173161083834821 0 -0.2030300315513712 -0.43746332377949593 0 -0.18872492559955881 -0.42770971744539221 0 -0.1806986800215967 -0.4173161083834821 0 -0.2030300315513712 -0.43746332377949593 0 -0.2030300315513712 -0.43746332377949593 0 -0.19369636752838881 -0.41903658901391427 0 -0.2031687955665597 -0.42354741618771741 0 -0.1806986800215967 -0.4173161083834821 0 -0.2030300315513712 -0.43746332377949593 0 -0.19369636752838881 -0.41903658901391427 0 -0.19369636752838881 -0.41903658901391427 0 -0.20299923128825029 -0.41376529568937459 0 -0.2031687955665597 -0.42354741618771741 0 -0.1806986800215967 -0.4173161083834821 0 -0.19369636752838881 -0.41903658901391427 0 -0.19209360216251761 -0.40824625574224149 0 -0.19369636752838881 -0.41903658901391427 0 -0.19209360216251761 -0.40824625574224149 0 -0.20299923128825029 -0.41376529568937459 0 -0.20343785588976751 -0.39944649130885712 0 -0.19209360216251761 -0.40824625574224149 0 -0.20299923128825029 -0.41376529568937459 0 -0.20343785588976751 -0.39944649130885712 0 -0.20299923128825029 -0.41376529568937459 0 -0.21350444502423929 -0.40864471589815532 0 -0.21350444502423929 -0.40864471589815532 0 -0.21294955189822859 -0.42392445626808489 0 -0.2277837799441092 -0.41252006721820539 0 -0.20299923128825029 -0.41376529568937459 0 -0.2031687955665597 -0.42354741618771741 0 -0.21294955189822859 -0.42392445626808489 0 -0.20299923128825029 -0.41376529568937459 0 -0.21350444502423929 -0.40864471589815532 0 -0.21294955189822859 -0.42392445626808489 0 -0.2030300315513712 -0.43746332377949593 0 -0.21294955189822859 -0.42392445626808489 0 -0.22549954629610269 -0.43500765649169948 0 -0.2030300315513712 -0.43746332377949593 0 -0.2031687955665597 -0.42354741618771741 0 -0.21294955189822859 -0.42392445626808489 0 -0.23591515519085041 -0.44398209369878189 0 -0.22549954629610269 -0.43500765649169948 0 -0.23735783041644329 -0.42609093398936743 0 -0.22549954629610269 -0.43500765649169948 0 -0.2277837799441092 -0.41252006721820539 0 -0.23735783041644329 -0.42609093398936743 0 -0.21294955189822859 -0.42392445626808489 0 -0.22549954629610269 -0.43500765649169948 0 -0.2277837799441092 -0.41252006721820539 0 -0.2277837799441092 -0.41252006721820539 0 -0.24694430377570939 -0.41295507854145541 0 -0.2277837799441092 -0.41252006721820539 0 -0.24694430377570939 -0.41295507854145541 0 -0.23735783041644329 -0.42609093398936743 0 -0.2277837799441092 -0.41252006721820539 0 -0.24694430377570939 -0.41295507854145541 0 -0.2359891007147569 -0.39914414181493052 0 -0.25298523514652932 -0.43702750984159111 0 -0.24694430377570939 -0.41295507854145541 0 -0.23735783041644329 -0.42609093398936743 0 -0.25298523514652932 -0.43702750984159111 0 -0.23591515519085041 -0.44398209369878189 0 -0.23735783041644329 -0.42609093398936743 0 -0.22035180610084079 -0.39356726900625483 0 -0.23802591309349369 -0.38358476956933441 0 -0.219169022554425 -0.37113875127287832 0 -0.22035180610084079 -0.39356726900625483 0 -0.2359891007147569 -0.39914414181493052 0 -0.23802591309349369 -0.38358476956933441 0 -0.21350444502423929 -0.40864471589815532 0 -0.2277837799441092 -0.41252006721820539 0 -0.22035180610084079 -0.39356726900625483 0 -0.2277837799441092 -0.41252006721820539 0 -0.22035180610084079 -0.39356726900625483 0 -0.2359891007147569 -0.39914414181493052 0 -0.2359891007147569 -0.39914414181493052 0 -0.2487824818667288 -0.3954643368039899 0 -0.23802591309349369 -0.38358476956933441 0 -0.24694430377570939 -0.41295507854145541 0 -0.2359891007147569 -0.39914414181493052 0 -0.2487824818667288 -0.3954643368039899 0 -0.26050234447883253 -0.38027693877573482 0 -0.2487824818667288 -0.3954643368039899 0 -0.23802591309349369 -0.38358476956933441 0 -0.26050234447883253 -0.38027693877573482 0 -0.23802591309349369 -0.38358476956933441 0 -0.24817767477162081 -0.36986654917455902 0 -0.23802591309349369 -0.38358476956933441 0 -0.24817767477162081 -0.36986654917455902 0 -0.23583729862822109 -0.36574384613307409 0 -0.24817767477162081 -0.36986654917455902 0 -0.23583729862822109 -0.36574384613307409 0 -0.24850069890613241 -0.35473287875334369 0 -0.23583729862822109 -0.36574384613307409 0 -0.219169022554425 -0.37113875127287832 0 -0.22531318381543361 -0.34939628189525529 0 -0.23802591309349369 -0.38358476956933441 0 -0.23583729862822109 -0.36574384613307409 0 -0.219169022554425 -0.37113875127287832 0 -0.22531318381543361 -0.34939628189525529 0 -0.24850069890613241 -0.35473287875334369 0 -0.24219101746094579 -0.34438554910399921 0 -0.23583729862822109 -0.36574384613307409 0 -0.22531318381543361 -0.34939628189525529 0 -0.24850069890613241 -0.35473287875334369 0 -0.22531318381543361 -0.34939628189525529 0 -0.24850069890613241 -0.35473287875334369 0 -0.25445926970156468 -0.34270101061729968 0 -0.24850069890613241 -0.35473287875334369 0 -0.24219101746094579 -0.34438554910399921 0 -0.25445926970156468 -0.34270101061729968 0 -0.24219101746094579 -0.34438554910399921 0 -0.2460450098649074 -0.33743905859998191 0 -0.25207330520806498 -0.33378255792528982 0 -0.2460450098649074 -0.33743905859998191 0 -0.24306356592407591 -0.32787829483024122 0 -0.2348359590034956 -0.33686915078515089 0 -0.24306356592407591 -0.32787829483024122 0 -0.23163603200856511 -0.32708080208212859 0 -0.2460450098649074 -0.33743905859998191 0 -0.2348359590034956 -0.33686915078515089 0 -0.24306356592407591 -0.32787829483024122 0 -0.24219101746094579 -0.34438554910399921 0 -0.2460450098649074 -0.33743905859998191 0 -0.2348359590034956 -0.33686915078515089 0 -0.25273748935779161 -0.32224337373924072 0 -0.24326482791746179 -0.31394285089519419 0 -0.24426682308287331 -0.30533572025667649 0 -0.25273748935779161 -0.32224337373924072 0 -0.24426682308287331 -0.30533572025667649 0 -0.25273748935779161 -0.32224337373924072 0 -0.24326482791746179 -0.31394285089519419 0 -0.2440208243134171 -0.32058552998791068 0 -0.25273748935779161 -0.32224337373924072 0 -0.24306356592407591 -0.32787829483024122 0 -0.2440208243134171 -0.32058552998791068 0 -0.25207330520806498 -0.33378255792528982 0 -0.25273748935779161 -0.32224337373924072 0 -0.24306356592407591 -0.32787829483024122 0 -0.24306356592407591 -0.32787829483024122 0 -0.2440208243134171 -0.32058552998791068 0 -0.23701741405433899 -0.31827760048696663 0 -0.24306356592407591 -0.32787829483024122 0 -0.23701741405433899 -0.31827760048696663 0 -0.23163603200856511 -0.32708080208212859 0 -0.24326482791746179 -0.31394285089519419 0 -0.23701741405433899 -0.31827760048696663 0 -0.2384772558931193 -0.30928307653082621 0 -0.24326482791746179 -0.31394285089519419 0 -0.2440208243134171 -0.32058552998791068 0 -0.23701741405433899 -0.31827760048696663 0 -0.22244826701882919 -0.32070202864358233 0 -0.22802593536356699 -0.30882837184141948 0 -0.21110805984082151 -0.30983785689108939 0 -0.23701741405433899 -0.31827760048696663 0 -0.22244826701882919 -0.32070202864358233 0 -0.22802593536356699 -0.30882837184141948 0 -0.23701741405433899 -0.31827760048696663 0 -0.23163603200856511 -0.32708080208212859 0 -0.22244826701882919 -0.32070202864358233 0 -0.23163603200856511 -0.32708080208212859 0 -0.22244826701882919 -0.32070202864358233 0 -0.22079431421521131 -0.33353493235345111 0 -0.22531318381543361 -0.34939628189525529 0 -0.2348359590034956 -0.33686915078515089 0 -0.22079431421521131 -0.33353493235345111 0 -0.22531318381543361 -0.34939628189525529 0 -0.24219101746094579 -0.34438554910399921 0 -0.2348359590034956 -0.33686915078515089 0 -0.2348359590034956 -0.33686915078515089 0 -0.23163603200856511 -0.32708080208212859 0 -0.22079431421521131 -0.33353493235345111 0 -0.22079431421521131 -0.33353493235345111 0 -0.20839645480677241 -0.32403064402179738 0 -0.20212566872473489 -0.34405968503716688 0 -0.22531318381543361 -0.34939628189525529 0 -0.22079431421521131 -0.33353493235345111 0 -0.20212566872473489 -0.34405968503716688 0 -0.22244826701882919 -0.32070202864358233 0 -0.20839645480677241 -0.32403064402179738 0 -0.21110805984082151 -0.30983785689108939 0 -0.22244826701882919 -0.32070202864358233 0 -0.22079431421521131 -0.33353493235345111 0 -0.20839645480677241 -0.32403064402179738 0 -0.20839645480677241 -0.32403064402179738 0 -0.19575919956014079 -0.31702437624003538 0 -0.21110805984082151 -0.30983785689108939 0 -0.20839645480677241 -0.32403064402179738 0 -0.19575919956014079 -0.31702437624003538 0 -0.19562896033857519 -0.33020038185646122 0 -0.19575919956014079 -0.31702437624003538 0 -0.19562896033857519 -0.33020038185646122 0 -0.18477851095256179 -0.32477614194451959 0 -0.20212566872473489 -0.34405968503716688 0 -0.1789381536340362 -0.33872308817907848 0 -0.19562896033857519 -0.33020038185646122 0 -0.20212566872473489 -0.34405968503716688 0 -0.1789381536340362 -0.33872308817907848 0 -0.20839645480677241 -0.32403064402179738 0 -0.19562896033857519 -0.33020038185646122 0 -0.20212566872473489 -0.34405968503716688 0 -0.20212566872473489 -0.34405968503716688 0 -0.2037839996862793 -0.36234410805543599 0 -0.1863350517553729 -0.35962674217565882 0 -0.20212566872473489 -0.34405968503716688 0 -0.1863350517553729 -0.35962674217565882 0 -0.1789381536340362 -0.33872308817907848 0 -0.183603859264966 -0.3766054584014627 0 -0.20216487974800659 -0.3829991661375407 0 -0.2037839996862793 -0.36234410805543599 0 -0.183603859264966 -0.3766054584014627 0 -0.2037839996862793 -0.36234410805543599 0 -0.1863350517553729 -0.35962674217565882 0 -0.219169022554425 -0.37113875127287832 0 -0.22531318381543361 -0.34939628189525529 0 -0.2037839996862793 -0.36234410805543599 0 -0.20216487974800659 -0.3829991661375407 0 -0.219169022554425 -0.37113875127287832 0 -0.2037839996862793 -0.36234410805543599 0 -0.22531318381543361 -0.34939628189525529 0 -0.20212566872473489 -0.34405968503716688 0 -0.2037839996862793 -0.36234410805543599 0 -0.22531318381543361 -0.34939628189525529 0 -0.20212566872473489 -0.34405968503716688 0 -0.24465976002352091 -0.25387891845332877 0 -0.23199225124923151 -0.26692477658714647 0 -0.21854221021918649 -0.25236034283526498 0 -0.23199225124923151 -0.26692477658714647 0 -0.21864709985809599 -0.27150291036173302 0 -0.21854221021918649 -0.25236034283526498 0 -0.24465976002352091 -0.25387891845332877 0 -0.2444485511135471 -0.27534046621033159 0 -0.23199225124923151 -0.26692477658714647 0 -0.25958550566062261 -0.27102626557679149 0 -0.24465976002352091 -0.25387891845332877 0 -0.2444485511135471 -0.27534046621033159 0 -0.2444485511135471 -0.27534046621033159 0 -0.23199225124923151 -0.26692477658714647 0 -0.23366363503180709 -0.28154124507507411 0 -0.2197277065850177 -0.2872169177591285 0 -0.23366363503180709 -0.28154124507507411 0 -0.21864709985809599 -0.27150291036173302 0 -0.23199225124923151 -0.26692477658714647 0 -0.23366363503180709 -0.28154124507507411 0 -0.21864709985809599 -0.27150291036173302 0 -0.2197277065850177 -0.2872169177591285 0 -0.23366363503180709 -0.28154124507507411 0 -0.24011613505684479 -0.30107681213347393 0 -0.2197277065850177 -0.2872169177591285 0 -0.24011613505684479 -0.30107681213347393 0 -0.2197277065850177 -0.2872169177591285 0 -0.24011613505684479 -0.30107681213347393 0 -0.2201073871300871 -0.30044142834658671 0 -0.2444485511135471 -0.27534046621033159 0 -0.23366363503180709 -0.28154124507507411 0 -0.24732420154209239 -0.29033586459568173 0 -0.23366363503180709 -0.28154124507507411 0 -0.24732420154209239 -0.29033586459568173 0 -0.24011613505684479 -0.30107681213347393 0 -0.25608276685525683 -0.28295324223861612 0 -0.2444485511135471 -0.27534046621033159 0 -0.24732420154209239 -0.29033586459568173 0 -0.26050456352867191 -0.3149367065078193 0 -0.24011613505684479 -0.30107681213347393 0 -0.24426682308287331 -0.30533572025667649 0 -0.25485564421046719 -0.30132045870319019 0 -0.24732420154209239 -0.29033586459568173 0 -0.24011613505684479 -0.30107681213347393 0 -0.24011613505684479 -0.30107681213347393 0 -0.2384772558931193 -0.30928307653082621 0 -0.22802593536356699 -0.30882837184141948 0 -0.24326482791746179 -0.31394285089519419 0 -0.24426682308287331 -0.30533572025667649 0 -0.2384772558931193 -0.30928307653082621 0 -0.24011613505684479 -0.30107681213347393 0 -0.24426682308287331 -0.30533572025667649 0 -0.2384772558931193 -0.30928307653082621 0 -0.23701741405433899 -0.31827760048696663 0 -0.2384772558931193 -0.30928307653082621 0 -0.22802593536356699 -0.30882837184141948 0 -0.22802593536356699 -0.30882837184141948 0 -0.2201073871300871 -0.30044142834658671 0 -0.21110805984082151 -0.30983785689108939 0 -0.24011613505684479 -0.30107681213347393 0 -0.22802593536356699 -0.30882837184141948 0 -0.2201073871300871 -0.30044142834658671 0 -0.2201073871300871 -0.30044142834658671 0 -0.21110805984082151 -0.30983785689108939 0 -0.20155909880418441 -0.29524718310782239 0 -0.21110805984082151 -0.30983785689108939 0 -0.2000775247532616 -0.30687463122530689 0 -0.20155909880418441 -0.29524718310782239 0 -0.19575919956014079 -0.31702437624003538 0 -0.21110805984082151 -0.30983785689108939 0 -0.2000775247532616 -0.30687463122530689 0 -0.18961770926909149 -0.30481471110084102 0 -0.20155909880418441 -0.29524718310782239 0 -0.1798976030385912 -0.29461474791537873 0 -0.19575919956014079 -0.31702437624003538 0 -0.2000775247532616 -0.30687463122530689 0 -0.18961770926909149 -0.30481471110084102 0 -0.19575919956014079 -0.31702437624003538 0 -0.18961770926909149 -0.30481471110084102 0 -0.1803928959391416 -0.31521744924658562 0 -0.2000775247532616 -0.30687463122530689 0 -0.18961770926909149 -0.30481471110084102 0 -0.20155909880418441 -0.29524718310782239 0 -0.19933927811319041 -0.27335702338478318 0 -0.1798976030385912 -0.29461474791537873 0 -0.20155909880418441 -0.29524718310782239 0 -0.19933927811319041 -0.27335702338478318 0 -0.1798976030385912 -0.29461474791537873 0 -0.2197277065850177 -0.2872169177591285 0 -0.20155909880418441 -0.29524718310782239 0 -0.19933927811319041 -0.27335702338478318 0 -0.2197277065850177 -0.2872169177591285 0 -0.2201073871300871 -0.30044142834658671 0 -0.20155909880418441 -0.29524718310782239 0 -0.21864709985809599 -0.27150291036173302 0 -0.19933927811319041 -0.27335702338478318 0 -0.21854221021918649 -0.25236034283526498 0 -0.2197277065850177 -0.2872169177591285 0 -0.21864709985809599 -0.27150291036173302 0 -0.19933927811319041 -0.27335702338478318 0 -0.2197277065850177 -0.2872169177591285 0 -0.19933927811319041 -0.27335702338478318 0 -0.19672455084482071 -0.27157955221738023 0 -0.19563648814007639 -0.2627950405098789 0 -0.1773613401945949 -0.28300380337564962 0 -0.19672455084482071 -0.27157955221738023 0 -0.19933927811319041 -0.27335702338478318 0 -0.1773613401945949 -0.28300380337564962 0 -0.19672455084482071 -0.27157955221738023 0 -0.19933927811319041 -0.27335702338478318 0 -0.19563648814007639 -0.2627950405098789 0 -0.19672455084482071 -0.27157955221738023 0 -0.19933927811319041 -0.27335702338478318 0 -0.19933927811319041 -0.27335702338478318 0 -0.19563648814007639 -0.2627950405098789 0 -0.2024770003035091 -0.25628481747185139 0 -0.19563648814007639 -0.2627950405098789 0 -0.19160736129165659 -0.25262396586623759 0 -0.18182513936558051 -0.25739227955256888 0 -0.19563648814007639 -0.2627950405098789 0 -0.19160736129165659 -0.25262396586623759 0 -0.2024770003035091 -0.25628481747185139 0 -0.19160736129165659 -0.25262396586623759 0 -0.2024770003035091 -0.25628481747185139 0 -0.19988453840298659 -0.24176205441804 0 -0.19933927811319041 -0.27335702338478318 0 -0.2024770003035091 -0.25628481747185139 0 -0.21854221021918649 -0.25236034283526498 0 -0.2024770003035091 -0.25628481747185139 0 -0.21854221021918649 -0.25236034283526498 0 -0.19988453840298659 -0.24176205441804 0 -0.19933927811319041 -0.27335702338478318 0 -0.21854221021918649 -0.25236034283526498 0 -0.16270034237907721 -0.26451024010365409 0 -0.1689202540561075 -0.25519621835756329 0 -0.15263230708737521 -0.24356194903458239 0 -0.16270034237907721 -0.26451024010365409 0 -0.15585924966824549 -0.27338725763800159 0 -0.15263230708737521 -0.24356194903458239 0 -0.16270034237907721 -0.26451024010365409 0 -0.1689202540561075 -0.25519621835756329 0 -0.17291740387759841 -0.2648938158906885 0 -0.1689202540561075 -0.25519621835756329 0 -0.18182513936558051 -0.25739227955256888 0 -0.1745260775709061 -0.24562280720632229 0 -0.19160736129165659 -0.25262396586623759 0 -0.18182513936558051 -0.25739227955256888 0 -0.1745260775709061 -0.24562280720632229 0 -0.19563648814007639 -0.2627950405098789 0 -0.18182513936558051 -0.25739227955256888 0 -0.18269465011250469 -0.26841637399603913 0 -0.1689202540561075 -0.25519621835756329 0 -0.18182513936558051 -0.25739227955256888 0 -0.17291740387759841 -0.2648938158906885 0 -0.18182513936558051 -0.25739227955256888 0 -0.17291740387759841 -0.2648938158906885 0 -0.18269465011250469 -0.26841637399603913 0 -0.19563648814007639 -0.2627950405098789 0 -0.18269465011250469 -0.26841637399603913 0 -0.1773613401945949 -0.28300380337564962 0 -0.17291740387759841 -0.2648938158906885 0 -0.17526212336935321 -0.27297056277525461 0 -0.1680750992927145 -0.27556825783864097 0 -0.19563648814007639 -0.2627950405098789 0 -0.1773613401945949 -0.28300380337564962 0 -0.17291740387759841 -0.2648938158906885 0 -0.17526212336935321 -0.27297056277525461 0 -0.18269465011250469 -0.26841637399603913 0 -0.17526212336935321 -0.27297056277525461 0 -0.18269465011250469 -0.26841637399603913 0 -0.1773613401945949 -0.28300380337564962 0 -0.17526212336935321 -0.27297056277525461 0 -0.1680750992927145 -0.27556825783864097 0 -0.1773613401945949 -0.28300380337564962 0 -0.1680750992927145 -0.27556825783864097 0 -0.1682011228878135 -0.28257539269247411 0 -0.1773613401945949 -0.28300380337564962 0 -0.1680750992927145 -0.27556825783864097 0 -0.1622412594804854 -0.28273310688964581 0 -0.1682011228878135 -0.28257539269247411 0 -0.16270034237907721 -0.26451024010365409 0 -0.17291740387759841 -0.2648938158906885 0 -0.1680750992927145 -0.27556825783864097 0 -0.16270034237907721 -0.26451024010365409 0 -0.1680750992927145 -0.27556825783864097 0 -0.16179622859894191 -0.27503335760685149 0 -0.16270034237907721 -0.26451024010365409 0 -0.16179622859894191 -0.27503335760685149 0 -0.15585924966824549 -0.27338725763800159 0 -0.16179622859894191 -0.27503335760685149 0 -0.1622412594804854 -0.28273310688964581 0 -0.15585924966824549 -0.27338725763800159 0 -0.1680750992927145 -0.27556825783864097 0 -0.16179622859894191 -0.27503335760685149 0 -0.1622412594804854 -0.28273310688964581 0 -0.1622412594804854 -0.28273310688964581 0 -0.16512679258345911 -0.28899640266596011 0 -0.15908619224911419 -0.30321256624142101 0 -0.1622412594804854 -0.28273310688964581 0 -0.15908619224911419 -0.30321256624142101 0 -0.15585924966824549 -0.27338725763800159 0 -0.15908619224911419 -0.30321256624142101 0 -0.15585924966824549 -0.27338725763800159 0 -0.16512679258345911 -0.28899640266596011 0 -0.1773613401945949 -0.28300380337564962 0 -0.15908619224911419 -0.30321256624142101 0 -0.1773613401945949 -0.28300380337564962 0 -0.15908619224911419 -0.30321256624142101 0 -0.16512679258345911 -0.28899640266596011 0 -0.1682011228878135 -0.28257539269247411 0 -0.1773613401945949 -0.28300380337564962 0 -0.1622412594804854 -0.28273310688964581 0 -0.16512679258345911 -0.28899640266596011 0 -0.1682011228878135 -0.28257539269247411 0 -0.1773613401945949 -0.28300380337564962 0 -0.1798976030385912 -0.29461474791537873 0 -0.15908619224911419 -0.30321256624142101 0 -0.19933927811319041 -0.27335702338478318 0 -0.1773613401945949 -0.28300380337564962 0 -0.1798976030385912 -0.29461474791537873 0 -0.1798976030385912 -0.29461474791537873 0 -0.17759103405270391 -0.30762984517719472 0 -0.16045592796399111 -0.3158724724459735 0 -0.18961770926909149 -0.30481471110084102 0 -0.1798976030385912 -0.29461474791537873 0 -0.17759103405270391 -0.30762984517719472 0 -0.18961770926909149 -0.30481471110084102 0 -0.17759103405270391 -0.30762984517719472 0 -0.1803928959391416 -0.31521744924658562 0 -0.1798976030385912 -0.29461474791537873 0 -0.16045592796399111 -0.3158724724459735 0 -0.1798976030385912 -0.29461474791537873 0 -0.15908619224911419 -0.30321256624142101 0 -0.16045592796399111 -0.3158724724459735 0 -0.15908619224911419 -0.30321256624142101 0 -0.16045592796399111 -0.3158724724459735 0 -0.1471380549162328 -0.30532142906175452 0 -0.14032160831301491 -0.30752887986621158 0 -0.14130665940473261 -0.32287327510069419 0 -0.15908619224911419 -0.30321256624142101 0 -0.1471380549162328 -0.30532142906175452 0 -0.14130665940473261 -0.32287327510069419 0 -0.15908619224911419 -0.30321256624142101 0 -0.1471380549162328 -0.30532142906175452 0 -0.1510678287434867 -0.29559461902651829 0 -0.14390798587081549 -0.29739780507392732 0 -0.1471380549162328 -0.30532142906175452 0 -0.1510678287434867 -0.29559461902651829 0 -0.14390798587081549 -0.29739780507392732 0 -0.1471380549162328 -0.30532142906175452 0 -0.14032160831301491 -0.30752887986621158 0 -0.14032160831301491 -0.30752887986621158 0 -0.13439128381467691 -0.29991683468539793 0 -0.13033731665847181 -0.31286393971371201 0 -0.13439128381467691 -0.29991683468539793 0 -0.13033731665847181 -0.31286393971371201 0 -0.12304085188452731 -0.29931348820209958 0 -0.14390798587081549 -0.29739780507392732 0 -0.14032160831301491 -0.30752887986621158 0 -0.13439128381467691 -0.29991683468539793 0 -0.14390798587081549 -0.29739780507392732 0 -0.13439128381467691 -0.29991683468539793 0 -0.14011095662501261 -0.28947786809128212 0 -0.13439128381467691 -0.29991683468539793 0 -0.14011095662501261 -0.28947786809128212 0 -0.12994370463312691 -0.28995419054763111 0 -0.13439128381467691 -0.29991683468539793 0 -0.12994370463312691 -0.28995419054763111 0 -0.12304085188452731 -0.29931348820209958 0 -0.12994370463312691 -0.28995419054763111 0 -0.13687965345326569 -0.27993872332247433 0 -0.1257911728949061 -0.280427018304516 0 -0.12994370463312691 -0.28995419054763111 0 -0.1257911728949061 -0.280427018304516 0 -0.1194571486541455 -0.28746452468861589 0 -0.14011095662501261 -0.28947786809128212 0 -0.12994370463312691 -0.28995419054763111 0 -0.13687965345326569 -0.27993872332247433 0 -0.15908619224911419 -0.30321256624142101 0 -0.15162645984294551 -0.28670064183700439 0 -0.15585924966824549 -0.27338725763800159 0 -0.14011095662501261 -0.28947786809128212 0 -0.1458827091329962 -0.28225219708249882 0 -0.13687965345326569 -0.27993872332247433 0 -0.15908619224911419 -0.30321256624142101 0 -0.1510678287434867 -0.29559461902651829 0 -0.15162645984294551 -0.28670064183700439 0 -0.1458827091329962 -0.28225219708249882 0 -0.1468811506158991 -0.28912565090950809 0 -0.15162645984294551 -0.28670064183700439 0 -0.14011095662501261 -0.28947786809128212 0 -0.1458827091329962 -0.28225219708249882 0 -0.1468811506158991 -0.28912565090950809 0 -0.14390798587081549 -0.29739780507392732 0 -0.1468811506158991 -0.28912565090950809 0 -0.1510678287434867 -0.29559461902651829 0 -0.14390798587081549 -0.29739780507392732 0 -0.14011095662501261 -0.28947786809128212 0 -0.1468811506158991 -0.28912565090950809 0 -0.1468811506158991 -0.28912565090950809 0 -0.1510678287434867 -0.29559461902651829 0 -0.15162645984294551 -0.28670064183700439 0 -0.1458827091329962 -0.28225219708249882 0 -0.15162645984294551 -0.28670064183700439 0 -0.15098162864793119 -0.27663156012407891 0 -0.15162645984294551 -0.28670064183700439 0 -0.15098162864793119 -0.27663156012407891 0 -0.15585924966824549 -0.27338725763800159 0 -0.15098162864793119 -0.27663156012407891 0 -0.1522527558101047 -0.27366235468835692 0 -0.14903370440966179 -0.27344637702894548 0 -0.15098162864793119 -0.27663156012407891 0 -0.1522527558101047 -0.27366235468835692 0 -0.15585924966824549 -0.27338725763800159 0 -0.14903370440966179 -0.27344637702894548 0 -0.1531364405145805 -0.27118422396240138 0 -0.14385763015454139 -0.26954128824380802 0 -0.1522527558101047 -0.27366235468835692 0 -0.15585924966824549 -0.27338725763800159 0 -0.1531364405145805 -0.27118422396240138 0 -0.1522527558101047 -0.27366235468835692 0 -0.14903370440966179 -0.27344637702894548 0 -0.1531364405145805 -0.27118422396240138 0 -0.14903370440966179 -0.27344637702894548 0 -0.14385763015454139 -0.26954128824380802 0 -0.1442805510697899 -0.27562940435382949 0 -0.14385763015454139 -0.26954128824380802 0 -0.1442805510697899 -0.27562940435382949 0 -0.13835653564694769 -0.27242798417408381 0 -0.1458827091329962 -0.28225219708249882 0 -0.1442805510697899 -0.27562940435382949 0 -0.13687965345326569 -0.27993872332247433 0 -0.15098162864793119 -0.27663156012407891 0 -0.14903370440966179 -0.27344637702894548 0 -0.1442805510697899 -0.27562940435382949 0 -0.1458827091329962 -0.28225219708249882 0 -0.15098162864793119 -0.27663156012407891 0 -0.1442805510697899 -0.27562940435382949 0 -0.13687965345326569 -0.27993872332247433 0 -0.12970248462840331 -0.2717774759070859 0 -0.13835653564694769 -0.27242798417408381 0 -0.1442805510697899 -0.27562940435382949 0 -0.13687965345326569 -0.27993872332247433 0 -0.13835653564694769 -0.27242798417408381 0 -0.13687965345326569 -0.27993872332247433 0 -0.1257911728949061 -0.280427018304516 0 -0.12970248462840331 -0.2717774759070859 0 -0.12970248462840331 -0.2717774759070859 0 -0.13570208279224111 -0.26528350045903498 0 -0.12855037573501921 -0.26115248962005239 0 -0.14385763015454139 -0.26954128824380802 0 -0.13835653564694769 -0.27242798417408381 0 -0.13570208279224111 -0.26528350045903498 0 -0.12970248462840331 -0.2717774759070859 0 -0.13835653564694769 -0.27242798417408381 0 -0.13570208279224111 -0.26528350045903498 0 -0.13570208279224111 -0.26528350045903498 0 -0.12855037573501921 -0.26115248962005239 0 -0.1377523016625678 -0.25581657194563601 0 -0.14385763015454139 -0.26954128824380802 0 -0.13570208279224111 -0.26528350045903498 0 -0.1377523016625678 -0.25581657194563601 0 -0.12855037573501921 -0.26115248962005239 0 -0.1377523016625678 -0.25581657194563601 0 -0.1223681628105569 -0.24044891992886891 0 -0.1531364405145805 -0.27118422396240138 0 -0.1377523016625678 -0.25581657194563601 0 -0.15263230708737521 -0.24356194903458239 0 -0.15585924966824549 -0.27338725763800159 0 -0.1531364405145805 -0.27118422396240138 0 -0.15263230708737521 -0.24356194903458239 0 -0.15585924966824549 -0.27338725763800159 0 -0.15263230708737521 -0.24356194903458239 0 -0.1531364405145805 -0.27118422396240138 0 -0.1377523016625678 -0.25581657194563601 0 -0.1531364405145805 -0.27118422396240138 0 -0.14385763015454139 -0.26954128824380802 0 -0.1377523016625678 -0.25581657194563601 0 -0.1661931572416451 -0.36889933283976362 0 -0.1633245426028184 -0.34238590264286861 0 -0.15433175674287769 -0.35458729317269139 0 -0.1661931572416451 -0.36889933283976362 0 -0.1633245426028184 -0.34238590264286861 0 -0.1661931572416451 -0.36889933283976362 0 -0.17388048196752651 -0.3522733272046466 0 -0.1633245426028184 -0.34238590264286861 0 -0.1661931572416451 -0.36889933283976362 0 -0.15433175674287769 -0.35458729317269139 0 -0.148308101659717 -0.36695316985008092 0 -0.15761740849691311 -0.38818340141201402 0 -0.1661931572416451 -0.36889933283976362 0 -0.148308101659717 -0.36695316985008092 0 -0.183603859264966 -0.3766054584014627 0 -0.1661931572416451 -0.36889933283976362 0 -0.1863350517553729 -0.35962674217565882 0 -0.1661931572416451 -0.36889933283976362 0 -0.1863350517553729 -0.35962674217565882 0 -0.17388048196752651 -0.3522733272046466 0 -0.1863350517553729 -0.35962674217565882 0 -0.17388048196752651 -0.3522733272046466 0 -0.1789381536340362 -0.33872308817907848 0 -0.17388048196752651 -0.3522733272046466 0 -0.1789381536340362 -0.33872308817907848 0 -0.1633245426028184 -0.34238590264286861 0 -0.19562896033857519 -0.33020038185646122 0 -0.1789381536340362 -0.33872308817907848 0 -0.18477851095256179 -0.32477614194451959 0 -0.1789381536340362 -0.33872308817907848 0 -0.18477851095256179 -0.32477614194451959 0 -0.1735479853981102 -0.32728394705986258 0 -0.1789381536340362 -0.33872308817907848 0 -0.1735479853981102 -0.32728394705986258 0 -0.1633245426028184 -0.34238590264286861 0 -0.17759103405270391 -0.30762984517719472 0 -0.1803928959391416 -0.31521744924658562 0 -0.16045592796399111 -0.3158724724459735 0 -0.19575919956014079 -0.31702437624003538 0 -0.1803928959391416 -0.31521744924658562 0 -0.18477851095256179 -0.32477614194451959 0 -0.1803928959391416 -0.31521744924658562 0 -0.18477851095256179 -0.32477614194451959 0 -0.1735479853981102 -0.32728394705986258 0 -0.1803928959391416 -0.31521744924658562 0 -0.1735479853981102 -0.32728394705986258 0 -0.16045592796399111 -0.3158724724459735 0 -0.1735479853981102 -0.32728394705986258 0 -0.16045592796399111 -0.3158724724459735 0 -0.1633245426028184 -0.34238590264286861 0 -0.16045592796399111 -0.3158724724459735 0 -0.1633245426028184 -0.34238590264286861 0 -0.1476770575246594 -0.3298450188736391 0 -0.16045592796399111 -0.3158724724459735 0 -0.1633245426028184 -0.34238590264286861 0 -0.1633245426028184 -0.34238590264286861 0 -0.15030263560259111 -0.34285112818916452 0 -0.1476770575246594 -0.3298450188736391 0 -0.1476770575246594 -0.3298450188736391 0 -0.14130665940473261 -0.32287327510069419 0 -0.13989838249203351 -0.33226752099114382 0 -0.1476770575246594 -0.3298450188736391 0 -0.14096893258994439 -0.33934882548262568 0 -0.13989838249203351 -0.33226752099114382 0 -0.15030263560259111 -0.34285112818916452 0 -0.1476770575246594 -0.3298450188736391 0 -0.14096893258994439 -0.33934882548262568 0 -0.15908619224911419 -0.30321256624142101 0 -0.14130665940473261 -0.32287327510069419 0 -0.16045592796399111 -0.3158724724459735 0 -0.1476770575246594 -0.3298450188736391 0 -0.14130665940473261 -0.32287327510069419 0 -0.15908619224911419 -0.30321256624142101 0 -0.16045592796399111 -0.3158724724459735 0 -0.14130665940473261 -0.32287327510069419 0 -0.16045592796399111 -0.3158724724459735 0 -0.1476770575246594 -0.3298450188736391 0 -0.14130665940473261 -0.32287327510069419 0 -0.12766342535057629 -0.32481504462803062 0 -0.13033731665847181 -0.31286393971371201 0 -0.14032160831301491 -0.30752887986621158 0 -0.14130665940473261 -0.32287327510069419 0 -0.13033731665847181 -0.31286393971371201 0 -0.14130665940473261 -0.32287327510069419 0 -0.12766342535057629 -0.32481504462803062 0 -0.12902917457320359 -0.33644978787578289 0 -0.12766342535057629 -0.32481504462803062 0 -0.12902917457320359 -0.33644978787578289 0 -0.123033176677132 -0.34308019655903149 0 -0.14096893258994439 -0.33934882548262568 0 -0.12902917457320359 -0.33644978787578289 0 -0.13366226850604379 -0.34759248760944123 0 -0.14096893258994439 -0.33934882548262568 0 -0.13989838249203351 -0.33226752099114382 0 -0.12902917457320359 -0.33644978787578289 0 -0.14130665940473261 -0.32287327510069419 0 -0.12902917457320359 -0.33644978787578289 0 -0.14130665940473261 -0.32287327510069419 0 -0.13989838249203351 -0.33226752099114382 0 -0.12902917457320359 -0.33644978787578289 0 -0.12902917457320359 -0.33644978787578289 0 -0.123033176677132 -0.34308019655903149 0 -0.12902917457320359 -0.33644978787578289 0 -0.13366226850604379 -0.34759248760944123 0 -0.123033176677132 -0.34308019655903149 0 -0.13366226850604379 -0.34759248760944123 0 -0.1303219987982592 -0.3665496015062627 0 -0.123033176677132 -0.34308019655903149 0 -0.1303219987982592 -0.3665496015062627 0 -0.123033176677132 -0.34308019655903149 0 -0.13366226850604379 -0.34759248760944123 0 -0.1435303466076166 -0.35184693234157938 0 -0.1303219987982592 -0.3665496015062627 0 -0.14096893258994439 -0.33934882548262568 0 -0.13366226850604379 -0.34759248760944123 0 -0.1435303466076166 -0.35184693234157938 0 -0.15030263560259111 -0.34285112818916452 0 -0.14096893258994439 -0.33934882548262568 0 -0.1435303466076166 -0.35184693234157938 0 -0.1435303466076166 -0.35184693234157938 0 -0.15433175674287769 -0.35458729317269139 0 -0.148308101659717 -0.36695316985008092 0 -0.1633245426028184 -0.34238590264286861 0 -0.15030263560259111 -0.34285112818916452 0 -0.15433175674287769 -0.35458729317269139 0 -0.15030263560259111 -0.34285112818916452 0 -0.1435303466076166 -0.35184693234157938 0 -0.15433175674287769 -0.35458729317269139 0 -0.1435303466076166 -0.35184693234157938 0 -0.148308101659717 -0.36695316985008092 0 -0.1303219987982592 -0.3665496015062627 0 -0.1369224961495438 -0.38192389563367207 0 -0.148308101659717 -0.36695316985008092 0 -0.1303219987982592 -0.3665496015062627 0 -0.1303219987982592 -0.3665496015062627 0 -0.1159926709000937 -0.36685414663024191 0 -0.11895596668836859 -0.34683008488337108 0 -0.1303219987982592 -0.3665496015062627 0 -0.1159926709000937 -0.36685414663024191 0 -0.12201267174342199 -0.37938718301114999 0 -0.1024060606807759 -0.36205135125861898 0 -0.1016559479587178 -0.38500202459504551 0 -0.1159926709000937 -0.36685414663024191 0 -0.1024060606807759 -0.36205135125861898 0 -0.1094440337948836 -0.37923577087639421 0 -0.1024060606807759 -0.36205135125861898 0 -0.1016559479587178 -0.38500202459504551 0 -0.095426438310298192 -0.37780241062099151 0 -0.1024060606807759 -0.36205135125861898 0 -0.090139611558562177 -0.37333304007799939 0 -0.095426438310298192 -0.37780241062099151 0 -0.1024060606807759 -0.36205135125861898 0 -0.093943439343664059 -0.36410026383479388 0 -0.090139611558562177 -0.37333304007799939 0 -0.1024060606807759 -0.36205135125861898 0 -0.093943439343664059 -0.36410026383479388 0 -0.095626283443773746 -0.35612124291623848 0 -0.1024060606807759 -0.36205135125861898 0 -0.090139611558562177 -0.37333304007799939 0 -0.1024060606807759 -0.36205135125861898 0 -0.1029439411344124 -0.34559419992324319 0 -0.1024060606807759 -0.36205135125861898 0 -0.1029439411344124 -0.34559419992324319 0 -0.11895596668836859 -0.34683008488337108 0 -0.1024060606807759 -0.36205135125861898 0 -0.095626283443773746 -0.35612124291623848 0 -0.1029439411344124 -0.34559419992324319 0 -0.095626283443773746 -0.35612124291623848 0 -0.1029439411344124 -0.34559419992324319 0 -0.093212578299404075 -0.34130700998995739 0 -0.1159926709000937 -0.36685414663024191 0 -0.1024060606807759 -0.36205135125861898 0 -0.11895596668836859 -0.34683008488337108 0 -0.1024060606807759 -0.36205135125861898 0 -0.11895596668836859 -0.34683008488337108 0 -0.1303219987982592 -0.3665496015062627 0 -0.11895596668836859 -0.34683008488337108 0 -0.123033176677132 -0.34308019655903149 0 -0.1029439411344124 -0.34559419992324319 0 -0.11895596668836859 -0.34683008488337108 0 -0.123033176677132 -0.34308019655903149 0 -0.11895596668836859 -0.34683008488337108 0 -0.123033176677132 -0.34308019655903149 0 -0.1029439411344124 -0.34559419992324319 0 -0.1137910684918501 -0.33520612369310882 0 -0.123033176677132 -0.34308019655903149 0 -0.123033176677132 -0.34308019655903149 0 -0.1159692764993048 -0.31568518943543378 0 -0.1137910684918501 -0.33520612369310882 0 -0.123033176677132 -0.34308019655903149 0 -0.1159692764993048 -0.31568518943543378 0 -0.12766342535057629 -0.32481504462803062 0 -0.123033176677132 -0.34308019655903149 0 -0.1159692764993048 -0.31568518943543378 0 -0.1137910684918501 -0.33520612369310882 0 -0.1159692764993048 -0.31568518943543378 0 -0.1034818215880495 -0.3291370485878673 0 -0.12766342535057629 -0.32481504462803062 0 -0.13033731665847181 -0.31286393971371201 0 -0.1159692764993048 -0.31568518943543378 0 -0.1159692764993048 -0.31568518943543378 0 -0.10079975883819629 -0.31506063040533638 0 -0.1034818215880495 -0.3291370485878673 0 -0.10079975883819629 -0.31506063040533638 0 -0.093212578299404075 -0.34130700998995739 0 -0.10079975883819629 -0.31506063040533638 0 -0.093212578299404075 -0.34130700998995739 0 -0.087373844159168004 -0.3291061545470132 0 -0.10079975883819629 -0.31506063040533638 0 -0.1034818215880495 -0.3291370485878673 0 -0.093212578299404075 -0.34130700998995739 0 -0.1029439411344124 -0.34559419992324319 0 -0.1034818215880495 -0.3291370485878673 0 -0.1029439411344124 -0.34559419992324319 0 -0.1034818215880495 -0.3291370485878673 0 -0.093212578299404075 -0.34130700998995739 0 -0.1029439411344124 -0.34559419992324319 0 -0.1137910684918501 -0.33520612369310882 0 -0.1034818215880495 -0.3291370485878673 0 -0.093212578299404075 -0.34130700998995739 0 -0.087373844159168004 -0.3291061545470132 0 -0.080908772255243899 -0.33898270124258217 0 -0.087373844159168004 -0.3291061545470132 0 -0.080908772255243899 -0.33898270124258217 0 -0.077490532230771417 -0.32991328235931511 0 -0.093212578299404075 -0.34130700998995739 0 -0.080908772255243899 -0.33898270124258217 0 -0.080378844364046895 -0.35001101873094542 0 -0.10079975883819629 -0.31506063040533638 0 -0.085305929108392881 -0.31951846990187233 0 -0.091873739319295072 -0.31122357941036211 0 -0.10079975883819629 -0.31506063040533638 0 -0.087373844159168004 -0.3291061545470132 0 -0.085305929108392881 -0.31951846990187233 0 -0.085305929108392881 -0.31951846990187233 0 -0.076805788315873161 -0.32077910918615782 0 -0.077490532230771417 -0.32991328235931511 0 -0.087373844159168004 -0.3291061545470132 0 -0.085305929108392881 -0.31951846990187233 0 -0.077490532230771417 -0.32991328235931511 0 -0.085305929108392881 -0.31951846990187233 0 -0.076805788315873161 -0.32077910918615782 0 -0.078544889372492196 -0.31002595631180607 0 -0.085305929108392881 -0.31951846990187233 0 -0.091873739319295072 -0.31122357941036211 0 -0.078544889372492196 -0.31002595631180607 0 -0.066882954587322394 -0.32486941793266988 0 -0.078544889372492196 -0.31002595631180607 0 -0.05424539878688571 -0.319762651601179 0 -0.078544889372492196 -0.31002595631180607 0 -0.05424539878688571 -0.319762651601179 0 -0.076805788315873161 -0.32077910918615782 0 -0.066882954587322394 -0.32486941793266988 0 -0.078544889372492196 -0.31002595631180607 0 -0.076805788315873161 -0.32077910918615782 0 -0.066882954587322394 -0.32486941793266988 0 -0.077490532230771417 -0.32991328235931511 0 -0.066882954587322394 -0.32486941793266988 0 -0.070160141916437824 -0.34098238217286791 0 -0.054527031800802053 -0.34042178362413461 0 -0.066882954587322394 -0.32486941793266988 0 -0.077490532230771417 -0.32991328235931511 0 -0.070160141916437824 -0.34098238217286791 0 -0.080908772255243899 -0.33898270124258217 0 -0.077490532230771417 -0.32991328235931511 0 -0.070160141916437824 -0.34098238217286791 0 -0.080908772255243899 -0.33898270124258217 0 -0.070160141916437824 -0.34098238217286791 0 -0.080378844364046895 -0.35001101873094542 0 -0.070160141916437824 -0.34098238217286791 0 -0.066522813126512412 -0.35680227137673098 0 -0.054527031800802053 -0.34042178362413461 0 -0.070160141916437824 -0.34098238217286791 0 -0.066522813126512412 -0.35680227137673098 0 -0.080378844364046895 -0.35001101873094542 0 -0.066522813126512412 -0.35680227137673098 0 -0.076582500297099523 -0.36039923154202719 0 -0.080378844364046895 -0.35001101873094542 0 -0.066522813126512412 -0.35680227137673098 0 -0.073802945937226916 -0.36723024648585417 0 -0.058387822440418388 -0.36975607908058028 0 -0.073802945937226916 -0.36723024648585417 0 -0.058387822440418388 -0.36975607908058028 0 -0.08170780991661282 -0.38109255286014232 0 -0.066522813126512412 -0.35680227137673098 0 -0.073802945937226916 -0.36723024648585417 0 -0.076582500297099523 -0.36039923154202719 0 -0.073802945937226916 -0.36723024648585417 0 -0.076582500297099523 -0.36039923154202719 0 -0.085625397760611066 -0.36755338957457828 0 -0.085625397760611066 -0.36755338957457828 0 -0.087954911787112483 -0.37534235041220648 0 -0.08170780991661282 -0.38109255286014232 0 -0.073802945937226916 -0.36723024648585417 0 -0.085625397760611066 -0.36755338957457828 0 -0.08170780991661282 -0.38109255286014232 0 -0.085625397760611066 -0.36755338957457828 0 -0.08170780991661282 -0.38109255286014232 0 -0.093943439343664059 -0.36410026383479388 0 -0.085625397760611066 -0.36755338957457828 0 -0.090139611558562177 -0.37333304007799939 0 -0.093943439343664059 -0.36410026383479388 0 -0.090139611558562177 -0.37333304007799939 0 -0.085625397760611066 -0.36755338957457828 0 -0.090139611558562177 -0.37333304007799939 0 -0.087954911787112483 -0.37534235041220648 0 -0.085625397760611066 -0.36755338957457828 0 -0.087954911787112483 -0.37534235041220648 0 -0.090139611558562177 -0.37333304007799939 0 -0.087954911787112483 -0.37534235041220648 0 -0.093943439343664059 -0.36410026383479388 0 -0.095626283443773746 -0.35612124291623848 0 -0.085625397760611066 -0.36755338957457828 0 -0.093212578299404075 -0.34130700998995739 0 -0.085625397760611066 -0.36755338957457828 0 -0.076582500297099523 -0.36039923154202719 0 -0.085625397760611066 -0.36755338957457828 0 -0.080378844364046895 -0.35001101873094542 0 -0.093212578299404075 -0.34130700998995739 0 -0.085625397760611066 -0.36755338957457828 0 -0.080378844364046895 -0.35001101873094542 0 -0.085625397760611066 -0.36755338957457828 0 -0.080378844364046895 -0.35001101873094542 0 -0.095626283443773746 -0.35612124291623848 0 -0.093212578299404075 -0.34130700998995739 0 -0.085625397760611066 -0.36755338957457828 0 -0.10474757541744149 -0.26087495970427582 0 -0.090174700483665673 -0.26498018187443112 0 -0.1005321994236209 -0.2431127607729493 0 -0.10474757541744149 -0.26087495970427582 0 -0.11757885349586771 -0.25701660664448461 0 -0.1005321994236209 -0.2431127607729493 0 -0.12855037573501921 -0.26115248962005239 0 -0.11757885349586771 -0.25701660664448461 0 -0.1127895441811773 -0.27358429336009982 0 -0.12855037573501921 -0.26115248962005239 0 -0.11757885349586771 -0.25701660664448461 0 -0.1223681628105569 -0.24044891992886891 0 -0.10474757541744149 -0.26087495970427582 0 -0.11757885349586771 -0.25701660664448461 0 -0.1127895441811773 -0.27358429336009982 0 -0.11757885349586771 -0.25701660664448461 0 -0.1127895441811773 -0.27358429336009982 0 -0.1257911728949061 -0.280427018304516 0 -0.12970248462840331 -0.2717774759070859 0 -0.1127895441811773 -0.27358429336009982 0 -0.12855037573501921 -0.26115248962005239 0 -0.1127895441811773 -0.27358429336009982 0 -0.12970248462840331 -0.2717774759070859 0 -0.12855037573501921 -0.26115248962005239 0 -0.1127895441811773 -0.27358429336009982 0 -0.1257911728949061 -0.280427018304516 0 -0.1127895441811773 -0.27358429336009982 0 -0.1194571486541455 -0.28746452468861589 0 -0.1127895441811773 -0.27358429336009982 0 -0.1083869393769897 -0.28881425082071571 0 -0.1127895441811773 -0.27358429336009982 0 -0.093274829049746905 -0.28897707944045958 0 -0.090174700483665673 -0.26498018187443112 0 -0.10474757541744149 -0.26087495970427582 0 -0.1127895441811773 -0.27358429336009982 0 -0.090174700483665673 -0.26498018187443112 0 -0.1127895441811773 -0.27358429336009982 0 -0.1067008731150054 -0.28283902414649681 0 -0.093274829049746905 -0.28897707944045958 0 -0.1127895441811773 -0.27358429336009982 0 -0.093274829049746905 -0.28897707944045958 0 -0.1083869393769897 -0.28881425082071571 0 -0.102844379958099 -0.30028926102243358 0 -0.093274829049746905 -0.28897707944045958 0 -0.1127895441811773 -0.27358429336009982 0 -0.1083869393769897 -0.28881425082071571 0 -0.1067008731150054 -0.28283902414649681 0 -0.1083869393769897 -0.28881425082071571 0 -0.1067008731150054 -0.28283902414649681 0 -0.1083869393769897 -0.28881425082071571 0 -0.1067008731150054 -0.28283902414649681 0 -0.093274829049746905 -0.28897707944045958 0 -0.1127895441811773 -0.27358429336009982 0 -0.1083869393769897 -0.28881425082071571 0 -0.1194571486541455 -0.28746452468861589 0 -0.12994370463312691 -0.28995419054763111 0 -0.1194571486541455 -0.28746452468861589 0 -0.12304085188452731 -0.29931348820209958 0 -0.1083869393769897 -0.28881425082071571 0 -0.1194571486541455 -0.28746452468861589 0 -0.12304085188452731 -0.29931348820209958 0 -0.1159692764993048 -0.31568518943543378 0 -0.1083869393769897 -0.28881425082071571 0 -0.12304085188452731 -0.29931348820209958 0 -0.1159692764993048 -0.31568518943543378 0 -0.1083869393769897 -0.28881425082071571 0 -0.13033731665847181 -0.31286393971371201 0 -0.1159692764993048 -0.31568518943543378 0 -0.12304085188452731 -0.29931348820209958 0 -0.1159692764993048 -0.31568518943543378 0 -0.10079975883819629 -0.31506063040533638 0 -0.1083869393769897 -0.28881425082071571 0 -0.10079975883819629 -0.31506063040533638 0 -0.1083869393769897 -0.28881425082071571 0 -0.10079975883819629 -0.31506063040533638 0 -0.1083869393769897 -0.28881425082071571 0 -0.102844379958099 -0.30028926102243358 0 -0.10079975883819629 -0.31506063040533638 0 -0.102844379958099 -0.30028926102243358 0 -0.091873739319295072 -0.31122357941036211 0 -0.078544889372492196 -0.31002595631180607 0 -0.073760113918316481 -0.30436986552081963 0 -0.093274829049746905 -0.28897707944045958 0 -0.102844379958099 -0.30028926102243358 0 -0.078544889372492196 -0.31002595631180607 0 -0.093274829049746905 -0.28897707944045958 0 -0.102844379958099 -0.30028926102243358 0 -0.091873739319295072 -0.31122357941036211 0 -0.078544889372492196 -0.31002595631180607 0 -0.102844379958099 -0.30028926102243358 0 -0.078544889372492196 -0.31002595631180607 0 -0.078544889372492196 -0.31002595631180607 0 -0.073760113918316481 -0.30436986552081963 0 -0.05424539878688571 -0.319762651601179 0 -0.073760113918316481 -0.30436986552081963 0 -0.05424539878688571 -0.319762651601179 0 -0.073760113918316481 -0.30436986552081963 0 -0.071188273097670243 -0.28513602236808322 0 -0.055748641784298267 -0.30178875706485681 0 -0.073760113918316481 -0.30436986552081963 0 -0.071188273097670243 -0.28513602236808322 0 -0.093274829049746905 -0.28897707944045958 0 -0.073760113918316481 -0.30436986552081963 0 -0.093274829049746905 -0.28897707944045958 0 -0.071188273097670243 -0.28513602236808322 0 -0.093274829049746905 -0.28897707944045958 0 -0.090174700483665673 -0.26498018187443112 0 -0.071188273097670243 -0.28513602236808322 0 -0.063484538676239377 -0.26413124226689111 0 -0.090174700483665673 -0.26498018187443112 0 -0.063484538676239377 -0.26413124226689111 0 -0.076282262678724011 -0.24169347649274159 0 -0.063484538676239377 -0.26413124226689111 0 -0.090174700483665673 -0.26498018187443112 0 -0.076282262678724011 -0.24169347649274159 0 -0.036942597034766073 -0.27265489088473938 0 -0.050686814673754729 -0.28656900804104057 0 -0.0185119813334658 -0.28327625011988139 0 -0.038581934025118947 -0.25114857380685968 0 -0.038334603868346327 -0.2604973367990705 0 -0.03064478186574425 -0.25326356670072259 0 -0.038334603868346327 -0.2604973367990705 0 -0.029413390480137139 -0.26518294325465769 0 -0.03064478186574425 -0.25326356670072259 0 -0.038334603868346327 -0.2604973367990705 0 -0.046517308340487992 -0.25474718453952289 0 -0.048289188575406587 -0.26955092917192058 0 -0.038581934025118947 -0.25114857380685968 0 -0.038334603868346327 -0.2604973367990705 0 -0.046517308340487992 -0.25474718453952289 0 -0.063484538676239377 -0.26413124226689111 0 -0.046517308340487992 -0.25474718453952289 0 -0.0567919256119837 -0.24387644547435741 0 -0.063484538676239377 -0.26413124226689111 0 -0.046517308340487992 -0.25474718453952289 0 -0.048289188575406587 -0.26955092917192058 0 -0.063484538676239377 -0.26413124226689111 0 -0.050686814673754729 -0.28656900804104057 0 -0.071188273097670243 -0.28513602236808322 0 -0.063484538676239377 -0.26413124226689111 0 -0.050686814673754729 -0.28656900804104057 0 -0.063484538676239377 -0.26413124226689111 0 -0.048289188575406587 -0.26955092917192058 0 -0.050686814673754729 -0.28656900804104057 0 -0.048289188575406587 -0.26955092917192058 0 -0.036942597034766073 -0.27265489088473938 0 -0.050686814673754729 -0.28656900804104057 0 -0.038334603868346327 -0.2604973367990705 0 -0.048289188575406587 -0.26955092917192058 0 -0.036942597034766073 -0.27265489088473938 0 -0.038334603868346327 -0.2604973367990705 0 -0.036942597034766073 -0.27265489088473938 0 -0.029413390480137139 -0.26518294325465769 0 -0.050686814673754729 -0.28656900804104057 0 -0.037889090671270123 -0.30900677381518998 0 -0.0185119813334658 -0.28327625011988139 0 -0.071188273097670243 -0.28513602236808322 0 -0.050686814673754729 -0.28656900804104057 0 -0.055748641784298267 -0.30178875706485681 0 -0.073760113918316481 -0.30436986552081963 0 -0.055748641784298267 -0.30178875706485681 0 -0.05424539878688571 -0.319762651601179 0 -0.055748641784298267 -0.30178875706485681 0 -0.037889090671270123 -0.30900677381518998 0 -0.05424539878688571 -0.319762651601179 0 -0.050686814673754729 -0.28656900804104057 0 -0.055748641784298267 -0.30178875706485681 0 -0.037889090671270123 -0.30900677381518998 0 -0.050686814673754729 -0.28656900804104057 0 -0.037889090671270123 -0.30900677381518998 0 -0.037889090671270123 -0.30900677381518998 0 -0.014390974368570029 -0.31032982847088841 0 -0.0185119813334658 -0.28327625011988139 0 -0.014390974368570029 -0.31032982847088841 0 0.001904989571353899 -0.32214434476741449 0 0.0019518825097332619 -0.30029273945570772 0 -0.014390974368570029 -0.31032982847088841 0 -0.0185119813334658 -0.28327625011988139 0 0.0019518825097332619 -0.30029273945570772 0 -0.0185119813334658 -0.28327625011988139 0 -0.0020851015340006161 -0.28052611142458661 0 0.0019518825097332619 -0.30029273945570772 0 -0.014390974368570029 -0.31032982847088841 0 -0.0185119813334658 -0.28327625011988139 0 -0.036942597034766073 -0.27265489088473938 0 -0.0185119813334658 -0.28327625011988139 0 -0.029413390480137139 -0.26518294325465769 0 -0.0185119813334658 -0.28327625011988139 0 -0.02263298829836323 -0.25622267176887481 0 -0.029413390480137139 -0.26518294325465769 0 -0.0185119813334658 -0.28327625011988139 0 -0.02263298829836323 -0.25622267176887481 0 -0.0185119813334658 -0.28327625011988139 0 -0.0093077836028632385 -0.27105033158696179 0 -0.02263298829836323 -0.25622267176887481 0 -0.0185119813334658 -0.28327625011988139 0 -0.0020851015340006161 -0.28052611142458661 0 -0.0093077836028632385 -0.27105033158696179 0 -0.0020851015340006161 -0.28052611142458661 0 -0.0093077836028632385 -0.27105033158696179 0 0.0055944649301708496 -0.26664830233551728 0 -0.014059514610042069 -0.25416210053859828 0 -0.02263298829836323 -0.25622267176887481 0 0.0055944649301708496 -0.26664830233551728 0 -0.0093077836028632385 -0.27105033158696179 0 -0.02263298829836323 -0.25622267176887481 0 0.0055944649301708496 -0.26664830233551728 0 -0.02263298829836323 -0.25622267176887481 0 0.0055944649301708496 -0.26664830233551728 0 -0.014059514610042069 -0.25416210053859828 0 -0.0080727856436109482 -0.2481099565327444 0 0.0055944649301708496 -0.26664830233551728 0 -0.014059514610042069 -0.25416210053859828 0 -0.01887874476148543 -0.24814250919209771 0 -0.0080727856436109482 -0.2481099565327444 0 -0.014059514610042069 -0.25416210053859828 0 -0.02263298829836323 -0.25622267176887481 0 -0.02285766608625657 -0.25474770747244752 0 -0.014059514610042069 -0.25416210053859828 0 -0.02285766608625657 -0.25474770747244752 0 -0.01887874476148543 -0.24814250919209771 0 -0.02285766608625657 -0.25474770747244752 0 -0.026067501294639708 -0.24850247980592871 0 -0.01887874476148543 -0.24814250919209771 0 -0.02263298829836323 -0.25622267176887481 0 -0.02285766608625657 -0.25474770747244752 0 -0.02263298829836323 -0.25622267176887481 0 -0.029413390480137139 -0.26518294325465769 0 -0.03064478186574425 -0.25326356670072259 0 -0.02263298829836323 -0.25622267176887481 0 -0.03064478186574425 -0.25326356670072259 0 -0.02263298829836323 -0.25622267176887481 0 -0.02285766608625657 -0.25474770747244752 0 -0.03064478186574425 -0.25326356670072259 0 -0.02285766608625657 -0.25474770747244752 0 -0.03064478186574425 -0.25326356670072259 0 -0.026067501294639708 -0.24850247980592871 0 -0.040780788735907937 -0.34809370153295588 0 -0.035070660285960877 -0.35841379707961513 0 -0.051335308585544609 -0.35442186843706669 0 -0.040780788735907937 -0.34809370153295588 0 -0.033802973987086503 -0.33588719504380232 0 -0.029167969020145641 -0.35132386348016093 0 -0.040780788735907937 -0.34809370153295588 0 -0.035070660285960877 -0.35841379707961513 0 -0.029167969020145641 -0.35132386348016093 0 -0.035070660285960877 -0.35841379707961513 0 -0.040000350022935588 -0.37213681664196291 0 -0.021437446366364531 -0.36359117576668931 0 -0.035070660285960877 -0.35841379707961513 0 -0.058387822440418388 -0.36975607908058028 0 -0.035070660285960877 -0.35841379707961513 0 -0.040000350022935588 -0.37213681664196291 0 -0.058387822440418388 -0.36975607908058028 0 -0.040000350022935588 -0.37213681664196291 0 -0.058387822440418388 -0.36975607908058028 0 -0.058563253679506787 -0.38068245751723601 0 -0.035070660285960877 -0.35841379707961513 0 -0.058387822440418388 -0.36975607908058028 0 -0.051335308585544609 -0.35442186843706669 0 -0.066522813126512412 -0.35680227137673098 0 -0.058387822440418388 -0.36975607908058028 0 -0.051335308585544609 -0.35442186843706669 0 -0.066522813126512412 -0.35680227137673098 0 -0.051335308585544609 -0.35442186843706669 0 -0.054527031800802053 -0.34042178362413461 0 -0.040780788735907937 -0.34809370153295588 0 -0.051335308585544609 -0.35442186843706669 0 -0.054527031800802053 -0.34042178362413461 0 -0.066882954587322394 -0.32486941793266988 0 -0.054527031800802053 -0.34042178362413461 0 -0.05424539878688571 -0.319762651601179 0 -0.054527031800802053 -0.34042178362413461 0 -0.05424539878688571 -0.319762651601179 0 -0.033802973987086503 -0.33588719504380232 0 -0.05424539878688571 -0.319762651601179 0 -0.039668382727836717 -0.32560359559526031 0 -0.05424539878688571 -0.319762651601179 0 -0.033802973987086503 -0.33588719504380232 0 -0.037889090671270123 -0.30900677381518998 0 -0.025091366668787349 -0.3314445395893405 0 -0.05424539878688571 -0.319762651601179 0 -0.039668382727836717 -0.32560359559526031 0 -0.033802973987086503 -0.33588719504380232 0 -0.037889090671270123 -0.30900677381518998 0 -0.05424539878688571 -0.319762651601179 0 -0.039668382727836717 -0.32560359559526031 0 -0.037889090671270123 -0.30900677381518998 0 -0.039668382727836717 -0.32560359559526031 0 -0.025091366668787349 -0.3314445395893405 0 -0.040780788735907937 -0.34809370153295588 0 -0.054527031800802053 -0.34042178362413461 0 -0.033802973987086503 -0.33588719504380232 0 -0.039668382727836717 -0.32560359559526031 0 -0.025091366668787349 -0.3314445395893405 0 -0.039668382727836717 -0.32560359559526031 0 -0.033802973987086503 -0.33588719504380232 0 -0.025091366668787349 -0.3314445395893405 0 -0.025091366668787349 -0.3314445395893405 0 -0.01336054918728761 -0.35201173848642592 0 -0.033802973987086503 -0.33588719504380232 0 -0.025091366668787349 -0.3314445395893405 0 -0.01336054918728761 -0.35201173848642592 0 -0.025091366668787349 -0.3314445395893405 0 -0.01532372128421448 -0.33535839064186268 0 -0.01336054918728761 -0.35201173848642592 0 -0.025091366668787349 -0.3314445395893405 0 -0.022734703789933738 -0.32728556430890232 0 -0.01532372128421448 -0.33535839064186268 0 -0.025091366668787349 -0.3314445395893405 0 -0.01532372128421448 -0.33535839064186268 0 -0.022734703789933738 -0.32728556430890232 0 -0.01532372128421448 -0.33535839064186268 0 -0.037889090671270123 -0.30900677381518998 0 -0.014390974368570029 -0.31032982847088841 0 -0.022734703789933738 -0.32728556430890232 0 -0.037889090671270123 -0.30900677381518998 0 -0.025091366668787349 -0.3314445395893405 0 -0.022734703789933738 -0.32728556430890232 0 -0.014390974368570029 -0.31032982847088841 0 -0.022734703789933738 -0.32728556430890232 0 -0.01532372128421448 -0.33535839064186268 0 -0.014390974368570029 -0.31032982847088841 0 -0.010269967403673339 -0.33738340682189533 0 -0.014390974368570029 -0.31032982847088841 0 -0.010269967403673339 -0.33738340682189533 0 -0.01532372128421448 -0.33535839064186268 0 -0.014390974368570029 -0.31032982847088841 0 -0.010269967403673339 -0.33738340682189533 0 0.001904989571353899 -0.32214434476741449 0 -0.010269967403673339 -0.33738340682189533 0 -0.0096343958099064687 -0.34155580596031437 0 0.0075807645751098419 -0.34453611388615663 0 -0.010269967403673339 -0.33738340682189533 0 0.0075807645751098419 -0.34453611388615663 0 -0.0096343958099064687 -0.34155580596031437 0 -0.01532372128421448 -0.33535839064186268 0 -0.01336054918728761 -0.35201173848642592 0 -0.010269967403673339 -0.33738340682189533 0 -0.0096343958099064687 -0.34155580596031437 0 -0.010269967403673339 -0.33738340682189533 0 -0.0096343958099064687 -0.34155580596031437 0 -0.01532372128421448 -0.33535839064186268 0 -0.0096343958099064687 -0.34155580596031437 0 -0.01532372128421448 -0.33535839064186268 0 -0.010269967403673339 -0.33738340682189533 0 -0.01532372128421448 -0.33535839064186268 0 -0.010269967403673339 -0.33738340682189533 0 0.0034794820758208261 -0.33361449123698089 0 0.001904989571353899 -0.32214434476741449 0 -0.0096343958099064687 -0.34155580596031437 0 -0.0070150904897389628 -0.35875101633193152 0 -0.0096343958099064687 -0.34155580596031437 0 -0.0070150904897389628 -0.35875101633193152 0 -0.01336054918728761 -0.35201173848642592 0 -0.0096343958099064687 -0.34155580596031437 0 -0.0070150904897389628 -0.35875101633193152 0 0.0099352179383349771 -0.36287309999936251 0 -0.033802973987086503 -0.33588719504380232 0 -0.01336054918728761 -0.35201173848642592 0 -0.029167969020145641 -0.35132386348016093 0 -0.01336054918728761 -0.35201173848642592 0 -0.029167969020145641 -0.35132386348016093 0 -0.021437446366364531 -0.36359117576668931 0 -0.033802973987086503 -0.33588719504380232 0 -0.01336054918728761 -0.35201173848642592 0 -0.035070660285960877 -0.35841379707961513 0 -0.029167969020145641 -0.35132386348016093 0 -0.021437446366364531 -0.36359117576668931 0 -0.040000350022935588 -0.37213681664196291 0 -0.021437446366364531 -0.36359117576668931 0 -0.02618172091304426 -0.37743656618445498 0 -0.021437446366364531 -0.36359117576668931 0 -0.002178803782163227 -0.37161627006544062 0 -0.02618172091304426 -0.37743656618445498 0 -0.040000350022935588 -0.37213681664196291 0 -0.021437446366364531 -0.36359117576668931 0 -0.01336054918728761 -0.35201173848642592 0 -0.021437446366364531 -0.36359117576668931 0 -0.002178803782163227 -0.37161627006544062 0 -0.01336054918728761 -0.35201173848642592 0 -0.002178803782163227 -0.37161627006544062 0 -0.0070150904897389628 -0.35875101633193152 0 -0.01336054918728761 -0.35201173848642592 0 -0.002178803782163227 -0.37161627006544062 0 -0.002178803782163227 -0.37161627006544062 0 -0.026336278995230201 -0.38905167830789189 0 -0.002178803782163227 -0.37161627006544062 0 -0.0066930742226519926 -0.39143820132839208 0 -0.026336278995230201 -0.38905167830789189 0 -0.0066930742226519926 -0.39143820132839208 0 -0.001728596279610697 -0.40597762003102339 0 -0.017737199096442072 -0.40073047040120602 0 -0.0066930742226519926 -0.39143820132839208 0 -0.017737199096442072 -0.40073047040120602 0 -0.026336278995230201 -0.38905167830789189 0 -0.017737199096442072 -0.40073047040120602 0 -0.026336278995230201 -0.38905167830789189 0 -0.033287388117186109 -0.40399871831440642 0 -0.002178803782163227 -0.37161627006544062 0 -0.026336278995230201 -0.38905167830789189 0 -0.02618172091304426 -0.37743656618445498 0 -0.026336278995230201 -0.38905167830789189 0 -0.02618172091304426 -0.37743656618445498 0 -0.033482850758781962 -0.383939184607547 0 -0.02618172091304426 -0.37743656618445498 0 -0.042372487296275553 -0.37905951185084519 0 -0.033482850758781962 -0.383939184607547 0 -0.02618172091304426 -0.37743656618445498 0 -0.042372487296275553 -0.37905951185084519 0 -0.040000350022935588 -0.37213681664196291 0 -0.02618172091304426 -0.37743656618445498 0 -0.042372487296275553 -0.37905951185084519 0 -0.042372487296275553 -0.37905951185084519 0 -0.039040915830577852 -0.39020898208699611 0 -0.049048127186911553 -0.38756594990863991 0 -0.042372487296275553 -0.37905951185084519 0 -0.039040915830577852 -0.39020898208699611 0 -0.033482850758781962 -0.383939184607547 0 -0.026336278995230201 -0.38905167830789189 0 -0.039040915830577852 -0.39020898208699611 0 -0.033482850758781962 -0.383939184607547 0 -0.026336278995230201 -0.38905167830789189 0 -0.050493754208297943 -0.40648708655034188 0 -0.039040915830577852 -0.39020898208699611 0 -0.048181286987745188 -0.3967611761759377 0 -0.050493754208297943 -0.40648708655034188 0 -0.026336278995230201 -0.38905167830789189 0 -0.039040915830577852 -0.39020898208699611 0 -0.050493754208297943 -0.40648708655034188 0 -0.026336278995230201 -0.38905167830789189 0 -0.033287388117186109 -0.40399871831440642 0 -0.050493754208297943 -0.40648708655034188 0 -0.039040915830577852 -0.39020898208699611 0 -0.048181286987745188 -0.3967611761759377 0 -0.049048127186911553 -0.38756594990863991 0 -0.048181286987745188 -0.3967611761759377 0 -0.055512870853615448 -0.39455951290216967 0 -0.049048127186911553 -0.38756594990863991 0 -0.055512870853615448 -0.39455951290216967 0 -0.052509649903146327 -0.40794203844841681 0 -0.074281153156084773 -0.38791836881244668 0 -0.048181286987745188 -0.3967611761759377 0 -0.055512870853615448 -0.39455951290216967 0 -0.050493754208297943 -0.40648708655034188 0 -0.055512870853615448 -0.39455951290216967 0 -0.052509649903146327 -0.40794203844841681 0 -0.050493754208297943 -0.40648708655034188 0 -0.048181286987745188 -0.3967611761759377 0 -0.050493754208297943 -0.40648708655034188 0 -0.040000350022935588 -0.37213681664196291 0 -0.042372487296275553 -0.37905951185084519 0 -0.058563253679506787 -0.38068245751723601 0 -0.042372487296275553 -0.37905951185084519 0 -0.058563253679506787 -0.38068245751723601 0 -0.040000350022935588 -0.37213681664196291 0 -0.058563253679506787 -0.38068245751723601 0 -0.042372487296275553 -0.37905951185084519 0 -0.058563253679506787 -0.38068245751723601 0 -0.049048127186911553 -0.38756594990863991 0 -0.055512870853615448 -0.39455951290216967 0 -0.058563253679506787 -0.38068245751723601 0 -0.049048127186911553 -0.38756594990863991 0 -0.055571169944573007 -0.4278419796903028 0 -0.060002998013559863 -0.44648162232419802 0 -0.069408814394604765 -0.42365151461769918 0 -0.055571169944573007 -0.4278419796903028 0 -0.060002998013559863 -0.44648162232419802 0 -0.055571169944573007 -0.4278419796903028 0 -0.04142135733128624 -0.43391233418184683 0 -0.048623679129421588 -0.44273110985945369 0 -0.055571169944573007 -0.4278419796903028 0 -0.059775586818595829 -0.41787661413097049 0 -0.069408814394604765 -0.42365151461769918 0 -0.055571169944573007 -0.4278419796903028 0 -0.059775586818595829 -0.41787661413097049 0 -0.052509649903146327 -0.40794203844841681 0 -0.055571169944573007 -0.4278419796903028 0 -0.052509649903146327 -0.40794203844841681 0 -0.038621424185474637 -0.4207153063468223 0 -0.055571169944573007 -0.4278419796903028 0 -0.052509649903146327 -0.40794203844841681 0 -0.052509649903146327 -0.40794203844841681 0 -0.070248957975066639 -0.42074520084202788 0 -0.059775586818595829 -0.41787661413097049 0 -0.052509649903146327 -0.40794203844841681 0 -0.070248957975066639 -0.42074520084202788 0 -0.052509649903146327 -0.40794203844841681 0 -0.050493754208297943 -0.40648708655034188 0 -0.041470954428671609 -0.41006675355118111 0 -0.052509649903146327 -0.40794203844841681 0 -0.050493754208297943 -0.40648708655034188 0 -0.052509649903146327 -0.40794203844841681 0 -0.038621424185474637 -0.4207153063468223 0 -0.033287388117186109 -0.40399871831440642 0 -0.050493754208297943 -0.40648708655034188 0 -0.041470954428671609 -0.41006675355118111 0 -0.052509649903146327 -0.40794203844841681 0 -0.041470954428671609 -0.41006675355118111 0 -0.038621424185474637 -0.4207153063468223 0 -0.033287388117186109 -0.40399871831440642 0 -0.041470954428671609 -0.41006675355118111 0 -0.027792962261932352 -0.41547375898907968 0 -0.041470954428671609 -0.41006675355118111 0 -0.038621424185474637 -0.4207153063468223 0 -0.027792962261932352 -0.41547375898907968 0 -0.055571169944573007 -0.4278419796903028 0 -0.038621424185474637 -0.4207153063468223 0 -0.04142135733128624 -0.43391233418184683 0 -0.038621424185474637 -0.4207153063468223 0 -0.026103506495360269 -0.43222827563723731 0 -0.038621424185474637 -0.4207153063468223 0 -0.04142135733128624 -0.43391233418184683 0 -0.026103506495360269 -0.43222827563723731 0 -0.04142135733128624 -0.43391233418184683 0 -0.026103506495360269 -0.43222827563723731 0 -0.035662081446574762 -0.44437129177822371 0 -0.026103506495360269 -0.43222827563723731 0 -0.027792962261932352 -0.41547375898907968 0 -0.009537301248459449 -0.42510302968362512 0 -0.026103506495360269 -0.43222827563723731 0 -0.009537301248459449 -0.42510302968362512 0 -0.019709463090837601 -0.44530454005801179 0 -0.038621424185474637 -0.4207153063468223 0 -0.026103506495360269 -0.43222827563723731 0 -0.027792962261932352 -0.41547375898907968 0 -0.017737199096442072 -0.40073047040120602 0 -0.027792962261932352 -0.41547375898907968 0 -0.009537301248459449 -0.42510302968362512 0 -0.017737199096442072 -0.40073047040120602 0 -0.033287388117186109 -0.40399871831440642 0 -0.027792962261932352 -0.41547375898907968 0 -0.001728596279610697 -0.40597762003102339 0 -0.017737199096442072 -0.40073047040120602 0 -0.009537301248459449 -0.42510302968362512 0 -0.017737199096442072 -0.40073047040120602 0 -0.009537301248459449 -0.42510302968362512 0 -0.001728596279610697 -0.40597762003102339 0 -0.009537301248459449 -0.42510302968362512 0 0.0082246319185010179 -0.41465428951275207 0 -0.009537301248459449 -0.42510302968362512 0 -0.0013374034004768371 -0.44947558896604423 0 -0.009537301248459449 -0.42510302968362512 0 -0.0013374034004768371 -0.44947558896604423 0 0.01039378864355619 -0.42848339288335913 0 -0.009537301248459449 -0.42510302968362512 0 -0.0013374034004768371 -0.44947558896604423 0 -0.019709463090837601 -0.44530454005801179 0 -0.0013374034004768371 -0.44947558896604423 0 -0.014612752260004851 -0.46155177919014362 0 -0.019709463090837601 -0.44530454005801179 0 -0.0013374034004768371 -0.44947558896604423 0 -0.014612752260004851 -0.46155177919014362 0 0.0068624944475057766 -0.47384814824846327 0 -0.014612752260004851 -0.46155177919014362 0 -0.028521420705905499 -0.4674310816654948 0 -0.030789477839635839 -0.45543267362212791 0 -0.014612752260004851 -0.46155177919014362 0 -0.030789477839635839 -0.45543267362212791 0 -0.019709463090837601 -0.44530454005801179 0 -0.030789477839635839 -0.45543267362212791 0 -0.019709463090837601 -0.44530454005801179 0 -0.035662081446574762 -0.44437129177822371 0 -0.026103506495360269 -0.43222827563723731 0 -0.019709463090837601 -0.44530454005801179 0 -0.035662081446574762 -0.44437129177822371 0 -0.015217900669161011 -0.5 0 -0.01418124297067914 -0.47781864258071971 0 0.0024053695883212941 -0.48891336768777249 0 -0.01418124297067914 -0.47781864258071971 0 0.0068624944475057766 -0.47384814824846327 0 0.0024053695883212941 -0.48891336768777249 0 -0.014612752260004851 -0.46155177919014362 0 -0.01418124297067914 -0.47781864258071971 0 0.0068624944475057766 -0.47384814824846327 0 -0.014612752260004851 -0.46155177919014362 0 -0.028521420705905499 -0.4674310816654948 0 -0.01418124297067914 -0.47781864258071971 0 -0.028521420705905499 -0.4674310816654948 0 -0.01418124297067914 -0.47781864258071971 0 -0.027752274071966478 -0.47742461628286209 0 -0.015217900669161011 -0.5 0 -0.027752274071966478 -0.47742461628286209 0 -0.038171784631523778 -0.48284131767108018 0 -0.015217900669161011 -0.5 0 -0.01418124297067914 -0.47781864258071971 0 -0.027752274071966478 -0.47742461628286209 0 -0.015217900669161011 -0.5 0 -0.043972809743024373 -0.5 0 -0.038171784631523778 -0.48284131767108018 0 -0.043972809743024373 -0.5 0 -0.038171784631523778 -0.48284131767108018 0 -0.049841179956411519 -0.48183723669954598 0 -0.038171784631523778 -0.48284131767108018 0 -0.048675315621036823 -0.47094071089761919 0 -0.038171784631523778 -0.48284131767108018 0 -0.048675315621036823 -0.47094071089761919 0 -0.049841179956411519 -0.48183723669954598 0 -0.027752274071966478 -0.47742461628286209 0 -0.038171784631523778 -0.48284131767108018 0 -0.038764373548703768 -0.47063519779216179 0 -0.028521420705905499 -0.4674310816654948 0 -0.027752274071966478 -0.47742461628286209 0 -0.038764373548703768 -0.47063519779216179 0 -0.038764373548703768 -0.47063519779216179 0 -0.048675315621036823 -0.47094071089761919 0 -0.045335619097383061 -0.46570514195792412 0 -0.038171784631523778 -0.48284131767108018 0 -0.038764373548703768 -0.47063519779216179 0 -0.048675315621036823 -0.47094071089761919 0 -0.048675315621036823 -0.47094071089761919 0 -0.055120034750126161 -0.47128965669693351 0 -0.049841179956411519 -0.48183723669954598 0 -0.048675315621036823 -0.47094071089761919 0 -0.055120034750126161 -0.47128965669693351 0 -0.057384894248553399 -0.46524593439390849 0 -0.055120034750126161 -0.47128965669693351 0 -0.059149819292987238 -0.47777467248794547 0 -0.064422500494955764 -0.4650694252783244 0 -0.059149819292987238 -0.47777467248794547 0 -0.049841179956411519 -0.48183723669954598 0 -0.058853327493046781 -0.48842932436532971 0 -0.055120034750126161 -0.47128965669693351 0 -0.059149819292987238 -0.47777467248794547 0 -0.049841179956411519 -0.48183723669954598 0 -0.059149819292987238 -0.47777467248794547 0 -0.058853327493046781 -0.48842932436532971 0 -0.068575109655922298 -0.48253471263916042 0 -0.043972809743024373 -0.5 0 -0.058853327493046781 -0.48842932436532971 0 -0.072727718816887776 -0.49999999999999672 0 -0.043972809743024373 -0.5 0 -0.049841179956411519 -0.48183723669954598 0 -0.058853327493046781 -0.48842932436532971 0 -0.045123684251444827 -0.45223268167437758 0 -0.035662081446574762 -0.44437129177822371 0 -0.048623679129421588 -0.44273110985945369 0 -0.04142135733128624 -0.43391233418184683 0 -0.035662081446574762 -0.44437129177822371 0 -0.048623679129421588 -0.44273110985945369 0 -0.030789477839635839 -0.45543267362212791 0 -0.045123684251444827 -0.45223268167437758 0 -0.035662081446574762 -0.44437129177822371 0 -0.030789477839635839 -0.45543267362212791 0 -0.045123684251444827 -0.45223268167437758 0 -0.04007978340352341 -0.46172459869688548 0 -0.028521420705905499 -0.4674310816654948 0 -0.030789477839635839 -0.45543267362212791 0 -0.04007978340352341 -0.46172459869688548 0 -0.028521420705905499 -0.4674310816654948 0 -0.038764373548703768 -0.47063519779216179 0 -0.04007978340352341 -0.46172459869688548 0 -0.038764373548703768 -0.47063519779216179 0 -0.04007978340352341 -0.46172459869688548 0 -0.045335619097383061 -0.46570514195792412 0 -0.04007978340352341 -0.46172459869688548 0 -0.045335619097383061 -0.46570514195792412 0 -0.047248161051959649 -0.4591011094540644 0 -0.045123684251444827 -0.45223268167437758 0 -0.04007978340352341 -0.46172459869688548 0 -0.047248161051959649 -0.4591011094540644 0 -0.045123684251444827 -0.45223268167437758 0 -0.050581796861615229 -0.45333412325219669 0 -0.047248161051959649 -0.4591011094540644 0 -0.050581796861615229 -0.45333412325219669 0 -0.047248161051959649 -0.4591011094540644 0 -0.051910461861691633 -0.46612409294888979 0 -0.051910461861691633 -0.46612409294888979 0 -0.05917884661055 -0.4590401041241583 0 -0.060002998013559863 -0.44648162232419802 0 -0.051910461861691633 -0.46612409294888979 0 -0.060002998013559863 -0.44648162232419802 0 -0.050581796861615229 -0.45333412325219669 0 -0.051910461861691633 -0.46612409294888979 0 -0.060002998013559863 -0.44648162232419802 0 -0.048675315621036823 -0.47094071089761919 0 -0.05917884661055 -0.4590401041241583 0 -0.048675315621036823 -0.47094071089761919 0 -0.051910461861691633 -0.46612409294888979 0 -0.05917884661055 -0.4590401041241583 0 -0.048675315621036823 -0.47094071089761919 0 -0.045335619097383061 -0.46570514195792412 0 -0.051910461861691633 -0.46612409294888979 0 -0.045335619097383061 -0.46570514195792412 0 -0.047248161051959649 -0.4591011094540644 0 -0.051910461861691633 -0.46612409294888979 0 -0.055120034750126161 -0.47128965669693351 0 -0.057384894248553399 -0.46524593439390849 0 -0.064422500494955764 -0.4650694252783244 0 -0.048675315621036823 -0.47094071089761919 0 -0.057384894248553399 -0.46524593439390849 0 -0.05917884661055 -0.4590401041241583 0 -0.057384894248553399 -0.46524593439390849 0 -0.05917884661055 -0.4590401041241583 0 -0.059237257045792073 -0.46090013765886428 0 -0.064422500494955764 -0.4650694252783244 0 -0.057384894248553399 -0.46524593439390849 0 -0.059237257045792073 -0.46090013765886428 0 -0.064422500494955764 -0.4650694252783244 0 -0.057384894248553399 -0.46524593439390849 0 -0.059237257045792073 -0.46090013765886428 0 -0.05917884661055 -0.4590401041241583 0 -0.059237257045792073 -0.46090013765886428 0 -0.062180371227510647 -0.45563934639583059 0 -0.064422500494955764 -0.4650694252783244 0 -0.059237257045792073 -0.46090013765886428 0 -0.05917884661055 -0.4590401041241583 0 -0.062180371227510647 -0.45563934639583059 0 -0.05917884661055 -0.4590401041241583 0 -0.062180371227510647 -0.45563934639583059 0 -0.05917884661055 -0.4590401041241583 0 -0.061269440441321127 -0.45180810022505591 0 -0.05917884661055 -0.4590401041241583 0 -0.062180371227510647 -0.45563934639583059 0 -0.061269440441321127 -0.45180810022505591 0 -0.062180371227510647 -0.45563934639583059 0 -0.061269440441321127 -0.45180810022505591 0 -0.055571169944573007 -0.4278419796903028 0 -0.060002998013559863 -0.44648162232419802 0 -0.048623679129421588 -0.44273110985945369 0 -0.05917884661055 -0.4590401041241583 0 -0.061269440441321127 -0.45180810022505591 0 -0.060002998013559863 -0.44648162232419802 0 -0.061269440441321127 -0.45180810022505591 0 -0.060002998013559863 -0.44648162232419802 0 -0.050581796861615229 -0.45333412325219669 0 -0.060002998013559863 -0.44648162232419802 0 -0.048623679129421588 -0.44273110985945369 0 -0.045123684251444827 -0.45223268167437758 0 -0.050581796861615229 -0.45333412325219669 0 -0.048623679129421588 -0.44273110985945369 0 -0.061269440441321127 -0.45180810022505591 0 -0.069408814394604765 -0.42365151461769918 0 -0.062180371227510647 -0.45563934639583059 0 -0.061269440441321127 -0.45180810022505591 0 -0.077098496045509793 -0.43873696019506903 0 -0.062180371227510647 -0.45563934639583059 0 -0.077098496045509793 -0.43873696019506903 0 -0.073769461018799692 -0.45951707792468061 0 -0.061269440441321127 -0.45180810022505591 0 -0.077098496045509793 -0.43873696019506903 0 -0.069408814394604765 -0.42365151461769918 0 -0.061269440441321127 -0.45180810022505591 0 -0.060002998013559863 -0.44648162232419802 0 -0.069408814394604765 -0.42365151461769918 0 -0.062180371227510647 -0.45563934639583059 0 -0.077098496045509793 -0.43873696019506903 0 -0.062180371227510647 -0.45563934639583059 0 -0.064422500494955764 -0.4650694252783244 0 -0.062180371227510647 -0.45563934639583059 0 -0.064422500494955764 -0.4650694252783244 0 -0.073769461018799692 -0.45951707792468061 0 -0.084521355142842869 -0.45759592347480388 0 -0.086143661312174283 -0.48253471263916248 0 -0.099165393688022629 -0.46120376842987459 0 -0.073769461018799692 -0.45951707792468061 0 -0.084521355142842869 -0.45759592347480388 0 -0.086143661312174283 -0.48253471263916248 0 -0.084521355142842869 -0.45759592347480388 0 -0.089624247433654214 -0.44685599598904568 0 -0.099165393688022629 -0.46120376842987459 0 -0.077098496045509793 -0.43873696019506903 0 -0.084521355142842869 -0.45759592347480388 0 -0.089624247433654214 -0.44685599598904568 0 -0.077098496045509793 -0.43873696019506903 0 -0.073769461018799692 -0.45951707792468061 0 -0.084521355142842869 -0.45759592347480388 0 -0.089624247433654214 -0.44685599598904568 0 -0.099878095611554862 -0.4393977270813314 0 -0.089545628933694749 -0.43673796215895883 0 -0.077098496045509793 -0.43873696019506903 0 -0.089624247433654214 -0.44685599598904568 0 -0.089545628933694749 -0.43673796215895883 0 -0.072727718816887776 -0.49999999999999672 0 -0.068575109655922298 -0.48253471263916042 0 -0.058853327493046781 -0.48842932436532971 0 -0.072727718816887776 -0.49999999999999672 0 -0.068575109655922298 -0.48253471263916042 0 -0.072727718816887776 -0.49999999999999672 0 -0.068575109655922298 -0.48253471263916042 0 -0.086143661312174283 -0.48253471263916248 0 -0.064422500494955764 -0.4650694252783244 0 -0.068575109655922298 -0.48253471263916042 0 -0.059149819292987238 -0.47777467248794547 0 -0.064422500494955764 -0.4650694252783244 0 -0.068575109655922298 -0.48253471263916042 0 -0.064422500494955764 -0.4650694252783244 0 -0.073769461018799692 -0.45951707792468061 0 -0.086143661312174283 -0.48253471263916248 0 -0.064422500494955764 -0.4650694252783244 0 -0.068575109655922298 -0.48253471263916042 0 -0.086143661312174283 -0.48253471263916248 0 -0.064422500494955764 -0.4650694252783244 0 -0.086143661312174283 -0.48253471263916248 0 -0.072727718816887776 -0.49999999999999672 0 -0.086143661312174283 -0.48253471263916248 0 -0.090296270473140428 -0.5 0 -0.086143661312174283 -0.48253471263916248 0 -0.090296270473140428 -0.5 0 -0.10786482212939311 -0.50000000000000011 0 -0.086143661312174283 -0.48253471263916248 0 -0.10786482212939311 -0.50000000000000011 0 -0.086143661312174283 -0.48253471263916248 0 -0.10786482212939311 -0.50000000000000011 0 -0.1056577076014347 -0.47999846360012538 0 -0.086143661312174283 -0.48253471263916248 0 -0.1056577076014347 -0.47999846360012538 0 -0.099165393688022629 -0.46120376842987459 0 -0.1056577076014347 -0.47999846360012538 0 -0.12108079434187891 -0.47202921183540031 0 -0.099165393688022629 -0.46120376842987459 0 -0.1056577076014347 -0.47999846360012538 0 -0.12108079434187891 -0.47202921183540031 0 -0.1206292342060253 -0.48641385964910883 0 -0.131118449396015 -0.5 0 -0.10786482212939311 -0.50000000000000011 0 -0.1206292342060253 -0.48641385964910883 0 -0.10786482212939311 -0.50000000000000011 0 -0.1056577076014347 -0.47999846360012538 0 -0.1206292342060253 -0.48641385964910883 0 -0.099878095611554862 -0.4393977270813314 0 -0.099165393688022629 -0.46120376842987459 0 -0.099878095611554862 -0.4393977270813314 0 -0.099165393688022629 -0.46120376842987459 0 -0.11615585050415531 -0.45102464773050138 0 -0.089624247433654214 -0.44685599598904568 0 -0.099878095611554862 -0.4393977270813314 0 -0.099165393688022629 -0.46120376842987459 0 -0.12108079434187891 -0.47202921183540031 0 -0.099165393688022629 -0.46120376842987459 0 -0.11615585050415531 -0.45102464773050138 0 -0.13077987840644981 -0.46069854066347632 0 -0.12108079434187891 -0.47202921183540031 0 -0.11615585050415531 -0.45102464773050138 0 -0.13194602454298601 -0.43962244526902572 0 -0.11615585050415531 -0.45102464773050138 0 -0.1129403580353462 -0.43280081863281078 0 -0.099878095611554862 -0.4393977270813314 0 -0.11615585050415531 -0.45102464773050138 0 -0.1129403580353462 -0.43280081863281078 0 -0.13194602454298601 -0.43962244526902572 0 -0.1165997240041481 -0.41847011486561592 0 -0.13194602454298601 -0.43962244526902572 0 -0.1129403580353462 -0.43280081863281078 0 -0.1165997240041481 -0.41847011486561592 0 -0.1129403580353462 -0.43280081863281078 0 -0.1079125428112538 -0.41892639524425412 0 -0.1165997240041481 -0.41847011486561592 0 -0.099878095611554862 -0.4393977270813314 0 -0.100590797535087 -0.41759168573278821 0 -0.092016620863508841 -0.4218345739943074 0 -0.099878095611554862 -0.4393977270813314 0 -0.089545628933694749 -0.43673796215895883 0 -0.092016620863508841 -0.4218345739943074 0 -0.099878095611554862 -0.4393977270813314 0 -0.1129403580353462 -0.43280081863281078 0 -0.10283731640903 -0.42510314405888588 0 -0.099878095611554862 -0.4393977270813314 0 -0.100590797535087 -0.41759168573278821 0 -0.099878095611554862 -0.4393977270813314 0 -0.10283731640903 -0.42510314405888588 0 -0.100590797535087 -0.41759168573278821 0 -0.1129403580353462 -0.43280081863281078 0 -0.10283731640903 -0.42510314405888588 0 -0.1079125428112538 -0.41892639524425412 0 -0.100590797535087 -0.41759168573278821 0 -0.1012534234653099 -0.39731778446220639 0 -0.1165997240041481 -0.41847011486561592 0 -0.1012534234653099 -0.39731778446220639 0 -0.100590797535087 -0.41759168573278821 0 -0.094499944748829334 -0.39722631626938482 0 -0.088610052547492879 -0.41006814396079783 0 -0.100590797535087 -0.41759168573278821 0 -0.1079125428112538 -0.41892639524425412 0 -0.1012534234653099 -0.39731778446220639 0 -0.100590797535087 -0.41759168573278821 0 -0.094499944748829334 -0.39722631626938482 0 -0.1079125428112538 -0.41892639524425412 0 -0.1165997240041481 -0.41847011486561592 0 -0.1012534234653099 -0.39731778446220639 0 -0.10283731640903 -0.42510314405888588 0 -0.100590797535087 -0.41759168573278821 0 -0.1079125428112538 -0.41892639524425412 0 -0.10283731640903 -0.42510314405888588 0 -0.100590797535087 -0.41759168573278821 0 -0.12592730430259419 -0.40432488328170318 0 -0.1165997240041481 -0.41847011486561592 0 -0.1152538145686829 -0.39895411709426332 0 -0.1165997240041481 -0.41847011486561592 0 -0.1152538145686829 -0.39895411709426332 0 -0.1012534234653099 -0.39731778446220639 0 -0.12526638733901391 -0.39147447277512609 0 -0.12592730430259419 -0.40432488328170318 0 -0.1152538145686829 -0.39895411709426332 0 -0.12526638733901391 -0.39147447277512609 0 -0.1152538145686829 -0.39895411709426332 0 -0.1147112201852714 -0.38836266809632891 0 -0.1152538145686829 -0.39895411709426332 0 -0.1147112201852714 -0.38836266809632891 0 -0.1077648281157602 -0.39377477908459929 0 -0.12526638733901391 -0.39147447277512609 0 -0.12201267174342199 -0.37938718301114999 0 -0.1147112201852714 -0.38836266809632891 0 -0.1147112201852714 -0.38836266809632891 0 -0.1094440337948836 -0.37923577087639421 0 -0.1073228884697877 -0.3875649225559597 0 -0.1147112201852714 -0.38836266809632891 0 -0.1073228884697877 -0.3875649225559597 0 -0.1077648281157602 -0.39377477908459929 0 -0.12201267174342199 -0.37938718301114999 0 -0.1147112201852714 -0.38836266809632891 0 -0.1094440337948836 -0.37923577087639421 0 -0.1159926709000937 -0.36685414663024191 0 -0.12201267174342199 -0.37938718301114999 0 -0.1094440337948836 -0.37923577087639421 0 -0.1024060606807759 -0.36205135125861898 0 -0.1094440337948836 -0.37923577087639421 0 -0.1016559479587178 -0.38500202459504551 0 -0.1094440337948836 -0.37923577087639421 0 -0.1016559479587178 -0.38500202459504551 0 -0.1073228884697877 -0.3875649225559597 0 -0.1016559479587178 -0.38500202459504551 0 -0.1014693111655476 -0.390712419775258 0 -0.1016559479587178 -0.38500202459504551 0 -0.1073228884697877 -0.3875649225559597 0 -0.1014693111655476 -0.390712419775258 0 -0.1016559479587178 -0.38500202459504551 0 -0.091585827134305964 -0.3839926061052007 0 -0.1016559479587178 -0.38500202459504551 0 -0.1014693111655476 -0.390712419775258 0 -0.093729726096669103 -0.3869476153003294 0 -0.1016559479587178 -0.38500202459504551 0 -0.091585827134305964 -0.3839926061052007 0 -0.093729726096669103 -0.3869476153003294 0 -0.1014693111655476 -0.390712419775258 0 -0.093729726096669103 -0.3869476153003294 0 -0.1016559479587178 -0.38500202459504551 0 -0.095426438310298192 -0.37780241062099151 0 -0.091585827134305964 -0.3839926061052007 0 -0.100590797535087 -0.41759168573278821 0 -0.1012534234653099 -0.39731778446220639 0 -0.099487365185966847 -0.39952233119993291 0 -0.100590797535087 -0.41759168573278821 0 -0.094499944748829334 -0.39722631626938482 0 -0.099487365185966847 -0.39952233119993291 0 -0.1152538145686829 -0.39895411709426332 0 -0.1077648281157602 -0.39377477908459929 0 -0.1012534234653099 -0.39731778446220639 0 -0.1073228884697877 -0.3875649225559597 0 -0.1077648281157602 -0.39377477908459929 0 -0.1014693111655476 -0.390712419775258 0 -0.1077648281157602 -0.39377477908459929 0 -0.1012534234653099 -0.39731778446220639 0 -0.1014693111655476 -0.390712419775258 0 -0.1077648281157602 -0.39377477908459929 0 -0.1014693111655476 -0.390712419775258 0 -0.1012534234653099 -0.39731778446220639 0 -0.094499944748829334 -0.39722631626938482 0 -0.099487365185966847 -0.39952233119993291 0 -0.1012534234653099 -0.39731778446220639 0 -0.094499944748829334 -0.39722631626938482 0 -0.093729726096669103 -0.3869476153003294 0 -0.1012534234653099 -0.39731778446220639 0 -0.1014693111655476 -0.390712419775258 0 -0.093729726096669103 -0.3869476153003294 0 -0.1012534234653099 -0.39731778446220639 0 -0.093729726096669103 -0.3869476153003294 0 -0.1012534234653099 -0.39731778446220639 0 -0.1014693111655476 -0.390712419775258 0 -0.094499944748829334 -0.39722631626938482 0 -0.099487365185966847 -0.39952233119993291 0 -0.094499944748829334 -0.39722631626938482 0 -0.085553154766675646 -0.40134027138503481 0 -0.088610052547492879 -0.41006814396079783 0 -0.094499944748829334 -0.39722631626938482 0 -0.082560309743270749 -0.39172977139542609 0 -0.085553154766675646 -0.40134027138503481 0 -0.094499944748829334 -0.39722631626938482 0 -0.082560309743270749 -0.39172977139542609 0 -0.091033556626635648 -0.38563610430902873 0 -0.094499944748829334 -0.39722631626938482 0 -0.082560309743270749 -0.39172977139542609 0 -0.094499944748829334 -0.39722631626938482 0 -0.091033556626635648 -0.38563610430902873 0 -0.082560309743270749 -0.39172977139542609 0 -0.079097438192195432 -0.39013559964190198 0 -0.074673198083630793 -0.40544040024196493 0 -0.082560309743270749 -0.39172977139542609 0 -0.079097438192195432 -0.39013559964190198 0 -0.082560309743270749 -0.39172977139542609 0 -0.076542312027108539 -0.406336853914531 0 -0.082560309743270749 -0.39172977139542609 0 -0.085553154766675646 -0.40134027138503481 0 -0.076542312027108539 -0.406336853914531 0 -0.085553154766675646 -0.40134027138503481 0 -0.076542312027108539 -0.406336853914531 0 -0.088610052547492879 -0.41006814396079783 0 -0.090139611558562177 -0.37333304007799939 0 -0.088525620654428705 -0.37725057202694517 0 -0.088525620654428705 -0.37725057202694517 0 -0.087954911787112483 -0.37534235041220648 0 -0.08170780991661282 -0.38109255286014232 0 -0.090139611558562177 -0.37333304007799939 0 -0.088525620654428705 -0.37725057202694517 0 -0.087954911787112483 -0.37534235041220648 0 -0.088525620654428705 -0.37725057202694517 0 -0.087954911787112483 -0.37534235041220648 0 -0.090139611558562177 -0.37333304007799939 0 -0.095426438310298192 -0.37780241062099151 0 -0.088525620654428705 -0.37725057202694517 0 -0.088525620654428705 -0.37725057202694517 0 -0.091585827134305964 -0.3839926061052007 0 -0.095426438310298192 -0.37780241062099151 0 -0.088525620654428705 -0.37725057202694517 0 -0.091585827134305964 -0.3839926061052007 0 -0.088525620654428705 -0.37725057202694517 0 -0.086634605294488312 -0.38349630075200858 0 -0.088525620654428705 -0.37725057202694517 0 -0.086634605294488312 -0.38349630075200858 0 -0.091585827134305964 -0.3839926061052007 0 -0.082560309743270749 -0.39172977139542609 0 -0.086634605294488312 -0.38349630075200858 0 -0.091033556626635648 -0.38563610430902873 0 -0.094499944748829334 -0.39722631626938482 0 -0.091033556626635648 -0.38563610430902873 0 -0.093729726096669103 -0.3869476153003294 0 -0.086634605294488312 -0.38349630075200858 0 -0.091585827134305964 -0.3839926061052007 0 -0.086634605294488312 -0.38349630075200858 0 -0.091033556626635648 -0.38563610430902873 0 -0.086634605294488312 -0.38349630075200858 0 -0.091585827134305964 -0.3839926061052007 0 -0.091033556626635648 -0.38563610430902873 0 -0.091585827134305964 -0.3839926061052007 0 -0.091033556626635648 -0.38563610430902873 0 -0.093729726096669103 -0.3869476153003294 0 -0.091033556626635648 -0.38563610430902873 0 -0.093729726096669103 -0.3869476153003294 0 -0.091585827134305964 -0.3839926061052007 0 -0.093729726096669103 -0.3869476153003294 0 -0.091585827134305964 -0.3839926061052007 0 -0.091033556626635648 -0.38563610430902873 0 -0.082560309743270749 -0.39172977139542609 0 -0.086634605294488312 -0.38349630075200858 0 -0.082560309743270749 -0.39172977139542609 0 -0.086634605294488312 -0.38349630075200858 0 -0.081174899406055781 -0.38294902548401538 0 -0.082560309743270749 -0.39172977139542609 0 -0.079097438192195432 -0.39013559964190198 0 -0.081174899406055781 -0.38294902548401538 0 -0.079097438192195432 -0.39013559964190198 0 -0.081174899406055781 -0.38294902548401538 0 -0.074281153156084773 -0.38791836881244668 0 -0.079097438192195432 -0.39013559964190198 0 -0.081174899406055781 -0.38294902548401538 0 -0.086634605294488312 -0.38349630075200858 0 -0.081174899406055781 -0.38294902548401538 0 -0.088525620654428705 -0.37725057202694517 0 -0.086634605294488312 -0.38349630075200858 0 -0.08170780991661282 -0.38109255286014232 0 -0.086634605294488312 -0.38349630075200858 0 -0.081174899406055781 -0.38294902548401538 0 -0.08170780991661282 -0.38109255286014232 0 -0.086634605294488312 -0.38349630075200858 0 -0.08170780991661282 -0.38109255286014232 0 -0.081174899406055781 -0.38294902548401538 0 -0.08170780991661282 -0.38109255286014232 0 -0.087954911787112483 -0.37534235041220648 0 -0.08170780991661282 -0.38109255286014232 0 -0.055512870853615448 -0.39455951290216967 0 -0.058563253679506787 -0.38068245751723601 0 -0.074281153156084773 -0.38791836881244668 0 -0.058563253679506787 -0.38068245751723601 0 -0.074281153156084773 -0.38791836881244668 0 -0.058387822440418388 -0.36975607908058028 0 -0.08170780991661282 -0.38109255286014232 0 -0.058387822440418388 -0.36975607908058028 0 -0.081174899406055781 -0.38294902548401538 0 -0.08170780991661282 -0.38109255286014232 0 -0.058563253679506787 -0.38068245751723601 0 -0.081174899406055781 -0.38294902548401538 0 -0.074281153156084773 -0.38791836881244668 0 -0.058563253679506787 -0.38068245751723601 0 -0.081174899406055781 -0.38294902548401538 0 -0.058387822440418388 -0.36975607908058028 0 -0.058563253679506787 -0.38068245751723601 0 -0.081174899406055781 -0.38294902548401538 0 -0.081174899406055781 -0.38294902548401538 0 -0.074281153156084773 -0.38791836881244668 0 -0.079097438192195432 -0.39013559964190198 0 -0.074281153156084773 -0.38791836881244668 0 -0.079097438192195432 -0.39013559964190198 0 -0.074281153156084773 -0.38791836881244668 0 -0.074673198083630793 -0.40544040024196493 0 -0.052509649903146327 -0.40794203844841681 0 -0.074281153156084773 -0.38791836881244668 0 -0.052509649903146327 -0.40794203844841681 0 -0.074281153156084773 -0.38791836881244668 0 -0.074673198083630793 -0.40544040024196493 0 -0.082560309743270749 -0.39172977139542609 0 -0.074673198083630793 -0.40544040024196493 0 -0.076542312027108539 -0.406336853914531 0 -0.079097438192195432 -0.39013559964190198 0 -0.074673198083630793 -0.40544040024196493 0 -0.052509649903146327 -0.40794203844841681 0 -0.074673198083630793 -0.40544040024196493 0 -0.070248957975066639 -0.42074520084202788 0 -0.076542312027108539 -0.406336853914531 0 -0.070248957975066639 -0.42074520084202788 0 -0.074673198083630793 -0.40544040024196493 0 -0.070248957975066639 -0.42074520084202788 0 -0.074673198083630793 -0.40544040024196493 0 -0.076542312027108539 -0.406336853914531 0 -0.070248957975066639 -0.42074520084202788 0 -0.070248957975066639 -0.42074520084202788 0 -0.077246521605040669 -0.42579562012280953 0 -0.078194253298280558 -0.41865647959270891 0 -0.076542312027108539 -0.406336853914531 0 -0.070248957975066639 -0.42074520084202788 0 -0.078194253298280558 -0.41865647959270891 0 -0.059775586818595829 -0.41787661413097049 0 -0.070248957975066639 -0.42074520084202788 0 -0.069408814394604765 -0.42365151461769918 0 -0.060002998013559863 -0.44648162232419802 0 -0.069408814394604765 -0.42365151461769918 0 -0.070248957975066639 -0.42074520084202788 0 -0.069408814394604765 -0.42365151461769918 0 -0.077098496045509793 -0.43873696019506903 0 -0.069408814394604765 -0.42365151461769918 0 -0.077246521605040669 -0.42579562012280953 0 -0.070248957975066639 -0.42074520084202788 0 -0.069408814394604765 -0.42365151461769918 0 -0.077246521605040669 -0.42579562012280953 0 -0.070248957975066639 -0.42074520084202788 0 -0.077246521605040669 -0.42579562012280953 0 -0.077246521605040669 -0.42579562012280953 0 -0.082943237868067593 -0.4239856173255338 0 -0.078194253298280558 -0.41865647959270891 0 -0.077098496045509793 -0.43873696019506903 0 -0.082943237868067593 -0.4239856173255338 0 -0.092016620863508841 -0.4218345739943074 0 -0.077098496045509793 -0.43873696019506903 0 -0.089545628933694749 -0.43673796215895883 0 -0.092016620863508841 -0.4218345739943074 0 -0.077098496045509793 -0.43873696019506903 0 -0.092016620863508841 -0.4218345739943074 0 -0.077098496045509793 -0.43873696019506903 0 -0.077246521605040669 -0.42579562012280953 0 -0.082943237868067593 -0.4239856173255338 0 -0.100590797535087 -0.41759168573278821 0 -0.092016620863508841 -0.4218345739943074 0 -0.088610052547492879 -0.41006814396079783 0 -0.082943237868067593 -0.4239856173255338 0 -0.092016620863508841 -0.4218345739943074 0 -0.083714880680240453 -0.41622037016703428 0 -0.092016620863508841 -0.4218345739943074 0 -0.088610052547492879 -0.41006814396079783 0 -0.083714880680240453 -0.41622037016703428 0 -0.076542312027108539 -0.406336853914531 0 -0.088610052547492879 -0.41006814396079783 0 -0.083714880680240453 -0.41622037016703428 0 -0.076542312027108539 -0.406336853914531 0 -0.078194253298280558 -0.41865647959270891 0 -0.083714880680240453 -0.41622037016703428 0 -0.082943237868067593 -0.4239856173255338 0 -0.078194253298280558 -0.41865647959270891 0 -0.083714880680240453 -0.41622037016703428 0 -0.081808777729522386 -0.083143660930833002 0 -0.073985000225153141 -0.099795971436559522 0 -0.085935801107842547 -0.09579043756499836 0 -0.081808777729522386 -0.083143660930833002 0 -0.085935801107842547 -0.09579043756499836 0 -0.094306078709463503 -0.087148618235937392 0 -0.081808777729522386 -0.083143660930833002 0 -0.094306078709463503 -0.087148618235937392 0 -0.095869533599057435 -0.074719864200214883 0 -0.081808777729522386 -0.083143660930833002 0 -0.087640100333796281 -0.066301869750421821 0 -0.076351800502585221 -0.068318825045574613 0 -0.081808777729522386 -0.083143660930833002 0 -0.087640100333796281 -0.066301869750421821 0 -0.095869533599057435 -0.074719864200214883 0 -0.087640100333796281 -0.066301869750421821 0 -0.095869533599057435 -0.074719864200214883 0 -0.097041901727127691 -0.062312633498474219 0 -0.087640100333796281 -0.066301869750421821 0 -0.076351800502585221 -0.068318825045574613 0 -0.079773765115028039 -0.057914828426178573 0 -0.081808777729522386 -0.083143660930833002 0 -0.076351800502585221 -0.068318825045574613 0 -0.068001603171865072 -0.074911341683796137 0 -0.068001603171865072 -0.074911341683796137 0 -0.065822825648978775 -0.060485584973140792 0 -0.05753372126900759 -0.073422836261521005 0 -0.076351800502585221 -0.068318825045574613 0 -0.068001603171865072 -0.074911341683796137 0 -0.065822825648978775 -0.060485584973140792 0 -0.068001603171865072 -0.074911341683796137 0 -0.066670257350634976 -0.085780572793309681 0 -0.05753372126900759 -0.073422836261521005 0 -0.081808777729522386 -0.083143660930833002 0 -0.066670257350634976 -0.085780572793309681 0 -0.073985000225153141 -0.099795971436559522 0 -0.081808777729522386 -0.083143660930833002 0 -0.068001603171865072 -0.074911341683796137 0 -0.066670257350634976 -0.085780572793309681 0 -0.066670257350634976 -0.085780572793309681 0 -0.073985000225153141 -0.099795971436559522 0 -0.05982498813170789 -0.10249801488187529 0 -0.073985000225153141 -0.099795971436559522 0 -0.065415314349395459 -0.11473522154729129 0 -0.05982498813170789 -0.10249801488187529 0 -0.073985000225153141 -0.099795971436559522 0 -0.065415314349395459 -0.11473522154729129 0 -0.07727601190464152 -0.1134926659633375 0 -0.065415314349395459 -0.11473522154729129 0 -0.060446148579459319 -0.1303024678998376 0 -0.071674103496310607 -0.1250344835198243 0 -0.07727601190464152 -0.1134926659633375 0 -0.082994471061899833 -0.1234246307735777 0 -0.071674103496310607 -0.1250344835198243 0 -0.065415314349395459 -0.11473522154729129 0 -0.07727601190464152 -0.1134926659633375 0 -0.071674103496310607 -0.1250344835198243 0 -0.07727601190464152 -0.1134926659633375 0 -0.082994471061899833 -0.1234246307735777 0 -0.08680817640523622 -0.1078855820033275 0 -0.082994471061899833 -0.1234246307735777 0 -0.08680817640523622 -0.1078855820033275 0 -0.095277368860953449 -0.1178446661751102 0 -0.082994471061899833 -0.1234246307735777 0 -0.095277368860953449 -0.1178446661751102 0 -0.095971306836852913 -0.13086642389395989 0 -0.085935801107842547 -0.09579043756499836 0 -0.08680817640523622 -0.1078855820033275 0 -0.1020424425883536 -0.1015565670732166 0 -0.073985000225153141 -0.099795971436559522 0 -0.085935801107842547 -0.09579043756499836 0 -0.08680817640523622 -0.1078855820033275 0 -0.073985000225153141 -0.099795971436559522 0 -0.07727601190464152 -0.1134926659633375 0 -0.08680817640523622 -0.1078855820033275 0 -0.085935801107842547 -0.09579043756499836 0 -0.1020424425883536 -0.1015565670732166 0 -0.094306078709463503 -0.087148618235937392 0 -0.08680817640523622 -0.1078855820033275 0 -0.1020424425883536 -0.1015565670732166 0 -0.095277368860953449 -0.1178446661751102 0 -0.1020424425883536 -0.1015565670732166 0 -0.095277368860953449 -0.1178446661751102 0 -0.1085913382140784 -0.11903379143832921 0 -0.095277368860953449 -0.1178446661751102 0 -0.1085913382140784 -0.11903379143832921 0 -0.095971306836852913 -0.13086642389395989 0 -0.1085913382140784 -0.11903379143832921 0 -0.11893842975153809 -0.10446969177473921 0 -0.12736410167423581 -0.1213878944680517 0 -0.1020424425883536 -0.1015565670732166 0 -0.11893842975153809 -0.10446969177473921 0 -0.1189291253072135 -0.086669643832799348 0 -0.1020424425883536 -0.1015565670732166 0 -0.1085913382140784 -0.11903379143832921 0 -0.11893842975153809 -0.10446969177473921 0 -0.1189291253072135 -0.086669643832799348 0 -0.1056068239719813 -0.08097964138995771 0 -0.1139735316209595 -0.069866863539540053 0 -0.1020424425883536 -0.1015565670732166 0 -0.1189291253072135 -0.086669643832799348 0 -0.1056068239719813 -0.08097964138995771 0 -0.1020424425883536 -0.1015565670732166 0 -0.1056068239719813 -0.08097964138995771 0 -0.094306078709463503 -0.087148618235937392 0 -0.1056068239719813 -0.08097964138995771 0 -0.094306078709463503 -0.087148618235937392 0 -0.095869533599057435 -0.074719864200214883 0 -0.095869533599057435 -0.074719864200214883 0 -0.1039382096783972 -0.069282752438140638 0 -0.097041901727127691 -0.062312633498474219 0 -0.1056068239719813 -0.08097964138995771 0 -0.1039382096783972 -0.069282752438140638 0 -0.1139735316209595 -0.069866863539540053 0 -0.1056068239719813 -0.08097964138995771 0 -0.095869533599057435 -0.074719864200214883 0 -0.1039382096783972 -0.069282752438140638 0 -0.1039382096783972 -0.069282752438140638 0 -0.097041901727127691 -0.062312633498474219 0 -0.1071992574728602 -0.058534759562516372 0 -0.1039382096783972 -0.069282752438140638 0 -0.1139735316209595 -0.069866863539540053 0 -0.1071992574728602 -0.058534759562516372 0 -0.1189291253072135 -0.086669643832799348 0 -0.1139735316209595 -0.069866863539540053 0 -0.12930964035960699 -0.069761515268982097 0 -0.1139735316209595 -0.069866863539540053 0 -0.1161384697585349 -0.056806249932135858 0 -0.12930964035960699 -0.069761515268982097 0 -0.1161384697585349 -0.056806249932135858 0 -0.1208541397454049 -0.045822468476665427 0 -0.12930964035960699 -0.069761515268982097 0 -0.1248214427799455 -0.0491876577223027 0 -0.1208541397454049 -0.045822468476665427 0 -0.12930964035960699 -0.069761515268982097 0 -0.1161384697585349 -0.056806249932135858 0 -0.10991932193075039 -0.048940588969216672 0 -0.1071992574728602 -0.058534759562516372 0 -0.1139735316209595 -0.069866863539540053 0 -0.1161384697585349 -0.056806249932135858 0 -0.1071992574728602 -0.058534759562516372 0 -0.1161384697585349 -0.056806249932135858 0 -0.10991932193075039 -0.048940588969216672 0 -0.1149357203506014 -0.047989794102068162 0 -0.1161384697585349 -0.056806249932135858 0 -0.1149357203506014 -0.047989794102068162 0 -0.1208541397454049 -0.045822468476665427 0 -0.1248214427799455 -0.0491876577223027 0 -0.1208541397454049 -0.045822468476665427 0 -0.1246368416492639 -0.024787675353444869 0 -0.1128309499677153 -0.040389869030254703 0 -0.10841128816168021 -0.033720593740292633 0 -0.11239863913120279 -0.021883421684348751 0 -0.1208541397454049 -0.045822468476665427 0 -0.11239863913120279 -0.021883421684348751 0 -0.1208541397454049 -0.045822468476665427 0 -0.1128309499677153 -0.040389869030254703 0 -0.11239863913120279 -0.021883421684348751 0 -0.1248214427799455 -0.0491876577223027 0 -0.1246368416492639 -0.024787675353444869 0 -0.1149357203506014 -0.047989794102068162 0 -0.1208541397454049 -0.045822468476665427 0 -0.1128309499677153 -0.040389869030254703 0 -0.10991932193075039 -0.048940588969216672 0 -0.1149357203506014 -0.047989794102068162 0 -0.1128309499677153 -0.040389869030254703 0 -0.10991932193075039 -0.048940588969216672 0 -0.1128309499677153 -0.040389869030254703 0 -0.1049963107845597 -0.040407454994133042 0 -0.10991932193075039 -0.048940588969216672 0 -0.1049963107845597 -0.040407454994133042 0 -0.1002598709818909 -0.049694841596422852 0 -0.1049963107845597 -0.040407454994133042 0 -0.10841128816168021 -0.033720593740292633 0 -0.1012581714839781 -0.029848849592015819 0 -0.1128309499677153 -0.040389869030254703 0 -0.1049963107845597 -0.040407454994133042 0 -0.10841128816168021 -0.033720593740292633 0 -0.097298262181343159 -0.039849987036595598 0 -0.1012581714839781 -0.029848849592015819 0 -0.091929659262116575 -0.033133953101480262 0 -0.1049963107845597 -0.040407454994133042 0 -0.097298262181343159 -0.039849987036595598 0 -0.1012581714839781 -0.029848849592015819 0 -0.1049963107845597 -0.040407454994133042 0 -0.097298262181343159 -0.039849987036595598 0 -0.1002598709818909 -0.049694841596422852 0 -0.097298262181343159 -0.039849987036595598 0 -0.1002598709818909 -0.049694841596422852 0 -0.087030839425688053 -0.044306376809862227 0 -0.1002598709818909 -0.049694841596422852 0 -0.097041901727127691 -0.062312633498474219 0 -0.1071992574728602 -0.058534759562516372 0 -0.1002598709818909 -0.049694841596422852 0 -0.097041901727127691 -0.062312633498474219 0 -0.090164156554830718 -0.055563028782557922 0 -0.10991932193075039 -0.048940588969216672 0 -0.1002598709818909 -0.049694841596422852 0 -0.1071992574728602 -0.058534759562516372 0 -0.1244522405185825 -0.00038769298458709092 0 -0.11239863913120279 -0.021883421684348751 0 -0.10394313851700079 0.0020556251079679459 0 -0.1244522405185825 -0.00038769298458709092 0 -0.1246368416492639 -0.024787675353444869 0 -0.1244522405185825 -0.00038769298458709092 0 -0.11239863913120279 -0.021883421684348751 0 -0.1246368416492639 -0.024787675353444869 0 -0.1208541397454049 -0.045822468476665427 0 -0.11239863913120279 -0.021883421684348751 0 -0.1246368416492639 -0.024787675353444869 0 -0.10841128816168021 -0.033720593740292633 0 -0.11239863913120279 -0.021883421684348751 0 -0.1012581714839781 -0.029848849592015819 0 -0.1012581714839781 -0.029848849592015819 0 -0.090677970328949406 -0.022917020247476879 0 -0.091929659262116575 -0.033133953101480262 0 -0.1012581714839781 -0.029848849592015819 0 -0.1001126671493681 -0.016491083843961009 0 -0.090677970328949406 -0.022917020247476879 0 -0.1001126671493681 -0.016491083843961009 0 -0.092285416285709382 -0.0098617528039315269 0 -0.090677970328949406 -0.022917020247476879 0 -0.11239863913120279 -0.021883421684348751 0 -0.1012581714839781 -0.029848849592015819 0 -0.1001126671493681 -0.016491083843961009 0 -0.1001126671493681 -0.016491083843961009 0 -0.092285416285709382 -0.0098617528039315269 0 -0.10394313851700079 0.0020556251079679459 0 -0.11239863913120279 -0.021883421684348751 0 -0.1001126671493681 -0.016491083843961009 0 -0.10394313851700079 0.0020556251079679459 0 -0.092285416285709382 -0.0098617528039315269 0 -0.10394313851700079 0.0020556251079679459 0 -0.085958893623968774 0.001514634656162053 0 -0.11239863913120279 -0.021883421684348751 0 -0.10394313851700079 0.0020556251079679459 0 -0.092285416285709382 -0.0098617528039315269 0 -0.077949881484559239 -0.01307625006729682 0 -0.085958893623968774 0.001514634656162053 0 -0.092285416285709382 -0.0098617528039315269 0 -0.090677970328949406 -0.022917020247476879 0 -0.077949881484559239 -0.01307625006729682 0 -0.090677970328949406 -0.022917020247476879 0 -0.073841780976804383 -0.025706854857452392 0 -0.077949881484559239 -0.01307625006729682 0 -0.090677970328949406 -0.022917020247476879 0 -0.073841780976804383 -0.025706854857452392 0 -0.082102255714859004 -0.034759692131612618 0 -0.090677970328949406 -0.022917020247476879 0 -0.091929659262116575 -0.033133953101480262 0 -0.082102255714859004 -0.034759692131612618 0 -0.073841780976804383 -0.025706854857452392 0 -0.077949881484559239 -0.01307625006729682 0 -0.060674527584339763 -0.015412449877807689 0 -0.073841780976804383 -0.025706854857452392 0 -0.060674527584339763 -0.015412449877807689 0 -0.060703590497751453 -0.03101491529774986 0 -0.077949881484559239 -0.01307625006729682 0 -0.085958893623968774 0.001514634656162053 0 -0.065648076432031049 0.00090955339710942099 0 -0.077949881484559239 -0.01307625006729682 0 -0.060674527584339763 -0.015412449877807689 0 -0.065648076432031049 0.00090955339710942099 0 -0.079773765115028039 -0.057914828426178573 0 -0.087030839425688053 -0.044306376809862227 0 -0.074827122987446398 -0.047817820925290022 0 -0.079773765115028039 -0.057914828426178573 0 -0.090164156554830718 -0.055563028782557922 0 -0.087030839425688053 -0.044306376809862227 0 -0.087640100333796281 -0.066301869750421821 0 -0.079773765115028039 -0.057914828426178573 0 -0.090164156554830718 -0.055563028782557922 0 -0.087640100333796281 -0.066301869750421821 0 -0.097041901727127691 -0.062312633498474219 0 -0.090164156554830718 -0.055563028782557922 0 -0.1002598709818909 -0.049694841596422852 0 -0.090164156554830718 -0.055563028782557922 0 -0.087030839425688053 -0.044306376809862227 0 -0.097298262181343159 -0.039849987036595598 0 -0.087030839425688053 -0.044306376809862227 0 -0.091929659262116575 -0.033133953101480262 0 -0.087030839425688053 -0.044306376809862227 0 -0.091929659262116575 -0.033133953101480262 0 -0.082102255714859004 -0.034759692131612618 0 -0.087030839425688053 -0.044306376809862227 0 -0.082102255714859004 -0.034759692131612618 0 -0.074827122987446398 -0.047817820925290022 0 -0.082102255714859004 -0.034759692131612618 0 -0.070942460250367517 -0.03706080152277047 0 -0.074827122987446398 -0.047817820925290022 0 -0.073841780976804383 -0.025706854857452392 0 -0.082102255714859004 -0.034759692131612618 0 -0.070942460250367517 -0.03706080152277047 0 -0.073841780976804383 -0.025706854857452392 0 -0.070942460250367517 -0.03706080152277047 0 -0.060703590497751453 -0.03101491529774986 0 -0.070942460250367517 -0.03706080152277047 0 -0.061850736208416378 -0.044087883634974623 0 -0.060703590497751453 -0.03101491529774986 0 -0.070942460250367517 -0.03706080152277047 0 -0.074827122987446398 -0.047817820925290022 0 -0.061850736208416378 -0.044087883634974623 0 -0.074827122987446398 -0.047817820925290022 0 -0.065822825648978775 -0.060485584973140792 0 -0.061850736208416378 -0.044087883634974623 0 -0.079773765115028039 -0.057914828426178573 0 -0.074827122987446398 -0.047817820925290022 0 -0.065822825648978775 -0.060485584973140792 0 -0.076351800502585221 -0.068318825045574613 0 -0.079773765115028039 -0.057914828426178573 0 -0.065822825648978775 -0.060485584973140792 0 -0.065822825648978775 -0.060485584973140792 0 -0.051906109188989122 -0.051634581827710108 0 -0.055146373663134192 -0.063188587977351315 0 -0.065822825648978775 -0.060485584973140792 0 -0.051906109188989122 -0.051634581827710108 0 -0.061850736208416378 -0.044087883634974623 0 -0.051906109188989122 -0.051634581827710108 0 -0.044968642856814678 -0.064628327886466996 0 -0.055146373663134192 -0.063188587977351315 0 -0.061850736208416378 -0.044087883634974623 0 -0.048286593140243993 -0.039377229684959138 0 -0.060703590497751453 -0.03101491529774986 0 -0.051906109188989122 -0.051634581827710108 0 -0.061850736208416378 -0.044087883634974623 0 -0.048286593140243993 -0.039377229684959138 0 -0.048286593140243993 -0.039377229684959138 0 -0.039642814346724391 -0.052475069278980747 0 -0.030584103036016622 -0.035608219704199993 0 -0.039642814346724391 -0.052475069278980747 0 -0.024435088609687641 -0.049746151716912712 0 -0.030584103036016622 -0.035608219704199993 0 -0.048286593140243993 -0.039377229684959138 0 -0.044331283213942488 -0.020119990811347448 0 -0.030584103036016622 -0.035608219704199993 0 -0.039642814346724391 -0.052475069278980747 0 -0.03034189778213453 -0.060014988360291517 0 -0.024435088609687641 -0.049746151716912712 0 -0.039642814346724391 -0.052475069278980747 0 -0.03034189778213453 -0.060014988360291517 0 -0.044968642856814678 -0.064628327886466996 0 -0.051906109188989122 -0.051634581827710108 0 -0.039642814346724391 -0.052475069278980747 0 -0.044968642856814678 -0.064628327886466996 0 -0.051906109188989122 -0.051634581827710108 0 -0.048286593140243993 -0.039377229684959138 0 -0.039642814346724391 -0.052475069278980747 0 -0.060674527584339763 -0.015412449877807689 0 -0.044331283213942488 -0.020119990811347448 0 -0.045118160941850949 -0.00049033847668307538 0 -0.060674527584339763 -0.015412449877807689 0 -0.045118160941850949 -0.00049033847668307538 0 -0.065648076432031049 0.00090955339710942099 0 -0.048286593140243993 -0.039377229684959138 0 -0.060703590497751453 -0.03101491529774986 0 -0.044331283213942488 -0.020119990811347448 0 -0.060674527584339763 -0.015412449877807689 0 -0.060703590497751453 -0.03101491529774986 0 -0.044331283213942488 -0.020119990811347448 0 -0.044331283213942488 -0.020119990811347448 0 -0.027025641752002061 -0.0079319500279313396 0 -0.030584103036016622 -0.035608219704199993 0 -0.044331283213942488 -0.020119990811347448 0 -0.045118160941850949 -0.00049033847668307538 0 -0.027025641752002061 -0.0079319500279313396 0 -0.027025641752002061 -0.0079319500279313396 0 -0.0118242871531395 -0.020545428430059291 0 -0.0091716063734174208 -0.003332990253060792 0 -0.027025641752002061 -0.0079319500279313396 0 -0.0091716063734174208 -0.003332990253060792 0 -0.01566814095190756 0.010235570601176981 0 -0.027025641752002061 -0.0079319500279313396 0 -0.0118242871531395 -0.020545428430059291 0 -0.030584103036016622 -0.035608219704199993 0 -0.0118242871531395 -0.020545428430059291 0 -0.030584103036016622 -0.035608219704199993 0 -0.0118242871531395 -0.020545428430059291 0 0.006935528729737548 -0.0054826371559186567 0 0.0027408304473846411 -0.028176541972939319 0 -0.0118242871531395 -0.020545428430059291 0 -0.01026660782967455 -0.041229232136501717 0 0.0027408304473846411 -0.028176541972939319 0 -0.0118242871531395 -0.020545428430059291 0 -0.0091716063734174208 -0.003332990253060792 0 0.006935528729737548 -0.0054826371559186567 0 -0.0118242871531395 -0.020545428430059291 0 0.006935528729737548 -0.0054826371559186567 0 -0.024435088609687641 -0.049746151716912712 0 -0.01026660782967455 -0.041229232136501717 0 -0.01499476028908407 -0.06055090283160456 0 -0.03034189778213453 -0.060014988360291517 0 -0.01499476028908407 -0.06055090283160456 0 -0.03034189778213453 -0.060014988360291517 0 -0.024435088609687641 -0.049746151716912712 0 -0.01499476028908407 -0.06055090283160456 0 -0.024435088609687641 -0.049746151716912712 0 -0.030584103036016622 -0.035608219704199993 0 -0.01026660782967455 -0.041229232136501717 0 -0.0118242871531395 -0.020545428430059291 0 -0.030584103036016622 -0.035608219704199993 0 -0.01026660782967455 -0.041229232136501717 0 -0.01026660782967455 -0.041229232136501717 0 0.0096258971738255473 -0.043108802377643002 0 0.00035237720396625368 -0.061086817302918282 0 -0.01026660782967455 -0.041229232136501717 0 -0.01499476028908407 -0.06055090283160456 0 0.00035237720396625368 -0.061086817302918282 0 -0.01499476028908407 -0.06055090283160456 0 0.00035237720396625368 -0.061086817302918282 0 -0.011408129540087309 -0.083886203777590068 0 0.0065051428120863272 -0.082127796022149757 0 0.00035237720396625368 -0.061086817302918282 0 -0.011408129540087309 -0.083886203777590068 0 0.00035237720396625368 -0.061086817302918282 0 -0.01499476028908407 -0.06055090283160456 0 -0.011408129540087309 -0.083886203777590068 0 0.00035237720396625368 -0.061086817302918282 0 -0.011408129540087309 -0.083886203777590068 0 0.001856719827670471 -0.098182337095309047 0 0.0065051428120863272 -0.082127796022149757 0 -0.011408129540087309 -0.083886203777590068 0 -0.03053113156520738 -0.089911417014305078 0 -0.02316863628414112 -0.10668559025226169 0 -0.011408129540087309 -0.083886203777590068 0 -0.03053113156520738 -0.089911417014305078 0 -0.026049830403481512 -0.075342802050597457 0 -0.01499476028908407 -0.06055090283160456 0 -0.011408129540087309 -0.083886203777590068 0 -0.026049830403481512 -0.075342802050597457 0 -0.03034189778213453 -0.060014988360291517 0 -0.01499476028908407 -0.06055090283160456 0 -0.026049830403481512 -0.075342802050597457 0 -0.03034189778213453 -0.060014988360291517 0 -0.026049830403481512 -0.075342802050597457 0 -0.041349905228919973 -0.078428718904655664 0 -0.03034189778213453 -0.060014988360291517 0 -0.044968642856814678 -0.064628327886466996 0 -0.041349905228919973 -0.078428718904655664 0 -0.03053113156520738 -0.089911417014305078 0 -0.026049830403481512 -0.075342802050597457 0 -0.041349905228919973 -0.078428718904655664 0 -0.03053113156520738 -0.089911417014305078 0 -0.041349905228919973 -0.078428718904655664 0 -0.047432501145458397 -0.097370211357339573 0 -0.041349905228919973 -0.078428718904655664 0 -0.053879666709155317 -0.08598560359304859 0 -0.05753372126900759 -0.073422836261521005 0 -0.041349905228919973 -0.078428718904655664 0 -0.053879666709155317 -0.08598560359304859 0 -0.047432501145458397 -0.097370211357339573 0 -0.066670257350634976 -0.085780572793309681 0 -0.053879666709155317 -0.08598560359304859 0 -0.05982498813170789 -0.10249801488187529 0 -0.066670257350634976 -0.085780572793309681 0 -0.053879666709155317 -0.08598560359304859 0 -0.05753372126900759 -0.073422836261521005 0 -0.044968642856814678 -0.064628327886466996 0 -0.041349905228919973 -0.078428718904655664 0 -0.05753372126900759 -0.073422836261521005 0 -0.065822825648978775 -0.060485584973140792 0 -0.05753372126900759 -0.073422836261521005 0 -0.055146373663134192 -0.063188587977351315 0 -0.044968642856814678 -0.064628327886466996 0 -0.05753372126900759 -0.073422836261521005 0 -0.055146373663134192 -0.063188587977351315 0 -0.065415314349395459 -0.11473522154729129 0 -0.048239208743362072 -0.1165718691901324 0 -0.05982498813170789 -0.10249801488187529 0 -0.065415314349395459 -0.11473522154729129 0 -0.048239208743362072 -0.1165718691901324 0 -0.060446148579459319 -0.1303024678998376 0 -0.048239208743362072 -0.1165718691901324 0 -0.05982498813170789 -0.10249801488187529 0 -0.047432501145458397 -0.097370211357339573 0 -0.053879666709155317 -0.08598560359304859 0 -0.05982498813170789 -0.10249801488187529 0 -0.047432501145458397 -0.097370211357339573 0 -0.048239208743362072 -0.1165718691901324 0 -0.047432501145458397 -0.097370211357339573 0 -0.02316863628414112 -0.10668559025226169 0 -0.03053113156520738 -0.089911417014305078 0 -0.047432501145458397 -0.097370211357339573 0 -0.02316863628414112 -0.10668559025226169 0 -0.048239208743362072 -0.1165718691901324 0 -0.02316863628414112 -0.10668559025226169 0 -0.029948833034415319 -0.13246817914486481 0 -0.02316863628414112 -0.10668559025226169 0 -0.01250087523651249 -0.12826546419306251 0 -0.029948833034415319 -0.13246817914486481 0 -0.011408129540087309 -0.083886203777590068 0 -0.02316863628414112 -0.10668559025226169 0 -0.02316863628414112 -0.10668559025226169 0 0.0015243557028834459 -0.11711868301268021 0 0.001856719827670471 -0.098182337095309047 0 -0.011408129540087309 -0.083886203777590068 0 -0.02316863628414112 -0.10668559025226169 0 0.001856719827670471 -0.098182337095309047 0 -0.02316863628414112 -0.10668559025226169 0 -0.01250087523651249 -0.12826546419306251 0 0.0015243557028834459 -0.11711868301268021 0 -0.01250087523651249 -0.12826546419306251 0 -0.013317386200938249 -0.14799664519887931 0 0.0088678229424013627 -0.13941235935176011 0 -0.01250087523651249 -0.12826546419306251 0 0.0088678229424013627 -0.13941235935176011 0 0.0015243557028834459 -0.11711868301268021 0 -0.01250087523651249 -0.12826546419306251 0 -0.029948833034415319 -0.13246817914486481 0 -0.013317386200938249 -0.14799664519887931 0 -0.013317386200938249 -0.14799664519887931 0 -0.035502595344277812 -0.15658093104599841 0 -0.029948833034415319 -0.13246817914486481 0 -0.013317386200938249 -0.14799664519887931 0 -0.035502595344277812 -0.15658093104599841 0 -0.013317386200938249 -0.14799664519887931 0 0.0088678229424013627 -0.13941235935176011 0 -0.013317386200938249 -0.14799664519887931 0 0.0027310736070901482 -0.15493719994590471 0 0.0088678229424013627 -0.13941235935176011 0 -0.013317386200938249 -0.14799664519887931 0 -0.0013673002328405961 -0.1767093328090546 0 0.0027310736070901482 -0.15493719994590471 0 -0.013317386200938249 -0.14799664519887931 0 -0.0013673002328405961 -0.1767093328090546 0 -0.029934926785222919 -0.1776443960910804 0 -0.0013673002328405961 -0.1767093328090546 0 -0.0217915143334447 -0.19785215020996011 0 -0.0013673002328405961 -0.1767093328090546 0 -0.029934926785222919 -0.1776443960910804 0 -0.0217915143334447 -0.19785215020996011 0 -0.013317386200938249 -0.14799664519887931 0 -0.029934926785222919 -0.1776443960910804 0 -0.035502595344277812 -0.15658093104599841 0 -0.035502595344277812 -0.15658093104599841 0 -0.057687804487617317 -0.16516521689311761 0 -0.029934926785222919 -0.1776443960910804 0 -0.035502595344277812 -0.15658093104599841 0 -0.057687804487617317 -0.16516521689311761 0 -0.029934926785222919 -0.1776443960910804 0 -0.048583433801033478 -0.18728911877980611 0 -0.034676635542126917 -0.191298641696723 0 -0.029934926785222919 -0.1776443960910804 0 -0.048583433801033478 -0.18728911877980611 0 -0.057687804487617317 -0.16516521689311761 0 -0.048583433801033478 -0.18728911877980611 0 -0.057687804487617317 -0.16516521689311761 0 -0.063770138428779252 -0.18079669395549949 0 -0.035502595344277812 -0.15658093104599841 0 -0.057687804487617317 -0.16516521689311761 0 -0.06059931965736505 -0.14742373122833671 0 -0.035502595344277812 -0.15658093104599841 0 -0.06059931965736505 -0.14742373122833671 0 -0.046947221071775923 -0.13666943570183401 0 -0.048239208743362072 -0.1165718691901324 0 -0.046947221071775923 -0.13666943570183401 0 -0.060446148579459319 -0.1303024678998376 0 -0.06059931965736505 -0.14742373122833671 0 -0.046947221071775923 -0.13666943570183401 0 -0.060446148579459319 -0.1303024678998376 0 -0.048239208743362072 -0.1165718691901324 0 -0.029948833034415319 -0.13246817914486481 0 -0.046947221071775923 -0.13666943570183401 0 -0.029948833034415319 -0.13246817914486481 0 -0.035502595344277812 -0.15658093104599841 0 -0.046947221071775923 -0.13666943570183401 0 -0.03064478186574425 -0.25326356670072259 0 -0.026067501294639708 -0.24850247980592871 0 -0.033387688564450117 -0.24425465961654741 0 -0.026067501294639708 -0.24850247980592871 0 -0.02456862519526215 -0.24210395604782819 0 -0.033387688564450117 -0.24425465961654741 0 -0.02974340118516787 -0.23585106297766359 0 -0.02456862519526215 -0.24210395604782819 0 -0.02062871475200042 -0.2320366992723622 0 -0.02974340118516787 -0.23585106297766359 0 -0.02456862519526215 -0.24210395604782819 0 -0.033387688564450117 -0.24425465961654741 0 -0.02456862519526215 -0.24210395604782819 0 -0.01660477195623393 -0.2403164687020414 0 -0.02062871475200042 -0.2320366992723622 0 -0.02456862519526215 -0.24210395604782819 0 -0.01660477195623393 -0.2403164687020414 0 -0.01887874476148543 -0.24814250919209771 0 -0.026067501294639708 -0.24850247980592871 0 -0.02456862519526215 -0.24210395604782819 0 -0.01887874476148543 -0.24814250919209771 0 -0.01660477195623393 -0.2403164687020414 0 -0.01887874476148543 -0.24814250919209771 0 -0.0080727856436109482 -0.2481099565327444 0 -0.0080727856436109482 -0.2481099565327444 0 -0.0084819670471955304 -0.2367225590632196 0 0.0055632338660241776 -0.24332209518663511 0 -0.01660477195623393 -0.2403164687020414 0 -0.0084819670471955304 -0.2367225590632196 0 -0.02062871475200042 -0.2320366992723622 0 -0.01660477195623393 -0.2403164687020414 0 -0.0080727856436109482 -0.2481099565327444 0 -0.0084819670471955304 -0.2367225590632196 0 -0.0084819670471955304 -0.2367225590632196 0 -0.0075276580997289226 -0.21896018305478171 0 0.0032521440618358652 -0.23009641691855939 0 -0.0084819670471955304 -0.2367225590632196 0 -0.0075276580997289226 -0.21896018305478171 0 -0.02062871475200042 -0.2320366992723622 0 -0.0075276580997289226 -0.21896018305478171 0 -0.02062871475200042 -0.2320366992723622 0 -0.024832472176938718 -0.21885173135413241 0 -0.02974340118516787 -0.23585106297766359 0 -0.02062871475200042 -0.2320366992723622 0 -0.031998745265470661 -0.22641465662269231 0 -0.02062871475200042 -0.2320366992723622 0 -0.024832472176938718 -0.21885173135413241 0 -0.031998745265470661 -0.22641465662269231 0 -0.0075276580997289226 -0.21896018305478171 0 -0.024832472176938718 -0.21885173135413241 0 -0.0217915143334447 -0.19785215020996011 0 -0.024832472176938718 -0.21885173135413241 0 -0.0217915143334447 -0.19785215020996011 0 -0.042215728434048867 -0.21899496761086559 0 -0.0075276580997289226 -0.21896018305478171 0 -0.0217915143334447 -0.19785215020996011 0 0.003555539334036632 -0.19934620758084881 0 -0.0013673002328405961 -0.1767093328090546 0 -0.0217915143334447 -0.19785215020996011 0 0.003555539334036632 -0.19934620758084881 0 -0.029934926785222919 -0.1776443960910804 0 -0.0217915143334447 -0.19785215020996011 0 -0.034676635542126917 -0.191298641696723 0 -0.0217915143334447 -0.19785215020996011 0 -0.034676635542126917 -0.191298641696723 0 -0.04224094911505525 -0.20168175555289891 0 -0.048583433801033478 -0.18728911877980611 0 -0.034676635542126917 -0.191298641696723 0 -0.04224094911505525 -0.20168175555289891 0 -0.048583433801033478 -0.18728911877980611 0 -0.058327232484387218 -0.2013044317948425 0 -0.063770138428779252 -0.18079669395549949 0 -0.048583433801033478 -0.18728911877980611 0 -0.04224094911505525 -0.20168175555289891 0 -0.058327232484387218 -0.2013044317948425 0 -0.058327232484387218 -0.2013044317948425 0 -0.04785115009529034 -0.21335122322519601 0 -0.065984069430329237 -0.21594808513783789 0 -0.04224094911505525 -0.20168175555289891 0 -0.058327232484387218 -0.2013044317948425 0 -0.04785115009529034 -0.21335122322519601 0 -0.04785115009529034 -0.21335122322519601 0 -0.065984069430329237 -0.21594808513783789 0 -0.04785115009529034 -0.21335122322519601 0 -0.050089297127046031 -0.22131182591420251 0 -0.065984069430329237 -0.21594808513783789 0 -0.0217915143334447 -0.19785215020996011 0 -0.042215728434048867 -0.21899496761086559 0 -0.0217915143334447 -0.19785215020996011 0 -0.04224094911505525 -0.20168175555289891 0 -0.042215728434048867 -0.21899496761086559 0 -0.04224094911505525 -0.20168175555289891 0 -0.04785115009529034 -0.21335122322519601 0 -0.042215728434048867 -0.21899496761086559 0 -0.04785115009529034 -0.21335122322519601 0 -0.042215728434048867 -0.21899496761086559 0 -0.050089297127046031 -0.22131182591420251 0 -0.024832472176938718 -0.21885173135413241 0 -0.031998745265470661 -0.22641465662269231 0 -0.042215728434048867 -0.21899496761086559 0 -0.031998745265470661 -0.22641465662269231 0 -0.042215728434048867 -0.21899496761086559 0 -0.041320068815934301 -0.22639292378782619 0 -0.031998745265470661 -0.22641465662269231 0 -0.041320068815934301 -0.22639292378782619 0 -0.038133232148655979 -0.23444534332888789 0 -0.02974340118516787 -0.23585106297766359 0 -0.031998745265470661 -0.22641465662269231 0 -0.038133232148655979 -0.23444534332888789 0 -0.041320068815934301 -0.22639292378782619 0 -0.052151212760384272 -0.22988480121754831 0 -0.038133232148655979 -0.23444534332888789 0 -0.042215728434048867 -0.21899496761086559 0 -0.041320068815934301 -0.22639292378782619 0 -0.050089297127046031 -0.22131182591420251 0 -0.041320068815934301 -0.22639292378782619 0 -0.050089297127046031 -0.22131182591420251 0 -0.052151212760384272 -0.22988480121754831 0 -0.0567919256119837 -0.24387644547435741 0 -0.065984069430329237 -0.21594808513783789 0 -0.050089297127046031 -0.22131182591420251 0 -0.052151212760384272 -0.22988480121754831 0 -0.065984069430329237 -0.21594808513783789 0 -0.052151212760384272 -0.22988480121754831 0 -0.0567919256119837 -0.24387644547435741 0 -0.065984069430329237 -0.21594808513783789 0 -0.052151212760384272 -0.22988480121754831 0 -0.0567919256119837 -0.24387644547435741 0 -0.045207486351244337 -0.24272005325013779 0 -0.046517308340487992 -0.25474718453952289 0 -0.0567919256119837 -0.24387644547435741 0 -0.045207486351244337 -0.24272005325013779 0 -0.038581934025118947 -0.25114857380685968 0 -0.046517308340487992 -0.25474718453952289 0 -0.045207486351244337 -0.24272005325013779 0 -0.052151212760384272 -0.22988480121754831 0 -0.045207486351244337 -0.24272005325013779 0 -0.038133232148655979 -0.23444534332888789 0 -0.02974340118516787 -0.23585106297766359 0 -0.038133232148655979 -0.23444534332888789 0 -0.033387688564450117 -0.24425465961654741 0 -0.045207486351244337 -0.24272005325013779 0 -0.038133232148655979 -0.23444534332888789 0 -0.033387688564450117 -0.24425465961654741 0 -0.038581934025118947 -0.25114857380685968 0 -0.03064478186574425 -0.25326356670072259 0 -0.033387688564450117 -0.24425465961654741 0 -0.038581934025118947 -0.25114857380685968 0 -0.045207486351244337 -0.24272005325013779 0 -0.033387688564450117 -0.24425465961654741 0 -0.076282262678724011 -0.24169347649274159 0 -0.094544528280961701 -0.23130979592197831 0 -0.1005321994236209 -0.2431127607729493 0 -0.090174700483665673 -0.26498018187443112 0 -0.076282262678724011 -0.24169347649274159 0 -0.1005321994236209 -0.2431127607729493 0 -0.063484538676239377 -0.26413124226689111 0 -0.0567919256119837 -0.24387644547435741 0 -0.076282262678724011 -0.24169347649274159 0 -0.0567919256119837 -0.24387644547435741 0 -0.076282262678724011 -0.24169347649274159 0 -0.076216545617433393 -0.2267874217425101 0 -0.0567919256119837 -0.24387644547435741 0 -0.076216545617433393 -0.2267874217425101 0 -0.065984069430329237 -0.21594808513783789 0 -0.076216545617433393 -0.2267874217425101 0 -0.089079986681209755 -0.21925571071859279 0 -0.065984069430329237 -0.21594808513783789 0 -0.076282262678724011 -0.24169347649274159 0 -0.076216545617433393 -0.2267874217425101 0 -0.089079986681209755 -0.21925571071859279 0 -0.076282262678724011 -0.24169347649274159 0 -0.089079986681209755 -0.21925571071859279 0 -0.076282262678724011 -0.24169347649274159 0 -0.089079986681209755 -0.21925571071859279 0 -0.094544528280961701 -0.23130979592197831 0 -0.089079986681209755 -0.21925571071859279 0 -0.087982693832912948 -0.20610030108417279 0 -0.065984069430329237 -0.21594808513783789 0 -0.089079986681209755 -0.21925571071859279 0 -0.091681034097487346 -0.21469539259619891 0 -0.087982693832912948 -0.20610030108417279 0 -0.089079986681209755 -0.21925571071859279 0 -0.091681034097487346 -0.21469539259619891 0 -0.089079986681209755 -0.21925571071859279 0 -0.065984069430329237 -0.21594808513783789 0 -0.058327232484387218 -0.2013044317948425 0 -0.065984069430329237 -0.21594808513783789 0 -0.072928541530643487 -0.1948487939390374 0 -0.065984069430329237 -0.21594808513783789 0 -0.072928541530643487 -0.1948487939390374 0 -0.087982693832912948 -0.20610030108417279 0 -0.065984069430329237 -0.21594808513783789 0 -0.072928541530643487 -0.1948487939390374 0 -0.058327232484387218 -0.2013044317948425 0 -0.072928541530643487 -0.1948487939390374 0 -0.063770138428779252 -0.18079669395549949 0 -0.087982693832912948 -0.20610030108417279 0 -0.072928541530643487 -0.1948487939390374 0 -0.088647710124579282 -0.1895137930351245 0 -0.087982693832912948 -0.20610030108417279 0 -0.088647710124579282 -0.1895137930351245 0 -0.098413722631135098 -0.19641739989264009 0 -0.088647710124579282 -0.1895137930351245 0 -0.098413722631135098 -0.19641739989264009 0 -0.1039428787252024 -0.18306303235069041 0 -0.087982693832912948 -0.20610030108417279 0 -0.098413722631135098 -0.19641739989264009 0 -0.1018219586260966 -0.2062222809526808 0 -0.098413722631135098 -0.19641739989264009 0 -0.10967337184688419 -0.19718759204053191 0 -0.1018219586260966 -0.2062222809526808 0 -0.098413722631135098 -0.19641739989264009 0 -0.10967337184688419 -0.19718759204053191 0 -0.1039428787252024 -0.18306303235069041 0 -0.1039428787252024 -0.18306303235069041 0 -0.1280127438194481 -0.19237656196114411 0 -0.10967337184688419 -0.19718759204053191 0 -0.1178174188303993 -0.20556040013348681 0 -0.1280127438194481 -0.19237656196114411 0 -0.10967337184688419 -0.19718759204053191 0 -0.1039428787252024 -0.18306303235069041 0 -0.1280127438194481 -0.19237656196114411 0 -0.10967337184688419 -0.19718759204053191 0 -0.10961342770230489 -0.21003706569406461 0 -0.1178174188303993 -0.20556040013348681 0 -0.1178174188303993 -0.20556040013348681 0 -0.1109550451866443 -0.21888036136960631 0 -0.13246178853905299 -0.20873151589840269 0 -0.1109550451866443 -0.21888036136960631 0 -0.13246178853905299 -0.20873151589840269 0 -0.1109550451866443 -0.21888036136960631 0 -0.12407830270498089 -0.22426790937284519 0 -0.13246178853905299 -0.20873151589840269 0 -0.10961342770230489 -0.21003706569406461 0 -0.1178174188303993 -0.20556040013348681 0 -0.1109550451866443 -0.21888036136960631 0 -0.10961342770230489 -0.21003706569406461 0 -0.103172625086798 -0.22127395363072039 0 -0.1109550451866443 -0.21888036136960631 0 -0.10961342770230489 -0.21003706569406461 0 -0.1018219586260966 -0.2062222809526808 0 -0.103172625086798 -0.22127395363072039 0 -0.10967337184688419 -0.19718759204053191 0 -0.10961342770230489 -0.21003706569406461 0 -0.1018219586260966 -0.2062222809526808 0 -0.091681034097487346 -0.21469539259619891 0 -0.087982693832912948 -0.20610030108417279 0 -0.103172625086798 -0.22127395363072039 0 -0.089079986681209755 -0.21925571071859279 0 -0.091681034097487346 -0.21469539259619891 0 -0.103172625086798 -0.22127395363072039 0 -0.087982693832912948 -0.20610030108417279 0 -0.103172625086798 -0.22127395363072039 0 -0.087982693832912948 -0.20610030108417279 0 -0.1018219586260966 -0.2062222809526808 0 -0.103172625086798 -0.22127395363072039 0 -0.094544528280961701 -0.23130979592197831 0 -0.103172625086798 -0.22127395363072039 0 -0.1005321994236209 -0.2431127607729493 0 -0.089079986681209755 -0.21925571071859279 0 -0.103172625086798 -0.22127395363072039 0 -0.089079986681209755 -0.21925571071859279 0 -0.094544528280961701 -0.23130979592197831 0 -0.103172625086798 -0.22127395363072039 0 -0.103172625086798 -0.22127395363072039 0 -0.1223681628105569 -0.24044891992886891 0 -0.103172625086798 -0.22127395363072039 0 -0.12407830270498089 -0.22426790937284519 0 -0.1238233973506119 -0.23541481827178831 0 -0.103172625086798 -0.22127395363072039 0 -0.1223681628105569 -0.24044891992886891 0 -0.1238233973506119 -0.23541481827178831 0 -0.103172625086798 -0.22127395363072039 0 -0.12407830270498089 -0.22426790937284519 0 -0.103172625086798 -0.22127395363072039 0 -0.1109550451866443 -0.21888036136960631 0 -0.12407830270498089 -0.22426790937284519 0 -0.11757885349586771 -0.25701660664448461 0 -0.1223681628105569 -0.24044891992886891 0 -0.1005321994236209 -0.2431127607729493 0 -0.11757885349586771 -0.25701660664448461 0 -0.1223681628105569 -0.24044891992886891 0 -0.1223681628105569 -0.24044891992886891 0 -0.1238233973506119 -0.23541481827178831 0 -0.103172625086798 -0.22127395363072039 0 -0.1223681628105569 -0.24044891992886891 0 -0.1005321994236209 -0.2431127607729493 0 -0.088441251280713618 -0.1477167476767523 0 -0.085474651021334253 -0.13655174303235951 0 -0.077236065216807342 -0.1460130695171887 0 -0.088441251280713618 -0.1477167476767523 0 -0.077236065216807342 -0.1460130695171887 0 -0.072985053953480025 -0.15595005707556001 0 -0.088441251280713618 -0.1477167476767523 0 -0.093538562727787294 -0.15940564464812701 0 -0.098894310772838973 -0.14952020789867901 0 -0.088441251280713618 -0.1477167476767523 0 -0.085474651021334253 -0.13655174303235951 0 -0.095252038160572317 -0.1406191133899993 0 -0.085474651021334253 -0.13655174303235951 0 -0.095971306836852913 -0.13086642389395989 0 -0.095252038160572317 -0.1406191133899993 0 -0.082994471061899833 -0.1234246307735777 0 -0.085474651021334253 -0.13655174303235951 0 -0.095971306836852913 -0.13086642389395989 0 -0.082994471061899833 -0.1234246307735777 0 -0.085474651021334253 -0.13655174303235951 0 -0.073596501371478315 -0.1364787996572045 0 -0.085474651021334253 -0.13655174303235951 0 -0.073596501371478315 -0.1364787996572045 0 -0.077236065216807342 -0.1460130695171887 0 -0.06059931965736505 -0.14742373122833671 0 -0.060446148579459319 -0.1303024678998376 0 -0.073596501371478315 -0.1364787996572045 0 -0.082994471061899833 -0.1234246307735777 0 -0.073596501371478315 -0.1364787996572045 0 -0.071674103496310607 -0.1250344835198243 0 -0.060446148579459319 -0.1303024678998376 0 -0.073596501371478315 -0.1364787996572045 0 -0.071674103496310607 -0.1250344835198243 0 -0.06059931965736505 -0.14742373122833671 0 -0.073596501371478315 -0.1364787996572045 0 -0.077236065216807342 -0.1460130695171887 0 -0.057687804487617317 -0.16516521689311761 0 -0.06059931965736505 -0.14742373122833671 0 -0.072985053953480025 -0.15595005707556001 0 -0.06059931965736505 -0.14742373122833671 0 -0.077236065216807342 -0.1460130695171887 0 -0.072985053953480025 -0.15595005707556001 0 -0.057687804487617317 -0.16516521689311761 0 -0.079873013630956835 -0.17374950274023659 0 -0.057687804487617317 -0.16516521689311761 0 -0.072985053953480025 -0.15595005707556001 0 -0.079873013630956835 -0.17374950274023659 0 -0.072928541530643487 -0.1948487939390374 0 -0.079873013630956835 -0.17374950274023659 0 -0.057687804487617317 -0.16516521689311761 0 -0.063770138428779252 -0.18079669395549949 0 -0.079873013630956835 -0.17374950274023659 0 -0.072928541530643487 -0.1948487939390374 0 -0.063770138428779252 -0.18079669395549949 0 -0.079873013630956835 -0.17374950274023659 0 -0.072928541530643487 -0.1948487939390374 0 -0.088647710124579282 -0.1895137930351245 0 -0.079873013630956835 -0.17374950274023659 0 -0.079873013630956835 -0.17374950274023659 0 -0.1039428787252024 -0.18306303235069041 0 -0.088647710124579282 -0.1895137930351245 0 -0.079873013630956835 -0.17374950274023659 0 -0.1039428787252024 -0.18306303235069041 0 -0.088441251280713618 -0.1477167476767523 0 -0.079873013630956835 -0.17374950274023659 0 -0.079873013630956835 -0.17374950274023659 0 -0.093538562727787294 -0.15940564464812701 0 -0.098088850166783578 -0.16700629557107341 0 -0.088441251280713618 -0.1477167476767523 0 -0.079873013630956835 -0.17374950274023659 0 -0.093538562727787294 -0.15940564464812701 0 -0.088441251280713618 -0.1477167476767523 0 -0.072985053953480025 -0.15595005707556001 0 -0.079873013630956835 -0.17374950274023659 0 -0.093538562727787294 -0.15940564464812701 0 -0.098088850166783578 -0.16700629557107341 0 -0.1023953877876435 -0.15903546935389351 0 -0.098088850166783578 -0.16700629557107341 0 -0.1039428787252024 -0.18306303235069041 0 -0.1119878388851908 -0.16231915977259129 0 -0.098088850166783578 -0.16700629557107341 0 -0.1023953877876435 -0.15903546935389351 0 -0.1119878388851908 -0.16231915977259129 0 -0.079873013630956835 -0.17374950274023659 0 -0.098088850166783578 -0.16700629557107341 0 -0.1039428787252024 -0.18306303235069041 0 -0.1039428787252024 -0.18306303235069041 0 -0.11859204859796291 -0.17560578940816099 0 -0.1119878388851908 -0.16231915977259129 0 -0.1039428787252024 -0.18306303235069041 0 -0.11859204859796291 -0.17560578940816099 0 -0.1280127438194481 -0.19237656196114411 0 -0.1023953877876435 -0.15903546935389351 0 -0.1119878388851908 -0.16231915977259129 0 -0.1169630623746598 -0.14907522687480429 0 -0.11859204859796291 -0.17560578940816099 0 -0.1119878388851908 -0.16231915977259129 0 -0.12588679133122799 -0.1624874708491951 0 -0.1119878388851908 -0.16231915977259129 0 -0.1169630623746598 -0.14907522687480429 0 -0.12588679133122799 -0.1624874708491951 0 -0.1119878388851908 -0.16231915977259129 0 -0.1169630623746598 -0.14907522687480429 0 -0.1023953877876435 -0.15903546935389351 0 -0.1169630623746598 -0.14907522687480429 0 -0.098894310772838973 -0.14952020789867901 0 -0.1169630623746598 -0.14907522687480429 0 -0.098894310772838973 -0.14952020789867901 0 -0.1169630623746598 -0.14907522687480429 0 -0.098894310772838973 -0.14952020789867901 0 -0.1074786708911218 -0.1384404444482458 0 -0.088441251280713618 -0.1477167476767523 0 -0.098894310772838973 -0.14952020789867901 0 -0.095252038160572317 -0.1406191133899993 0 -0.098894310772838973 -0.14952020789867901 0 -0.095252038160572317 -0.1406191133899993 0 -0.1074786708911218 -0.1384404444482458 0 -0.093538562727787294 -0.15940564464812701 0 -0.1023953877876435 -0.15903546935389351 0 -0.098894310772838973 -0.14952020789867901 0 -0.1085913382140784 -0.11903379143832921 0 -0.095971306836852913 -0.13086642389395989 0 -0.1074786708911218 -0.1384404444482458 0 -0.095971306836852913 -0.13086642389395989 0 -0.095252038160572317 -0.1406191133899993 0 -0.1074786708911218 -0.1384404444482458 0 -0.1085913382140784 -0.11903379143832921 0 -0.1074786708911218 -0.1384404444482458 0 -0.12736410167423581 -0.1213878944680517 0 -0.1169630623746598 -0.14907522687480429 0 -0.1074786708911218 -0.1384404444482458 0 -0.12736410167423581 -0.1213878944680517 0 -0.1169630623746598 -0.14907522687480429 0 -0.12736410167423581 -0.1213878944680517 0 -0.13746664940214659 -0.13470709103134659 0 -0.12736410167423581 -0.1213878944680517 0 -0.14737054533773081 -0.1208951937003558 0 -0.1169630623746598 -0.14907522687480429 0 -0.13746664940214659 -0.13470709103134659 0 -0.12736410167423581 -0.1213878944680517 0 -0.1569759497016511 -0.14808982533941309 0 -0.14737054533773081 -0.1208951937003558 0 -0.13746664940214659 -0.13470709103134659 0 -0.1569759497016511 -0.14808982533941309 0 -0.14737054533773081 -0.1208951937003558 0 -0.1369695060381555 -0.1485825261071109 0 -0.1526603788815559 -0.1573596194762775 0 -0.1569759497016511 -0.14808982533941309 0 -0.13746664940214659 -0.13470709103134659 0 -0.1369695060381555 -0.1485825261071109 0 -0.1569759497016511 -0.14808982533941309 0 -0.1369695060381555 -0.1485825261071109 0 -0.1569759497016511 -0.14808982533941309 0 -0.1169630623746598 -0.14907522687480429 0 -0.1369695060381555 -0.1485825261071109 0 -0.1169630623746598 -0.14907522687480429 0 -0.1369695060381555 -0.1485825261071109 0 -0.12588679133122799 -0.1624874708491951 0 -0.1169630623746598 -0.14907522687480429 0 -0.13746664940214659 -0.13470709103134659 0 -0.1369695060381555 -0.1485825261071109 0 -0.11859204859796291 -0.17560578940816099 0 -0.12588679133122799 -0.1624874708491951 0 -0.13147554750711021 -0.17522771154146191 0 -0.12588679133122799 -0.1624874708491951 0 -0.13147554750711021 -0.17522771154146191 0 -0.14107140235061469 -0.16358211752318311 0 -0.13147554750711021 -0.17522771154146191 0 -0.14520517551865919 -0.17294749126987599 0 -0.14107140235061469 -0.16358211752318311 0 -0.1369695060381555 -0.1485825261071109 0 -0.12588679133122799 -0.1624874708491951 0 -0.14107140235061469 -0.16358211752318311 0 -0.11859204859796291 -0.17560578940816099 0 -0.13147554750711021 -0.17522771154146191 0 -0.1280127438194481 -0.19237656196114411 0 -0.13147554750711021 -0.17522771154146191 0 -0.1398254013782112 -0.18365029146927231 0 -0.1280127438194481 -0.19237656196114411 0 -0.13147554750711021 -0.17522771154146191 0 -0.1398254013782112 -0.18365029146927231 0 -0.14520517551865919 -0.17294749126987599 0 -0.1398254013782112 -0.18365029146927231 0 -0.14820117369214661 -0.18035874543477601 0 -0.1498687104188495 -0.18767128888863599 0 -0.1398254013782112 -0.18365029146927231 0 -0.14820117369214661 -0.18035874543477601 0 -0.14520517551865919 -0.17294749126987599 0 -0.14820117369214661 -0.18035874543477601 0 -0.14520517551865919 -0.17294749126987599 0 -0.1568216795970071 -0.17538216601134321 0 -0.14820117369214661 -0.18035874543477601 0 -0.15608754076248521 -0.18190001438557629 0 -0.1568216795970071 -0.17538216601134321 0 -0.14520517551865919 -0.17294749126987599 0 -0.15263532751206779 -0.16758471640843459 0 -0.1568216795970071 -0.17538216601134321 0 -0.14820117369214661 -0.18035874543477601 0 -0.15608754076248521 -0.18190001438557629 0 -0.1498687104188495 -0.18767128888863599 0 -0.15608754076248521 -0.18190001438557629 0 -0.1607184616130248 -0.18728683910860641 0 -0.1498687104188495 -0.18767128888863599 0 -0.1369695060381555 -0.1485825261071109 0 -0.14107140235061469 -0.16358211752318311 0 -0.1526603788815559 -0.1573596194762775 0 -0.14520517551865919 -0.17294749126987599 0 -0.14107140235061469 -0.16358211752318311 0 -0.15263532751206779 -0.16758471640843459 0 -0.15263532751206779 -0.16758471640843459 0 -0.1526603788815559 -0.1573596194762775 0 -0.16142564196989831 -0.16655703171874039 0 -0.14107140235061469 -0.16358211752318311 0 -0.15263532751206779 -0.16758471640843459 0 -0.1526603788815559 -0.1573596194762775 0 -0.1526603788815559 -0.1573596194762775 0 -0.16142564196989831 -0.16655703171874039 0 -0.16326087804426159 -0.16588359066980229 0 -0.16326087804426159 -0.16588359066980229 0 -0.1569759497016511 -0.14808982533941309 0 -0.1526603788815559 -0.1573596194762775 0 -0.16326087804426159 -0.16588359066980229 0 -0.1569759497016511 -0.14808982533941309 0 -0.1594122663447772 -0.17133307891758459 0 -0.16142564196989831 -0.16655703171874039 0 -0.16676641630013581 -0.17580840153182001 0 -0.15263532751206779 -0.16758471640843459 0 -0.1594122663447772 -0.17133307891758459 0 -0.16142564196989831 -0.16655703171874039 0 -0.16142564196989831 -0.16655703171874039 0 -0.16326087804426159 -0.16588359066980229 0 -0.16676641630013581 -0.17580840153182001 0 -0.15263532751206779 -0.16758471640843459 0 -0.1594122663447772 -0.17133307891758459 0 -0.1568216795970071 -0.17538216601134321 0 -0.16142564196989831 -0.16655703171874039 0 -0.16326087804426159 -0.16588359066980229 0 -0.16326087804426159 -0.16588359066980229 0 -0.16676641630013581 -0.17580840153182001 0 -0.1783922457352059 -0.17293489930968209 0 -0.16326087804426159 -0.16588359066980229 0 -0.16676641630013581 -0.17580840153182001 0 -0.15608754076248521 -0.18190001438557629 0 -0.1607184616130248 -0.18728683910860641 0 -0.16676641630013581 -0.17580840153182001 0 -0.15608754076248521 -0.18190001438557629 0 -0.1568216795970071 -0.17538216601134321 0 -0.16676641630013581 -0.17580840153182001 0 -0.1594122663447772 -0.17133307891758459 0 -0.1568216795970071 -0.17538216601134321 0 -0.16676641630013581 -0.17580840153182001 0 -0.1607184616130248 -0.18728683910860641 0 -0.16676641630013581 -0.17580840153182001 0 -0.17547527524387041 -0.1884338249559952 0 -0.17547527524387041 -0.1884338249559952 0 -0.1969820185962792 -0.17828497948479149 0 -0.1783922457352059 -0.17293489930968209 0 -0.17547527524387041 -0.1884338249559952 0 -0.1969820185962792 -0.17828497948479149 0 -0.16676641630013581 -0.17580840153182001 0 -0.1783922457352059 -0.17293489930968209 0 -0.17547527524387041 -0.1884338249559952 0 -0.16326087804426159 -0.16588359066980229 0 -0.18947664049148261 -0.1562636999060015 0 -0.16326087804426159 -0.16588359066980229 0 -0.18633417632017751 -0.14736681724080919 0 -0.18947664049148261 -0.1562636999060015 0 -0.16326087804426159 -0.16588359066980229 0 -0.1783922457352059 -0.17293489930968209 0 -0.18947664049148261 -0.1562636999060015 0 -0.18633417632017751 -0.14736681724080919 0 -0.16621773075288121 -0.1295318635244681 0 -0.18400621351090571 -0.1217110611121094 0 -0.16621773075288121 -0.1295318635244681 0 -0.1569759497016511 -0.14808982533941309 0 -0.14737054533773081 -0.1208951937003558 0 -0.18633417632017751 -0.14736681724080919 0 -0.16621773075288121 -0.1295318635244681 0 -0.1569759497016511 -0.14808982533941309 0 -0.18633417632017751 -0.14736681724080919 0 -0.1569759497016511 -0.14808982533941309 0 -0.16326087804426159 -0.16588359066980229 0 -0.18633417632017751 -0.14736681724080919 0 -0.1569759497016511 -0.14808982533941309 0 -0.1377523016625678 -0.25581657194563601 0 -0.15263230708737521 -0.24356194903458239 0 -0.13476861079800859 -0.2391754021203874 0 -0.15263230708737521 -0.24356194903458239 0 -0.13476861079800859 -0.2391754021203874 0 -0.14055595197029169 -0.22979662500526149 0 -0.1377523016625678 -0.25581657194563601 0 -0.1223681628105569 -0.24044891992886891 0 -0.13476861079800859 -0.2391754021203874 0 -0.1377523016625678 -0.25581657194563601 0 -0.1223681628105569 -0.24044891992886891 0 -0.1238233973506119 -0.23541481827178831 0 -0.13476861079800859 -0.2391754021203874 0 -0.13139441447274411 -0.22962184130071481 0 -0.1223681628105569 -0.24044891992886891 0 -0.1238233973506119 -0.23541481827178831 0 -0.13476861079800859 -0.2391754021203874 0 -0.13476861079800859 -0.2391754021203874 0 -0.14055595197029169 -0.22979662500526149 0 -0.13139441447274411 -0.22962184130071481 0 -0.12407830270498089 -0.22426790937284519 0 -0.1238233973506119 -0.23541481827178831 0 -0.13139441447274411 -0.22962184130071481 0 -0.12407830270498089 -0.22426790937284519 0 -0.13139441447274411 -0.22962184130071481 0 -0.13441394179160859 -0.22010184774946731 0 -0.14055595197029169 -0.22979662500526149 0 -0.13139441447274411 -0.22962184130071481 0 -0.13441394179160859 -0.22010184774946731 0 -0.14055595197029169 -0.22979662500526149 0 -0.13441394179160859 -0.22010184774946731 0 -0.14940536450650499 -0.21373664043116339 0 -0.15263230708737521 -0.24356194903458239 0 -0.14940536450650499 -0.21373664043116339 0 -0.15263230708737521 -0.24356194903458239 0 -0.14940536450650499 -0.21373664043116339 0 -0.16621803193972459 -0.22739125443424221 0 -0.15263230708737521 -0.24356194903458239 0 -0.14055595197029169 -0.22979662500526149 0 -0.14940536450650499 -0.21373664043116339 0 -0.14940536450650499 -0.21373664043116339 0 -0.13246178853905299 -0.20873151589840269 0 -0.1539685318914617 -0.1985826704271989 0 -0.13246178853905299 -0.20873151589840269 0 -0.1539685318914617 -0.1985826704271989 0 -0.13441394179160859 -0.22010184774946731 0 -0.14940536450650499 -0.21373664043116339 0 -0.13246178853905299 -0.20873151589840269 0 -0.12407830270498089 -0.22426790937284519 0 -0.13441394179160859 -0.22010184774946731 0 -0.13246178853905299 -0.20873151589840269 0 -0.1178174188303993 -0.20556040013348681 0 -0.13246178853905299 -0.20873151589840269 0 -0.1280127438194481 -0.19237656196114411 0 -0.13246178853905299 -0.20873151589840269 0 -0.1280127438194481 -0.19237656196114411 0 -0.14041115317576749 -0.19424917250638599 0 -0.1398254013782112 -0.18365029146927231 0 -0.1280127438194481 -0.19237656196114411 0 -0.14041115317576749 -0.19424917250638599 0 -0.13246178853905299 -0.20873151589840269 0 -0.14041115317576749 -0.19424917250638599 0 -0.1539685318914617 -0.1985826704271989 0 -0.14041115317576749 -0.19424917250638599 0 -0.1539685318914617 -0.1985826704271989 0 -0.1498687104188495 -0.18767128888863599 0 -0.1398254013782112 -0.18365029146927231 0 -0.14041115317576749 -0.19424917250638599 0 -0.1498687104188495 -0.18767128888863599 0 -0.1607184616130248 -0.18728683910860641 0 -0.1539685318914617 -0.1985826704271989 0 -0.1498687104188495 -0.18767128888863599 0 -0.1607184616130248 -0.18728683910860641 0 -0.1539685318914617 -0.1985826704271989 0 -0.17547527524387041 -0.1884338249559952 0 -0.1539685318914617 -0.1985826704271989 0 -0.17547527524387041 -0.1884338249559952 0 -0.16825702714884239 -0.20885775366498019 0 -0.1539685318914617 -0.1985826704271989 0 -0.17547527524387041 -0.1884338249559952 0 -0.17547527524387041 -0.1884338249559952 0 -0.18277425339256639 -0.2026996383603622 0 -0.16825702714884239 -0.20885775366498019 0 -0.17547527524387041 -0.1884338249559952 0 -0.18277425339256639 -0.2026996383603622 0 -0.1902080517791363 -0.1917922864575213 0 -0.18277425339256639 -0.2026996383603622 0 -0.16825702714884239 -0.20885775366498019 0 -0.18626938338499441 -0.22517712183416291 0 -0.14940536450650499 -0.21373664043116339 0 -0.1539685318914617 -0.1985826704271989 0 -0.16825702714884239 -0.20885775366498019 0 -0.14940536450650499 -0.21373664043116339 0 -0.16825702714884239 -0.20885775366498019 0 -0.16621803193972459 -0.22739125443424221 0 -0.16825702714884239 -0.20885775366498019 0 -0.16621803193972459 -0.22739125443424221 0 -0.18626938338499441 -0.22517712183416291 0 -0.16621803193972459 -0.22739125443424221 0 -0.18626938338499441 -0.22517712183416291 0 -0.1745260775709061 -0.24562280720632229 0 -0.18626938338499441 -0.22517712183416291 0 -0.1745260775709061 -0.24562280720632229 0 -0.19988453840298659 -0.24176205441804 0 -0.18626938338499441 -0.22517712183416291 0 -0.1745260775709061 -0.24562280720632229 0 -0.15263230708737521 -0.24356194903458239 0 -0.16621803193972459 -0.22739125443424221 0 -0.1745260775709061 -0.24562280720632229 0 -0.1689202540561075 -0.25519621835756329 0 -0.15263230708737521 -0.24356194903458239 0 -0.1745260775709061 -0.24562280720632229 0 -0.21854221021918649 -0.25236034283526498 0 -0.19988453840298659 -0.24176205441804 0 -0.21493562756427159 -0.22243862284749449 0 -0.19160736129165659 -0.25262396586623759 0 -0.1745260775709061 -0.24562280720632229 0 -0.19988453840298659 -0.24176205441804 0 -0.18626938338499441 -0.22517712183416291 0 -0.19988453840298659 -0.24176205441804 0 -0.21493562756427159 -0.22243862284749449 0 -0.21493562756427159 -0.22243862284749449 0 -0.19801268919908249 -0.2047314364620034 0 -0.21541309520260529 -0.20113031717637361 0 -0.18626938338499441 -0.22517712183416291 0 -0.19801268919908249 -0.2047314364620034 0 -0.18277425339256639 -0.2026996383603622 0 -0.18626938338499441 -0.22517712183416291 0 -0.19801268919908249 -0.2047314364620034 0 -0.18626938338499441 -0.22517712183416291 0 -0.21493562756427159 -0.22243862284749449 0 -0.19801268919908249 -0.2047314364620034 0 -0.19801268919908249 -0.2047314364620034 0 -0.1902080517791363 -0.1917922864575213 0 -0.20975599501317069 -0.18428575108984399 0 -0.18277425339256639 -0.2026996383603622 0 -0.19801268919908249 -0.2047314364620034 0 -0.1902080517791363 -0.1917922864575213 0 -0.21541309520260529 -0.20113031717637361 0 -0.20975599501317069 -0.18428575108984399 0 -0.229896455205026 -0.18225842567294781 0 -0.19801268919908249 -0.2047314364620034 0 -0.21541309520260529 -0.20113031717637361 0 -0.20975599501317069 -0.18428575108984399 0 -0.19801268919908249 -0.2047314364620034 0 -0.20975599501317069 -0.18428575108984399 0 -0.21541309520260529 -0.20113031717637361 0 -0.23384346774119599 -0.2034651679104556 0 -0.229896455205026 -0.18225842567294781 0 -0.24262172765942899 -0.19089247064050549 0 -0.25644706280453389 -0.1995927939493197 0 -0.25029992488695979 -0.1782534950292988 0 -0.24262172765942899 -0.19089247064050549 0 -0.23384346774119599 -0.2034651679104556 0 -0.25644706280453389 -0.1995927939493197 0 -0.24262172765942899 -0.19089247064050549 0 -0.23384346774119599 -0.2034651679104556 0 -0.229896455205026 -0.18225842567294781 0 -0.23384346774119599 -0.2034651679104556 0 -0.2377451423251814 -0.23136366228574551 0 -0.25674041691710447 -0.22108212323078871 0 -0.23384346774119599 -0.2034651679104556 0 -0.25674041691710447 -0.22108212323078871 0 -0.25644706280453389 -0.1995927939493197 0 -0.21493562756427159 -0.22243862284749449 0 -0.21541309520260529 -0.20113031717637361 0 -0.23384346774119599 -0.2034651679104556 0 -0.21493562756427159 -0.22243862284749449 0 -0.23384346774119599 -0.2034651679104556 0 -0.2377451423251814 -0.23136366228574551 0 -0.24465976002352091 -0.25387891845332877 0 -0.2377451423251814 -0.23136366228574551 0 -0.25992972331208369 -0.2410680052130979 0 -0.24465976002352091 -0.25387891845332877 0 -0.21854221021918649 -0.25236034283526498 0 -0.2377451423251814 -0.23136366228574551 0 -0.21854221021918649 -0.25236034283526498 0 -0.21493562756427159 -0.22243862284749449 0 -0.2377451423251814 -0.23136366228574551 0 -0.21854221021918649 -0.25236034283526498 0 -0.2377451423251814 -0.23136366228574551 0 -0.21569240293870359 -0.1466438091422006 0 -0.18947664049148261 -0.1562636999060015 0 -0.2105647825198341 -0.15627799774793921 0 -0.2105647825198341 -0.15627799774793921 0 -0.22149930082725899 -0.1638400657176845 0 -0.22047208921520459 -0.14652609931143951 0 -0.21569240293870359 -0.1466438091422006 0 -0.2105647825198341 -0.15627799774793921 0 -0.22047208921520459 -0.14652609931143951 0 -0.21569240293870359 -0.1466438091422006 0 -0.22047208921520459 -0.14652609931143951 0 -0.20228853596836749 -0.13187567246267581 0 -0.2244809527826766 -0.1321180186971766 0 -0.2129261089666101 -0.1196792574727195 0 -0.21569240293870359 -0.1466438091422006 0 -0.20228853596836749 -0.13187567246267581 0 -0.2244809527826766 -0.1321180186971766 0 -0.18633417632017751 -0.14736681724080919 0 -0.20228853596836749 -0.13187567246267581 0 -0.18400621351090571 -0.1217110611121094 0 -0.21569240293870359 -0.1466438091422006 0 -0.18947664049148261 -0.1562636999060015 0 -0.18633417632017751 -0.14736681724080919 0 -0.21569240293870359 -0.1466438091422006 0 -0.18947664049148261 -0.1562636999060015 0 -0.18633417632017751 -0.14736681724080919 0 -0.21569240293870359 -0.1466438091422006 0 -0.18633417632017751 -0.14736681724080919 0 -0.21569240293870359 -0.1466438091422006 0 -0.20228853596836749 -0.13187567246267581 0 -0.1783922457352059 -0.17293489930968209 0 -0.18947664049148261 -0.1562636999060015 0 -0.1969820185962792 -0.17828497948479149 0 -0.18947664049148261 -0.1562636999060015 0 -0.1969820185962792 -0.17828497948479149 0 -0.20568347912652049 -0.16811631466237001 0 -0.18947664049148261 -0.1562636999060015 0 -0.20568347912652049 -0.16811631466237001 0 -0.2105647825198341 -0.15627799774793921 0 -0.1902080517791363 -0.1917922864575213 0 -0.1969820185962792 -0.17828497948479149 0 -0.20975599501317069 -0.18428575108984399 0 -0.17547527524387041 -0.1884338249559952 0 -0.1902080517791363 -0.1917922864575213 0 -0.1969820185962792 -0.17828497948479149 0 -0.20975599501317069 -0.18428575108984399 0 -0.22149930082725899 -0.1638400657176845 0 -0.20975599501317069 -0.18428575108984399 0 -0.20568347912652049 -0.16811631466237001 0 -0.22149930082725899 -0.1638400657176845 0 -0.1969820185962792 -0.17828497948479149 0 -0.20975599501317069 -0.18428575108984399 0 -0.20568347912652049 -0.16811631466237001 0 -0.20568347912652049 -0.16811631466237001 0 -0.2105647825198341 -0.15627799774793921 0 -0.22149930082725899 -0.1638400657176845 0 -0.22149930082725899 -0.1638400657176845 0 -0.2402834514435094 -0.1667894474332684 0 -0.2341322288468432 -0.15422277024092529 0 -0.22149930082725899 -0.1638400657176845 0 -0.229896455205026 -0.18225842567294781 0 -0.2402834514435094 -0.1667894474332684 0 -0.20975599501317069 -0.18428575108984399 0 -0.22149930082725899 -0.1638400657176845 0 -0.229896455205026 -0.18225842567294781 0 -0.229896455205026 -0.18225842567294781 0 -0.2402834514435094 -0.1667894474332684 0 -0.25029992488695979 -0.1782534950292988 0 -0.24262172765942899 -0.19089247064050549 0 -0.229896455205026 -0.18225842567294781 0 -0.25029992488695979 -0.1782534950292988 0 -0.2402834514435094 -0.1667894474332684 0 -0.25029992488695979 -0.1782534950292988 0 -0.25761979100978533 -0.16665415002795461 0 -0.2402834514435094 -0.1667894474332684 0 -0.24825300788518309 -0.1555077779107997 0 -0.25761979100978533 -0.16665415002795461 0 -0.2402834514435094 -0.1667894474332684 0 -0.24825300788518309 -0.1555077779107997 0 -0.2341322288468432 -0.15422277024092529 0 -0.24825300788518309 -0.1555077779107997 0 -0.2405789555143194 -0.1375116727892334 0 -0.25601133851015478 -0.1487044986697981 0 -0.24825300788518309 -0.1555077779107997 0 -0.2341322288468432 -0.15422277024092529 0 -0.2405789555143194 -0.1375116727892334 0 -0.21569240293870359 -0.1466438091422006 0 -0.22047208921520459 -0.14652609931143951 0 -0.2405789555143194 -0.1375116727892334 0 -0.22149930082725899 -0.1638400657176845 0 -0.2341322288468432 -0.15422277024092529 0 -0.22047208921520459 -0.14652609931143951 0 -0.21569240293870359 -0.1466438091422006 0 -0.2405789555143194 -0.1375116727892334 0 -0.2341322288468432 -0.15422277024092529 0 -0.22047208921520459 -0.14652609931143951 0 -0.2405789555143194 -0.1375116727892334 0 -0.21569240293870359 -0.1466438091422006 0 -0.2244809527826766 -0.1321180186971766 0 -0.2405789555143194 -0.1375116727892334 0 -0.2244809527826766 -0.1321180186971766 0 -0.2405789555143194 -0.1375116727892334 0 -0.23651179230599079 -0.1199754775459997 0 -0.2405789555143194 -0.1375116727892334 0 -0.23651179230599079 -0.1199754775459997 0 -0.25054446979338107 -0.12912519928877991 0 -0.23651179230599079 -0.1199754775459997 0 -0.24959534238117709 -0.1078054475449232 0 -0.26009747564537128 -0.1202716976192799 0 -0.23651179230599079 -0.1199754775459997 0 -0.26009747564537128 -0.1202716976192799 0 -0.23651179230599079 -0.1199754775459997 0 -0.26009747564537128 -0.1202716976192799 0 -0.25054446979338107 -0.12912519928877991 0 -0.23651179230599079 -0.1199754775459997 0 -0.24959534238117709 -0.1078054475449232 0 -0.23746734258601571 -0.1067534300414448 0 -0.24098124084432149 -0.095291905336151436 0 -0.23746734258601571 -0.1067534300414448 0 -0.22473934926471251 -0.1042306158888877 0 -0.24959534238117709 -0.1078054475449232 0 -0.24098124084432149 -0.095291905336151436 0 -0.25687551172258971 -0.095275519396915032 0 -0.24959534238117709 -0.1078054475449232 0 -0.24098124084432149 -0.095291905336151436 0 -0.23746734258601571 -0.1067534300414448 0 -0.22473934926471251 -0.1042306158888877 0 -0.22774604229393439 -0.087804120453188278 0 -0.20897213189474381 -0.093424031558921927 0 -0.24098124084432149 -0.095291905336151436 0 -0.22473934926471251 -0.1042306158888877 0 -0.22774604229393439 -0.087804120453188278 0 -0.2244809527826766 -0.1321180186971766 0 -0.23651179230599079 -0.1199754775459997 0 -0.2129261089666101 -0.1196792574727195 0 -0.23651179230599079 -0.1199754775459997 0 -0.2129261089666101 -0.1196792574727195 0 -0.23651179230599079 -0.1199754775459997 0 -0.23746734258601571 -0.1067534300414448 0 -0.22473934926471251 -0.1042306158888877 0 -0.23651179230599079 -0.1199754775459997 0 -0.22473934926471251 -0.1042306158888877 0 -0.2129261089666101 -0.1196792574727195 0 -0.2466384096447127 -0.069214282175018252 0 -0.23144064811545881 -0.071679072189906365 0 -0.24006258296416741 -0.059977364163272567 0 -0.2466384096447127 -0.069214282175018252 0 -0.23867713564867771 -0.0818228939715063 0 -0.25106785873748549 -0.083001848322642804 0 -0.2466384096447127 -0.069214282175018252 0 -0.23867713564867771 -0.0818228939715063 0 -0.23144064811545881 -0.071679072189906365 0 -0.24098124084432149 -0.095291905336151436 0 -0.25106785873748549 -0.083001848322642804 0 -0.25687551172258971 -0.095275519396915032 0 -0.24098124084432149 -0.095291905336151436 0 -0.23867713564867771 -0.0818228939715063 0 -0.25106785873748549 -0.083001848322642804 0 -0.24098124084432149 -0.095291905336151436 0 -0.23867713564867771 -0.0818228939715063 0 -0.22774604229393439 -0.087804120453188278 0 -0.22048160989483939 -0.080833284582646742 0 -0.22774604229393439 -0.087804120453188278 0 -0.23144064811545881 -0.071679072189906365 0 -0.23867713564867771 -0.0818228939715063 0 -0.22774604229393439 -0.087804120453188278 0 -0.23144064811545881 -0.071679072189906365 0 -0.22048160989483939 -0.080833284582646742 0 -0.22774604229393439 -0.087804120453188278 0 -0.20897213189474381 -0.093424031558921927 0 -0.23144064811545881 -0.071679072189906365 0 -0.2137676172752207 -0.070425914128570383 0 -0.21856310265569601 -0.047427796698218422 0 -0.22048160989483939 -0.080833284582646742 0 -0.23144064811545881 -0.071679072189906365 0 -0.2137676172752207 -0.070425914128570383 0 -0.23144064811545881 -0.071679072189906365 0 -0.23092663332862359 -0.057189961691847993 0 -0.24006258296416741 -0.059977364163272567 0 -0.20335705558913081 -0.063140738221072371 0 -0.2137676172752207 -0.070425914128570383 0 -0.20224544779007569 -0.076575791796341275 0 -0.2137676172752207 -0.070425914128570383 0 -0.20897213189474381 -0.093424031558921927 0 -0.20224544779007569 -0.076575791796341275 0 -0.2137676172752207 -0.070425914128570383 0 -0.20897213189474381 -0.093424031558921927 0 -0.22048160989483939 -0.080833284582646742 0 -0.2137676172752207 -0.070425914128570383 0 -0.20897213189474381 -0.093424031558921927 0 -0.20897213189474381 -0.093424031558921927 0 -0.18864483179057751 -0.079783658531738119 0 -0.20224544779007569 -0.076575791796341275 0 -0.20897213189474381 -0.093424031558921927 0 -0.18864483179057751 -0.079783658531738119 0 -0.1843208979706715 -0.098582101900239388 0 -0.20335705558913081 -0.063140738221072371 0 -0.18864483179057751 -0.079783658531738119 0 -0.20224544779007569 -0.076575791796341275 0 -0.20335705558913081 -0.063140738221072371 0 -0.18864483179057751 -0.079783658531738119 0 -0.20335705558913081 -0.063140738221072371 0 -0.18864483179057751 -0.079783658531738119 0 -0.18476368522970901 -0.060313507398174523 0 -0.22473934926471251 -0.1042306158888877 0 -0.2129261089666101 -0.1196792574727195 0 -0.1994025973422491 -0.10829052452779669 0 -0.20228853596836749 -0.13187567246267581 0 -0.2129261089666101 -0.1196792574727195 0 -0.1994025973422491 -0.10829052452779669 0 -0.22473934926471251 -0.1042306158888877 0 -0.20897213189474381 -0.093424031558921927 0 -0.1994025973422491 -0.10829052452779669 0 -0.20897213189474381 -0.093424031558921927 0 -0.1994025973422491 -0.10829052452779669 0 -0.1843208979706715 -0.098582101900239388 0 -0.20228853596836749 -0.13187567246267581 0 -0.1994025973422491 -0.10829052452779669 0 -0.18400621351090571 -0.1217110611121094 0 -0.1994025973422491 -0.10829052452779669 0 -0.18400621351090571 -0.1217110611121094 0 -0.1843208979706715 -0.098582101900239388 0 -0.16621773075288121 -0.1295318635244681 0 -0.18400621351090571 -0.1217110611121094 0 -0.16647442841019139 -0.11035058163789351 0 -0.18400621351090571 -0.1217110611121094 0 -0.16647442841019139 -0.11035058163789351 0 -0.1843208979706715 -0.098582101900239388 0 -0.16621773075288121 -0.1295318635244681 0 -0.16647442841019139 -0.11035058163789351 0 -0.14737054533773081 -0.1208951937003558 0 -0.16647442841019139 -0.11035058163789351 0 -0.16521255597131029 -0.094363556792246006 0 -0.15171862691764881 -0.097019712797942706 0 -0.16647442841019139 -0.11035058163789351 0 -0.16521255597131029 -0.094363556792246006 0 -0.1843208979706715 -0.098582101900239388 0 -0.16521255597131029 -0.094363556792246006 0 -0.1843208979706715 -0.098582101900239388 0 -0.1718657805157274 -0.077566403117392158 0 -0.18864483179057751 -0.079783658531738119 0 -0.1843208979706715 -0.098582101900239388 0 -0.1718657805157274 -0.077566403117392158 0 -0.18864483179057751 -0.079783658531738119 0 -0.1718657805157274 -0.077566403117392158 0 -0.18476368522970901 -0.060313507398174523 0 -0.1718657805157274 -0.077566403117392158 0 -0.16766997596840549 -0.055069670457126463 0 -0.18476368522970901 -0.060313507398174523 0 -0.1718657805157274 -0.077566403117392158 0 -0.1555984100513392 -0.067553704814911478 0 -0.16766997596840549 -0.055069670457126463 0 -0.1718657805157274 -0.077566403117392158 0 -0.15451520526235171 -0.083858215916353424 0 -0.1555984100513392 -0.067553704814911478 0 -0.16521255597131029 -0.094363556792246006 0 -0.1718657805157274 -0.077566403117392158 0 -0.15451520526235171 -0.083858215916353424 0 -0.16521255597131029 -0.094363556792246006 0 -0.15451520526235171 -0.083858215916353424 0 -0.15171862691764881 -0.097019712797942706 0 -0.15451520526235171 -0.083858215916353424 0 -0.14334301715898221 -0.074859018030624863 0 -0.13903100861317999 -0.090330850909877913 0 -0.15451520526235171 -0.083858215916353424 0 -0.13903100861317999 -0.090330850909877913 0 -0.15171862691764881 -0.097019712797942706 0 -0.1377651409738101 -0.093700562061298426 0 -0.13903100861317999 -0.090330850909877913 0 -0.15171862691764881 -0.097019712797942706 0 -0.15451520526235171 -0.083858215916353424 0 -0.1555984100513392 -0.067553704814911478 0 -0.14334301715898221 -0.074859018030624863 0 -0.1555984100513392 -0.067553704814911478 0 -0.14334301715898221 -0.074859018030624863 0 -0.13945189113323761 -0.059806177835795588 0 -0.14334301715898221 -0.074859018030624863 0 -0.12930964035960699 -0.069761515268982097 0 -0.13945189113323761 -0.059806177835795588 0 -0.12930964035960699 -0.069761515268982097 0 -0.1377651409738101 -0.093700562061298426 0 -0.12930964035960699 -0.069761515268982097 0 -0.1377651409738101 -0.093700562061298426 0 -0.13903100861317999 -0.090330850909877913 0 -0.1189291253072135 -0.086669643832799348 0 -0.12930964035960699 -0.069761515268982097 0 -0.1377651409738101 -0.093700562061298426 0 -0.14334301715898221 -0.074859018030624863 0 -0.12930964035960699 -0.069761515268982097 0 -0.13903100861317999 -0.090330850909877913 0 -0.1377651409738101 -0.093700562061298426 0 -0.13903100861317999 -0.090330850909877913 0 -0.11893842975153809 -0.10446969177473921 0 -0.1377651409738101 -0.093700562061298426 0 -0.12736410167423581 -0.1213878944680517 0 -0.1377651409738101 -0.093700562061298426 0 -0.12736410167423581 -0.1213878944680517 0 -0.11893842975153809 -0.10446969177473921 0 -0.1189291253072135 -0.086669643832799348 0 -0.1377651409738101 -0.093700562061298426 0 -0.1377651409738101 -0.093700562061298426 0 -0.12736410167423581 -0.1213878944680517 0 -0.14737054533773081 -0.1208951937003558 0 -0.16647442841019139 -0.11035058163789351 0 -0.14737054533773081 -0.1208951937003558 0 -0.15171862691764881 -0.097019712797942706 0 -0.1377651409738101 -0.093700562061298426 0 -0.14737054533773081 -0.1208951937003558 0 -0.15171862691764881 -0.097019712797942706 0 -0.1377651409738101 -0.093700562061298426 0 -0.14737054533773081 -0.1208951937003558 0 -0.14925834278157041 -0.027771983247297551 0 -0.15381676672243971 -0.0048344028756085976 0 -0.16158573310271521 -0.019122381719964599 0 -0.14925834278157041 -0.027771983247297551 0 -0.15381676672243971 -0.0048344028756085976 0 -0.14925834278157041 -0.027771983247297551 0 -0.13622810944285851 -0.025664644749336048 0 -0.13728148428220571 -0.03631729474545041 0 -0.15381676672243971 -0.0048344028756085976 0 -0.13373576905839379 -0.01378162565115138 0 -0.13796817939809339 -7.5853332940862265e-05 0 -0.14925834278157041 -0.027771983247297551 0 -0.15381676672243971 -0.0048344028756085976 0 -0.13373576905839379 -0.01378162565115138 0 -0.1244522405185825 -0.00038769298458709092 0 -0.1246368416492639 -0.024787675353444869 0 -0.13373576905839379 -0.01378162565115138 0 -0.1244522405185825 -0.00038769298458709092 0 -0.13373576905839379 -0.01378162565115138 0 -0.13796817939809339 -7.5853332940862265e-05 0 -0.1244522405185825 -0.00038769298458709092 0 -0.13373576905839379 -0.01378162565115138 0 -0.1246368416492639 -0.024787675353444869 0 -0.13373576905839379 -0.01378162565115138 0 -0.13622810944285851 -0.025664644749336048 0 -0.14925834278157041 -0.027771983247297551 0 -0.13373576905839379 -0.01378162565115138 0 -0.13622810944285851 -0.025664644749336048 0 -0.1246368416492639 -0.024787675353444869 0 -0.13622810944285851 -0.025664644749336048 0 -0.13728148428220571 -0.03631729474545041 0 -0.1248214427799455 -0.0491876577223027 0 -0.1246368416492639 -0.024787675353444869 0 -0.13067566527459321 -0.039597081228004503 0 -0.1246368416492639 -0.024787675353444869 0 -0.13067566527459321 -0.039597081228004503 0 -0.13728148428220571 -0.03631729474545041 0 -0.1248214427799455 -0.0491876577223027 0 -0.13067566527459321 -0.039597081228004503 0 -0.1359628923869578 -0.048095697090820053 0 -0.13067566527459321 -0.039597081228004503 0 -0.13728148428220571 -0.03631729474545041 0 -0.1359628923869578 -0.048095697090820053 0 -0.13728148428220571 -0.03631729474545041 0 -0.1359628923869578 -0.048095697090820053 0 -0.14767594406259391 -0.049379474087132447 0 -0.1248214427799455 -0.0491876577223027 0 -0.12930964035960699 -0.069761515268982097 0 -0.13945189113323761 -0.059806177835795588 0 -0.1208541397454049 -0.045822468476665427 0 -0.12930964035960699 -0.069761515268982097 0 -0.1248214427799455 -0.0491876577223027 0 -0.1359628923869578 -0.048095697090820053 0 -0.13945189113323761 -0.059806177835795588 0 -0.1555984100513392 -0.067553704814911478 0 -0.13945189113323761 -0.059806177835795588 0 -0.14767594406259391 -0.049379474087132447 0 -0.1359628923869578 -0.048095697090820053 0 -0.13945189113323761 -0.059806177835795588 0 -0.14767594406259391 -0.049379474087132447 0 -0.14925834278157041 -0.027771983247297551 0 -0.14767594406259391 -0.049379474087132447 0 -0.16346190388351911 -0.035477368974388322 0 -0.14925834278157041 -0.027771983247297551 0 -0.13728148428220571 -0.03631729474545041 0 -0.14767594406259391 -0.049379474087132447 0 -0.14767594406259391 -0.049379474087132447 0 -0.16346190388351911 -0.035477368974388322 0 -0.16766997596840549 -0.055069670457126463 0 -0.16346190388351911 -0.035477368974388322 0 -0.16766997596840549 -0.055069670457126463 0 -0.1792130821544009 -0.041655239440509813 0 -0.1555984100513392 -0.067553704814911478 0 -0.14767594406259391 -0.049379474087132447 0 -0.16766997596840549 -0.055069670457126463 0 -0.16766997596840549 -0.055069670457126463 0 -0.18476368522970901 -0.060313507398174523 0 -0.1792130821544009 -0.041655239440509813 0 -0.18476368522970901 -0.060313507398174523 0 -0.1792130821544009 -0.041655239440509813 0 -0.19607578221694649 -0.043845816873478577 0 -0.16346190388351911 -0.035477368974388322 0 -0.1792130821544009 -0.041655239440509813 0 -0.1747539590121796 -0.02148713112583673 0 -0.1792130821544009 -0.041655239440509813 0 -0.1747539590121796 -0.02148713112583673 0 -0.18874747204970219 -0.028974905836781941 0 -0.1747539590121796 -0.02148713112583673 0 -0.18814241231787171 -0.014961103822567131 0 -0.18874747204970219 -0.028974905836781941 0 -0.14925834278157041 -0.027771983247297551 0 -0.16346190388351911 -0.035477368974388322 0 -0.16158573310271521 -0.019122381719964599 0 -0.16346190388351911 -0.035477368974388322 0 -0.1747539590121796 -0.02148713112583673 0 -0.16158573310271521 -0.019122381719964599 0 -0.1747539590121796 -0.02148713112583673 0 -0.16158573310271521 -0.019122381719964599 0 -0.1670666400728934 -0.0075955490013497832 0 -0.15381676672243971 -0.0048344028756085976 0 -0.1670666400728934 -0.0075955490013497832 0 -0.16872927738725291 0.0066655648670224509 0 -0.15381676672243971 -0.0048344028756085976 0 -0.16158573310271521 -0.019122381719964599 0 -0.1670666400728934 -0.0075955490013497832 0 -0.1670666400728934 -0.0075955490013497832 0 -0.1785064095432054 -0.0066611219507198768 0 -0.16872927738725291 0.0066655648670224509 0 -0.1747539590121796 -0.02148713112583673 0 -0.1670666400728934 -0.0075955490013497832 0 -0.1785064095432054 -0.0066611219507198768 0 -0.1747539590121796 -0.02148713112583673 0 -0.1785064095432054 -0.0066611219507198768 0 -0.18814241231787171 -0.014961103822567131 0 -0.1785064095432054 -0.0066611219507198768 0 -0.18814241231787171 -0.014961103822567131 0 -0.193034969706537 0.00064734206737222756 0 -0.20555212454711219 -0.022925237921517471 0 -0.20993853639106591 -0.0035380738047605968 0 -0.193034969706537 0.00064734206737222756 0 -0.18814241231787171 -0.014961103822567131 0 -0.20555212454711219 -0.022925237921517471 0 -0.193034969706537 0.00064734206737222756 0 -0.20555212454711219 -0.022925237921517471 0 -0.193034969706537 0.00064734206737222756 0 -0.20993853639106591 -0.0035380738047605968 0 -0.193034969706537 0.00064734206737222756 0 -0.18814241231787171 -0.014961103822567131 0 -0.18874747204970219 -0.028974905836781941 0 -0.20555212454711219 -0.022925237921517471 0 -0.20555212454711219 -0.022925237921517471 0 -0.21630961893328751 -0.01519709454307171 0 -0.22290571171937651 -0.026601576769118469 0 -0.20993853639106591 -0.0035380738047605968 0 -0.22684210307559549 -0.0077234896768903086 0 -0.21568563774484731 0.0082874278720449449 0 -0.20993853639106591 -0.0035380738047605968 0 -0.21630961893328751 -0.01519709454307171 0 -0.22684210307559549 -0.0077234896768903086 0 -0.20555212454711219 -0.022925237921517471 0 -0.20993853639106591 -0.0035380738047605968 0 -0.21630961893328751 -0.01519709454307171 0 -0.20993853639106591 -0.0035380738047605968 0 -0.22684210307559549 -0.0077234896768903086 0 -0.20335705558913081 -0.063140738221072371 0 -0.18476368522970901 -0.060313507398174523 0 -0.19607578221694649 -0.043845816873478577 0 -0.1792130821544009 -0.041655239440509813 0 -0.18874747204970219 -0.028974905836781941 0 -0.19607578221694649 -0.043845816873478577 0 -0.18874747204970219 -0.028974905836781941 0 -0.20555212454711219 -0.022925237921517471 0 -0.19607578221694649 -0.043845816873478577 0 -0.20555212454711219 -0.022925237921517471 0 -0.21856310265569601 -0.047427796698218422 0 -0.20555212454711219 -0.022925237921517471 0 -0.21856310265569601 -0.047427796698218422 0 -0.21896932036315811 -0.045479663861346789 0 -0.20555212454711219 -0.022925237921517471 0 -0.19607578221694649 -0.043845816873478577 0 -0.21856310265569601 -0.047427796698218422 0 -0.20555212454711219 -0.022925237921517471 0 -0.21896932036315811 -0.045479663861346789 0 -0.22290571171937651 -0.026601576769118469 0 -0.2137676172752207 -0.070425914128570383 0 -0.21856310265569601 -0.047427796698218422 0 -0.20335705558913081 -0.063140738221072371 0 -0.2137676172752207 -0.070425914128570383 0 -0.21856310265569601 -0.047427796698218422 0 -0.20335705558913081 -0.063140738221072371 0 -0.19607578221694649 -0.043845816873478577 0 -0.21856310265569601 -0.047427796698218422 0 -0.20335705558913081 -0.063140738221072371 0 -0.21856310265569601 -0.047427796698218422 0 -0.23144064811545881 -0.071679072189906365 0 -0.21856310265569601 -0.047427796698218422 0 -0.23092663332862359 -0.057189961691847993 0 -0.23144064811545881 -0.071679072189906365 0 -0.21856310265569601 -0.047427796698218422 0 -0.21856310265569601 -0.047427796698218422 0 -0.23092663332862359 -0.057189961691847993 0 -0.22458774444026389 -0.046948698447319907 0 -0.23092663332862359 -0.057189961691847993 0 -0.2320274706224234 -0.04981915803055513 0 -0.23892230415514151 -0.050781370399802413 0 -0.23092663332862359 -0.057189961691847993 0 -0.22458774444026389 -0.046948698447319907 0 -0.2320274706224234 -0.04981915803055513 0 -0.21896932036315811 -0.045479663861346789 0 -0.2306307955349908 -0.032287844280089482 0 -0.22290571171937651 -0.026601576769118469 0 -0.21896932036315811 -0.045479663861346789 0 -0.22290571171937651 -0.026601576769118469 0 -0.22458774444026389 -0.046948698447319907 0 -0.2320274706224234 -0.04981915803055513 0 -0.23529860714157019 -0.041169280456794459 0 -0.22458774444026389 -0.046948698447319907 0 -0.2306307955349908 -0.032287844280089482 0 -0.23529860714157019 -0.041169280456794459 0 -0.22458774444026389 -0.046948698447319907 0 -0.21896932036315811 -0.045479663861346789 0 -0.2306307955349908 -0.032287844280089482 0 -0.21856310265569601 -0.047427796698218422 0 -0.22458774444026389 -0.046948698447319907 0 -0.21896932036315811 -0.045479663861346789 0 -0.21856310265569601 -0.047427796698218422 0 -0.21896932036315811 -0.045479663861346789 0 -0.21896932036315811 -0.045479663861346789 0 -0.2306307955349908 -0.032287844280089482 0 -0.2306307955349908 -0.032287844280089482 0 -0.23529860714157019 -0.041169280456794459 0 -0.241537864008738 -0.030171217790278881 0 -0.24798951326795751 -0.035882587373858313 0 -0.23529860714157019 -0.041169280456794459 0 -0.241537864008738 -0.030171217790278881 0 -0.24798951326795751 -0.035882587373858313 0 -0.24357205858261219 -0.044359355700093257 0 -0.23529860714157019 -0.041169280456794459 0 -0.24798951326795751 -0.035882587373858313 0 -0.24357205858261219 -0.044359355700093257 0 -0.25238491957690051 -0.051022134359787842 0 -0.24357205858261219 -0.044359355700093257 0 -0.23529860714157019 -0.041169280456794459 0 -0.23892230415514151 -0.050781370399802413 0 -0.2466384096447127 -0.069214282175018252 0 -0.24006258296416741 -0.059977364163272567 0 -0.25238491957690051 -0.051022134359787842 0 -0.2320274706224234 -0.04981915803055513 0 -0.23529860714157019 -0.041169280456794459 0 -0.23892230415514151 -0.050781370399802413 0 -0.23892230415514151 -0.050781370399802413 0 -0.24006258296416741 -0.059977364163272567 0 -0.25238491957690051 -0.051022134359787842 0 -0.24357205858261219 -0.044359355700093257 0 -0.23892230415514151 -0.050781370399802413 0 -0.25238491957690051 -0.051022134359787842 0 -0.23092663332862359 -0.057189961691847993 0 -0.23892230415514151 -0.050781370399802413 0 -0.24006258296416741 -0.059977364163272567 0 -0.21630961893328751 -0.01519709454307171 0 -0.22684210307559549 -0.0077234896768903086 0 -0.22290571171937651 -0.026601576769118469 0 -0.22684210307559549 -0.0077234896768903086 0 -0.22290571171937651 -0.026601576769118469 0 -0.23226271327452069 -0.02198020745377605 0 -0.22684210307559549 -0.0077234896768903086 0 -0.22290571171937651 -0.026601576769118469 0 -0.2306307955349908 -0.032287844280089482 0 -0.22290571171937651 -0.026601576769118469 0 -0.23226271327452069 -0.02198020745377605 0 -0.22684210307559549 -0.0077234896768903086 0 -0.23226271327452069 -0.02198020745377605 0 -0.24229227070682269 -0.019096024698831499 0 -0.2306307955349908 -0.032287844280089482 0 -0.241537864008738 -0.030171217790278881 0 -0.24229227070682269 -0.019096024698831499 0 -0.2306307955349908 -0.032287844280089482 0 -0.23226271327452069 -0.02198020745377605 0 -0.24229227070682269 -0.019096024698831499 0 -0.2306307955349908 -0.032287844280089482 0 -0.24229227070682269 -0.019096024698831499 0 -0.24798951326795751 -0.035882587373858313 0 -0.241537864008738 -0.030171217790278881 0 -0.25387676547985721 -0.02452441136234379 0 -0.241537864008738 -0.030171217790278881 0 -0.24229227070682269 -0.019096024698831499 0 -0.25387676547985721 -0.02452441136234379 0 -0.24229227070682269 -0.019096024698831499 0 -0.24826461013585729 -0.013027819984466921 0 -0.25387676547985721 -0.02452441136234379 0 -0.22684210307559549 -0.0077234896768903086 0 -0.24826461013585729 -0.013027819984466921 0 -0.24598119983726671 0.0037338506766126851 0 -0.22684210307559549 -0.0077234896768903086 0 -0.24229227070682269 -0.019096024698831499 0 -0.24826461013585729 -0.013027819984466921 0 -0.22684210307559549 -0.0077234896768903086 0 -0.24826461013585729 -0.013027819984466921 0 -0.24826461013585729 -0.013027819984466921 0 -0.26003022337954462 -0.0038093911555793728 0 -0.24598119983726671 0.0037338506766126851 0 -0.24826461013585729 -0.013027819984466921 0 -0.26003022337954462 -0.0038093911555793728 0 -0.26968711719611937 -0.018332150292041979 0 -0.24826461013585729 -0.013027819984466921 0 -0.26968711719611937 -0.018332150292041979 0 -0.25387676547985721 -0.02452441136234379 0 -0.26968711719611937 -0.018332150292041979 0 -0.26155562347943467 -0.037861138146123199 0 -0.24826461013585729 -0.013027819984466921 0 -0.25387676547985721 -0.02452441136234379 0 -0.26968711719611937 -0.018332150292041979 0 -0.26968711719611937 -0.018332150292041979 0 -0.28953187906397732 -0.034281883787379987 0 -0.27524211720584768 -0.038538427260779863 0 -0.26003022337954462 -0.0038093911555793728 0 -0.26968711719611937 -0.018332150292041979 0 -0.27433688946420332 -0.0007833753365484626 0 -0.26968711719611937 -0.018332150292041979 0 -0.27433688946420332 -0.0007833753365484626 0 -0.28631392786639209 -0.0070506759659385472 0 -0.28631392786639209 -0.0070506759659385472 0 -0.29653674479957171 -0.021015146411400301 0 -0.3025805037907468 -0.0027432771802810229 0 -0.28631392786639209 -0.0070506759659385472 0 -0.3025805037907468 -0.0027432771802810229 0 -0.28842838408131971 0.0076205693905790281 0 -0.27433688946420332 -0.0007833753365484626 0 -0.28631392786639209 -0.0070506759659385472 0 -0.28842838408131971 0.0076205693905790281 0 -0.26968711719611937 -0.018332150292041979 0 -0.28631392786639209 -0.0070506759659385472 0 -0.29653674479957171 -0.021015146411400301 0 -0.26968711719611937 -0.018332150292041979 0 -0.29653674479957171 -0.021015146411400301 0 -0.28953187906397732 -0.034281883787379987 0 -0.29653674479957171 -0.021015146411400301 0 -0.28953187906397732 -0.034281883787379987 0 -0.31718310516035308 -0.038172790333745737 0 -0.29653674479957171 -0.021015146411400301 0 -0.31459326366374579 -0.01532774276474733 0 -0.31718310516035308 -0.038172790333745737 0 -0.29653674479957171 -0.021015146411400301 0 -0.3025805037907468 -0.0027432771802810229 0 -0.31459326366374579 -0.01532774276474733 0 -0.30229462048881822 -0.056161209871372138 0 -0.29850594913894141 -0.055440370537233663 0 -0.30849544073550722 -0.074776909133231664 0 -0.30229462048881822 -0.056161209871372138 0 -0.29366820665513949 -0.048519954280836622 0 -0.31370341578724742 -0.051143824177853653 0 -0.30229462048881822 -0.056161209871372138 0 -0.29850594913894141 -0.055440370537233663 0 -0.29366820665513949 -0.048519954280836622 0 -0.30229462048881822 -0.056161209871372138 0 -0.31629816603535338 -0.060261719535131632 0 -0.30229462048881822 -0.056161209871372138 0 -0.31178497446605258 -0.064623658022855565 0 -0.31629816603535338 -0.060261719535131632 0 -0.30229462048881822 -0.056161209871372138 0 -0.31370341578724742 -0.051143824177853653 0 -0.31629816603535338 -0.060261719535131632 0 -0.29366820665513949 -0.048519954280836622 0 -0.31718310516035308 -0.038172790333745737 0 -0.29366820665513949 -0.048519954280836622 0 -0.31718310516035308 -0.038172790333745737 0 -0.31370341578724742 -0.051143824177853653 0 -0.28953187906397732 -0.034281883787379987 0 -0.29366820665513949 -0.048519954280836622 0 -0.31718310516035308 -0.038172790333745737 0 -0.28953187906397732 -0.034281883787379987 0 -0.29366820665513949 -0.048519954280836622 0 -0.27524211720584768 -0.038538427260779863 0 -0.29366820665513949 -0.048519954280836622 0 -0.27015330814992611 -0.058867118227927437 0 -0.29366820665513949 -0.048519954280836622 0 -0.28660483069534037 -0.061918496488246169 0 -0.27015330814992611 -0.058867118227927437 0 -0.29850594913894141 -0.055440370537233663 0 -0.28660483069534037 -0.061918496488246169 0 -0.29557893925590151 -0.069462416794053169 0 -0.29850594913894141 -0.055440370537233663 0 -0.29366820665513949 -0.048519954280836622 0 -0.28660483069534037 -0.061918496488246169 0 -0.29366820665513949 -0.048519954280836622 0 -0.27015330814992611 -0.058867118227927437 0 -0.27524211720584768 -0.038538427260779863 0 -0.26968711719611937 -0.018332150292041979 0 -0.27524211720584768 -0.038538427260779863 0 -0.26155562347943467 -0.037861138146123199 0 -0.27015330814992611 -0.058867118227927437 0 -0.27524211720584768 -0.038538427260779863 0 -0.26155562347943467 -0.037861138146123199 0 -0.24798951326795751 -0.035882587373858313 0 -0.26155562347943467 -0.037861138146123199 0 -0.25238491957690051 -0.051022134359787842 0 -0.24798951326795751 -0.035882587373858313 0 -0.25387676547985721 -0.02452441136234379 0 -0.26155562347943467 -0.037861138146123199 0 -0.27015330814992611 -0.058867118227927437 0 -0.26155562347943467 -0.037861138146123199 0 -0.25238491957690051 -0.051022134359787842 0 -0.2466384096447127 -0.069214282175018252 0 -0.27015330814992611 -0.058867118227927437 0 -0.25238491957690051 -0.051022134359787842 0 -0.2466384096447127 -0.069214282175018252 0 -0.27015330814992611 -0.058867118227927437 0 -0.26102584033089798 -0.073534373921212107 0 -0.2466384096447127 -0.069214282175018252 0 -0.27015330814992611 -0.058867118227927437 0 -0.2466384096447127 -0.069214282175018252 0 -0.26102584033089798 -0.073534373921212107 0 -0.25106785873748549 -0.083001848322642804 0 -0.25106785873748549 -0.083001848322642804 0 -0.26431637422662529 -0.083961298504163229 0 -0.25687551172258971 -0.095275519396915032 0 -0.26431637422662529 -0.083961298504163229 0 -0.25687551172258971 -0.095275519396915032 0 -0.26922948176741379 -0.094556007429682482 0 -0.26102584033089798 -0.073534373921212107 0 -0.25106785873748549 -0.083001848322642804 0 -0.26431637422662529 -0.083961298504163229 0 -0.26431637422662529 -0.083961298504163229 0 -0.27622487875609619 -0.085738752979791055 0 -0.27411142324960069 -0.07331497732508381 0 -0.26431637422662529 -0.083961298504163229 0 -0.27622487875609619 -0.085738752979791055 0 -0.26922948176741379 -0.094556007429682482 0 -0.27622487875609619 -0.085738752979791055 0 -0.26922948176741379 -0.094556007429682482 0 -0.28208733676033698 -0.099544680508420066 0 -0.27622487875609619 -0.085738752979791055 0 -0.27411142324960069 -0.07331497732508381 0 -0.28634330733871821 -0.075869823829162894 0 -0.28660483069534037 -0.061918496488246169 0 -0.27015330814992611 -0.058867118227927437 0 -0.27411142324960069 -0.07331497732508381 0 -0.27015330814992611 -0.058867118227927437 0 -0.26102584033089798 -0.073534373921212107 0 -0.27411142324960069 -0.07331497732508381 0 -0.26102584033089798 -0.073534373921212107 0 -0.26431637422662529 -0.083961298504163229 0 -0.27411142324960069 -0.07331497732508381 0 -0.24959534238117709 -0.1078054475449232 0 -0.26009747564537128 -0.1202716976192799 0 -0.26511094786836592 -0.1069062435210571 0 -0.24959534238117709 -0.1078054475449232 0 -0.26511094786836592 -0.1069062435210571 0 -0.25687551172258971 -0.095275519396915032 0 -0.26511094786836592 -0.1069062435210571 0 -0.25687551172258971 -0.095275519396915032 0 -0.26922948176741379 -0.094556007429682482 0 -0.26511094786836592 -0.1069062435210571 0 -0.27676276389741278 -0.11052104179975 0 -0.28208733676033698 -0.099544680508420066 0 -0.26511094786836592 -0.1069062435210571 0 -0.26922948176741379 -0.094556007429682482 0 -0.28208733676033698 -0.099544680508420066 0 -0.26511094786836592 -0.1069062435210571 0 -0.28208733676033698 -0.099544680508420066 0 -0.26009747564537128 -0.1202716976192799 0 -0.28368315898475188 -0.1205679176925603 0 -0.26697405985724948 -0.1304210152969853 0 -0.26009747564537128 -0.1202716976192799 0 -0.27676276389741278 -0.11052104179975 0 -0.28368315898475188 -0.1205679176925603 0 -0.26009747564537128 -0.1202716976192799 0 -0.28368315898475188 -0.1205679176925603 0 -0.26009747564537128 -0.1202716976192799 0 -0.26511094786836592 -0.1069062435210571 0 -0.27676276389741278 -0.11052104179975 0 -0.28368315898475188 -0.1205679176925603 0 -0.30807566230962469 -0.12087427087378499 0 -0.28368315898475188 -0.1205679176925603 0 -0.29137344231852969 -0.1063755175941712 0 -0.30807566230962469 -0.12087427087378499 0 -0.27676276389741278 -0.11052104179975 0 -0.28368315898475188 -0.1205679176925603 0 -0.29137344231852969 -0.1063755175941712 0 -0.28368315898475188 -0.1205679176925603 0 -0.29137344231852969 -0.1063755175941712 0 -0.29137344231852969 -0.1063755175941712 0 -0.28208733676033698 -0.099544680508420066 0 -0.29906372565230788 -0.092183117495782341 0 -0.28208733676033698 -0.099544680508420066 0 -0.29906372565230788 -0.092183117495782341 0 -0.27676276389741278 -0.11052104179975 0 -0.29137344231852969 -0.1063755175941712 0 -0.28208733676033698 -0.099544680508420066 0 -0.29137344231852969 -0.1063755175941712 0 -0.29906372565230788 -0.092183117495782341 0 -0.30690970986333499 -0.10413412755240679 0 -0.29906372565230788 -0.092183117495782341 0 -0.31411573014289268 -0.085656035662949492 0 -0.29137344231852969 -0.1063755175941712 0 -0.30690970986333499 -0.10413412755240679 0 -0.29906372565230788 -0.092183117495782341 0 -0.28368315898475188 -0.1205679176925603 0 -0.30807566230962469 -0.12087427087378499 0 -0.30140371581860798 -0.1292511186866305 0 -0.29137344231852969 -0.1063755175941712 0 -0.30690970986333499 -0.10413412755240679 0 -0.30807566230962469 -0.12087427087378499 0 -0.29557893925590151 -0.069462416794053169 0 -0.28634330733871821 -0.075869823829162894 0 -0.29528406594296941 -0.079953964946478426 0 -0.28660483069534037 -0.061918496488246169 0 -0.29557893925590151 -0.069462416794053169 0 -0.28634330733871821 -0.075869823829162894 0 -0.28660483069534037 -0.061918496488246169 0 -0.27411142324960069 -0.07331497732508381 0 -0.28634330733871821 -0.075869823829162894 0 -0.27622487875609619 -0.085738752979791055 0 -0.28634330733871821 -0.075869823829162894 0 -0.28693891673241251 -0.08747755748016231 0 -0.28208733676033698 -0.099544680508420066 0 -0.28693891673241251 -0.08747755748016231 0 -0.29906372565230788 -0.092183117495782341 0 -0.27622487875609619 -0.085738752979791055 0 -0.28208733676033698 -0.099544680508420066 0 -0.28693891673241251 -0.08747755748016231 0 -0.28693891673241251 -0.08747755748016231 0 -0.29528406594296941 -0.079953964946478426 0 -0.29906372565230788 -0.092183117495782341 0 -0.28634330733871821 -0.075869823829162894 0 -0.28693891673241251 -0.08747755748016231 0 -0.29528406594296941 -0.079953964946478426 0 -0.29528406594296941 -0.079953964946478426 0 -0.29906372565230788 -0.092183117495782341 0 -0.30849544073550722 -0.074776909133231664 0 -0.29906372565230788 -0.092183117495782341 0 -0.30849544073550722 -0.074776909133231664 0 -0.29906372565230788 -0.092183117495782341 0 -0.30849544073550722 -0.074776909133231664 0 -0.31411573014289268 -0.085656035662949492 0 -0.29906372565230788 -0.092183117495782341 0 -0.31411573014289268 -0.085656035662949492 0 -0.30849544073550722 -0.074776909133231664 0 -0.31411573014289268 -0.085656035662949492 0 -0.30229462048881822 -0.056161209871372138 0 -0.30849544073550722 -0.074776909133231664 0 -0.31178497446605258 -0.064623658022855565 0 -0.29850594913894141 -0.055440370537233663 0 -0.29557893925590151 -0.069462416794053169 0 -0.30849544073550722 -0.074776909133231664 0 -0.30849544073550722 -0.074776909133231664 0 -0.31286059459191501 -0.066721027791507209 0 -0.29850594913894141 -0.055440370537233663 0 -0.30849544073550722 -0.074776909133231664 0 -0.29557893925590151 -0.069462416794053169 0 -0.29528406594296941 -0.079953964946478426 0 -0.30849544073550722 -0.074776909133231664 0 -0.30849544073550722 -0.074776909133231664 0 -0.31178497446605258 -0.064623658022855565 0 -0.31286059459191501 -0.066721027791507209 0 -0.31178497446605258 -0.064623658022855565 0 -0.31286059459191501 -0.066721027791507209 0 -0.31286059459191501 -0.066721027791507209 0 -0.32103296817657878 -0.082656476452658639 0 -0.31286059459191501 -0.066721027791507209 0 -0.32103296817657878 -0.082656476452658639 0 -0.32352590008436471 -0.062378140209921912 0 -0.31178497446605258 -0.064623658022855565 0 -0.31286059459191501 -0.066721027791507209 0 -0.31629816603535338 -0.060261719535131632 0 -0.30849544073550722 -0.074776909133231664 0 -0.31286059459191501 -0.066721027791507209 0 -0.32103296817657878 -0.082656476452658639 0 -0.31286059459191501 -0.066721027791507209 0 -0.31629816603535338 -0.060261719535131632 0 -0.31286059459191501 -0.066721027791507209 0 -0.31629816603535338 -0.060261719535131632 0 -0.32352590008436471 -0.062378140209921912 0 -0.32103296817657878 -0.082656476452658639 0 -0.33093834944883532 -0.101971145942244 0 -0.30849544073550722 -0.074776909133231664 0 -0.31411573014289268 -0.085656035662949492 0 -0.32103296817657878 -0.082656476452658639 0 -0.31411573014289268 -0.085656035662949492 0 -0.32103296817657878 -0.082656476452658639 0 -0.32329194788869442 -0.1034183298589804 0 -0.31411573014289268 -0.085656035662949492 0 -0.32103296817657878 -0.082656476452658639 0 -0.32103296817657878 -0.082656476452658639 0 -0.33692687914299491 -0.089632102483736459 0 -0.33093834944883532 -0.101971145942244 0 -0.32103296817657878 -0.082656476452658639 0 -0.33692687914299491 -0.089632102483736459 0 -0.3453529791357649 -0.07211045902320197 0 -0.32103296817657878 -0.082656476452658639 0 -0.3453529791357649 -0.07211045902320197 0 -0.32352590008436471 -0.062378140209921912 0 -0.34475717967991132 -0.068595070548471249 0 -0.3453529791357649 -0.07211045902320197 0 -0.32352590008436471 -0.062378140209921912 0 -0.34475717967991132 -0.068595070548471249 0 -0.32352590008436471 -0.062378140209921912 0 -0.32103296817657878 -0.082656476452658639 0 -0.3453529791357649 -0.07211045902320197 0 -0.30807566230962469 -0.12087427087378499 0 -0.32329194788869442 -0.1034183298589804 0 -0.33246816563449738 -0.1211806240550105 0 -0.30807566230962469 -0.12087427087378499 0 -0.33246816563449738 -0.1211806240550105 0 -0.30807566230962469 -0.12087427087378499 0 -0.32007374605487132 -0.12494213909402439 0 -0.33246816563449738 -0.1211806240550105 0 -0.30690970986333499 -0.10413412755240679 0 -0.30807566230962469 -0.12087427087378499 0 -0.32329194788869442 -0.1034183298589804 0 -0.32329194788869442 -0.1034183298589804 0 -0.33246816563449738 -0.1211806240550105 0 -0.32007374605487132 -0.12494213909402439 0 -0.33441303965894859 -0.1249452932850653 0 -0.30690970986333499 -0.10413412755240679 0 -0.31411573014289268 -0.085656035662949492 0 -0.32329194788869442 -0.1034183298589804 0 -0.32103296817657878 -0.082656476452658639 0 -0.32329194788869442 -0.1034183298589804 0 -0.33093834944883532 -0.101971145942244 0 -0.31411573014289268 -0.085656035662949492 0 -0.32329194788869442 -0.1034183298589804 0 -0.32329194788869442 -0.1034183298589804 0 -0.33093834944883532 -0.101971145942244 0 -0.33246816563449738 -0.1211806240550105 0 -0.33692687914299491 -0.089632102483736459 0 -0.33093834944883532 -0.101971145942244 0 -0.35038321981080389 -0.10179032851684799 0 -0.33093834944883532 -0.101971145942244 0 -0.34773438721257438 -0.1121772477149196 0 -0.35038321981080389 -0.10179032851684799 0 -0.33093834944883532 -0.101971145942244 0 -0.3408437307210912 -0.1212858154318297 0 -0.33093834944883532 -0.101971145942244 0 -0.3408437307210912 -0.1212858154318297 0 -0.33246816563449738 -0.1211806240550105 0 -0.33093834944883532 -0.101971145942244 0 -0.3408437307210912 -0.1212858154318297 0 -0.34773438721257438 -0.1121772477149196 0 -0.34272140335036932 -0.124947120862287 0 -0.3408437307210912 -0.1212858154318297 0 -0.33441303965894859 -0.1249452932850653 0 -0.3408437307210912 -0.1212858154318297 0 -0.33246816563449738 -0.1211806240550105 0 -0.34272140335036932 -0.124947120862287 0 -0.33441303965894859 -0.1249452932850653 0 -0.34272140335036932 -0.124947120862287 0 -0.3408437307210912 -0.1212858154318297 0 -0.32007374605487132 -0.12494213909402439 0 -0.33441303965894859 -0.1249452932850653 0 -0.33246816563449738 -0.1211806240550105 0 -0.3408437307210912 -0.1212858154318297 0 -0.33441303965894859 -0.1249452932850653 0 -0.33246816563449738 -0.1211806240550105 0 -0.33441303965894859 -0.1249452932850653 0 -0.33246816563449738 -0.1211806240550105 0 -0.34272140335036932 -0.124947120862287 0 -0.35433435295871402 -0.1214552484327875 0 -0.36893450279197471 -0.1249528869149899 0 -0.34272140335036932 -0.124947120862287 0 -0.36893450279197471 -0.1249528869149899 0 -0.3408437307210912 -0.1212858154318297 0 -0.35433435295871402 -0.1214552484327875 0 -0.3408437307210912 -0.1212858154318297 0 -0.35433435295871402 -0.1214552484327875 0 -0.34773438721257438 -0.1121772477149196 0 -0.34272140335036932 -0.124947120862287 0 -0.3408437307210912 -0.1212858154318297 0 -0.35433435295871402 -0.1214552484327875 0 -0.35433435295871402 -0.1214552484327875 0 -0.34773438721257438 -0.1121772477149196 0 -0.3623387343604032 -0.1125517513480446 0 -0.34773438721257438 -0.1121772477149196 0 -0.35038321981080389 -0.10179032851684799 0 -0.3623387343604032 -0.1125517513480446 0 -0.37380044498630338 -0.100392191664622 0 -0.3623387343604032 -0.1125517513480446 0 -0.3789649235099295 -0.11270856972454819 0 -0.35038321981080389 -0.10179032851684799 0 -0.37380044498630338 -0.100392191664622 0 -0.36747037526515469 -0.088210616938563927 0 -0.35038321981080389 -0.10179032851684799 0 -0.37380044498630338 -0.100392191664622 0 -0.3623387343604032 -0.1125517513480446 0 -0.3623387343604032 -0.1125517513480446 0 -0.36893450279197471 -0.1249528869149899 0 -0.3789649235099295 -0.11270856972454819 0 -0.35433435295871402 -0.1214552484327875 0 -0.3623387343604032 -0.1125517513480446 0 -0.36893450279197471 -0.1249528869149899 0 -0.34995192587724822 -0.070116192960804249 0 -0.35645509357982358 -0.081628608772215283 0 -0.36843110820579178 -0.075527255856609146 0 -0.34995192587724822 -0.070116192960804249 0 -0.36608399240098949 -0.063120758007335118 0 -0.35494834161021771 -0.06194377696909157 0 -0.34995192587724822 -0.070116192960804249 0 -0.36843110820579178 -0.075527255856609146 0 -0.34995192587724822 -0.070116192960804249 0 -0.36608399240098949 -0.063120758007335118 0 -0.34995192587724822 -0.070116192960804249 0 -0.34475717967991132 -0.068595070548471249 0 -0.35494834161021771 -0.06194377696909157 0 -0.34995192587724822 -0.070116192960804249 0 -0.34475717967991132 -0.068595070548471249 0 -0.34995192587724822 -0.070116192960804249 0 -0.34475717967991132 -0.068595070548471249 0 -0.3453529791357649 -0.07211045902320197 0 -0.34995192587724822 -0.070116192960804249 0 -0.3453529791357649 -0.07211045902320197 0 -0.34995192587724822 -0.070116192960804249 0 -0.3453529791357649 -0.07211045902320197 0 -0.35645509357982358 -0.081628608772215283 0 -0.34475717967991132 -0.068595070548471249 0 -0.3453529791357649 -0.07211045902320197 0 -0.35038321981080389 -0.10179032851684799 0 -0.35645509357982358 -0.081628608772215283 0 -0.36747037526515469 -0.088210616938563927 0 -0.35038321981080389 -0.10179032851684799 0 -0.3453529791357649 -0.07211045902320197 0 -0.35645509357982358 -0.081628608772215283 0 -0.33692687914299491 -0.089632102483736459 0 -0.35038321981080389 -0.10179032851684799 0 -0.3453529791357649 -0.07211045902320197 0 -0.35038321981080389 -0.10179032851684799 0 -0.3453529791357649 -0.07211045902320197 0 -0.36747037526515469 -0.088210616938563927 0 -0.36843110820579178 -0.075527255856609146 0 -0.38691029053433551 -0.080938318752413793 0 -0.35645509357982358 -0.081628608772215283 0 -0.36747037526515469 -0.088210616938563927 0 -0.36843110820579178 -0.075527255856609146 0 -0.34995192587724822 -0.070116192960804249 0 -0.36843110820579178 -0.075527255856609146 0 -0.36608399240098949 -0.063120758007335118 0 -0.36843110820579178 -0.075527255856609146 0 -0.36608399240098949 -0.063120758007335118 0 -0.37978412082390189 -0.068029865631836883 0 -0.36608399240098949 -0.063120758007335118 0 -0.37085155020467431 -0.050438611479832557 0 -0.38221605892473098 -0.056125323053866277 0 -0.36608399240098949 -0.063120758007335118 0 -0.38221605892473098 -0.056125323053866277 0 -0.37085155020467431 -0.050438611479832557 0 -0.36177701350261748 -0.054750595911384127 0 -0.36329546327126672 -0.041142767418341691 0 -0.36608399240098949 -0.063120758007335118 0 -0.36177701350261748 -0.054750595911384127 0 -0.35494834161021771 -0.06194377696909157 0 -0.36608399240098949 -0.063120758007335118 0 -0.37085155020467431 -0.050438611479832557 0 -0.36177701350261748 -0.054750595911384127 0 -0.36177701350261748 -0.054750595911384127 0 -0.35494834161021771 -0.06194377696909157 0 -0.35217159659032232 -0.05313626741746251 0 -0.34475717967991132 -0.068595070548471249 0 -0.35217159659032232 -0.05313626741746251 0 -0.34008173660725832 -0.04100860914713586 0 -0.36177701350261748 -0.054750595911384127 0 -0.35217159659032232 -0.05313626741746251 0 -0.36329546327126672 -0.041142767418341691 0 -0.34475717967991132 -0.068595070548471249 0 -0.35494834161021771 -0.06194377696909157 0 -0.35217159659032232 -0.05313626741746251 0 -0.35217159659032232 -0.05313626741746251 0 -0.35233090603521772 -0.034345905606361089 0 -0.36329546327126672 -0.041142767418341691 0 -0.35217159659032232 -0.05313626741746251 0 -0.35233090603521772 -0.034345905606361089 0 -0.34008173660725832 -0.04100860914713586 0 -0.35233090603521772 -0.034345905606361089 0 -0.34677261788783459 -0.022263095799622792 0 -0.34008173660725832 -0.04100860914713586 0 -0.35233090603521772 -0.034345905606361089 0 -0.36329546327126672 -0.041142767418341691 0 -0.36125368123050811 -0.029816691131076791 0 -0.36329546327126672 -0.041142767418341691 0 -0.37015544225173291 -0.03012439130571171 0 -0.36125368123050811 -0.029816691131076791 0 -0.37085155020467431 -0.050438611479832557 0 -0.36329546327126672 -0.041142767418341691 0 -0.37439980638912518 -0.038891661293645137 0 -0.36329546327126672 -0.041142767418341691 0 -0.37439980638912518 -0.038891661293645137 0 -0.37015544225173291 -0.03012439130571171 0 -0.37439980638912518 -0.038891661293645137 0 -0.37015544225173291 -0.03012439130571171 0 -0.37866743010551202 -0.02906954498465647 0 -0.37015544225173291 -0.03012439130571171 0 -0.37402384376206249 -0.023759624541515059 0 -0.37866743010551202 -0.02906954498465647 0 -0.37015544225173291 -0.03012439130571171 0 -0.37402384376206249 -0.023759624541515059 0 -0.36652472594663232 -0.022500501643346649 0 -0.37402384376206249 -0.023759624541515059 0 -0.37465439862472261 -0.016787835852634068 0 -0.36652472594663232 -0.022500501643346649 0 -0.37465439862472261 -0.016787835852634068 0 -0.36652472594663232 -0.022500501643346649 0 -0.3596530522362773 -0.017262546391789129 0 -0.36652472594663232 -0.022500501643346649 0 -0.3596530522362773 -0.017262546391789129 0 -0.35649867437881472 -0.022585523222405649 0 -0.36652472594663232 -0.022500501643346649 0 -0.36125368123050811 -0.029816691131076791 0 -0.35649867437881472 -0.022585523222405649 0 -0.37015544225173291 -0.03012439130571171 0 -0.36652472594663232 -0.022500501643346649 0 -0.36125368123050811 -0.029816691131076791 0 -0.37465439862472261 -0.016787835852634068 0 -0.3596530522362773 -0.017262546391789129 0 -0.34857824671955512 -0.007874197240844389 0 -0.37465439862472261 -0.016787835852634068 0 -0.3597652811465577 -0.0058215117475868012 0 -0.34857824671955512 -0.007874197240844389 0 -0.37465439862472261 -0.016787835852634068 0 -0.34857824671955512 -0.007874197240844389 0 -0.37126952376897032 -0.00085078512189483576 0 -0.36867541047690239 -0.006920070417115203 0 -0.36494834593608783 -0.001298186014321303 0 -0.37126952376897032 -0.00085078512189483576 0 -0.37464851222799189 -0.0076089195940836872 0 -0.37774077980655368 -0.001289555558904682 0 -0.37126952376897032 -0.00085078512189483576 0 -0.37464851222799189 -0.0076089195940836872 0 -0.36867541047690239 -0.006920070417115203 0 -0.37465439862472261 -0.016787835852634068 0 -0.36867541047690239 -0.006920070417115203 0 -0.3597652811465577 -0.0058215117475868012 0 -0.37465439862472261 -0.016787835852634068 0 -0.37464851222799189 -0.0076089195940836872 0 -0.36867541047690239 -0.006920070417115203 0 -0.36867541047690239 -0.006920070417115203 0 -0.3597652811465577 -0.0058215117475868012 0 -0.36494834593608783 -0.001298186014321303 0 -0.3597652811465577 -0.0058215117475868012 0 -0.36494834593608783 -0.001298186014321303 0 -0.35900139338342918 0.0020097317905480609 0 -0.3597652811465577 -0.0058215117475868012 0 -0.35221409618436439 -0.0049109655465913588 0 -0.34857824671955512 -0.007874197240844389 0 -0.3597652811465577 -0.0058215117475868012 0 -0.35509488683577939 -0.0004162838960613095 0 -0.35900139338342918 0.0020097317905480609 0 -0.3597652811465577 -0.0058215117475868012 0 -0.35509488683577939 -0.0004162838960613095 0 -0.35221409618436439 -0.0049109655465913588 0 -0.3596530522362773 -0.017262546391789129 0 -0.34857824671955512 -0.007874197240844389 0 -0.35200921551166209 -0.0165646739997149 0 -0.34857824671955512 -0.007874197240844389 0 -0.34618108527798752 -0.01472783018749277 0 -0.35200921551166209 -0.0165646739997149 0 -0.35233090603521772 -0.034345905606361089 0 -0.36125368123050811 -0.029816691131076791 0 -0.35649867437881472 -0.022585523222405649 0 -0.35233090603521772 -0.034345905606361089 0 -0.35649867437881472 -0.022585523222405649 0 -0.34677261788783459 -0.022263095799622792 0 -0.35649867437881472 -0.022585523222405649 0 -0.35200921551166209 -0.0165646739997149 0 -0.34677261788783459 -0.022263095799622792 0 -0.3596530522362773 -0.017262546391789129 0 -0.35649867437881472 -0.022585523222405649 0 -0.35200921551166209 -0.0165646739997149 0 -0.34618108527798752 -0.01472783018749277 0 -0.35200921551166209 -0.0165646739997149 0 -0.34677261788783459 -0.022263095799622792 0 -0.33540629353460438 -0.01342214774580049 0 -0.31718310516035308 -0.038172790333745737 0 -0.34008173660725832 -0.04100860914713586 0 -0.33540629353460438 -0.01342214774580049 0 -0.34008173660725832 -0.04100860914713586 0 -0.34677261788783459 -0.022263095799622792 0 -0.33540629353460438 -0.01342214774580049 0 -0.34008173660725832 -0.04100860914713586 0 -0.34618108527798752 -0.01472783018749277 0 -0.34677261788783459 -0.022263095799622792 0 -0.33540629353460438 -0.01342214774580049 0 -0.33540629353460438 -0.01342214774580049 0 -0.3204068892458079 -0.0014125807301150939 0 -0.33073085046195078 0.01416431365553468 0 -0.34857824671955512 -0.007874197240844389 0 -0.33540629353460438 -0.01342214774580049 0 -0.33073085046195078 0.01416431365553468 0 -0.34857824671955512 -0.007874197240844389 0 -0.34618108527798752 -0.01472783018749277 0 -0.33540629353460438 -0.01342214774580049 0 -0.3025805037907468 -0.0027432771802810229 0 -0.31459326366374579 -0.01532774276474733 0 -0.3204068892458079 -0.0014125807301150939 0 -0.33540629353460438 -0.01342214774580049 0 -0.31459326366374579 -0.01532774276474733 0 -0.3204068892458079 -0.0014125807301150939 0 -0.33540629353460438 -0.01342214774580049 0 -0.31459326366374579 -0.01532774276474733 0 -0.31718310516035308 -0.038172790333745737 0 -0.31718310516035308 -0.038172790333745737 0 -0.3268834079531176 -0.05023453433316457 0 -0.34008173660725832 -0.04100860914713586 0 -0.31718310516035308 -0.038172790333745737 0 -0.31370341578724742 -0.051143824177853653 0 -0.3268834079531176 -0.05023453433316457 0 -0.31370341578724742 -0.051143824177853653 0 -0.31629816603535338 -0.060261719535131632 0 -0.32352590008436471 -0.062378140209921912 0 -0.31629816603535338 -0.060261719535131632 0 -0.32352590008436471 -0.062378140209921912 0 -0.32352590008436471 -0.062378140209921912 0 -0.3268834079531176 -0.05023453433316457 0 -0.33381205608116321 -0.055554088559673351 0 -0.31370341578724742 -0.051143824177853653 0 -0.32352590008436471 -0.062378140209921912 0 -0.3268834079531176 -0.05023453433316457 0 -0.34475717967991132 -0.068595070548471249 0 -0.32352590008436471 -0.062378140209921912 0 -0.33381205608116321 -0.055554088559673351 0 -0.34475717967991132 -0.068595070548471249 0 -0.33381205608116321 -0.055554088559673351 0 -0.34008173660725832 -0.04100860914713586 0 -0.3268834079531176 -0.05023453433316457 0 -0.33381205608116321 -0.055554088559673351 0 -0.34008173660725832 -0.04100860914713586 0 -0.34475717967991132 -0.068595070548471249 0 -0.34008173660725832 -0.04100860914713586 0 -0.29131753467172561 -0.25675805269722002 0 -0.30769212114973271 -0.24578220261295139 0 -0.29241592956139478 -0.23974284613727589 0 -0.30769212114973271 -0.24578220261295139 0 -0.30829656048542242 -0.23127198481015249 0 -0.29241592956139478 -0.23974284613727589 0 -0.30829656048542242 -0.23127198481015249 0 -0.29279532374442052 -0.2217612167757172 0 -0.3129652712195421 -0.2114706657937139 0 -0.30829656048542242 -0.23127198481015249 0 -0.29279532374442052 -0.2217612167757172 0 -0.29241592956139478 -0.23974284613727589 0 -0.29279532374442052 -0.2217612167757172 0 -0.29241592956139478 -0.23974284613727589 0 -0.27798049023744681 -0.23352671123603991 0 -0.29279532374442052 -0.2217612167757172 0 -0.27798049023744681 -0.23352671123603991 0 -0.27449661508218531 -0.21747639879007349 0 -0.29131753467172561 -0.25675805269722002 0 -0.29241592956139478 -0.23974284613727589 0 -0.27722523139620658 -0.24922189107985179 0 -0.29241592956139478 -0.23974284613727589 0 -0.27722523139620658 -0.24922189107985179 0 -0.27798049023744681 -0.23352671123603991 0 -0.27722523139620658 -0.24922189107985179 0 -0.25992972331208369 -0.2410680052130979 0 -0.27798049023744681 -0.23352671123603991 0 -0.26398002587916253 -0.25656090854441049 0 -0.27722523139620658 -0.24922189107985179 0 -0.25992972331208369 -0.2410680052130979 0 -0.25992972331208369 -0.2410680052130979 0 -0.25674041691710447 -0.22108212323078871 0 -0.27798049023744681 -0.23352671123603991 0 -0.2377451423251814 -0.23136366228574551 0 -0.25992972331208369 -0.2410680052130979 0 -0.25674041691710447 -0.22108212323078871 0 -0.25674041691710447 -0.22108212323078871 0 -0.27798049023744681 -0.23352671123603991 0 -0.27449661508218531 -0.21747639879007349 0 -0.27449661508218531 -0.21747639879007349 0 -0.25644706280453389 -0.1995927939493197 0 -0.27817485521465529 -0.19463925610534399 0 -0.27449661508218531 -0.21747639879007349 0 -0.27817485521465529 -0.19463925610534399 0 -0.25674041691710447 -0.22108212323078871 0 -0.27449661508218531 -0.21747639879007349 0 -0.25644706280453389 -0.1995927939493197 0 -0.25644706280453389 -0.1995927939493197 0 -0.27817485521465529 -0.19463925610534399 0 -0.26629571781906192 -0.18034234132084431 0 -0.27817485521465529 -0.19463925610534399 0 -0.29367807880863189 -0.20345752952089671 0 -0.29386082525749962 -0.1848532680646672 0 -0.27449661508218531 -0.21747639879007349 0 -0.27817485521465529 -0.19463925610534399 0 -0.29367807880863189 -0.20345752952089671 0 -0.29279532374442052 -0.2217612167757172 0 -0.27449661508218531 -0.21747639879007349 0 -0.29367807880863189 -0.20345752952089671 0 -0.29279532374442052 -0.2217612167757172 0 -0.29367807880863189 -0.20345752952089671 0 -0.3129652712195421 -0.2114706657937139 0 -0.29367807880863189 -0.20345752952089671 0 -0.30717411826112789 -0.1920401195635244 0 -0.29386082525749962 -0.1848532680646672 0 -0.29367807880863189 -0.20345752952089671 0 -0.30717411826112789 -0.1920401195635244 0 -0.3129652712195421 -0.2114706657937139 0 -0.30551265723832022 -0.17938492804960809 0 -0.29677214667513702 -0.1677956617280158 0 -0.29386082525749962 -0.1848532680646672 0 -0.30717411826112789 -0.1920401195635244 0 -0.30551265723832022 -0.17938492804960809 0 -0.29386082525749962 -0.1848532680646672 0 -0.30717411826112789 -0.1920401195635244 0 -0.30551265723832022 -0.17938492804960809 0 -0.31489114071409963 -0.18333745750317351 0 -0.30551265723832022 -0.17938492804960809 0 -0.31220508881165993 -0.16846949012138551 0 -0.29677214667513702 -0.1677956617280158 0 -0.30551265723832022 -0.17938492804960809 0 -0.31220508881165993 -0.16846949012138551 0 -0.31489114071409963 -0.18333745750317351 0 -0.31220508881165993 -0.16846949012138551 0 -0.2949530938874384 -0.15245549241185349 0 -0.31498630483336881 -0.15987728715749039 0 -0.31220508881165993 -0.16846949012138551 0 -0.2949530938874384 -0.15245549241185349 0 -0.31220508881165993 -0.16846949012138551 0 -0.29677214667513702 -0.1677956617280158 0 -0.2949530938874384 -0.15245549241185349 0 -0.28185309534712533 -0.17180211342061449 0 -0.28553133547959519 -0.14896497073588499 0 -0.29677214667513702 -0.1677956617280158 0 -0.28185309534712533 -0.17180211342061449 0 -0.2949530938874384 -0.15245549241185349 0 -0.28185309534712533 -0.17180211342061449 0 -0.28553133547959519 -0.14896497073588499 0 -0.2949530938874384 -0.15245549241185349 0 -0.27817485521465529 -0.19463925610534399 0 -0.28185309534712533 -0.17180211342061449 0 -0.29386082525749962 -0.1848532680646672 0 -0.29677214667513702 -0.1677956617280158 0 -0.28185309534712533 -0.17180211342061449 0 -0.29386082525749962 -0.1848532680646672 0 -0.27817485521465529 -0.19463925610534399 0 -0.28185309534712533 -0.17180211342061449 0 -0.27817485521465529 -0.19463925610534399 0 -0.28185309534712533 -0.17180211342061449 0 -0.26629571781906192 -0.18034234132084431 0 -0.26629571781906192 -0.18034234132084431 0 -0.25029992488695979 -0.1782534950292988 0 -0.25761979100978533 -0.16665415002795461 0 -0.25644706280453389 -0.1995927939493197 0 -0.26629571781906192 -0.18034234132084431 0 -0.25029992488695979 -0.1782534950292988 0 -0.26629571781906192 -0.18034234132084431 0 -0.25761979100978533 -0.16665415002795461 0 -0.26933386928146391 -0.16300442301689841 0 -0.24825300788518309 -0.1555077779107997 0 -0.25761979100978533 -0.16665415002795461 0 -0.26108146703715113 -0.15708396540124031 0 -0.25761979100978533 -0.16665415002795461 0 -0.26108146703715113 -0.15708396540124031 0 -0.26933386928146391 -0.16300442301689841 0 -0.28185309534712533 -0.17180211342061449 0 -0.27598770130958522 -0.15333886838191951 0 -0.28553133547959519 -0.14896497073588499 0 -0.28185309534712533 -0.17180211342061449 0 -0.26629571781906192 -0.18034234132084431 0 -0.26933386928146391 -0.16300442301689841 0 -0.26108146703715113 -0.15708396540124031 0 -0.26933386928146391 -0.16300442301689841 0 -0.26726071412102442 -0.15087550168963329 0 -0.28185309534712533 -0.17180211342061449 0 -0.26933386928146391 -0.16300442301689841 0 -0.27598770130958522 -0.15333886838191951 0 -0.27598770130958522 -0.15333886838191951 0 -0.271177428866754 -0.14364721368904659 0 -0.28553133547959519 -0.14896497073588499 0 -0.271177428866754 -0.14364721368904659 0 -0.28662611268527088 -0.1421678116724244 0 -0.28553133547959519 -0.14896497073588499 0 -0.271177428866754 -0.14364721368904659 0 -0.28553133547959519 -0.14896497073588499 0 -0.271177428866754 -0.14364721368904659 0 -0.26726071412102442 -0.15087550168963329 0 -0.25891484533836889 -0.13910423861407881 0 -0.271177428866754 -0.14364721368904659 0 -0.26726071412102442 -0.15087550168963329 0 -0.27598770130958522 -0.15333886838191951 0 -0.271177428866754 -0.14364721368904659 0 -0.26726071412102442 -0.15087550168963329 0 -0.26933386928146391 -0.16300442301689841 0 -0.27598770130958522 -0.15333886838191951 0 -0.26726071412102442 -0.15087550168963329 0 -0.2405789555143194 -0.1375116727892334 0 -0.25601133851015478 -0.1487044986697981 0 -0.25891484533836889 -0.13910423861407881 0 -0.26108146703715113 -0.15708396540124031 0 -0.26726071412102442 -0.15087550168963329 0 -0.25601133851015478 -0.1487044986697981 0 -0.271177428866754 -0.14364721368904659 0 -0.25891484533836889 -0.13910423861407881 0 -0.26726071412102442 -0.15087550168963329 0 -0.25601133851015478 -0.1487044986697981 0 -0.25891484533836889 -0.13910423861407881 0 -0.24825300788518309 -0.1555077779107997 0 -0.26108146703715113 -0.15708396540124031 0 -0.25601133851015478 -0.1487044986697981 0 -0.26009747564537128 -0.1202716976192799 0 -0.25054446979338107 -0.12912519928877991 0 -0.26697405985724948 -0.1304210152969853 0 -0.25054446979338107 -0.12912519928877991 0 -0.25891484533836889 -0.13910423861407881 0 -0.26697405985724948 -0.1304210152969853 0 -0.2405789555143194 -0.1375116727892334 0 -0.25054446979338107 -0.12912519928877991 0 -0.25891484533836889 -0.13910423861407881 0 -0.28368315898475188 -0.1205679176925603 0 -0.271177428866754 -0.14364721368904659 0 -0.26697405985724948 -0.1304210152969853 0 -0.28368315898475188 -0.1205679176925603 0 -0.271177428866754 -0.14364721368904659 0 -0.28514813781506088 -0.1345929107172644 0 -0.28368315898475188 -0.1205679176925603 0 -0.271177428866754 -0.14364721368904659 0 -0.271177428866754 -0.14364721368904659 0 -0.25891484533836889 -0.13910423861407881 0 -0.26697405985724948 -0.1304210152969853 0 -0.271177428866754 -0.14364721368904659 0 -0.28514813781506088 -0.1345929107172644 0 -0.28662611268527088 -0.1421678116724244 0 -0.28368315898475188 -0.1205679176925603 0 -0.29492821592448881 -0.13453805291007029 0 -0.28514813781506088 -0.1345929107172644 0 -0.28368315898475188 -0.1205679176925603 0 -0.29492821592448881 -0.13453805291007029 0 -0.30140371581860798 -0.1292511186866305 0 -0.29492821592448881 -0.13453805291007029 0 -0.2912775948780732 -0.1389862943003273 0 -0.28514813781506088 -0.1345929107172644 0 -0.29657756063899582 -0.140013172184488 0 -0.29492821592448881 -0.13453805291007029 0 -0.2912775948780732 -0.1389862943003273 0 -0.2912775948780732 -0.1389862943003273 0 -0.28514813781506088 -0.1345929107172644 0 -0.28662611268527088 -0.1421678116724244 0 -0.28662611268527088 -0.1421678116724244 0 -0.28553133547959519 -0.14896497073588499 0 -0.28662611268527088 -0.1421678116724244 0 -0.28553133547959519 -0.14896497073588499 0 -0.28937009998544028 -0.14621975116982991 0 -0.28553133547959519 -0.14896497073588499 0 -0.2922536480049423 -0.1499497578362777 0 -0.28937009998544028 -0.14621975116982991 0 -0.28553133547959519 -0.14896497073588499 0 -0.2922536480049423 -0.1499497578362777 0 -0.2949530938874384 -0.15245549241185349 0 -0.28553133547959519 -0.14896497073588499 0 -0.2949530938874384 -0.15245549241185349 0 -0.2922536480049423 -0.1499497578362777 0 -0.2949530938874384 -0.15245549241185349 0 -0.29617843115691228 -0.14802272380236281 0 -0.2922536480049423 -0.1499497578362777 0 -0.2949530938874384 -0.15245549241185349 0 -0.2912775948780732 -0.1389862943003273 0 -0.28662611268527088 -0.1421678116724244 0 -0.29310794732654949 -0.1436195240173895 0 -0.28662611268527088 -0.1421678116724244 0 -0.28937009998544028 -0.14621975116982991 0 -0.29310794732654949 -0.1436195240173895 0 -0.2922536480049423 -0.1499497578362777 0 -0.28937009998544028 -0.14621975116982991 0 -0.29310794732654949 -0.1436195240173895 0 -0.29617843115691228 -0.14802272380236281 0 -0.29310794732654949 -0.1436195240173895 0 -0.29956135480037449 -0.14472193576336759 0 -0.2922536480049423 -0.1499497578362777 0 -0.29617843115691228 -0.14802272380236281 0 -0.29310794732654949 -0.1436195240173895 0 -0.29657756063899582 -0.140013172184488 0 -0.2912775948780732 -0.1389862943003273 0 -0.29310794732654949 -0.1436195240173895 0 -0.29657756063899582 -0.140013172184488 0 -0.29310794732654949 -0.1436195240173895 0 -0.29956135480037449 -0.14472193576336759 0 -0.29956135480037449 -0.14472193576336759 0 -0.30554397810907652 -0.146919348525368 0 -0.30456114821214081 -0.13888567554976469 0 -0.2949530938874384 -0.15245549241185349 0 -0.30620642865757891 -0.15285211384445899 0 -0.31498630483336881 -0.15987728715749039 0 -0.2949530938874384 -0.15245549241185349 0 -0.31498630483336881 -0.15987728715749039 0 -0.29657756063899582 -0.140013172184488 0 -0.29956135480037449 -0.14472193576336759 0 -0.30456114821214081 -0.13888567554976469 0 -0.29617843115691228 -0.14802272380236281 0 -0.29956135480037449 -0.14472193576336759 0 -0.30052761464898298 -0.14908162957255741 0 -0.29956135480037449 -0.14472193576336759 0 -0.30052761464898298 -0.14908162957255741 0 -0.30554397810907652 -0.146919348525368 0 -0.2949530938874384 -0.15245549241185349 0 -0.30052761464898298 -0.14908162957255741 0 -0.30620642865757891 -0.15285211384445899 0 -0.2949530938874384 -0.15245549241185349 0 -0.29617843115691228 -0.14802272380236281 0 -0.30052761464898298 -0.14908162957255741 0 -0.30052761464898298 -0.14908162957255741 0 -0.30620642865757891 -0.15285211384445899 0 -0.30554397810907652 -0.146919348525368 0 -0.30620642865757891 -0.15285211384445899 0 -0.31211863317072019 -0.1538765410016501 0 -0.31498630483336881 -0.15987728715749039 0 -0.30620642865757891 -0.15285211384445899 0 -0.31071230574427161 -0.15022116190891349 0 -0.30554397810907652 -0.146919348525368 0 -0.30620642865757891 -0.15285211384445899 0 -0.31071230574427161 -0.15022116190891349 0 -0.31211863317072019 -0.1538765410016501 0 -0.31246836027323899 -0.14497521722301901 0 -0.31246708178415561 -0.13872402753426441 0 -0.30456114821214081 -0.13888567554976469 0 -0.30554397810907652 -0.146919348525368 0 -0.31246836027323899 -0.14497521722301901 0 -0.30456114821214081 -0.13888567554976469 0 -0.31071230574427161 -0.15022116190891349 0 -0.30554397810907652 -0.146919348525368 0 -0.31246836027323899 -0.14497521722301901 0 -0.30140371581860798 -0.1292511186866305 0 -0.30456114821214081 -0.13888567554976469 0 -0.31280589771709483 -0.13181614145056869 0 -0.31246708178415561 -0.13872402753426441 0 -0.30456114821214081 -0.13888567554976469 0 -0.31280589771709483 -0.13181614145056869 0 -0.30807566230962469 -0.12087427087378499 0 -0.30140371581860798 -0.1292511186866305 0 -0.31280589771709483 -0.13181614145056869 0 -0.29657756063899582 -0.140013172184488 0 -0.29492821592448881 -0.13453805291007029 0 -0.30456114821214081 -0.13888567554976469 0 -0.29492821592448881 -0.13453805291007029 0 -0.30140371581860798 -0.1292511186866305 0 -0.30456114821214081 -0.13888567554976469 0 -0.3226930215385343 -0.13395567837890529 0 -0.31855308997834159 -0.13934265221991729 0 -0.32506280578504959 -0.14064102607364051 0 -0.3226930215385343 -0.13395567837890529 0 -0.32506280578504959 -0.14064102607364051 0 -0.33047387389575927 -0.1369340691945744 0 -0.3226930215385343 -0.13395567837890529 0 -0.32807010768985068 -0.12986880773923029 0 -0.33047387389575927 -0.1369340691945744 0 -0.32007374605487132 -0.12494213909402439 0 -0.33441303965894859 -0.1249452932850653 0 -0.32807010768985068 -0.12986880773923029 0 -0.32007374605487132 -0.12494213909402439 0 -0.3226930215385343 -0.13395567837890529 0 -0.32807010768985068 -0.12986880773923029 0 -0.32007374605487132 -0.12494213909402439 0 -0.3226930215385343 -0.13395567837890529 0 -0.31280589771709483 -0.13181614145056869 0 -0.30807566230962469 -0.12087427087378499 0 -0.32007374605487132 -0.12494213909402439 0 -0.31280589771709483 -0.13181614145056869 0 -0.3226930215385343 -0.13395567837890529 0 -0.31280589771709483 -0.13181614145056869 0 -0.31855308997834159 -0.13934265221991729 0 -0.31246708178415561 -0.13872402753426441 0 -0.31280589771709483 -0.13181614145056869 0 -0.31855308997834159 -0.13934265221991729 0 -0.31246836027323899 -0.14497521722301901 0 -0.31246708178415561 -0.13872402753426441 0 -0.31855308997834159 -0.13934265221991729 0 -0.31246836027323899 -0.14497521722301901 0 -0.31855308997834159 -0.13934265221991729 0 -0.32096396999162452 -0.14503749675666289 0 -0.31246836027323899 -0.14497521722301901 0 -0.31722412851074311 -0.15248258895007169 0 -0.32096396999162452 -0.14503749675666289 0 -0.31211863317072019 -0.1538765410016501 0 -0.31722412851074311 -0.15248258895007169 0 -0.31498630483336881 -0.15987728715749039 0 -0.31071230574427161 -0.15022116190891349 0 -0.31246836027323899 -0.14497521722301901 0 -0.31722412851074311 -0.15248258895007169 0 -0.31071230574427161 -0.15022116190891349 0 -0.31211863317072019 -0.1538765410016501 0 -0.31722412851074311 -0.15248258895007169 0 -0.32096396999162452 -0.14503749675666289 0 -0.32506280578504959 -0.14064102607364051 0 -0.33039285730051032 -0.1475567648151897 0 -0.31722412851074311 -0.15248258895007169 0 -0.32096396999162452 -0.14503749675666289 0 -0.33039285730051032 -0.1475567648151897 0 -0.31855308997834159 -0.13934265221991729 0 -0.32096396999162452 -0.14503749675666289 0 -0.32506280578504959 -0.14064102607364051 0 -0.33039285730051032 -0.1475567648151897 0 -0.33813688440009898 -0.15615522653291031 0 -0.34198145815712638 -0.1395953898376964 0 -0.32506280578504959 -0.14064102607364051 0 -0.33039285730051032 -0.1475567648151897 0 -0.33047387389575927 -0.1369340691945744 0 -0.31722412851074311 -0.15248258895007169 0 -0.33039285730051032 -0.1475567648151897 0 -0.33813688440009898 -0.15615522653291031 0 -0.33039285730051032 -0.1475567648151897 0 -0.34198145815712638 -0.1395953898376964 0 -0.33047387389575927 -0.1369340691945744 0 -0.33813688440009898 -0.15615522653291031 0 -0.34198145815712638 -0.1395953898376964 0 -0.34954987665533299 -0.15424548639031271 0 -0.34198145815712638 -0.1395953898376964 0 -0.3337346198504213 -0.1328358900141379 0 -0.33047387389575927 -0.1369340691945744 0 -0.32807010768985068 -0.12986880773923029 0 -0.3337346198504213 -0.1328358900141379 0 -0.33047387389575927 -0.1369340691945744 0 -0.33441303965894859 -0.1249452932850653 0 -0.32807010768985068 -0.12986880773923029 0 -0.3337346198504213 -0.1328358900141379 0 -0.33441303965894859 -0.1249452932850653 0 -0.34198145815712638 -0.1395953898376964 0 -0.34272140335036932 -0.124947120862287 0 -0.33441303965894859 -0.1249452932850653 0 -0.34198145815712638 -0.1395953898376964 0 -0.33441303965894859 -0.1249452932850653 0 -0.34198145815712638 -0.1395953898376964 0 -0.3337346198504213 -0.1328358900141379 0 -0.34272140335036932 -0.124947120862287 0 -0.35413341494744088 -0.14719959415449421 0 -0.34272140335036932 -0.124947120862287 0 -0.35599685079288468 -0.13305792836185981 0 -0.35413341494744088 -0.14719959415449421 0 -0.34272140335036932 -0.124947120862287 0 -0.34198145815712638 -0.1395953898376964 0 -0.35413341494744088 -0.14719959415449421 0 -0.34272140335036932 -0.124947120862287 0 -0.36893450279197471 -0.1249528869149899 0 -0.35599685079288468 -0.13305792836185981 0 -0.35599685079288468 -0.13305792836185981 0 -0.36484224068191412 -0.14157370685753851 0 -0.35413341494744088 -0.14719959415449421 0 -0.36893450279197471 -0.1249528869149899 0 -0.35599685079288468 -0.13305792836185981 0 -0.36484224068191412 -0.14157370685753851 0 -0.36893450279197471 -0.1249528869149899 0 -0.36484224068191412 -0.14157370685753851 0 -0.3777566452334315 -0.14913711856379011 0 -0.3679743334396014 -0.15408772885571331 0 -0.37696591512674532 -0.1609827341034305 0 -0.3777566452334315 -0.14913711856379011 0 -0.3679743334396014 -0.15408772885571331 0 -0.36484224068191412 -0.14157370685753851 0 -0.3777566452334315 -0.14913711856379011 0 -0.3679743334396014 -0.15408772885571331 0 -0.36484224068191412 -0.14157370685753851 0 -0.35413341494744088 -0.14719959415449421 0 -0.35413341494744088 -0.14719959415449421 0 -0.34954987665533299 -0.15424548639031271 0 -0.35445721343992059 -0.1619675590177023 0 -0.34198145815712638 -0.1395953898376964 0 -0.34954987665533299 -0.15424548639031271 0 -0.34198145815712638 -0.1395953898376964 0 -0.35413341494744088 -0.14719959415449421 0 -0.34954987665533299 -0.15424548639031271 0 -0.33813688440009898 -0.15615522653291031 0 -0.34954987665533299 -0.15424548639031271 0 -0.34648545334868369 -0.16311147615285329 0 -0.34648545334868369 -0.16311147615285329 0 -0.35788001493839611 -0.17576831496813999 0 -0.33501951577929873 -0.16729908190312789 0 -0.34954987665533299 -0.15424548639031271 0 -0.34648545334868369 -0.16311147615285329 0 -0.35445721343992059 -0.1619675590177023 0 -0.35413341494744088 -0.14719959415449421 0 -0.35445721343992059 -0.1619675590177023 0 -0.36554542654456429 -0.16945206744667471 0 -0.35788001493839611 -0.17576831496813999 0 -0.33501951577929873 -0.16729908190312789 0 -0.34648545334868369 -0.16311147615285329 0 -0.35445721343992059 -0.1619675590177023 0 -0.35788001493839611 -0.17576831496813999 0 -0.35445721343992059 -0.1619675590177023 0 -0.36554542654456429 -0.16945206744667471 0 -0.35788001493839611 -0.17576831496813999 0 -0.35413341494744088 -0.14719959415449421 0 -0.36554542654456429 -0.16945206744667471 0 -0.3679743334396014 -0.15408772885571331 0 -0.35413341494744088 -0.14719959415449421 0 -0.36554542654456429 -0.16945206744667471 0 -0.3679743334396014 -0.15408772885571331 0 -0.36554542654456429 -0.16945206744667471 0 -0.37696591512674532 -0.1609827341034305 0 -0.37016556171889331 -0.18126023377528719 0 -0.3536864721015115 -0.18284124587119119 0 -0.37235342842372432 -0.19838340983925429 0 -0.36554542654456429 -0.16945206744667471 0 -0.37016556171889331 -0.18126023377528719 0 -0.38426477739238413 -0.17192867897072969 0 -0.37016556171889331 -0.18126023377528719 0 -0.3536864721015115 -0.18284124587119119 0 -0.35788001493839611 -0.17576831496813999 0 -0.36554542654456429 -0.16945206744667471 0 -0.37016556171889331 -0.18126023377528719 0 -0.35788001493839611 -0.17576831496813999 0 -0.3536864721015115 -0.18284124587119119 0 -0.33501951577929873 -0.16729908190312789 0 -0.3536864721015115 -0.18284124587119119 0 -0.35788001493839611 -0.17576831496813999 0 -0.33501951577929873 -0.16729908190312789 0 -0.3536864721015115 -0.18284124587119119 0 -0.32945708373588178 -0.18448348783091689 0 -0.33501951577929873 -0.16729908190312789 0 -0.31722412851074311 -0.15248258895007169 0 -0.33813688440009898 -0.15615522653291031 0 -0.33501951577929873 -0.16729908190312789 0 -0.33813688440009898 -0.15615522653291031 0 -0.34648545334868369 -0.16311147615285329 0 -0.33501951577929873 -0.16729908190312789 0 -0.31722412851074311 -0.15248258895007169 0 -0.33501951577929873 -0.16729908190312789 0 -0.31722412851074311 -0.15248258895007169 0 -0.33501951577929873 -0.16729908190312789 0 -0.31498630483336881 -0.15987728715749039 0 -0.31220508881165993 -0.16846949012138551 0 -0.33501951577929873 -0.16729908190312789 0 -0.31498630483336881 -0.15987728715749039 0 -0.33501951577929873 -0.16729908190312789 0 -0.31498630483336881 -0.15987728715749039 0 -0.31220508881165993 -0.16846949012138551 0 -0.32945708373588178 -0.18448348783091689 0 -0.31489114071409963 -0.18333745750317351 0 -0.31220508881165993 -0.16846949012138551 0 -0.32945708373588178 -0.18448348783091689 0 -0.31220508881165993 -0.16846949012138551 0 -0.32945708373588178 -0.18448348783091689 0 -0.33501951577929873 -0.16729908190312789 0 -0.32945708373588178 -0.18448348783091689 0 -0.31489114071409963 -0.18333745750317351 0 -0.32010675552350842 -0.19230926195043291 0 -0.30717411826112789 -0.1920401195635244 0 -0.32010675552350842 -0.19230926195043291 0 -0.3129652712195421 -0.2114706657937139 0 -0.32945708373588178 -0.18448348783091689 0 -0.32010675552350842 -0.19230926195043291 0 -0.32566449460190838 -0.20326261146105551 0 -0.32010675552350842 -0.19230926195043291 0 -0.3129652712195421 -0.2114706657937139 0 -0.32566449460190838 -0.20326261146105551 0 -0.30717411826112789 -0.1920401195635244 0 -0.31489114071409963 -0.18333745750317351 0 -0.32010675552350842 -0.19230926195043291 0 -0.3129652712195421 -0.2114706657937139 0 -0.32566449460190838 -0.20326261146105551 0 -0.33208474862113468 -0.21873250337862821 0 -0.33208474862113468 -0.21873250337862821 0 -0.34670907866010381 -0.20049748554044841 0 -0.34896881396179619 -0.22434135344573131 0 -0.32566449460190838 -0.20326261146105551 0 -0.33208474862113468 -0.21873250337862821 0 -0.34670907866010381 -0.20049748554044841 0 -0.3536864721015115 -0.18284124587119119 0 -0.32945708373588178 -0.18448348783091689 0 -0.34670907866010381 -0.20049748554044841 0 -0.32945708373588178 -0.18448348783091689 0 -0.32566449460190838 -0.20326261146105551 0 -0.34670907866010381 -0.20049748554044841 0 -0.32945708373588178 -0.18448348783091689 0 -0.34670907866010381 -0.20049748554044841 0 -0.3536864721015115 -0.18284124587119119 0 -0.35917751319241631 -0.19955840612521841 0 -0.34670907866010381 -0.20049748554044841 0 -0.3536864721015115 -0.18284124587119119 0 -0.37235342842372432 -0.19838340983925429 0 -0.3536864721015115 -0.18284124587119119 0 -0.35917751319241631 -0.19955840612521841 0 -0.37235342842372432 -0.19838340983925429 0 -0.37235342842372432 -0.19838340983925429 0 -0.36396107358432572 -0.21651148324997979 0 -0.37772562505684643 -0.22219038377974651 0 -0.35917751319241631 -0.19955840612521841 0 -0.37235342842372432 -0.19838340983925429 0 -0.36396107358432572 -0.21651148324997979 0 -0.34670907866010381 -0.20049748554044841 0 -0.36396107358432572 -0.21651148324997979 0 -0.34896881396179619 -0.22434135344573131 0 -0.34670907866010381 -0.20049748554044841 0 -0.36396107358432572 -0.21651148324997979 0 -0.35917751319241631 -0.19955840612521841 0 -0.34670907866010381 -0.20049748554044841 0 -0.36396107358432572 -0.21651148324997979 0 -0.34896881396179619 -0.22434135344573131 0 -0.36764811873304098 -0.23322730847002751 0 -0.35305879752332059 -0.24486073726717009 0 -0.36396107358432572 -0.21651148324997979 0 -0.36764811873304098 -0.23322730847002751 0 -0.37772562505684643 -0.22219038377974651 0 -0.36396107358432572 -0.21651148324997979 0 -0.34896881396179619 -0.22434135344573131 0 -0.36764811873304098 -0.23322730847002751 0 -0.37533687834285862 -0.25417213976024849 0 -0.36764811873304098 -0.23322730847002751 0 -0.35305879752332059 -0.24486073726717009 0 -0.34896881396179619 -0.22434135344573131 0 -0.35305879752332059 -0.24486073726717009 0 -0.33568364413539042 -0.23615154195274179 0 -0.33623326073948312 -0.25365348176558788 0 -0.33568364413539042 -0.23615154195274179 0 -0.32213598881581812 -0.2442700999577708 0 -0.33623326073948312 -0.25365348176558788 0 -0.35305879752332059 -0.24486073726717009 0 -0.33568364413539042 -0.23615154195274179 0 -0.33208474862113468 -0.21873250337862821 0 -0.33568364413539042 -0.23615154195274179 0 -0.32219037366776621 -0.22897372759534659 0 -0.33208474862113468 -0.21873250337862821 0 -0.34896881396179619 -0.22434135344573131 0 -0.33568364413539042 -0.23615154195274179 0 -0.30829656048542242 -0.23127198481015249 0 -0.3129652712195421 -0.2114706657937139 0 -0.32219037366776621 -0.22897372759534659 0 -0.3129652712195421 -0.2114706657937139 0 -0.33208474862113468 -0.21873250337862821 0 -0.32219037366776621 -0.22897372759534659 0 -0.30769212114973271 -0.24578220261295139 0 -0.30829656048542242 -0.23127198481015249 0 -0.32213598881581812 -0.2442700999577708 0 -0.30829656048542242 -0.23127198481015249 0 -0.32219037366776621 -0.22897372759534659 0 -0.32213598881581812 -0.2442700999577708 0 -0.31968345090478489 -0.25798973640781447 0 -0.30769212114973271 -0.24578220261295139 0 -0.32213598881581812 -0.2442700999577708 0 -0.33568364413539042 -0.23615154195274179 0 -0.32219037366776621 -0.22897372759534659 0 -0.32213598881581812 -0.2442700999577708 0 -0.43598079583492633 -0.24721882136819351 0 -0.42311134176242837 -0.2304528026464861 0 -0.41615383063077721 -0.2466412503256647 0 -0.43598079583492633 -0.24721882136819351 0 -0.42311134176242837 -0.2304528026464861 0 -0.43908324849522451 -0.2287046610080686 0 -0.42311134176242837 -0.2304528026464861 0 -0.41411505562058892 -0.2091502018577929 0 -0.42948217154750851 -0.21815887616964899 0 -0.42311134176242837 -0.2304528026464861 0 -0.42948217154750851 -0.21815887616964899 0 -0.43908324849522451 -0.2287046610080686 0 -0.42948217154750851 -0.21815887616964899 0 -0.43955036875351089 -0.21658504913102711 0 -0.43908324849522451 -0.2287046610080686 0 -0.40619246279161347 -0.2313797712556602 0 -0.41411505562058892 -0.2091502018577929 0 -0.42311134176242837 -0.2304528026464861 0 -0.40619246279161347 -0.2313797712556602 0 -0.41411505562058892 -0.2091502018577929 0 -0.39826986996263802 -0.25360934065352753 0 -0.41615383063077721 -0.2466412503256647 0 -0.40619246279161347 -0.2313797712556602 0 -0.42311134176242837 -0.2304528026464861 0 -0.41615383063077721 -0.2466412503256647 0 -0.40619246279161347 -0.2313797712556602 0 -0.39826986996263802 -0.25360934065352753 0 -0.38632210934187061 -0.2364082567837591 0 -0.40619246279161347 -0.2313797712556602 0 -0.39826986996263802 -0.25360934065352753 0 -0.40619246279161347 -0.2313797712556602 0 -0.37533687834285862 -0.25417213976024849 0 -0.36764811873304098 -0.23322730847002751 0 -0.38632210934187061 -0.2364082567837591 0 -0.37533687834285862 -0.25417213976024849 0 -0.39826986996263802 -0.25360934065352753 0 -0.38632210934187061 -0.2364082567837591 0 -0.36764811873304098 -0.23322730847002751 0 -0.38632210934187061 -0.2364082567837591 0 -0.37772562505684643 -0.22219038377974651 0 -0.38632210934187061 -0.2364082567837591 0 -0.37772562505684643 -0.22219038377974651 0 -0.39102038474593709 -0.2139255738073175 0 -0.38632210934187061 -0.2364082567837591 0 -0.40619246279161347 -0.2313797712556602 0 -0.39102038474593709 -0.2139255738073175 0 -0.39102038474593709 -0.2139255738073175 0 -0.40351751052996843 -0.1957217498792192 0 -0.41411505562058892 -0.2091502018577929 0 -0.40619246279161347 -0.2313797712556602 0 -0.39102038474593709 -0.2139255738073175 0 -0.41411505562058892 -0.2091502018577929 0 -0.37235342842372432 -0.19838340983925429 0 -0.39102038474593709 -0.2139255738073175 0 -0.37235342842372432 -0.19838340983925429 0 -0.37772562505684643 -0.22219038377974651 0 -0.39102038474593709 -0.2139255738073175 0 -0.37016556171889331 -0.18126023377528719 0 -0.37235342842372432 -0.19838340983925429 0 -0.38726325091278008 -0.18918768555573329 0 -0.37235342842372432 -0.19838340983925429 0 -0.39102038474593709 -0.2139255738073175 0 -0.38726325091278008 -0.18918768555573329 0 -0.38726325091278008 -0.18918768555573329 0 -0.40351751052996843 -0.1957217498792192 0 -0.40315121292097328 -0.17942465571532731 0 -0.39102038474593709 -0.2139255738073175 0 -0.38726325091278008 -0.18918768555573329 0 -0.40351751052996843 -0.1957217498792192 0 -0.41411505562058892 -0.2091502018577929 0 -0.42203764844956237 -0.18692063245992491 0 -0.40351751052996843 -0.1957217498792192 0 -0.41411505562058892 -0.2091502018577929 0 -0.42203764844956237 -0.18692063245992491 0 -0.41411505562058892 -0.2091502018577929 0 -0.42948217154750851 -0.21815887616964899 0 -0.43155084310578928 -0.2059016662048701 0 -0.42948217154750851 -0.21815887616964899 0 -0.43155084310578928 -0.2059016662048701 0 -0.43955036875351089 -0.21658504913102711 0 -0.42203764844956237 -0.18692063245992491 0 -0.44484374680150301 -0.19597231310248839 0 -0.41411505562058892 -0.2091502018577929 0 -0.43155084310578928 -0.2059016662048701 0 -0.42203764844956237 -0.18692063245992491 0 -0.43155084310578928 -0.2059016662048701 0 -0.42203764844956237 -0.18692063245992491 0 -0.44484374680150301 -0.19597231310248839 0 -0.42203764844956237 -0.18692063245992491 0 -0.44134853753678083 -0.18159229851429221 0 -0.44484374680150301 -0.19597231310248839 0 -0.42203764844956237 -0.18692063245992491 0 -0.42880774722037651 -0.1679247830322266 0 -0.42203764844956237 -0.18692063245992491 0 -0.42880774722037651 -0.1679247830322266 0 -0.44134853753678083 -0.18159229851429221 0 -0.42880774722037651 -0.1679247830322266 0 -0.43557784599118871 -0.14892893360452769 0 -0.44631139980808621 -0.1631836851414229 0 -0.42880774722037651 -0.1679247830322266 0 -0.43557784599118871 -0.14892893360452769 0 -0.42880774722037651 -0.1679247830322266 0 -0.41236960909879722 -0.16540507401591409 0 -0.42079860369606048 -0.15043713941075901 0 -0.42203764844956237 -0.18692063245992491 0 -0.42880774722037651 -0.1679247830322266 0 -0.41236960909879722 -0.16540507401591409 0 -0.40351751052996843 -0.1957217498792192 0 -0.42203764844956237 -0.18692063245992491 0 -0.40315121292097328 -0.17942465571532731 0 -0.42203764844956237 -0.18692063245992491 0 -0.40315121292097328 -0.17942465571532731 0 -0.42203764844956237 -0.18692063245992491 0 -0.41236960909879722 -0.16540507401591409 0 -0.40315121292097328 -0.17942465571532731 0 -0.38726325091278008 -0.18918768555573329 0 -0.40315121292097328 -0.17942465571532731 0 -0.38426477739238413 -0.17192867897072969 0 -0.40315121292097328 -0.17942465571532731 0 -0.38426477739238413 -0.17192867897072969 0 -0.37016556171889331 -0.18126023377528719 0 -0.38726325091278008 -0.18918768555573329 0 -0.38426477739238413 -0.17192867897072969 0 -0.36554542654456429 -0.16945206744667471 0 -0.38426477739238413 -0.17192867897072969 0 -0.37696591512674532 -0.1609827341034305 0 -0.38426477739238413 -0.17192867897072969 0 -0.37696591512674532 -0.1609827341034305 0 -0.39230106084837368 -0.15838844905994759 0 -0.40315121292097328 -0.17942465571532731 0 -0.38426477739238413 -0.17192867897072969 0 -0.39230106084837368 -0.15838844905994759 0 -0.41236960909879722 -0.16540507401591409 0 -0.39230106084837368 -0.15838844905994759 0 -0.40587711449475489 -0.1449624873806776 0 -0.41236960909879722 -0.16540507401591409 0 -0.40315121292097328 -0.17942465571532731 0 -0.39230106084837368 -0.15838844905994759 0 -0.39230106084837368 -0.15838844905994759 0 -0.39162863389564362 -0.14105630786861159 0 -0.40587711449475489 -0.1449624873806776 0 -0.39230106084837368 -0.15838844905994759 0 -0.39162863389564362 -0.14105630786861159 0 -0.3777566452334315 -0.14913711856379011 0 -0.37696591512674532 -0.1609827341034305 0 -0.39230106084837368 -0.15838844905994759 0 -0.3777566452334315 -0.14913711856379011 0 -0.36893450279197471 -0.1249528869149899 0 -0.39162863389564362 -0.14105630786861159 0 -0.3777566452334315 -0.14913711856379011 0 -0.36893450279197471 -0.1249528869149899 0 -0.39162863389564362 -0.14105630786861159 0 -0.39514760223357998 -0.1249586529677193 0 -0.39162863389564362 -0.14105630786861159 0 -0.40587711449475489 -0.1449624873806776 0 -0.39514760223357998 -0.1249586529677193 0 -0.40587711449475489 -0.1449624873806776 0 -0.39514760223357998 -0.1249586529677193 0 -0.42136070167518519 -0.1249644190204488 0 -0.40587711449475489 -0.1449624873806776 0 -0.42079860369606048 -0.15043713941075901 0 -0.42136070167518519 -0.1249644190204488 0 -0.41236960909879722 -0.16540507401591409 0 -0.40587711449475489 -0.1449624873806776 0 -0.42079860369606048 -0.15043713941075901 0 -0.42079860369606048 -0.15043713941075901 0 -0.43557784599118871 -0.14892893360452769 0 -0.42136070167518519 -0.1249644190204488 0 -0.42880774722037651 -0.1679247830322266 0 -0.42079860369606048 -0.15043713941075901 0 -0.43557784599118871 -0.14892893360452769 0 -0.43557784599118871 -0.14892893360452769 0 -0.42136070167518519 -0.1249644190204488 0 -0.44757380111679052 -0.12497018507317829 0 -0.43557784599118871 -0.14892893360452769 0 -0.45596445488588 -0.14427568033770541 0 -0.44757380111679052 -0.12497018507317829 0 -0.43557784599118871 -0.14892893360452769 0 -0.45596445488588 -0.14427568033770541 0 -0.44631139980808621 -0.1631836851414229 0 -0.45596445488588 -0.14427568033770541 0 -0.46278066629215481 -0.1610158872753634 0 -0.44631139980808621 -0.1631836851414229 0 -0.45596445488588 -0.14427568033770541 0 -0.47930750267908417 -0.1480635854121114 0 -0.46278066629215481 -0.1610158872753634 0 -0.45596445488588 -0.14427568033770541 0 -0.44757380111679052 -0.12497018507317829 0 -0.47378690055839578 -0.1249759511259078 0 -0.48827360080937021 -0.13531742911399189 0 -0.47930750267908417 -0.1480635854121114 0 -0.47378690055839578 -0.1249759511259078 0 -0.45596445488588 -0.14427568033770541 0 -0.47930750267908417 -0.1480635854121114 0 -0.47378690055839578 -0.1249759511259078 0 -0.48827360080937021 -0.13531742911399189 0 -0.5 -0.14324846273931111 0 -0.50000000000000111 -0.12498171717863731 0 -0.48827360080937021 -0.13531742911399189 0 -0.47378690055839578 -0.1249759511259078 0 -0.50000000000000111 -0.12498171717863731 0 -0.5 -0.14324846273931111 0 -0.47930750267908417 -0.1480635854121114 0 -0.49999999999999961 -0.161515208299985 0 -0.48827360080937021 -0.13531742911399189 0 -0.5 -0.14324846273931111 0 -0.47930750267908417 -0.1480635854121114 0 -0.47930750267908417 -0.1480635854121114 0 -0.47738728335761421 -0.1682509267597351 0 -0.46278066629215481 -0.1610158872753634 0 -0.47738728335761421 -0.1682509267597351 0 -0.49999999999999961 -0.161515208299985 0 -0.48839409620634278 -0.18039624849769001 0 -0.49999999999999961 -0.161515208299985 0 -0.48839409620634278 -0.18039624849769001 0 -0.47930750267908417 -0.1480635854121114 0 -0.47738728335761421 -0.1682509267597351 0 -0.49999999999999961 -0.161515208299985 0 -0.49999999999999961 -0.161515208299985 0 -0.5 -0.18618779176616679 0 -0.48839409620634278 -0.18039624849769001 0 -0.5 -0.18618779176616679 0 -0.48839409620634278 -0.18039624849769001 0 -0.48957789370491162 -0.19386933705848941 0 -0.47738728335761421 -0.1682509267597351 0 -0.48839409620634278 -0.18039624849769001 0 -0.47328693949397721 -0.18411760774338479 0 -0.47738728335761421 -0.1682509267597351 0 -0.47328693949397721 -0.18411760774338479 0 -0.45860677246597031 -0.17520894370368309 0 -0.47328693949397721 -0.18411760774338479 0 -0.45860677246597031 -0.17520894370368309 0 -0.45906836497473352 -0.19043479360484361 0 -0.47738728335761421 -0.1682509267597351 0 -0.45860677246597031 -0.17520894370368309 0 -0.46278066629215481 -0.1610158872753634 0 -0.45860677246597031 -0.17520894370368309 0 -0.46278066629215481 -0.1610158872753634 0 -0.44631139980808621 -0.1631836851414229 0 -0.42880774722037651 -0.1679247830322266 0 -0.44631139980808621 -0.1631836851414229 0 -0.44134853753678083 -0.18159229851429221 0 -0.45860677246597031 -0.17520894370368309 0 -0.44631139980808621 -0.1631836851414229 0 -0.44134853753678083 -0.18159229851429221 0 -0.45860677246597031 -0.17520894370368309 0 -0.44134853753678083 -0.18159229851429221 0 -0.45906836497473352 -0.19043479360484361 0 -0.44134853753678083 -0.18159229851429221 0 -0.45906836497473352 -0.19043479360484361 0 -0.44134853753678083 -0.18159229851429221 0 -0.44484374680150301 -0.19597231310248839 0 -0.45906836497473352 -0.19043479360484361 0 -0.43155084310578928 -0.2059016662048701 0 -0.44484374680150301 -0.19597231310248839 0 -0.44343463088850471 -0.20721188330797369 0 -0.43155084310578928 -0.2059016662048701 0 -0.44343463088850471 -0.20721188330797369 0 -0.43955036875351089 -0.21658504913102711 0 -0.44343463088850471 -0.20721188330797369 0 -0.43955036875351089 -0.21658504913102711 0 -0.44966782191270221 -0.21345696714665749 0 -0.44966782191270221 -0.21345696714665749 0 -0.45691127413918359 -0.218140336649912 0 -0.44903912237987481 -0.22310222333220869 0 -0.43955036875351089 -0.21658504913102711 0 -0.44966782191270221 -0.21345696714665749 0 -0.44903912237987481 -0.22310222333220869 0 -0.44484374680150301 -0.19597231310248839 0 -0.44343463088850471 -0.20721188330797369 0 -0.45285363365211462 -0.2065344908709397 0 -0.44343463088850471 -0.20721188330797369 0 -0.44966782191270221 -0.21345696714665749 0 -0.45285363365211462 -0.2065344908709397 0 -0.45285363365211462 -0.2065344908709397 0 -0.4586721235044201 -0.2110072970525271 0 -0.46764984515344349 -0.20502399374505181 0 -0.44966782191270221 -0.21345696714665749 0 -0.45285363365211462 -0.2065344908709397 0 -0.4586721235044201 -0.2110072970525271 0 -0.44966782191270221 -0.21345696714665749 0 -0.4586721235044201 -0.2110072970525271 0 -0.45691127413918359 -0.218140336649912 0 -0.4586721235044201 -0.2110072970525271 0 -0.45691127413918359 -0.218140336649912 0 -0.46757130244775341 -0.21427176676618889 0 -0.4586721235044201 -0.2110072970525271 0 -0.46757130244775341 -0.21427176676618889 0 -0.46764984515344349 -0.20502399374505181 0 -0.44484374680150301 -0.19597231310248839 0 -0.46764984515344349 -0.20502399374505181 0 -0.45906836497473352 -0.19043479360484361 0 -0.44484374680150301 -0.19597231310248839 0 -0.45285363365211462 -0.2065344908709397 0 -0.46764984515344349 -0.20502399374505181 0 -0.45906836497473352 -0.19043479360484361 0 -0.47678819241268611 -0.1992772886953951 0 -0.44484374680150301 -0.19597231310248839 0 -0.46764984515344349 -0.20502399374505181 0 -0.46764984515344349 -0.20502399374505181 0 -0.45906836497473352 -0.19043479360484361 0 -0.47678819241268611 -0.1992772886953951 0 -0.47328693949397721 -0.18411760774338479 0 -0.45906836497473352 -0.19043479360484361 0 -0.47678819241268611 -0.1992772886953951 0 -0.48839409620634278 -0.18039624849769001 0 -0.47328693949397721 -0.18411760774338479 0 -0.47678819241268611 -0.1992772886953951 0 -0.48839409620634278 -0.18039624849769001 0 -0.47678819241268611 -0.1992772886953951 0 -0.47678819241268611 -0.1992772886953951 0 -0.48957789370491162 -0.19386933705848941 0 -0.50000000000000222 -0.21086037523234849 0 -0.48839409620634278 -0.18039624849769001 0 -0.47678819241268611 -0.1992772886953951 0 -0.48957789370491162 -0.19386933705848941 0 -0.5 -0.18618779176616679 0 -0.48957789370491162 -0.19386933705848941 0 -0.50000000000000222 -0.21086037523234849 0 -0.50000000000000222 -0.21086037523234849 0 -0.48101414991814051 -0.21220490785157131 0 -0.4775447229854059 -0.22535576830415929 0 -0.47678819241268611 -0.1992772886953951 0 -0.50000000000000222 -0.21086037523234849 0 -0.47678819241268611 -0.1992772886953951 0 -0.50000000000000222 -0.21086037523234849 0 -0.48101414991814051 -0.21220490785157131 0 -0.46757130244775341 -0.21427176676618889 0 -0.47678819241268611 -0.1992772886953951 0 -0.48101414991814051 -0.21220490785157131 0 -0.46757130244775341 -0.21427176676618889 0 -0.47678819241268611 -0.1992772886953951 0 -0.46757130244775341 -0.21427176676618889 0 -0.46764984515344349 -0.20502399374505181 0 -0.47678819241268611 -0.1992772886953951 0 -0.46757130244775341 -0.21427176676618889 0 -0.48101414991814051 -0.21220490785157131 0 -0.4775447229854059 -0.22535576830415929 0 -0.46757130244775341 -0.21427176676618889 0 -0.4775447229854059 -0.22535576830415929 0 -0.46571952953094348 -0.22577651025912229 0 -0.4775447229854059 -0.22535576830415929 0 -0.4726071657750785 -0.240360200228666 0 -0.45676275941016609 -0.23628729483617639 0 -0.50000000000000222 -0.21086037523234849 0 -0.4775447229854059 -0.22535576830415929 0 -0.48548116721245049 -0.23774912910784329 0 -0.50000000000000222 -0.21086037523234849 0 -0.5 -0.2401545466321974 0 -0.48548116721245049 -0.23774912910784329 0 -0.48050148842732221 -0.25523221810557922 0 -0.5 -0.2401545466321974 0 -0.48548116721245049 -0.23774912910784329 0 -0.48050148842732221 -0.25523221810557922 0 -0.4726071657750785 -0.240360200228666 0 -0.46267023581878858 -0.24817136713935201 0 -0.48050148842732221 -0.25523221810557922 0 -0.48548116721245049 -0.23774912910784329 0 -0.4726071657750785 -0.240360200228666 0 -0.4775447229854059 -0.22535576830415929 0 -0.48548116721245049 -0.23774912910784329 0 -0.4726071657750785 -0.240360200228666 0 -0.4726071657750785 -0.240360200228666 0 -0.46267023581878858 -0.24817136713935201 0 -0.45676275941016609 -0.23628729483617639 0 -0.46267023581878858 -0.24817136713935201 0 -0.45676275941016609 -0.23628729483617639 0 -0.45139902778349827 -0.24711062934306771 0 -0.4775447229854059 -0.22535576830415929 0 -0.45676275941016609 -0.23628729483617639 0 -0.46571952953094348 -0.22577651025912229 0 -0.4775447229854059 -0.22535576830415929 0 -0.45676275941016609 -0.23628729483617639 0 -0.46757130244775341 -0.21427176676618889 0 -0.45835441248282049 -0.22926624483698249 0 -0.45691127413918359 -0.218140336649912 0 -0.46757130244775341 -0.21427176676618889 0 -0.45835441248282049 -0.22926624483698249 0 -0.46757130244775341 -0.21427176676618889 0 -0.46571952953094348 -0.22577651025912229 0 -0.45835441248282049 -0.22926624483698249 0 -0.45691127413918359 -0.218140336649912 0 -0.45835441248282049 -0.22926624483698249 0 -0.44903912237987481 -0.22310222333220869 0 -0.45676275941016609 -0.23628729483617639 0 -0.46571952953094348 -0.22577651025912229 0 -0.45835441248282049 -0.22926624483698249 0 -0.45676275941016609 -0.23628729483617639 0 -0.45835441248282049 -0.22926624483698249 0 -0.44784406772060242 -0.23291584907632601 0 -0.45835441248282049 -0.22926624483698249 0 -0.44784406772060242 -0.23291584907632601 0 -0.44903912237987481 -0.22310222333220869 0 -0.44784406772060242 -0.23291584907632601 0 -0.44903912237987481 -0.22310222333220869 0 -0.43908324849522451 -0.2287046610080686 0 -0.43955036875351089 -0.21658504913102711 0 -0.44903912237987481 -0.22310222333220869 0 -0.43908324849522451 -0.2287046610080686 0 -0.43598079583492633 -0.24721882136819351 0 -0.44784406772060242 -0.23291584907632601 0 -0.43908324849522451 -0.2287046610080686 0 -0.43598079583492633 -0.24721882136819351 0 -0.45676275941016609 -0.23628729483617639 0 -0.45139902778349827 -0.24711062934306771 0 -0.43598079583492633 -0.24721882136819351 0 -0.45676275941016609 -0.23628729483617639 0 -0.44784406772060242 -0.23291584907632601 0 -0.43598079583492633 -0.24721882136819351 0 -0.45676275941016609 -0.23628729483617639 0 -0.41513049604948221 -0.033942569896895612 0 -0.42680670243505803 -0.034615113076212713 0 -0.40073055052989021 -0.025701474464423758 0 -0.41513049604948221 -0.033942569896895612 0 -0.42462943043776058 -0.041038039404546971 0 -0.40237332615973681 -0.030676944162886681 0 -0.42462943043776058 -0.041038039404546971 0 -0.40237332615973681 -0.030676944162886681 0 -0.41105872637709778 -0.041104419315527559 0 -0.42462943043776058 -0.041038039404546971 0 -0.40237332615973681 -0.030676944162886681 0 -0.41795689190558921 -0.046390941043723911 0 -0.41105872637709778 -0.041104419315527559 0 -0.42462943043776058 -0.041038039404546971 0 -0.41513049604948221 -0.033942569896895612 0 -0.42462943043776058 -0.041038039404546971 0 -0.4243569293735685 -0.037306081984415762 0 -0.41105872637709778 -0.041104419315527559 0 -0.4050251302254127 -0.045922345921936697 0 -0.40306291723554027 -0.039039715031688543 0 -0.41795689190558921 -0.046390941043723911 0 -0.41105872637709778 -0.041104419315527559 0 -0.41174405323292163 -0.047949206462353358 0 -0.41105872637709778 -0.041104419315527559 0 -0.41174405323292163 -0.047949206462353358 0 -0.4050251302254127 -0.045922345921936697 0 -0.41174405323292163 -0.047949206462353358 0 -0.4050251302254127 -0.045922345921936697 0 -0.40603099279739802 -0.054788986838451827 0 -0.41174405323292163 -0.047949206462353358 0 -0.4187470457232762 -0.053937065845881961 0 -0.40603099279739802 -0.054788986838451827 0 -0.4187470457232762 -0.053937065845881961 0 -0.40603099279739802 -0.054788986838451827 0 -0.41284572228237681 -0.064006668923108523 0 -0.4187470457232762 -0.053937065845881961 0 -0.41284572228237681 -0.064006668923108523 0 -0.42746868386642678 -0.066478460468227696 0 -0.41795689190558921 -0.046390941043723911 0 -0.41174405323292163 -0.047949206462353358 0 -0.4187470457232762 -0.053937065845881961 0 -0.41795689190558921 -0.046390941043723911 0 -0.4187470457232762 -0.053937065845881961 0 -0.42320145590089769 -0.048540393412862697 0 -0.42320145590089769 -0.048540393412862697 0 -0.43147245553696489 -0.05279552735729795 0 -0.42462943043776058 -0.041038039404546971 0 -0.4187470457232762 -0.053937065845881961 0 -0.42320145590089769 -0.048540393412862697 0 -0.43147245553696489 -0.05279552735729795 0 -0.43147245553696489 -0.05279552735729795 0 -0.42462943043776058 -0.041038039404546971 0 -0.44688553471578463 -0.051399134646207288 0 -0.4187470457232762 -0.053937065845881961 0 -0.43147245553696489 -0.05279552735729795 0 -0.42746868386642678 -0.066478460468227696 0 -0.43147245553696489 -0.05279552735729795 0 -0.42746868386642678 -0.066478460468227696 0 -0.43950717444435422 -0.063784996514660589 0 -0.42818951741271921 -0.038310772776573528 0 -0.43628267576141971 -0.035329403205585218 0 -0.44688553471578463 -0.051399134646207288 0 -0.42462943043776058 -0.041038039404546971 0 -0.42818951741271921 -0.038310772776573528 0 -0.44688553471578463 -0.051399134646207288 0 -0.42462943043776058 -0.041038039404546971 0 -0.44688553471578463 -0.051399134646207288 0 -0.41795689190558921 -0.046390941043723911 0 -0.42320145590089769 -0.048540393412862697 0 -0.42462943043776058 -0.041038039404546971 0 -0.41513049604948221 -0.033942569896895612 0 -0.4243569293735685 -0.037306081984415762 0 -0.42680670243505803 -0.034615113076212713 0 -0.42462943043776058 -0.041038039404546971 0 -0.4243569293735685 -0.037306081984415762 0 -0.42818951741271921 -0.038310772776573528 0 -0.42818951741271921 -0.038310772776573528 0 -0.42680670243505803 -0.034615113076212713 0 -0.4243569293735685 -0.037306081984415762 0 -0.42818951741271921 -0.038310772776573528 0 -0.42680670243505803 -0.034615113076212713 0 -0.42818951741271921 -0.038310772776573528 0 -0.42680670243505803 -0.034615113076212713 0 -0.42995577540377822 -0.032900560567165532 0 -0.42818951741271921 -0.038310772776573528 0 -0.42995577540377822 -0.032900560567165532 0 -0.43628267576141971 -0.035329403205585218 0 -0.42995577540377822 -0.032900560567165532 0 -0.43628267576141971 -0.035329403205585218 0 -0.4327931004709421 -0.029092843067932112 0 -0.42680670243505803 -0.034615113076212713 0 -0.4285090787839364 -0.025262373234060161 0 -0.41794895562780338 -0.01094222954485795 0 -0.42680670243505803 -0.034615113076212713 0 -0.41794895562780338 -0.01094222954485795 0 -0.43628267576141971 -0.035329403205585218 0 -0.4327931004709421 -0.029092843067932112 0 -0.43710875721387199 -0.026668229939385779 0 -0.42995577540377822 -0.032900560567165532 0 -0.4327931004709421 -0.029092843067932112 0 -0.4285090787839364 -0.025262373234060161 0 -0.43210921519170409 -0.025303648393463829 0 -0.43710875721387199 -0.026668229939385779 0 -0.43108579893039811 -0.01948839847471974 0 -0.4327931004709421 -0.029092843067932112 0 -0.43210921519170409 -0.025303648393463829 0 -0.4285090787839364 -0.025262373234060161 0 -0.4327931004709421 -0.029092843067932112 0 -0.43210921519170409 -0.025303648393463829 0 -0.43710875721387199 -0.026668229939385779 0 -0.43108579893039811 -0.01948839847471974 0 -0.43397544616601241 -0.014244232554068349 0 -0.43928417642389239 -0.017661557407765791 0 -0.43710875721387199 -0.026668229939385779 0 -0.43108579893039811 -0.01948839847471974 0 -0.43928417642389239 -0.017661557407765791 0 -0.43210921519170409 -0.025303648393463829 0 -0.43108579893039811 -0.01948839847471974 0 -0.4285090787839364 -0.025262373234060161 0 -0.43108579893039811 -0.01948839847471974 0 -0.4285090787839364 -0.025262373234060161 0 -0.41794895562780338 -0.01094222954485795 0 -0.42680670243505803 -0.034615113076212713 0 -0.42995577540377822 -0.032900560567165532 0 -0.4285090787839364 -0.025262373234060161 0 -0.43591977417237449 -0.008065469867085449 0 -0.42907061680018699 -0.010664914002041091 0 -0.42583279771702431 0.00046528033667210148 0 -0.43108579893039811 -0.01948839847471974 0 -0.43397544616601241 -0.014244232554068349 0 -0.42907061680018699 -0.010664914002041091 0 -0.43591977417237449 -0.008065469867085449 0 -0.43397544616601241 -0.014244232554068349 0 -0.43928417642389239 -0.017661557407765791 0 -0.43591977417237449 -0.008065469867085449 0 -0.43397544616601241 -0.014244232554068349 0 -0.42907061680018699 -0.010664914002041091 0 -0.43108579893039811 -0.01948839847471974 0 -0.42907061680018699 -0.010664914002041091 0 -0.41794895562780338 -0.01094222954485795 0 -0.42907061680018699 -0.010664914002041091 0 -0.41794895562780338 -0.01094222954485795 0 -0.42583279771702431 0.00046528033667210148 0 -0.41794895562780338 -0.01094222954485795 0 -0.4102220184461346 -0.019351118920435541 0 -0.40021295305484711 -0.013852611056198059 0 -0.41794895562780338 -0.01094222954485795 0 -0.40352261506359649 -0.001038070178381474 0 -0.40021295305484711 -0.013852611056198059 0 -0.42680670243505803 -0.034615113076212713 0 -0.41794895562780338 -0.01094222954485795 0 -0.4102220184461346 -0.019351118920435541 0 -0.42680670243505803 -0.034615113076212713 0 -0.4102220184461346 -0.019351118920435541 0 -0.40073055052989021 -0.025701474464423758 0 -0.42680670243505803 -0.034615113076212713 0 -0.40073055052989021 -0.025701474464423758 0 -0.41513049604948221 -0.033942569896895612 0 -0.40073055052989021 -0.025701474464423758 0 -0.40237332615973681 -0.030676944162886681 0 -0.40073055052989021 -0.025701474464423758 0 -0.40237332615973681 -0.030676944162886681 0 -0.38011722188171299 -0.020315848921226409 0 -0.40237332615973681 -0.030676944162886681 0 -0.38011722188171299 -0.020315848921226409 0 -0.4102220184461346 -0.019351118920435541 0 -0.40073055052989021 -0.025701474464423758 0 -0.40021295305484711 -0.013852611056198059 0 -0.40073055052989021 -0.025701474464423758 0 -0.40021295305484711 -0.013852611056198059 0 -0.38745402304870558 -0.01483805838738575 0 -0.40352261506359649 -0.001038070178381474 0 -0.40021295305484711 -0.013852611056198059 0 -0.39408165103759368 -0.0019794594859314238 0 -0.40021295305484711 -0.013852611056198059 0 -0.39408165103759368 -0.0019794594859314238 0 -0.39005949432245718 -0.0085411321607220259 0 -0.40021295305484711 -0.013852611056198059 0 -0.39005949432245718 -0.0085411321607220259 0 -0.38745402304870558 -0.01483805838738575 0 -0.39408165103759368 -0.0019794594859314238 0 -0.3848191179490616 -0.0027051675553946518 0 -0.39005949432245718 -0.0085411321607220259 0 -0.3848191179490616 -0.0027051675553946518 0 -0.38372972652207787 -0.0093303643187002475 0 -0.39005949432245718 -0.0085411321607220259 0 -0.38372972652207787 -0.0093303643187002475 0 -0.38745402304870558 -0.01483805838738575 0 -0.3791207175096093 -0.01135650732177081 0 -0.38372972652207787 -0.0093303643187002475 0 -0.39005949432245718 -0.0085411321607220259 0 -0.38745402304870558 -0.01483805838738575 0 -0.37465439862472261 -0.016787835852634068 0 -0.37464851222799189 -0.0076089195940836872 0 -0.3791207175096093 -0.01135650732177081 0 -0.37465439862472261 -0.016787835852634068 0 -0.38745402304870558 -0.01483805838738575 0 -0.3791207175096093 -0.01135650732177081 0 -0.37464851222799189 -0.0076089195940836872 0 -0.3791207175096093 -0.01135650732177081 0 -0.37960876280762101 -0.0064231604720931881 0 -0.38372972652207787 -0.0093303643187002475 0 -0.3791207175096093 -0.01135650732177081 0 -0.37960876280762101 -0.0064231604720931881 0 -0.3848191179490616 -0.0027051675553946518 0 -0.38372972652207787 -0.0093303643187002475 0 -0.37960876280762101 -0.0064231604720931881 0 -0.37464851222799189 -0.0076089195940836872 0 -0.37960876280762101 -0.0064231604720931881 0 -0.37774077980655368 -0.001289555558904682 0 -0.3848191179490616 -0.0027051675553946518 0 -0.37960876280762101 -0.0064231604720931881 0 -0.37774077980655368 -0.001289555558904682 0 -0.37465439862472261 -0.016787835852634068 0 -0.40073055052989021 -0.025701474464423758 0 -0.38745402304870558 -0.01483805838738575 0 -0.40237332615973681 -0.030676944162886681 0 -0.38781453024876661 -0.02996800237218563 0 -0.38011722188171299 -0.020315848921226409 0 -0.37465439862472261 -0.016787835852634068 0 -0.40073055052989021 -0.025701474464423758 0 -0.38011722188171299 -0.020315848921226409 0 -0.37465439862472261 -0.016787835852634068 0 -0.40073055052989021 -0.025701474464423758 0 -0.37402384376206249 -0.023759624541515059 0 -0.37465439862472261 -0.016787835852634068 0 -0.38011722188171299 -0.020315848921226409 0 -0.37402384376206249 -0.023759624541515059 0 -0.38011722188171299 -0.020315848921226409 0 -0.37866743010551202 -0.02906954498465647 0 -0.38781453024876661 -0.02996800237218563 0 -0.38011722188171299 -0.020315848921226409 0 -0.37866743010551202 -0.02906954498465647 0 -0.37439980638912518 -0.038891661293645137 0 -0.37866743010551202 -0.02906954498465647 0 -0.38394575501216083 -0.036535335565972972 0 -0.37439980638912518 -0.038891661293645137 0 -0.37993408630244868 -0.045501240077299353 0 -0.38394575501216083 -0.036535335565972972 0 -0.37085155020467431 -0.050438611479832557 0 -0.37439980638912518 -0.038891661293645137 0 -0.37993408630244868 -0.045501240077299353 0 -0.37993408630244868 -0.045501240077299353 0 -0.38895054345211377 -0.045335196083553769 0 -0.38394575501216083 -0.036535335565972972 0 -0.38895054345211377 -0.045335196083553769 0 -0.38394575501216083 -0.036535335565972972 0 -0.39396365166307989 -0.03445798481758762 0 -0.38781453024876661 -0.02996800237218563 0 -0.38394575501216083 -0.036535335565972972 0 -0.39396365166307989 -0.03445798481758762 0 -0.38781453024876661 -0.02996800237218563 0 -0.37866743010551202 -0.02906954498465647 0 -0.38394575501216083 -0.036535335565972972 0 -0.40237332615973681 -0.030676944162886681 0 -0.38781453024876661 -0.02996800237218563 0 -0.39396365166307989 -0.03445798481758762 0 -0.39396365166307989 -0.03445798481758762 0 -0.39750411751227832 -0.042292212187568533 0 -0.39928834571923882 -0.035924112998793431 0 -0.38895054345211377 -0.045335196083553769 0 -0.39396365166307989 -0.03445798481758762 0 -0.39750411751227832 -0.042292212187568533 0 -0.39750411751227832 -0.042292212187568533 0 -0.4050251302254127 -0.045922345921936697 0 -0.40306291723554027 -0.039039715031688543 0 -0.39750411751227832 -0.042292212187568533 0 -0.40306291723554027 -0.039039715031688543 0 -0.39928834571923882 -0.035924112998793431 0 -0.40237332615973681 -0.030676944162886681 0 -0.39396365166307989 -0.03445798481758762 0 -0.39928834571923882 -0.035924112998793431 0 -0.41105872637709778 -0.041104419315527559 0 -0.40237332615973681 -0.030676944162886681 0 -0.40306291723554027 -0.039039715031688543 0 -0.40237332615973681 -0.030676944162886681 0 -0.40306291723554027 -0.039039715031688543 0 -0.39928834571923882 -0.035924112998793431 0 -0.40603099279739802 -0.054788986838451827 0 -0.39527915405366182 -0.064437672488960096 0 -0.41284572228237681 -0.064006668923108523 0 -0.40603099279739802 -0.054788986838451827 0 -0.39443592701229091 -0.053019652188425637 0 -0.39527915405366182 -0.064437672488960096 0 -0.4050251302254127 -0.045922345921936697 0 -0.40603099279739802 -0.054788986838451827 0 -0.39443592701229091 -0.053019652188425637 0 -0.39750411751227832 -0.042292212187568533 0 -0.4050251302254127 -0.045922345921936697 0 -0.39443592701229091 -0.053019652188425637 0 -0.38895054345211377 -0.045335196083553769 0 -0.39750411751227832 -0.042292212187568533 0 -0.39443592701229091 -0.053019652188425637 0 -0.39443592701229091 -0.053019652188425637 0 -0.38221605892473098 -0.056125323053866277 0 -0.39527915405366182 -0.064437672488960096 0 -0.36608399240098949 -0.063120758007335118 0 -0.38221605892473098 -0.056125323053866277 0 -0.37978412082390189 -0.068029865631836883 0 -0.38895054345211377 -0.045335196083553769 0 -0.39443592701229091 -0.053019652188425637 0 -0.38221605892473098 -0.056125323053866277 0 -0.37993408630244868 -0.045501240077299353 0 -0.38895054345211377 -0.045335196083553769 0 -0.38221605892473098 -0.056125323053866277 0 -0.37085155020467431 -0.050438611479832557 0 -0.37993408630244868 -0.045501240077299353 0 -0.38221605892473098 -0.056125323053866277 0 -0.36843110820579178 -0.075527255856609146 0 -0.37978412082390189 -0.068029865631836883 0 -0.38691029053433551 -0.080938318752413793 0 -0.37978412082390189 -0.068029865631836883 0 -0.38691029053433551 -0.080938318752413793 0 -0.39527915405366182 -0.064437672488960096 0 -0.38221605892473098 -0.056125323053866277 0 -0.37978412082390189 -0.068029865631836883 0 -0.39527915405366182 -0.064437672488960096 0 -0.37380044498630338 -0.100392191664622 0 -0.36747037526515469 -0.088210616938563927 0 -0.38691029053433551 -0.080938318752413793 0 -0.36843110820579178 -0.075527255856609146 0 -0.38691029053433551 -0.080938318752413793 0 -0.40007542381043809 -0.086939242353532731 0 -0.39460333317738627 -0.1006873657273652 0 -0.41352047356827321 -0.0909948847898496 0 -0.38691029053433551 -0.080938318752413793 0 -0.40007542381043809 -0.086939242353532731 0 -0.40767355229219521 -0.074626636544090755 0 -0.38691029053433551 -0.080938318752413793 0 -0.40007542381043809 -0.086939242353532731 0 -0.39460333317738627 -0.1006873657273652 0 -0.38691029053433551 -0.080938318752413793 0 -0.39527915405366182 -0.064437672488960096 0 -0.40767355229219521 -0.074626636544090755 0 -0.39527915405366182 -0.064437672488960096 0 -0.41284572228237681 -0.064006668923108523 0 -0.40767355229219521 -0.074626636544090755 0 -0.36893450279197471 -0.1249528869149899 0 -0.3789649235099295 -0.11270856972454819 0 -0.39514760223357998 -0.1249586529677193 0 -0.36893450279197471 -0.1249528869149899 0 -0.39514760223357998 -0.1249586529677193 0 -0.3789649235099295 -0.11270856972454819 0 -0.39460333317738627 -0.1006873657273652 0 -0.39514760223357998 -0.1249586529677193 0 -0.37380044498630338 -0.100392191664622 0 -0.38691029053433551 -0.080938318752413793 0 -0.39460333317738627 -0.1006873657273652 0 -0.37380044498630338 -0.100392191664622 0 -0.3789649235099295 -0.11270856972454819 0 -0.39460333317738627 -0.1006873657273652 0 -0.39460333317738627 -0.1006873657273652 0 -0.39514760223357998 -0.1249586529677193 0 -0.4114708495464785 -0.1093321351213095 0 -0.42136070167518519 -0.1249644190204488 0 -0.4114708495464785 -0.1093321351213095 0 -0.43272213707796769 -0.1050553531011644 0 -0.39514760223357998 -0.1249586529677193 0 -0.42136070167518519 -0.1249644190204488 0 -0.39514760223357998 -0.1249586529677193 0 -0.42136070167518519 -0.1249644190204488 0 -0.4114708495464785 -0.1093321351213095 0 -0.39460333317738627 -0.1006873657273652 0 -0.4114708495464785 -0.1093321351213095 0 -0.41352047356827321 -0.0909948847898496 0 -0.4114708495464785 -0.1093321351213095 0 -0.43272213707796769 -0.1050553531011644 0 -0.41352047356827321 -0.0909948847898496 0 -0.42136070167518519 -0.1249644190204488 0 -0.43272213707796769 -0.1050553531011644 0 -0.44757380111679052 -0.12497018507317829 0 -0.42136070167518519 -0.1249644190204488 0 -0.44757380111679052 -0.12497018507317829 0 -0.42023793718526542 -0.076451056482049876 0 -0.41284572228237681 -0.064006668923108523 0 -0.42746868386642678 -0.066478460468227696 0 -0.42023793718526542 -0.076451056482049876 0 -0.41284572228237681 -0.064006668923108523 0 -0.40767355229219521 -0.074626636544090755 0 -0.42023793718526542 -0.076451056482049876 0 -0.40767355229219521 -0.074626636544090755 0 -0.41352047356827321 -0.0909948847898496 0 -0.40007542381043809 -0.086939242353532731 0 -0.40767355229219521 -0.074626636544090755 0 -0.41352047356827321 -0.0909948847898496 0 -0.42023793718526542 -0.076451056482049876 0 -0.41352047356827321 -0.0909948847898496 0 -0.43051036701793649 -0.083964229305721505 0 -0.43272213707796769 -0.1050553531011644 0 -0.41352047356827321 -0.0909948847898496 0 -0.43051036701793649 -0.083964229305721505 0 -0.43272213707796769 -0.1050553531011644 0 -0.43051036701793649 -0.083964229305721505 0 -0.44869793539396702 -0.090613631575090198 0 -0.43051036701793649 -0.083964229305721505 0 -0.42746868386642678 -0.066478460468227696 0 -0.43938561630945938 -0.075374003134316428 0 -0.42023793718526542 -0.076451056482049876 0 -0.43051036701793649 -0.083964229305721505 0 -0.42746868386642678 -0.066478460468227696 0 -0.42746868386642678 -0.066478460468227696 0 -0.43950717444435422 -0.063784996514660589 0 -0.43938561630945938 -0.075374003134316428 0 -0.43950717444435422 -0.063784996514660589 0 -0.45074392082461212 -0.072028697807882153 0 -0.43938561630945938 -0.075374003134316428 0 -0.43051036701793649 -0.083964229305721505 0 -0.43938561630945938 -0.075374003134316428 0 -0.44869793539396702 -0.090613631575090198 0 -0.45074392082461212 -0.072028697807882153 0 -0.43938561630945938 -0.075374003134316428 0 -0.44869793539396702 -0.090613631575090198 0 -0.45074392082461212 -0.072028697807882153 0 -0.44869793539396702 -0.090613631575090198 0 -0.4647336852437608 -0.080388630180202481 0 -0.44869793539396702 -0.090613631575090198 0 -0.4647336852437608 -0.080388630180202481 0 -0.47380622041468068 -0.096022360055862885 0 -0.4647336852437608 -0.080388630180202481 0 -0.46264955769922828 -0.069236149835977229 0 -0.47254815090776853 -0.069469283055039688 0 -0.45074392082461212 -0.072028697807882153 0 -0.46264955769922828 -0.069236149835977229 0 -0.44688553471578463 -0.051399134646207288 0 -0.46264955769922828 -0.069236149835977229 0 -0.47254815090776853 -0.069469283055039688 0 -0.46914163899380801 -0.061760229887868598 0 -0.45074392082461212 -0.072028697807882153 0 -0.4647336852437608 -0.080388630180202481 0 -0.46264955769922828 -0.069236149835977229 0 -0.43272213707796769 -0.1050553531011644 0 -0.44757380111679052 -0.12497018507317829 0 -0.46022938895027038 -0.10869066194517669 0 -0.43272213707796769 -0.1050553531011644 0 -0.44869793539396702 -0.090613631575090198 0 -0.46022938895027038 -0.10869066194517669 0 -0.44869793539396702 -0.090613631575090198 0 -0.46022938895027038 -0.10869066194517669 0 -0.47380622041468068 -0.096022360055862885 0 -0.44757380111679052 -0.12497018507317829 0 -0.47378690055839578 -0.1249759511259078 0 -0.44757380111679052 -0.12497018507317829 0 -0.46022938895027038 -0.10869066194517669 0 -0.47378690055839578 -0.1249759511259078 0 -0.46022938895027038 -0.10869066194517669 0 -0.47378690055839578 -0.1249759511259078 0 -0.48374478807960558 -0.1092121363906397 0 -0.46022938895027038 -0.10869066194517669 0 -0.48374478807960558 -0.1092121363906397 0 -0.47380622041468068 -0.096022360055862885 0 -0.48374478807960558 -0.1092121363906397 0 -0.47380622041468068 -0.096022360055862885 0 -0.48832582805197727 -0.092109142267116931 0 -0.48374478807960558 -0.1092121363906397 0 -0.5 -0.10055386622176241 0 -0.48832582805197727 -0.092109142267116931 0 -0.47378690055839578 -0.1249759511259078 0 -0.48374478807960558 -0.1092121363906397 0 -0.50000000000000111 -0.12498171717863731 0 -0.48374478807960558 -0.1092121363906397 0 -0.5 -0.10055386622176241 0 -0.50000000000000111 -0.12498171717863731 0 -0.47378690055839578 -0.1249759511259078 0 -0.50000000000000111 -0.12498171717863731 0 -0.47254815090776853 -0.069469283055039688 0 -0.47913967023945842 -0.082463322467565006 0 -0.48457081949690362 -0.068943122576377761 0 -0.47913967023945842 -0.082463322467565006 0 -0.48808502354595151 -0.080031310268457945 0 -0.48457081949690362 -0.068943122576377761 0 -0.48457081949690362 -0.068943122576377761 0 -0.46914163899380801 -0.061760229887868598 0 -0.48457081949690362 -0.068943122576377761 0 -0.48230491698392047 -0.057318093012348498 0 -0.46914163899380801 -0.061760229887868598 0 -0.47254815090776853 -0.069469283055039688 0 -0.48457081949690362 -0.068943122576377761 0 -0.46914163899380801 -0.061760229887868598 0 -0.47254815090776853 -0.069469283055039688 0 -0.46914163899380801 -0.061760229887868598 0 -0.4647336852437608 -0.080388630180202481 0 -0.47254815090776853 -0.069469283055039688 0 -0.47913967023945842 -0.082463322467565006 0 -0.4647336852437608 -0.080388630180202481 0 -0.47380622041468068 -0.096022360055862885 0 -0.47913967023945842 -0.082463322467565006 0 -0.47380622041468068 -0.096022360055862885 0 -0.47913967023945842 -0.082463322467565006 0 -0.48832582805197727 -0.092109142267116931 0 -0.5 -0.10055386622176241 0 -0.48832582805197727 -0.092109142267116931 0 -0.499999999999999 -0.07612601526488752 0 -0.48808502354595151 -0.080031310268457945 0 -0.48832582805197727 -0.092109142267116931 0 -0.499999999999999 -0.07612601526488752 0 -0.47913967023945842 -0.082463322467565006 0 -0.48808502354595151 -0.080031310268457945 0 -0.48832582805197727 -0.092109142267116931 0 -0.499999999999999 -0.07612601526488752 0 -0.48457081949690362 -0.068943122576377761 0 -0.499999999999999 -0.07612601526488752 0 -0.48457081949690362 -0.068943122576377761 0 -0.5 -0.055081012739928707 0 -0.48808502354595151 -0.080031310268457945 0 -0.499999999999999 -0.07612601526488752 0 -0.48457081949690362 -0.068943122576377761 0 -0.48457081949690362 -0.068943122576377761 0 -0.5 -0.055081012739928707 0 -0.48230491698392047 -0.057318093012348498 0 -0.5 -0.055081012739928707 0 -0.48157039955536241 -0.044558511477442143 0 -0.48230491698392047 -0.057318093012348498 0 -0.5 -0.055081012739928707 0 -0.500000000000004 -0.034036010214970061 0 -0.48157039955536241 -0.044558511477442143 0 -0.500000000000004 -0.034036010214970061 0 -0.48157039955536241 -0.044558511477442143 0 -0.48148290990478199 -0.029591545163434652 0 -0.48157039955536241 -0.044558511477442143 0 -0.45768975774058179 -0.035844230274481748 0 -0.48148290990478199 -0.029591545163434652 0 -0.48157039955536241 -0.044558511477442143 0 -0.46914163899380801 -0.061760229887868598 0 -0.45768975774058179 -0.035844230274481748 0 -0.48157039955536241 -0.044558511477442143 0 -0.48230491698392047 -0.057318093012348498 0 -0.46914163899380801 -0.061760229887868598 0 -0.46914163899380801 -0.061760229887868598 0 -0.45768975774058179 -0.035844230274481748 0 -0.44688553471578463 -0.051399134646207288 0 -0.46914163899380801 -0.061760229887868598 0 -0.45768975774058179 -0.035844230274481748 0 -0.46264955769922828 -0.069236149835977229 0 -0.46914163899380801 -0.061760229887868598 0 -0.44688553471578463 -0.051399134646207288 0 -0.46914163899380801 -0.061760229887868598 0 -0.44688553471578463 -0.051399134646207288 0 -0.43628267576141971 -0.035329403205585218 0 -0.44354830351403418 -0.034418653902415733 0 -0.44688553471578463 -0.051399134646207288 0 -0.45768975774058179 -0.035844230274481748 0 -0.44354830351403418 -0.034418653902415733 0 -0.44688553471578463 -0.051399134646207288 0 -0.45768975774058179 -0.035844230274481748 0 -0.44354830351403418 -0.034418653902415733 0 -0.44312252706978628 -0.024928407146411868 0 -0.43628267576141971 -0.035329403205585218 0 -0.43710875721387199 -0.026668229939385779 0 -0.44354830351403418 -0.034418653902415733 0 -0.43950717444435422 -0.063784996514660589 0 -0.45074392082461212 -0.072028697807882153 0 -0.44688553471578463 -0.051399134646207288 0 -0.43147245553696489 -0.05279552735729795 0 -0.43950717444435422 -0.063784996514660589 0 -0.44688553471578463 -0.051399134646207288 0 -0.43591977417237449 -0.008065469867085449 0 -0.44623787648735791 -0.0099282306610938807 0 -0.43740981058492812 0.01004998492246997 0 -0.43591977417237449 -0.008065469867085449 0 -0.44623787648735791 -0.0099282306610938807 0 -0.43928417642389239 -0.017661557407765791 0 -0.43591977417237449 -0.008065469867085449 0 -0.44623787648735791 -0.0099282306610938807 0 -0.43710875721387199 -0.026668229939385779 0 -0.43928417642389239 -0.017661557407765791 0 -0.44312252706978628 -0.024928407146411868 0 -0.45768975774058179 -0.035844230274481748 0 -0.44623787648735791 -0.0099282306610938807 0 -0.44312252706978628 -0.024928407146411868 0 -0.45768975774058179 -0.035844230274481748 0 -0.44623787648735791 -0.0099282306610938807 0 -0.44623787648735791 -0.0099282306610938807 0 -0.43928417642389239 -0.017661557407765791 0 -0.44312252706978628 -0.024928407146411868 0 -0.43710875721387199 -0.026668229939385779 0 -0.44354830351403418 -0.034418653902415733 0 -0.44312252706978628 -0.024928407146411868 0 -0.45768975774058179 -0.035844230274481748 0 -0.44623787648735791 -0.0099282306610938807 0 -0.47146408957177099 -0.01448240150379307 0 -0.44623787648735791 -0.0099282306610938807 0 -0.47146408957177099 -0.01448240150379307 0 -0.44623787648735791 -0.0099282306610938807 0 -0.47146408957177099 -0.01448240150379307 0 -0.46048772545436639 0.0043098071123656434 0 -0.47146408957177099 -0.01448240150379307 0 -0.47882554305316488 -0.0018417715126103191 0 -0.46048772545436639 0.0043098071123656434 0 -0.47146408957177099 -0.01448240150379307 0 -0.47882554305316488 -0.0018417715126103191 0 -0.49669030265618502 -0.01903657234648758 0 -0.47146408957177099 -0.01448240150379307 0 -0.49669030265618502 -0.01903657234648758 0 -0.47146408957177099 -0.01448240150379307 0 -0.48148290990478199 -0.029591545163434652 0 -0.49669030265618502 -0.01903657234648758 0 -0.45768975774058179 -0.035844230274481748 0 -0.47146408957177099 -0.01448240150379307 0 -0.48148290990478199 -0.029591545163434652 0 -0.500000000000004 -0.034036010214970061 0 -0.48148290990478199 -0.029591545163434652 0 -0.49669030265618502 -0.01903657234648758 0 -0.49669030265618502 -0.01903657234648758 0 -0.50000000000000056 -0.019634082844440681 0 -0.500000000000004 -0.034036010214970061 0 -0.49669030265618502 -0.01903657234648758 0 -0.500000000000004 -0.034036010214970061 0 -0.49669030265618502 -0.01903657234648758 0 -0.50000000000000056 -0.019634082844440681 0 -0.47882554305316488 -0.0018417715126103191 0 -0.49669030265618502 -0.01903657234648758 0 -0.49160980924365538 0.0039880541876541054 0 -0.49669030265618502 -0.01903657234648758 0 -0.49160980924365538 0.0039880541876541054 0 -0.49669030265618502 -0.01903657234648758 0 -0.50000000000000056 -0.019634082844440681 0 -0.49160980924365538 0.0039880541876541054 0 -0.50000000000000056 -0.019634082844440681 0 -0.49160980924365538 0.0039880541876541054 0 -0.50000000000000033 0.009303662189531537 0 -0.49160980924365538 0.0039880541876541054 0 -0.48652931583112352 0.027012680721795381 0 -0.49160980924365538 0.0039880541876541054 0 -0.50000000000000033 0.009303662189531537 0 -0.48652931583112352 0.027012680721795381 0 -0.50000000000000033 0.009303662189531537 0 -0.5 0.03611151152349279 0 -0.49175907743105379 0.031398254416965428 0 -0.50000000000000033 0.009303662189531537 0 -0.49175907743105379 0.031398254416965428 0 -0.50000000000000033 0.009303662189531537 0 -0.48652931583112352 0.027012680721795381 0 -0.49175907743105379 0.031398254416965428 0 -0.48652931583112352 0.027012680721795381 0 -0.47387578833984401 0.016012254987208822 0 -0.46815351836101687 0.031449839152918539 0 -0.49160980924365538 0.0039880541876541054 0 -0.48652931583112352 0.027012680721795381 0 -0.47387578833984401 0.016012254987208822 0 -0.47882554305316488 -0.0018417715126103191 0 -0.49160980924365538 0.0039880541876541054 0 -0.47387578833984401 0.016012254987208822 0 -0.47882554305316488 -0.0018417715126103191 0 -0.47387578833984401 0.016012254987208822 0 -0.46048772545436639 0.0043098071123656434 0 -0.49282352307895688 0.045257754500502748 0 -0.5 0.03611151152349279 0 -0.5 0.062919360857453976 0 -0.49282352307895688 0.045257754500502748 0 -0.48351815486210709 0.053492846644399093 0 -0.5 0.062919360857453976 0 -0.49175907743105379 0.031398254416965428 0 -0.48144882241859149 0.050037307255936581 0 -0.48351815486210709 0.053492846644399093 0 -0.48652931583112352 0.027012680721795381 0 -0.49175907743105379 0.031398254416965428 0 -0.48144882241859149 0.050037307255936581 0 -0.49175907743105379 0.031398254416965428 0 -0.48351815486210709 0.053492846644399093 0 -0.49282352307895688 0.045257754500502748 0 -0.49175907743105379 0.031398254416965428 0 -0.48351815486210709 0.053492846644399093 0 -0.49282352307895688 0.045257754500502748 0 -0.5 0.03611151152349279 0 -0.49175907743105379 0.031398254416965428 0 -0.48144882241859149 0.050037307255936581 0 -0.4639696453013944 0.043374392403556838 0 -0.46815351836101687 0.031449839152918539 0 -0.48652931583112352 0.027012680721795381 0 -0.48144882241859149 0.050037307255936581 0 -0.48652931583112352 0.027012680721795381 0 -0.48144882241859149 0.050037307255936581 0 -0.46815351836101687 0.031449839152918539 0 -0.48144882241859149 0.050037307255936581 0 -0.45709786057011947 0.055708105081253657 0 -0.47636832900606041 0.073061933790077832 0 -0.48144882241859149 0.050037307255936581 0 -0.48351815486210709 0.053492846644399093 0 -0.47636832900606041 0.073061933790077832 0 -0.48144882241859149 0.050037307255936581 0 -0.47636832900606041 0.073061933790077832 0 -0.48144882241859149 0.050037307255936581 0 -0.45709786057011947 0.055708105081253657 0 -0.4639696453013944 0.043374392403556838 0 -0.45709786057011947 0.055708105081253657 0 -0.4639696453013944 0.043374392403556838 0 -0.45299045524759751 0.034902057762674861 0 -0.4639696453013944 0.043374392403556838 0 -0.46815351836101687 0.031449839152918539 0 -0.45299045524759751 0.034902057762674861 0 -0.46815351836101687 0.031449839152918539 0 -0.45299045524759751 0.034902057762674861 0 -0.45709786057011947 0.055708105081253657 0 -0.45299045524759751 0.034902057762674861 0 -0.43782739213417787 0.038354276372430232 0 -0.45299045524759751 0.034902057762674861 0 -0.43782739213417787 0.038354276372430232 0 -0.45299045524759751 0.034902057762674861 0 -0.43782739213417787 0.038354276372430232 0 -0.44297011017848281 0.02707887027054981 0 -0.45709786057011947 0.055708105081253657 0 -0.43782739213417787 0.038354276372430232 0 -0.43187248081207541 0.055496176207803817 0 -0.45709786057011947 0.055708105081253657 0 -0.43782739213417787 0.038354276372430232 0 -0.45709786057011947 0.055708105081253657 0 -0.43187248081207541 0.055496176207803817 0 -0.43763284036668942 0.072255399145110422 0 -0.47387578833984401 0.016012254987208822 0 -0.46048772545436639 0.0043098071123656434 0 -0.45598123469437257 0.020633802368031268 0 -0.47387578833984401 0.016012254987208822 0 -0.46815351836101687 0.031449839152918539 0 -0.45598123469437257 0.020633802368031268 0 -0.46815351836101687 0.031449839152918539 0 -0.45299045524759751 0.034902057762674861 0 -0.45598123469437257 0.020633802368031268 0 -0.45598123469437257 0.020633802368031268 0 -0.44297011017848281 0.02707887027054981 0 -0.43740981058492812 0.01004998492246997 0 -0.45299045524759751 0.034902057762674861 0 -0.45598123469437257 0.020633802368031268 0 -0.44297011017848281 0.02707887027054981 0 -0.46048772545436639 0.0043098071123656434 0 -0.45598123469437257 0.020633802368031268 0 -0.43740981058492812 0.01004998492246997 0 -0.44623787648735791 -0.0099282306610938807 0 -0.46048772545436639 0.0043098071123656434 0 -0.43740981058492812 0.01004998492246997 0 -0.44623787648735791 -0.0099282306610938807 0 -0.43740981058492812 0.01004998492246997 0 -0.43591977417237449 -0.008065469867085449 0 -0.43740981058492812 0.01004998492246997 0 -0.42583279771702431 0.00046528033667210148 0 -0.43740981058492812 0.01004998492246997 0 -0.42292027786463471 0.01349413118407828 0 -0.42583279771702431 0.00046528033667210148 0 -0.41794895562780338 -0.01094222954485795 0 -0.40909120882054839 0.01273065398649661 0 -0.41794895562780338 -0.01094222954485795 0 -0.40352261506359649 -0.001038070178381474 0 -0.40909120882054839 0.01273065398649661 0 -0.42292027786463471 0.01349413118407828 0 -0.42583279771702431 0.00046528033667210148 0 -0.40909120882054839 0.01273065398649661 0 -0.41794895562780338 -0.01094222954485795 0 -0.42583279771702431 0.00046528033667210148 0 -0.40909120882054839 0.01273065398649661 0 -0.40909120882054839 0.01273065398649661 0 -0.41494363987246979 0.023236645495722939 0 -0.40023346201329341 0.036403537517851137 0 -0.41494363987246979 0.023236645495722939 0 -0.41436175989852531 0.033604495869393458 0 -0.40023346201329341 0.036403537517851137 0 -0.42292027786463471 0.01349413118407828 0 -0.41494363987246979 0.023236645495722939 0 -0.424969395700869 0.026775135554755129 0 -0.42292027786463471 0.01349413118407828 0 -0.40909120882054839 0.01273065398649661 0 -0.41494363987246979 0.023236645495722939 0 -0.41494363987246979 0.023236645495722939 0 -0.41896391809246269 0.029132761591660509 0 -0.41436175989852531 0.033604495869393458 0 -0.41494363987246979 0.023236645495722939 0 -0.41896391809246269 0.029132761591660509 0 -0.424969395700869 0.026775135554755129 0 -0.41896391809246269 0.029132761591660509 0 -0.424969395700869 0.026775135554755129 0 -0.42158087689798668 0.032914769446770492 0 -0.424969395700869 0.026775135554755129 0 -0.42858174468249838 0.030028200506033911 0 -0.42158087689798668 0.032914769446770492 0 -0.44297011017848281 0.02707887027054981 0 -0.43740981058492812 0.01004998492246997 0 -0.42858174468249838 0.030028200506033911 0 -0.43740981058492812 0.01004998492246997 0 -0.42292027786463471 0.01349413118407828 0 -0.424969395700869 0.026775135554755129 0 -0.43740981058492812 0.01004998492246997 0 -0.42858174468249838 0.030028200506033911 0 -0.43740981058492812 0.01004998492246997 0 -0.424969395700869 0.026775135554755129 0 -0.42858174468249838 0.030028200506033911 0 -0.424969395700869 0.026775135554755129 0 -0.42858174468249838 0.030028200506033911 0 -0.43782739213417787 0.038354276372430232 0 -0.44297011017848281 0.02707887027054981 0 -0.42858174468249838 0.030028200506033911 0 -0.43782739213417787 0.038354276372430232 0 -0.42858174468249838 0.030028200506033911 0 -0.42345682706553001 0.041626064651069543 0 -0.43782739213417787 0.038354276372430232 0 -0.42345682706553001 0.041626064651069543 0 -0.43187248081207541 0.055496176207803817 0 -0.43782739213417787 0.038354276372430232 0 -0.42858174468249838 0.030028200506033911 0 -0.43782739213417787 0.038354276372430232 0 -0.42345682706553001 0.041626064651069543 0 -0.42858174468249838 0.030028200506033911 0 -0.42345682706553001 0.041626064651069543 0 -0.42158087689798668 0.032914769446770492 0 -0.42858174468249838 0.030028200506033911 0 -0.42345682706553001 0.041626064651069543 0 -0.42345682706553001 0.041626064651069543 0 -0.43187248081207541 0.055496176207803817 0 -0.4177568865966339 0.054525225210098782 0 -0.43187248081207541 0.055496176207803817 0 -0.4177568865966339 0.054525225210098782 0 -0.41753301535116211 0.067129086497859855 0 -0.42345682706553001 0.041626064651069543 0 -0.4177568865966339 0.054525225210098782 0 -0.40276573021624068 0.046336866753853997 0 -0.4177568865966339 0.054525225210098782 0 -0.40750332447406851 0.057375884956624552 0 -0.41753301535116211 0.067129086497859855 0 -0.42345682706553001 0.041626064651069543 0 -0.4177568865966339 0.054525225210098782 0 -0.4177568865966339 0.054525225210098782 0 -0.40750332447406851 0.057375884956624552 0 -0.40276573021624068 0.046336866753853997 0 -0.42345682706553001 0.041626064651069543 0 -0.40276573021624068 0.046336866753853997 0 -0.42345682706553001 0.041626064651069543 0 -0.41020444479839763 0.039492741198042178 0 -0.40276573021624068 0.046336866753853997 0 -0.42345682706553001 0.041626064651069543 0 -0.41436175989852531 0.033604495869393458 0 -0.42158087689798668 0.032914769446770492 0 -0.42345682706553001 0.041626064651069543 0 -0.41436175989852531 0.033604495869393458 0 -0.41020444479839763 0.039492741198042178 0 -0.41896391809246269 0.029132761591660509 0 -0.41436175989852531 0.033604495869393458 0 -0.42158087689798668 0.032914769446770492 0 -0.41436175989852531 0.033604495869393458 0 -0.41020444479839763 0.039492741198042178 0 -0.40023346201329341 0.036403537517851137 0 -0.40276573021624068 0.046336866753853997 0 -0.38207463336695202 0.051047668856640811 0 -0.38772007791329738 0.03985096685417347 0 -0.41020444479839763 0.039492741198042178 0 -0.40023346201329341 0.036403537517851137 0 -0.40276573021624068 0.046336866753853997 0 -0.40023346201329341 0.036403537517851137 0 -0.40276573021624068 0.046336866753853997 0 -0.38772007791329738 0.03985096685417347 0 -0.40023346201329341 0.036403537517851137 0 -0.38772007791329738 0.03985096685417347 0 -0.38925836826538629 0.030805614435688099 0 -0.40276573021624068 0.046336866753853997 0 -0.38207463336695202 0.051047668856640811 0 -0.40276573021624068 0.046336866753853997 0 -0.39689466156197101 0.057407184083191301 0 -0.38207463336695202 0.051047668856640811 0 -0.40750332447406851 0.057375884956624552 0 -0.39689466156197101 0.057407184083191301 0 -0.40210564328563447 0.066115584712721373 0 -0.40750332447406851 0.057375884956624552 0 -0.40276573021624068 0.046336866753853997 0 -0.39689466156197101 0.057407184083191301 0 -0.38207463336695202 0.051047668856640811 0 -0.38848633305814179 0.065600711414542545 0 -0.36891219827968119 0.060077996683558232 0 -0.39689466156197101 0.057407184083191301 0 -0.38207463336695202 0.051047668856640811 0 -0.38848633305814179 0.065600711414542545 0 -0.38772007791329738 0.03985096685417347 0 -0.37937813184432773 0.031366277704107569 0 -0.38925836826538629 0.030805614435688099 0 -0.38207463336695202 0.051047668856640811 0 -0.38772007791329738 0.03985096685417347 0 -0.37261014177358448 0.043145835856899219 0 -0.38772007791329738 0.03985096685417347 0 -0.37937813184432773 0.031366277704107569 0 -0.37261014177358448 0.043145835856899219 0 -0.37937813184432773 0.031366277704107569 0 -0.38391758338059062 0.022870450659759161 0 -0.37479293228070759 0.022502646493578662 0 -0.37937813184432773 0.031366277704107569 0 -0.38925836826538629 0.030805614435688099 0 -0.38391758338059062 0.022870450659759161 0 -0.38925836826538629 0.030805614435688099 0 -0.38391758338059062 0.022870450659759161 0 -0.3946160130735708 0.021551959563878339 0 -0.38391758338059062 0.022870450659759161 0 -0.38667067902898572 0.013842153393714489 0 -0.3946160130735708 0.021551959563878339 0 -0.38391758338059062 0.022870450659759161 0 -0.3778438638662554 0.014761087644765769 0 -0.38667067902898572 0.013842153393714489 0 -0.38391758338059062 0.022870450659759161 0 -0.3778438638662554 0.014761087644765769 0 -0.37479293228070759 0.022502646493578662 0 -0.3778438638662554 0.014761087644765769 0 -0.38165634421242611 0.0056742618597281089 0 -0.38667067902898572 0.013842153393714489 0 -0.3778438638662554 0.014761087644765769 0 -0.38165634421242611 0.0056742618597281089 0 -0.37464316483836829 0.0066416053135349984 0 -0.37774077980655368 -0.001289555558904682 0 -0.38165634421242611 0.0056742618597281089 0 -0.37464316483836829 0.0066416053135349984 0 -0.3848191179490616 -0.0027051675553946518 0 -0.37774077980655368 -0.001289555558904682 0 -0.38165634421242611 0.0056742618597281089 0 -0.3848191179490616 -0.0027051675553946518 0 -0.38165634421242611 0.0056742618597281089 0 -0.38845980705381639 0.0057813395070211177 0 -0.39408165103759368 -0.0019794594859314238 0 -0.3848191179490616 -0.0027051675553946518 0 -0.38845980705381639 0.0057813395070211177 0 -0.38845980705381639 0.0057813395070211177 0 -0.38667067902898572 0.013842153393714489 0 -0.39627830677719 0.008853295208583448 0 -0.38165634421242611 0.0056742618597281089 0 -0.38845980705381639 0.0057813395070211177 0 -0.38667067902898572 0.013842153393714489 0 -0.38667067902898572 0.013842153393714489 0 -0.39627830677719 0.008853295208583448 0 -0.3946160130735708 0.021551959563878339 0 -0.39408165103759368 -0.0019794594859314238 0 -0.38845980705381639 0.0057813395070211177 0 -0.39627830677719 0.008853295208583448 0 -0.40352261506359649 -0.001038070178381474 0 -0.39408165103759368 -0.0019794594859314238 0 -0.39627830677719 0.008853295208583448 0 -0.40352261506359649 -0.001038070178381474 0 -0.40909120882054839 0.01273065398649661 0 -0.39627830677719 0.008853295208583448 0 -0.40909120882054839 0.01273065398649661 0 -0.39627830677719 0.008853295208583448 0 -0.3946160130735708 0.021551959563878339 0 -0.40909120882054839 0.01273065398649661 0 -0.40023346201329341 0.036403537517851137 0 -0.3946160130735708 0.021551959563878339 0 -0.40909120882054839 0.01273065398649661 0 -0.40023346201329341 0.036403537517851137 0 -0.40023346201329341 0.036403537517851137 0 -0.38925836826538629 0.030805614435688099 0 -0.3946160130735708 0.021551959563878339 0 -0.38696142946532958 0.1003701901717608 0 -0.40164011277457379 0.081352107660276216 0 -0.40864304721671202 0.1107171055473533 0 -0.38750957741872682 0.11885909540365321 0 -0.40864304721671202 0.1107171055473533 0 -0.39401402549175851 0.1361747599337243 0 -0.38750957741872682 0.11885909540365321 0 -0.38696142946532958 0.1003701901717608 0 -0.40864304721671202 0.1107171055473533 0 -0.38750957741872682 0.11885909540365321 0 -0.38696142946532958 0.1003701901717608 0 -0.36904533532088801 0.1177582563576956 0 -0.38696142946532958 0.1003701901717608 0 -0.37090825683648998 0.098456277756480637 0 -0.36904533532088801 0.1177582563576956 0 -0.37929074908003868 0.077603726490867345 0 -0.40164011277457379 0.081352107660276216 0 -0.38696142946532958 0.1003701901717608 0 -0.37929074908003868 0.077603726490867345 0 -0.40164011277457379 0.081352107660276216 0 -0.38696142946532958 0.1003701901717608 0 -0.37929074908003868 0.077603726490867345 0 -0.37090825683648998 0.098456277756480637 0 -0.37929074908003868 0.077603726490867345 0 -0.38848633305814179 0.065600711414542545 0 -0.36891219827968119 0.060077996683558232 0 -0.37929074908003868 0.077603726490867345 0 -0.38848633305814179 0.065600711414542545 0 -0.40164011277457379 0.081352107660276216 0 -0.38848633305814179 0.065600711414542545 0 -0.40210564328563447 0.066115584712721373 0 -0.40164011277457379 0.081352107660276216 0 -0.39689466156197101 0.057407184083191301 0 -0.38848633305814179 0.065600711414542545 0 -0.40210564328563447 0.066115584712721373 0 -0.40164011277457379 0.081352107660276216 0 -0.42398947646910912 0.085100488829685086 0 -0.40164011277457379 0.081352107660276216 0 -0.42398947646910912 0.085100488829685086 0 -0.40864304721671202 0.1107171055473533 0 -0.40210564328563447 0.066115584712721373 0 -0.40164011277457379 0.081352107660276216 0 -0.41753301535116211 0.067129086497859855 0 -0.40164011277457379 0.081352107660276216 0 -0.41753301535116211 0.067129086497859855 0 -0.42398947646910912 0.085100488829685086 0 -0.40750332447406851 0.057375884956624552 0 -0.40210564328563447 0.066115584712721373 0 -0.41753301535116211 0.067129086497859855 0 -0.41753301535116211 0.067129086497859855 0 -0.42398947646910912 0.085100488829685086 0 -0.43763284036668942 0.072255399145110422 0 -0.43187248081207541 0.055496176207803817 0 -0.41753301535116211 0.067129086497859855 0 -0.43763284036668942 0.072255399145110422 0 -0.42398947646910912 0.085100488829685086 0 -0.44633884016364428 0.088848869999093971 0 -0.42398947646910912 0.085100488829685086 0 -0.43763284036668942 0.072255399145110422 0 -0.44633884016364428 0.088848869999093971 0 -0.42398947646910912 0.085100488829685086 0 -0.42906186480059683 0.10519001099972999 0 -0.44633884016364428 0.088848869999093971 0 -0.42398947646910912 0.085100488829685086 0 -0.42906186480059683 0.10519001099972999 0 -0.40864304721671202 0.1107171055473533 0 -0.40864304721671202 0.1107171055473533 0 -0.43267942878230348 0.12559175737704789 0 -0.42906186480059683 0.10519001099972999 0 -0.40864304721671202 0.1107171055473533 0 -0.43267942878230348 0.12559175737704789 0 -0.42906186480059683 0.10519001099972999 0 -0.4489383204882843 0.11104189391905871 0 -0.43267942878230348 0.12559175737704789 0 -0.4489383204882843 0.11104189391905871 0 -0.45289828098281221 0.1241297055338681 0 -0.43267942878230348 0.12559175737704789 0 -0.4489383204882843 0.11104189391905871 0 -0.43267942878230348 0.12559175737704789 0 -0.42906186480059683 0.10519001099972999 0 -0.4489383204882843 0.11104189391905871 0 -0.44633884016364428 0.088848869999093971 0 -0.4489383204882843 0.11104189391905871 0 -0.44633884016364428 0.088848869999093971 0 -0.47121921728662652 0.096397536200283296 0 -0.46607010556719342 0.11973313861048911 0 -0.47121921728662652 0.096397536200283296 0 -0.4489383204882843 0.11104189391905871 0 -0.46607010556719342 0.11973313861048911 0 -0.47121921728662652 0.096397536200283296 0 -0.4489383204882843 0.11104189391905871 0 -0.45289828098281221 0.1241297055338681 0 -0.46607010556719342 0.11973313861048911 0 -0.45709786057011947 0.055708105081253657 0 -0.43763284036668942 0.072255399145110422 0 -0.45544766770060358 0.07348919590478746 0 -0.43763284036668942 0.072255399145110422 0 -0.44633884016364428 0.088848869999093971 0 -0.45544766770060358 0.07348919590478746 0 -0.44633884016364428 0.088848869999093971 0 -0.45544766770060358 0.07348919590478746 0 -0.47121921728662652 0.096397536200283296 0 -0.45544766770060358 0.07348919590478746 0 -0.47636832900606041 0.073061933790077832 0 -0.47121921728662652 0.096397536200283296 0 -0.45709786057011947 0.055708105081253657 0 -0.47636832900606041 0.073061933790077832 0 -0.45709786057011947 0.055708105081253657 0 -0.45544766770060358 0.07348919590478746 0 -0.47636832900606041 0.073061933790077832 0 -0.48351815486210709 0.053492846644399093 0 -0.47636832900606041 0.073061933790077832 0 -0.49140909277123612 0.074197219851226057 0 -0.47636832900606041 0.073061933790077832 0 -0.48274454235378189 0.091705374172880549 0 -0.47121921728662652 0.096397536200283296 0 -0.47636832900606041 0.073061933790077832 0 -0.47121921728662652 0.096397536200283296 0 -0.47636832900606041 0.073061933790077832 0 -0.49715897998801373 0.091784747772784503 0 -0.5 0.089727210191415163 0 -0.49715897998801373 0.091784747772784503 0 -0.49140909277123612 0.074197219851226057 0 -0.47636832900606041 0.073061933790077832 0 -0.48274454235378189 0.091705374172880549 0 -0.49715897998801373 0.091784747772784503 0 -0.47636832900606041 0.073061933790077832 0 -0.49715897998801373 0.091784747772784503 0 -0.49140909277123612 0.074197219851226057 0 -0.5 0.089727210191415163 0 -0.5 0.062919360857453976 0 -0.49140909277123612 0.074197219851226057 0 -0.48351815486210709 0.053492846644399093 0 -0.5 0.062919360857453976 0 -0.49140909277123612 0.074197219851226057 0 -0.46607010556719342 0.11973313861048911 0 -0.48623164313442779 0.1055772789283768 0 -0.48453668432005692 0.123143207324586 0 -0.46607010556719342 0.11973313861048911 0 -0.47121921728662652 0.096397536200283296 0 -0.48623164313442779 0.1055772789283768 0 -0.48274454235378189 0.091705374172880549 0 -0.47121921728662652 0.096397536200283296 0 -0.48623164313442779 0.1055772789283768 0 -0.5 0.089727210191415163 0 -0.49715897998801373 0.091784747772784503 0 -0.5 0.1165350595253765 0 -0.49715897998801373 0.091784747772784503 0 -0.48623164313442779 0.1055772789283768 0 -0.5 0.1165350595253765 0 -0.48274454235378189 0.091705374172880549 0 -0.49715897998801373 0.091784747772784503 0 -0.48623164313442779 0.1055772789283768 0 -0.48623164313442779 0.1055772789283768 0 -0.5 0.1165350595253765 0 -0.48453668432005692 0.123143207324586 0 -0.5 0.1165350595253765 0 -0.48453668432005692 0.123143207324586 0 -0.5 0.1433429088593379 0 -0.48453668432005692 0.123143207324586 0 -0.48049738108946538 0.1379484740379 0 -0.5 0.1433429088593379 0 -0.46607010556719342 0.11973313861048911 0 -0.48453668432005692 0.123143207324586 0 -0.48049738108946538 0.1379484740379 0 -0.46607010556719342 0.11973313861048911 0 -0.48049738108946538 0.1379484740379 0 -0.46092099384776192 0.14306874102069511 0 -0.48464943840857888 0.15775282940309851 0 -0.46990863904630059 0.1670362475492525 0 -0.46092099384776192 0.14306874102069511 0 -0.48464943840857888 0.15775282940309851 0 -0.46092099384776192 0.14306874102069511 0 -0.48049738108946538 0.1379484740379 0 -0.48464943840857888 0.15775282940309851 0 -0.46092099384776192 0.14306874102069511 0 -0.48049738108946538 0.1379484740379 0 -0.5 0.1433429088593379 0 -0.48464943840857888 0.15775282940309851 0 -0.48464943840857888 0.15775282940309851 0 -0.5 0.17015075819329931 0 -0.4898809761324775 0.17912292006808481 0 -0.5 0.1433429088593379 0 -0.48464943840857888 0.15775282940309851 0 -0.5 0.17015075819329931 0 -0.48464943840857888 0.15775282940309851 0 -0.4898809761324775 0.17912292006808481 0 -0.47865635922375932 0.17909963177513319 0 -0.5 0.17015075819329931 0 -0.4898809761324775 0.17912292006808481 0 -0.5 0.19695860752726069 0 -0.4898809761324775 0.17912292006808481 0 -0.47865635922375932 0.17909963177513319 0 -0.48609908303004917 0.1916527734416324 0 -0.47865635922375932 0.17909963177513319 0 -0.47279817792341111 0.1948006201282925 0 -0.47865635922375932 0.17909963177513319 0 -0.46589335310649882 0.18744802338852329 0 -0.47279817792341111 0.1948006201282925 0 -0.47865635922375932 0.17909963177513319 0 -0.46927870962167312 0.17493875400548389 0 -0.46990863904630059 0.1670362475492525 0 -0.47865635922375932 0.17909963177513319 0 -0.46927870962167312 0.17493875400548389 0 -0.46555461593459269 0.18128722400797501 0 -0.47865635922375932 0.17909963177513319 0 -0.46589335310649882 0.18744802338852329 0 -0.46555461593459269 0.18128722400797501 0 -0.48464943840857888 0.15775282940309851 0 -0.47865635922375932 0.17909963177513319 0 -0.46990863904630059 0.1670362475492525 0 -0.45742932361540911 0.15889287394486271 0 -0.45393765338305497 0.17471700686903011 0 -0.46990863904630059 0.1670362475492525 0 -0.45742932361540911 0.15889287394486271 0 -0.46092099384776192 0.14306874102069511 0 -0.45742932361540911 0.15889287394486271 0 -0.46299522428203971 0.17233191268957501 0 -0.45393765338305497 0.17471700686903011 0 -0.46927870962167312 0.17493875400548389 0 -0.46990863904630059 0.1670362475492525 0 -0.46299522428203971 0.17233191268957501 0 -0.46990863904630059 0.1670362475492525 0 -0.45742932361540911 0.15889287394486271 0 -0.46299522428203971 0.17233191268957501 0 -0.46589335310649882 0.18744802338852329 0 -0.46555461593459269 0.18128722400797501 0 -0.45393765338305497 0.17471700686903011 0 -0.46589335310649882 0.18744802338852329 0 -0.46555461593459269 0.18128722400797501 0 -0.46927870962167312 0.17493875400548389 0 -0.46555461593459269 0.18128722400797501 0 -0.46299522428203971 0.17233191268957501 0 -0.46555461593459269 0.18128722400797501 0 -0.46299522428203971 0.17233191268957501 0 -0.45393765338305497 0.17471700686903011 0 -0.46589335310649882 0.18744802338852329 0 -0.45393765338305497 0.17471700686903011 0 -0.45393765338305497 0.17471700686903011 0 -0.44047241453070329 0.18324079402305421 0 -0.44820564853932793 0.20069426145875721 0 -0.45393765338305497 0.17471700686903011 0 -0.44047241453070329 0.18324079402305421 0 -0.44174290600336708 0.16173144065936321 0 -0.45742932361540911 0.15889287394486271 0 -0.44174290600336708 0.16173144065936321 0 -0.44616928685712581 0.1494742970518641 0 -0.45742932361540911 0.15889287394486271 0 -0.45393765338305497 0.17471700686903011 0 -0.44174290600336708 0.16173144065936321 0 -0.45393765338305497 0.17471700686903011 0 -0.44174290600336708 0.16173144065936321 0 -0.44174290600336708 0.16173144065936321 0 -0.44616928685712581 0.1494742970518641 0 -0.43187713239064979 0.1573343508491826 0 -0.44616928685712581 0.1494742970518641 0 -0.43700896048386301 0.14249666109927989 0 -0.43187713239064979 0.1573343508491826 0 -0.44616928685712581 0.1494742970518641 0 -0.44680021131503311 0.13433024919887079 0 -0.46092099384776192 0.14306874102069511 0 -0.44616928685712581 0.1494742970518641 0 -0.44680021131503311 0.13433024919887079 0 -0.43700896048386301 0.14249666109927989 0 -0.45289828098281221 0.1241297055338681 0 -0.44680021131503311 0.13433024919887079 0 -0.43267942878230348 0.12559175737704789 0 -0.44680021131503311 0.13433024919887079 0 -0.43267942878230348 0.12559175737704789 0 -0.43700896048386301 0.14249666109927989 0 -0.44680021131503311 0.13433024919887079 0 -0.43267942878230348 0.12559175737704789 0 -0.45289828098281221 0.1241297055338681 0 -0.44680021131503311 0.13433024919887079 0 -0.46092099384776192 0.14306874102069511 0 -0.46607010556719342 0.11973313861048911 0 -0.46092099384776192 0.14306874102069511 0 -0.45289828098281221 0.1241297055338681 0 -0.46607010556719342 0.11973313861048911 0 -0.46092099384776192 0.14306874102069511 0 -0.44680021131503311 0.13433024919887079 0 -0.46092099384776192 0.14306874102069511 0 -0.45742932361540911 0.15889287394486271 0 -0.46092099384776192 0.14306874102069511 0 -0.45742932361540911 0.15889287394486271 0 -0.44616928685712581 0.1494742970518641 0 -0.46092099384776192 0.14306874102069511 0 -0.46853242371352971 0.23544625301742969 0 -0.46993231893463527 0.26090691788180947 0 -0.48177750529808522 0.24619974485466931 0 -0.46853242371352971 0.23544625301742969 0 -0.46993231893463527 0.26090691788180947 0 -0.48177750529808522 0.24619974485466931 0 -0.48375626182904402 0.22755154475287301 0 -0.46853242371352971 0.23544625301742969 0 -0.48177750529808522 0.24619974485466931 0 -0.5 0.2461359573144368 0 -0.48375626182904402 0.22755154475287301 0 -0.5 0.2461359573144368 0 -0.48375626182904402 0.22755154475287301 0 -0.49999999999999978 0.22376645686122221 0 -0.48375626182904402 0.22755154475287301 0 -0.48639908896170481 0.20928353849475789 0 -0.5 0.2461359573144368 0 -0.49999999999999978 0.22376645686122221 0 -0.48375626182904402 0.22755154475287301 0 -0.47173343442327142 0.22048762952866541 0 -0.46713252849242448 0.20998558815304991 0 -0.46853242371352971 0.23544625301742969 0 -0.48375626182904402 0.22755154475287301 0 -0.47173343442327142 0.22048762952866541 0 -0.4670472636537164 0.20843482960316059 0 -0.48375626182904402 0.22755154475287301 0 -0.47173343442327142 0.22048762952866541 0 -0.46853242371352971 0.23544625301742969 0 -0.48375626182904402 0.22755154475287301 0 -0.4670472636537164 0.20843482960316059 0 -0.48639908896170481 0.20928353849475789 0 -0.47279817792341111 0.1948006201282925 0 -0.4670472636537164 0.20843482960316059 0 -0.48375626182904402 0.22755154475287301 0 -0.48639908896170481 0.20928353849475789 0 -0.4670472636537164 0.20843482960316059 0 -0.49999999999999978 0.22376645686122221 0 -0.48639908896170481 0.20928353849475789 0 -0.5 0.19695860752726069 0 -0.49999999999999978 0.22376645686122221 0 -0.48639908896170481 0.20928353849475789 0 -0.48639908896170481 0.20928353849475789 0 -0.5 0.19695860752726069 0 -0.48609908303004917 0.1916527734416324 0 -0.4898809761324775 0.17912292006808481 0 -0.5 0.19695860752726069 0 -0.48609908303004917 0.1916527734416324 0 -0.48639908896170481 0.20928353849475789 0 -0.48609908303004917 0.1916527734416324 0 -0.47279817792341111 0.1948006201282925 0 -0.47865635922375932 0.17909963177513319 0 -0.48609908303004917 0.1916527734416324 0 -0.47279817792341111 0.1948006201282925 0 -0.48639908896170481 0.20928353849475789 0 -0.47279817792341111 0.1948006201282925 0 -0.47279817792341111 0.1948006201282925 0 -0.4670472636537164 0.20843482960316059 0 -0.46589335310649882 0.18744802338852329 0 -0.47279817792341111 0.1948006201282925 0 -0.46589335310649882 0.18744802338852329 0 -0.4603250720810298 0.20074399020462361 0 -0.4670472636537164 0.20843482960316059 0 -0.46589335310649882 0.18744802338852329 0 -0.45393765338305497 0.17471700686903011 0 -0.44820564853932793 0.20069426145875721 0 -0.46589335310649882 0.18744802338852329 0 -0.4603250720810298 0.20074399020462361 0 -0.44820564853932793 0.20069426145875721 0 -0.46589335310649882 0.18744802338852329 0 -0.47279817792341111 0.1948006201282925 0 -0.4670472636537164 0.20843482960316059 0 -0.46589335310649882 0.18744802338852329 0 -0.4670472636537164 0.20843482960316059 0 -0.45393765338305497 0.17471700686903011 0 -0.44820564853932793 0.20069426145875721 0 -0.44820564853932793 0.20069426145875721 0 -0.45427794118362658 0.21265328965042851 0 -0.44247364369559788 0.22667151604848371 0 -0.44820564853932793 0.20069426145875721 0 -0.44247364369559788 0.22667151604848371 0 -0.44820564853932793 0.20069426145875721 0 -0.44247364369559788 0.22667151604848371 0 -0.42336320141575168 0.21609666274764849 0 -0.45880341375183131 0.2186303689721085 0 -0.45427794118362658 0.21265328965042851 0 -0.46188137931700068 0.21002659871962689 0 -0.45880341375183131 0.2186303689721085 0 -0.45427794118362658 0.21265328965042851 0 -0.4536201791639074 0.2236252940046442 0 -0.4603250720810298 0.20074399020462361 0 -0.45427794118362658 0.21265328965042851 0 -0.46188137931700068 0.21002659871962689 0 -0.4603250720810298 0.20074399020462361 0 -0.44820564853932793 0.20069426145875721 0 -0.45427794118362658 0.21265328965042851 0 -0.4603250720810298 0.20074399020462361 0 -0.46188137931700068 0.21002659871962689 0 -0.4670472636537164 0.20843482960316059 0 -0.4603250720810298 0.20074399020462361 0 -0.4670472636537164 0.20843482960316059 0 -0.46188137931700068 0.21002659871962689 0 -0.4670472636537164 0.20843482960316059 0 -0.46713252849242448 0.20998558815304991 0 -0.4670472636537164 0.20843482960316059 0 -0.46713252849242448 0.20998558815304991 0 -0.47173343442327142 0.22048762952866541 0 -0.4670472636537164 0.20843482960316059 0 -0.46713252849242448 0.20998558815304991 0 -0.45880341375183131 0.2186303689721085 0 -0.46188137931700068 0.21002659871962689 0 -0.46713252849242448 0.20998558815304991 0 -0.46713252849242448 0.20998558815304991 0 -0.45710504060219709 0.23686107433279269 0 -0.46713252849242448 0.20998558815304991 0 -0.45710504060219709 0.23686107433279269 0 -0.46853242371352971 0.23544625301742969 0 -0.45880341375183131 0.2186303689721085 0 -0.46713252849242448 0.20998558815304991 0 -0.45710504060219709 0.23686107433279269 0 -0.45880341375183131 0.2186303689721085 0 -0.4536201791639074 0.2236252940046442 0 -0.45710504060219709 0.23686107433279269 0 -0.46713252849242448 0.20998558815304991 0 -0.46853242371352971 0.23544625301742969 0 -0.45427794118362658 0.21265328965042851 0 -0.4536201791639074 0.2236252940046442 0 -0.44247364369559788 0.22667151604848371 0 -0.4536201791639074 0.2236252940046442 0 -0.44247364369559788 0.22667151604848371 0 -0.45710504060219709 0.23686107433279269 0 -0.44247364369559788 0.22667151604848371 0 -0.4367416388518679 0.25264877063821017 0 -0.44247364369559788 0.22667151604848371 0 -0.45710504060219709 0.23686107433279269 0 -0.4367416388518679 0.25264877063821017 0 -0.45710504060219709 0.23686107433279269 0 -0.46853242371352971 0.23544625301742969 0 -0.46993231893463527 0.26090691788180947 0 -0.41931835140954682 0.23739665832436521 0 -0.40367044579520373 0.24132688110038639 0 -0.41175872593851298 0.2549478601346914 0 -0.41931835140954682 0.23739665832436521 0 -0.40790513800462019 0.22799805468035339 0 -0.40367044579520373 0.24132688110038639 0 -0.41931835140954682 0.23739665832436521 0 -0.4367416388518679 0.25264877063821017 0 -0.41175872593851298 0.2549478601346914 0 -0.44247364369559788 0.22667151604848371 0 -0.41931835140954682 0.23739665832436521 0 -0.4367416388518679 0.25264877063821017 0 -0.44247364369559788 0.22667151604848371 0 -0.41931835140954682 0.23739665832436521 0 -0.42336320141575168 0.21609666274764849 0 -0.41931835140954682 0.23739665832436521 0 -0.40790513800462019 0.22799805468035339 0 -0.42336320141575168 0.21609666274764849 0 -0.40790513800462019 0.22799805468035339 0 -0.42336320141575168 0.21609666274764849 0 -0.40538393777915788 0.2123952851453417 0 -0.42336320141575168 0.21609666274764849 0 -0.42071240458675369 0.1920614743917832 0 -0.40538393777915788 0.2123952851453417 0 -0.44820564853932793 0.20069426145875721 0 -0.42336320141575168 0.21609666274764849 0 -0.42071240458675369 0.1920614743917832 0 -0.44047241453070329 0.18324079402305421 0 -0.44820564853932793 0.20069426145875721 0 -0.42071240458675369 0.1920614743917832 0 -0.42071240458675369 0.1920614743917832 0 -0.40538393777915788 0.2123952851453417 0 -0.42071240458675369 0.1920614743917832 0 -0.4022878927449296 0.1970928012265635 0 -0.40298680868332198 0.18508216307238631 0 -0.42071240458675369 0.1920614743917832 0 -0.4022878927449296 0.1970928012265635 0 -0.40538393777915788 0.2123952851453417 0 -0.4022878927449296 0.1970928012265635 0 -0.39286614404695941 0.1920732104686422 0 -0.40298680868332198 0.18508216307238631 0 -0.4022878927449296 0.1970928012265635 0 -0.39286614404695941 0.1920732104686422 0 -0.39380007669083689 0.206464460861051 0 -0.38422654444444693 0.2008322729754812 0 -0.38088029112643113 0.1825210369279657 0 -0.38422654444444693 0.2008322729754812 0 -0.38088029112643113 0.1825210369279657 0 -0.36802074197771562 0.19700904511440151 0 -0.38422654444444693 0.2008322729754812 0 -0.37368745339656201 0.20924711939208951 0 -0.36802074197771562 0.19700904511440151 0 -0.39286614404695941 0.1920732104686422 0 -0.38422654444444693 0.2008322729754812 0 -0.38088029112643113 0.1825210369279657 0 -0.39286614404695941 0.1920732104686422 0 -0.38422654444444693 0.2008322729754812 0 -0.39380007669083689 0.206464460861051 0 -0.38422654444444693 0.2008322729754812 0 -0.38757279776246373 0.21914350902299659 0 -0.38757279776246373 0.21914350902299659 0 -0.36800338097472479 0.22147713987588341 0 -0.37368745339656201 0.20924711939208951 0 -0.38422654444444693 0.2008322729754812 0 -0.39380007669083689 0.206464460861051 0 -0.38757279776246373 0.21914350902299659 0 -0.38422654444444693 0.2008322729754812 0 -0.38757279776246373 0.21914350902299659 0 -0.37368745339656201 0.20924711939208951 0 -0.39141353052387118 0.2186855059784025 0 -0.39380007669083689 0.206464460861051 0 -0.38757279776246373 0.21914350902299659 0 -0.39141353052387118 0.2186855059784025 0 -0.39380007669083689 0.206464460861051 0 -0.40538393777915788 0.2123952851453417 0 -0.4022878927449296 0.1970928012265635 0 -0.39380007669083689 0.206464460861051 0 -0.40538393777915788 0.2123952851453417 0 -0.40790513800462019 0.22799805468035339 0 -0.39005547097156312 0.23272909589890109 0 -0.40367044579520373 0.24132688110038639 0 -0.39141353052387118 0.2186855059784025 0 -0.40538393777915788 0.2123952851453417 0 -0.39005547097156312 0.23272909589890109 0 -0.40790513800462019 0.22799805468035339 0 -0.40538393777915788 0.2123952851453417 0 -0.39005547097156312 0.23272909589890109 0 -0.40538393777915788 0.2123952851453417 0 -0.39005547097156312 0.23272909589890109 0 -0.38757279776246373 0.21914350902299659 0 -0.39005547097156312 0.23272909589890109 0 -0.38757279776246373 0.21914350902299659 0 -0.36800338097472479 0.22147713987588341 0 -0.39141353052387118 0.2186855059784025 0 -0.38757279776246373 0.21914350902299659 0 -0.39005547097156312 0.23272909589890109 0 -0.38757279776246373 0.21914350902299659 0 -0.37939186114838758 0.22424627805714001 0 -0.36800338097472479 0.22147713987588341 0 -0.38757279776246373 0.21914350902299659 0 -0.37939186114838758 0.22424627805714001 0 -0.39005547097156312 0.23272909589890109 0 -0.39141353052387118 0.2186855059784025 0 -0.38757279776246373 0.21914350902299659 0 -0.37939186114838758 0.22424627805714001 0 -0.37477717689163992 0.25299635056682518 0 -0.39005547097156312 0.23272909589890109 0 -0.39384597734802013 0.25347135609337229 0 -0.37477717689163992 0.25299635056682518 0 -0.37939186114838758 0.22424627805714001 0 -0.39005547097156312 0.23272909589890109 0 -0.37477717689163992 0.25299635056682518 0 -0.39005547097156312 0.23272909589890109 0 -0.37477717689163992 0.25299635056682518 0 -0.40367044579520373 0.24132688110038639 0 -0.41175872593851298 0.2549478601346914 0 -0.39384597734802013 0.25347135609337229 0 -0.39005547097156312 0.23272909589890109 0 -0.39384597734802013 0.25347135609337229 0 -0.39005547097156312 0.23272909589890109 0 -0.40367044579520373 0.24132688110038639 0 -0.39384597734802013 0.25347135609337229 0 -0.41485942150404181 0.14153864215909739 0 -0.41553858058260518 0.15317901213210369 0 -0.42574561826610652 0.14613969243370301 0 -0.41553858058260518 0.15317901213210369 0 -0.42574561826610652 0.14613969243370301 0 -0.42127399236650492 0.15770626544657529 0 -0.41485942150404181 0.14153864215909739 0 -0.41553858058260518 0.15317901213210369 0 -0.4044664398419977 0.15594807455379561 0 -0.40864304721671202 0.1107171055473533 0 -0.41485942150404181 0.14153864215909739 0 -0.43267942878230348 0.12559175737704789 0 -0.41485942150404181 0.14153864215909739 0 -0.43267942878230348 0.12559175737704789 0 -0.42574561826610652 0.14613969243370301 0 -0.43267942878230348 0.12559175737704789 0 -0.43700896048386301 0.14249666109927989 0 -0.42574561826610652 0.14613969243370301 0 -0.41485942150404181 0.14153864215909739 0 -0.43267942878230348 0.12559175737704789 0 -0.42574561826610652 0.14613969243370301 0 -0.43187713239064979 0.1573343508491826 0 -0.42127399236650492 0.15770626544657529 0 -0.43700896048386301 0.14249666109927989 0 -0.42574561826610652 0.14613969243370301 0 -0.43187713239064979 0.1573343508491826 0 -0.43187713239064979 0.1573343508491826 0 -0.42946357341586749 0.17496324995209989 0 -0.4216380035134229 0.16659483191912641 0 -0.44174290600336708 0.16173144065936321 0 -0.43187713239064979 0.1573343508491826 0 -0.42946357341586749 0.17496324995209989 0 -0.43187713239064979 0.1573343508491826 0 -0.42127399236650492 0.15770626544657529 0 -0.4216380035134229 0.16659483191912641 0 -0.44047241453070329 0.18324079402305421 0 -0.44174290600336708 0.16173144065936321 0 -0.42946357341586749 0.17496324995209989 0 -0.44047241453070329 0.18324079402305421 0 -0.42071240458675369 0.1920614743917832 0 -0.42946357341586749 0.17496324995209989 0 -0.42071240458675369 0.1920614743917832 0 -0.42946357341586749 0.17496324995209989 0 -0.41235879422937732 0.17543682721938669 0 -0.42071240458675369 0.1920614743917832 0 -0.41235879422937732 0.17543682721938669 0 -0.40298680868332198 0.18508216307238631 0 -0.42946357341586749 0.17496324995209989 0 -0.41235879422937732 0.17543682721938669 0 -0.4216380035134229 0.16659483191912641 0 -0.41553858058260518 0.15317901213210369 0 -0.42127399236650492 0.15770626544657529 0 -0.41302135350813218 0.1630654313638546 0 -0.42127399236650492 0.15770626544657529 0 -0.4216380035134229 0.16659483191912641 0 -0.41302135350813218 0.1630654313638546 0 -0.41235879422937732 0.17543682721938669 0 -0.4216380035134229 0.16659483191912641 0 -0.41302135350813218 0.1630654313638546 0 -0.41235879422937732 0.17543682721938669 0 -0.41302135350813218 0.1630654313638546 0 -0.40449990094882532 0.16792382984329149 0 -0.41302135350813218 0.1630654313638546 0 -0.40449990094882532 0.16792382984329149 0 -0.4044664398419977 0.15594807455379561 0 -0.41553858058260518 0.15317901213210369 0 -0.41302135350813218 0.1630654313638546 0 -0.4044664398419977 0.15594807455379561 0 -0.3926733654842145 0.1692345557408807 0 -0.4044664398419977 0.15594807455379561 0 -0.40449990094882532 0.16792382984329149 0 -0.3926733654842145 0.1692345557408807 0 -0.40078474618547688 0.17571320347163299 0 -0.40449990094882532 0.16792382984329149 0 -0.3926733654842145 0.1692345557408807 0 -0.4044664398419977 0.15594807455379561 0 -0.3926733654842145 0.1692345557408807 0 -0.39703941422577987 0.15748552694114659 0 -0.4044664398419977 0.15594807455379561 0 -0.40298680868332198 0.18508216307238631 0 -0.40078474618547688 0.17571320347163299 0 -0.39301525059178999 0.18044652774840561 0 -0.41235879422937732 0.17543682721938669 0 -0.40298680868332198 0.18508216307238631 0 -0.40078474618547688 0.17571320347163299 0 -0.41235879422937732 0.17543682721938669 0 -0.40449990094882532 0.16792382984329149 0 -0.40078474618547688 0.17571320347163299 0 -0.3926733654842145 0.1692345557408807 0 -0.40078474618547688 0.17571320347163299 0 -0.39301525059178999 0.18044652774840561 0 -0.39286614404695941 0.1920732104686422 0 -0.40298680868332198 0.18508216307238631 0 -0.39301525059178999 0.18044652774840561 0 -0.39286614404695941 0.1920732104686422 0 -0.39301525059178999 0.18044652774840561 0 -0.38088029112643113 0.1825210369279657 0 -0.3926733654842145 0.1692345557408807 0 -0.38088029112643113 0.1825210369279657 0 -0.3926733654842145 0.1692345557408807 0 -0.39301525059178999 0.18044652774840561 0 -0.38088029112643113 0.1825210369279657 0 -0.3926733654842145 0.1692345557408807 0 -0.37921940694751782 0.17343241172319571 0 -0.38088029112643113 0.1825210369279657 0 -0.37921940694751782 0.17343241172319571 0 -0.38088029112643113 0.1825210369279657 0 -0.37921940694751782 0.17343241172319571 0 -0.38088029112643113 0.1825210369279657 0 -0.37283571032282492 0.1791450959532255 0 -0.3784015845151173 0.16895715591276281 0 -0.37283571032282492 0.1791450959532255 0 -0.37921940694751782 0.17343241172319571 0 -0.3784015845151173 0.16895715591276281 0 -0.37283571032282492 0.1791450959532255 0 -0.37921940694751782 0.17343241172319571 0 -0.37283571032282492 0.1791450959532255 0 -0.39703941422577987 0.15748552694114659 0 -0.37921940694751782 0.17343241172319571 0 -0.38193020105096481 0.16249827228531991 0 -0.3784015845151173 0.16895715591276281 0 -0.38193020105096481 0.16249827228531991 0 -0.37372345991800282 0.14335770613522919 0 -0.39703941422577987 0.15748552694114659 0 -0.37921940694751782 0.17343241172319571 0 -0.3926733654842145 0.1692345557408807 0 -0.39703941422577987 0.15748552694114659 0 -0.37921940694751782 0.17343241172319571 0 -0.39703941422577987 0.15748552694114659 0 -0.38193020105096481 0.16249827228531991 0 -0.38598126975628672 0.1494316781992327 0 -0.37921940694751782 0.17343241172319571 0 -0.3784015845151173 0.16895715591276281 0 -0.38193020105096481 0.16249827228531991 0 -0.3784015845151173 0.16895715591276281 0 -0.38193020105096481 0.16249827228531991 0 -0.37921940694751782 0.17343241172319571 0 -0.3784015845151173 0.16895715591276281 0 -0.38598126975628672 0.1494316781992327 0 -0.39401402549175851 0.1361747599337243 0 -0.37372345991800282 0.14335770613522919 0 -0.38193020105096481 0.16249827228531991 0 -0.38598126975628672 0.1494316781992327 0 -0.37372345991800282 0.14335770613522919 0 -0.3784015845151173 0.16895715591276281 0 -0.37372345991800282 0.14335770613522919 0 -0.39703941422577987 0.15748552694114659 0 -0.38598126975628672 0.1494316781992327 0 -0.39401402549175851 0.1361747599337243 0 -0.41485942150404181 0.14153864215909739 0 -0.39703941422577987 0.15748552694114659 0 -0.39401402549175851 0.1361747599337243 0 -0.41485942150404181 0.14153864215909739 0 -0.39703941422577987 0.15748552694114659 0 -0.4044664398419977 0.15594807455379561 0 -0.41485942150404181 0.14153864215909739 0 -0.39703941422577987 0.15748552694114659 0 -0.40864304721671202 0.1107171055473533 0 -0.41485942150404181 0.14153864215909739 0 -0.39401402549175851 0.1361747599337243 0 -0.38750957741872682 0.11885909540365321 0 -0.37372345991800282 0.14335770613522919 0 -0.36904533532088801 0.1177582563576956 0 -0.38750957741872682 0.11885909540365321 0 -0.39401402549175851 0.1361747599337243 0 -0.37372345991800282 0.14335770613522919 0 -0.35823941519022368 0.13573745574644491 0 -0.37372345991800282 0.14335770613522919 0 -0.36904533532088801 0.1177582563576956 0 -0.37372345991800282 0.14335770613522919 0 -0.36904533532088801 0.1177582563576956 0 -0.35823941519022368 0.13573745574644491 0 -0.34455851703438989 0.13305210298766909 0 -0.35158166360451942 0.11704707172714621 0 -0.35823941519022368 0.13573745574644491 0 -0.34455851703438989 0.13305210298766909 0 -0.34873147585397152 0.15030858297792049 0 -0.35823941519022368 0.13573745574644491 0 -0.34873147585397152 0.15030858297792049 0 -0.36179603940957061 0.15290101429300901 0 -0.34873147585397152 0.15030858297792049 0 -0.34720568730415252 0.1616956217090188 0 -0.33647431770126862 0.14798842126345041 0 -0.34873147585397152 0.15030858297792049 0 -0.36179603940957061 0.15290101429300901 0 -0.35552330674067661 0.16014073544654131 0 -0.35823941519022368 0.13573745574644491 0 -0.36179603940957061 0.15290101429300901 0 -0.37372345991800282 0.14335770613522919 0 -0.3784015845151173 0.16895715591276281 0 -0.36179603940957061 0.15290101429300901 0 -0.37372345991800282 0.14335770613522919 0 -0.3784015845151173 0.16895715591276281 0 -0.36179603940957061 0.15290101429300901 0 -0.3628088848288224 0.16705289795690309 0 -0.3784015845151173 0.16895715591276281 0 -0.3628088848288224 0.16705289795690309 0 -0.36959790597703868 0.17377317275203899 0 -0.36179603940957061 0.15290101429300901 0 -0.3628088848288224 0.16705289795690309 0 -0.35552330674067661 0.16014073544654131 0 -0.38088029112643113 0.1825210369279657 0 -0.37283571032282492 0.1791450959532255 0 -0.36802074197771562 0.19700904511440151 0 -0.37283571032282492 0.1791450959532255 0 -0.36399845157591232 0.19532107462703119 0 -0.37283571032282492 0.1791450959532255 0 -0.36261880381503758 0.18828806813974089 0 -0.3784015845151173 0.16895715591276281 0 -0.36959790597703868 0.17377317275203899 0 -0.37283571032282492 0.1791450959532255 0 -0.36959790597703868 0.17377317275203899 0 -0.37283571032282492 0.1791450959532255 0 -0.36409588864576692 0.17933358541092431 0 -0.3628088848288224 0.16705289795690309 0 -0.36959790597703868 0.17377317275203899 0 -0.36409588864576692 0.17933358541092431 0 -0.3628088848288224 0.16705289795690309 0 -0.36409588864576692 0.17933358541092431 0 -0.35614161380151321 0.17761165346375071 0 -0.36409588864576692 0.17933358541092431 0 -0.35797279878738592 0.18411861580098379 0 -0.35614161380151321 0.17761165346375071 0 -0.36409588864576692 0.17933358541092431 0 -0.35797279878738592 0.18411861580098379 0 -0.36261880381503758 0.18828806813974089 0 -0.37283571032282492 0.1791450959532255 0 -0.36409588864576692 0.17933358541092431 0 -0.36261880381503758 0.18828806813974089 0 -0.35797279878738592 0.18411861580098379 0 -0.35614161380151321 0.17761165346375071 0 -0.35065229879255438 0.18593262723135329 0 -0.35797279878738592 0.18411861580098379 0 -0.35065229879255438 0.18593262723135329 0 -0.35645772166264922 0.19211102842263869 0 -0.35614161380151321 0.17761165346375071 0 -0.34811061985946878 0.17434540014992381 0 -0.35436851446084039 0.1683048517912053 0 -0.35614161380151321 0.17761165346375071 0 -0.34811061985946878 0.17434540014992381 0 -0.35065229879255438 0.18593262723135329 0 -0.35065229879255438 0.18593262723135329 0 -0.34227569468909552 0.1811403169530669 0 -0.33993633525554889 0.19055096072852831 0 -0.34811061985946878 0.17434540014992381 0 -0.35065229879255438 0.18593262723135329 0 -0.34227569468909552 0.1811403169530669 0 -0.35552330674067661 0.16014073544654131 0 -0.35436851446084039 0.1683048517912053 0 -0.34720568730415252 0.1616956217090188 0 -0.3628088848288224 0.16705289795690309 0 -0.35614161380151321 0.17761165346375071 0 -0.35436851446084039 0.1683048517912053 0 -0.3628088848288224 0.16705289795690309 0 -0.35552330674067661 0.16014073544654131 0 -0.35436851446084039 0.1683048517912053 0 -0.34811061985946878 0.17434540014992381 0 -0.34720568730415252 0.1616956217090188 0 -0.33801991010865667 0.17138732975114751 0 -0.34811061985946878 0.17434540014992381 0 -0.35436851446084039 0.1683048517912053 0 -0.34720568730415252 0.1616956217090188 0 -0.34873147585397152 0.15030858297792049 0 -0.35552330674067661 0.16014073544654131 0 -0.34720568730415252 0.1616956217090188 0 -0.34720568730415252 0.1616956217090188 0 -0.33801991010865667 0.17138732975114751 0 -0.33092539158612982 0.1609515407851054 0 -0.34720568730415252 0.1616956217090188 0 -0.33092539158612982 0.1609515407851054 0 -0.33647431770126862 0.14798842126345041 0 -0.33801991010865667 0.17138732975114751 0 -0.33092539158612982 0.1609515407851054 0 -0.3265778886375873 0.17202186172735501 0 -0.34227569468909552 0.1811403169530669 0 -0.33183788287013261 0.1831818366374682 0 -0.33993633525554889 0.19055096072852831 0 -0.34811061985946878 0.17434540014992381 0 -0.33801991010865667 0.17138732975114751 0 -0.34227569468909552 0.1811403169530669 0 -0.33801991010865667 0.17138732975114751 0 -0.34227569468909552 0.1811403169530669 0 -0.33183788287013261 0.1831818366374682 0 -0.33801991010865667 0.17138732975114751 0 -0.33183788287013261 0.1831818366374682 0 -0.3265778886375873 0.17202186172735501 0 -0.3265778886375873 0.17202186172735501 0 -0.31632076704925127 0.18575639557221951 0 -0.3167678101826048 0.16359462978275929 0 -0.33183788287013261 0.1831818366374682 0 -0.3265778886375873 0.17202186172735501 0 -0.31632076704925127 0.18575639557221951 0 -0.33092539158612982 0.1609515407851054 0 -0.3167678101826048 0.16359462978275929 0 -0.32050673558250908 0.1490213804769015 0 -0.33092539158612982 0.1609515407851054 0 -0.3265778886375873 0.17202186172735501 0 -0.3167678101826048 0.16359462978275929 0 -0.32050673558250908 0.1490213804769015 0 -0.30739524272803709 0.15185112365938391 0 -0.31211500736378339 0.1240031522641292 0 -0.3167678101826048 0.16359462978275929 0 -0.32050673558250908 0.1490213804769015 0 -0.30739524272803709 0.15185112365938391 0 -0.32050673558250908 0.1490213804769015 0 -0.30739524272803709 0.15185112365938391 0 -0.32919359534549508 0.13424827028365749 0 -0.31211500736378339 0.1240031522641292 0 -0.33231339904552459 0.1171762944261375 0 -0.32050673558250908 0.1490213804769015 0 -0.32919359534549508 0.13424827028365749 0 -0.31211500736378339 0.1240031522641292 0 -0.34455851703438989 0.13305210298766909 0 -0.32919359534549508 0.13424827028365749 0 -0.33231339904552459 0.1171762944261375 0 -0.34455851703438989 0.13305210298766909 0 -0.32919359534549508 0.13424827028365749 0 -0.33647431770126862 0.14798842126345041 0 -0.32050673558250908 0.1490213804769015 0 -0.32919359534549508 0.13424827028365749 0 -0.33647431770126862 0.14798842126345041 0 -0.33092539158612982 0.1609515407851054 0 -0.32050673558250908 0.1490213804769015 0 -0.33647431770126862 0.14798842126345041 0 -0.34455851703438989 0.13305210298766909 0 -0.34873147585397152 0.15030858297792049 0 -0.33647431770126862 0.14798842126345041 0 -0.35416421148584648 0.23888623464626721 0 -0.34843396418698602 0.22381077072877051 0 -0.33845336435013867 0.242079554605789 0 -0.35416421148584648 0.23888623464626721 0 -0.33845336435013867 0.242079554605789 0 -0.35464358931248319 0.25491115920099722 0 -0.37939186114838758 0.22424627805714001 0 -0.37013679196984273 0.23750613219799629 0 -0.37477717689163992 0.25299635056682518 0 -0.37013679196984273 0.23750613219799629 0 -0.35464358931248319 0.25491115920099722 0 -0.37477717689163992 0.25299635056682518 0 -0.35416421148584648 0.23888623464626721 0 -0.37013679196984273 0.23750613219799629 0 -0.35464358931248319 0.25491115920099722 0 -0.35416421148584648 0.23888623464626721 0 -0.37013679196984273 0.23750613219799629 0 -0.36148561266771267 0.2305011068434443 0 -0.36148561266771267 0.2305011068434443 0 -0.36975441169016687 0.228432664243616 0 -0.36800338097472479 0.22147713987588341 0 -0.37013679196984273 0.23750613219799629 0 -0.36148561266771267 0.2305011068434443 0 -0.36975441169016687 0.228432664243616 0 -0.37939186114838758 0.22424627805714001 0 -0.37013679196984273 0.23750613219799629 0 -0.36975441169016687 0.228432664243616 0 -0.37939186114838758 0.22424627805714001 0 -0.36975441169016687 0.228432664243616 0 -0.36800338097472479 0.22147713987588341 0 -0.36800338097472479 0.22147713987588341 0 -0.34843396418698602 0.22381077072877051 0 -0.35516119282899983 0.21149705330083701 0 -0.36148561266771267 0.2305011068434443 0 -0.36800338097472479 0.22147713987588341 0 -0.34843396418698602 0.22381077072877051 0 -0.36800338097472479 0.22147713987588341 0 -0.34843396418698602 0.22381077072877051 0 -0.35416421148584648 0.23888623464626721 0 -0.36148561266771267 0.2305011068434443 0 -0.34843396418698602 0.22381077072877051 0 -0.34843396418698602 0.22381077072877051 0 -0.34802604401402371 0.21953575615482759 0 -0.33982416592956399 0.21665757569738961 0 -0.34802604401402371 0.21953575615482759 0 -0.34581283434165899 0.20861347152532789 0 -0.33982416592956399 0.21665757569738961 0 -0.34802604401402371 0.21953575615482759 0 -0.34581283434165899 0.20861347152532789 0 -0.35516119282899983 0.21149705330083701 0 -0.34843396418698602 0.22381077072877051 0 -0.34802604401402371 0.21953575615482759 0 -0.35516119282899983 0.21149705330083701 0 -0.34581283434165899 0.20861347152532789 0 -0.35516119282899983 0.21149705330083701 0 -0.35389383475621161 0.20092716755479181 0 -0.34802604401402371 0.21953575615482759 0 -0.35516119282899983 0.21149705330083701 0 -0.34843396418698602 0.22381077072877051 0 -0.35516119282899983 0.21149705330083701 0 -0.36800338097472479 0.22147713987588341 0 -0.35516119282899983 0.21149705330083701 0 -0.37368745339656201 0.20924711939208951 0 -0.35516119282899983 0.21149705330083701 0 -0.37368745339656201 0.20924711939208951 0 -0.36802074197771562 0.19700904511440151 0 -0.35516119282899983 0.21149705330083701 0 -0.36399845157591232 0.19532107462703119 0 -0.35516119282899983 0.21149705330083701 0 -0.36802074197771562 0.19700904511440151 0 -0.37283571032282492 0.1791450959532255 0 -0.36399845157591232 0.19532107462703119 0 -0.36261880381503758 0.18828806813974089 0 -0.37283571032282492 0.1791450959532255 0 -0.36399845157591232 0.19532107462703119 0 -0.36802074197771562 0.19700904511440151 0 -0.35516119282899983 0.21149705330083701 0 -0.36399845157591232 0.19532107462703119 0 -0.36802074197771562 0.19700904511440151 0 -0.38088029112643113 0.1825210369279657 0 -0.36802074197771562 0.19700904511440151 0 -0.36399845157591232 0.19532107462703119 0 -0.36261880381503758 0.18828806813974089 0 -0.35645772166264922 0.19211102842263869 0 -0.35797279878738592 0.18411861580098379 0 -0.36261880381503758 0.18828806813974089 0 -0.35645772166264922 0.19211102842263869 0 -0.35065229879255438 0.18593262723135329 0 -0.35645772166264922 0.19211102842263869 0 -0.34803897337183792 0.19709320989812409 0 -0.35516119282899983 0.21149705330083701 0 -0.36399845157591232 0.19532107462703119 0 -0.35389383475621161 0.20092716755479181 0 -0.35645772166264922 0.19211102842263869 0 -0.35389383475621161 0.20092716755479181 0 -0.34803897337183792 0.19709320989812409 0 -0.36399845157591232 0.19532107462703119 0 -0.35645772166264922 0.19211102842263869 0 -0.35389383475621161 0.20092716755479181 0 -0.34581283434165899 0.20861347152532789 0 -0.35389383475621161 0.20092716755479181 0 -0.34803897337183792 0.19709320989812409 0 -0.34581283434165899 0.20861347152532789 0 -0.34803897337183792 0.19709320989812409 0 -0.33933674095816863 0.19971543786353729 0 -0.35065229879255438 0.18593262723135329 0 -0.34803897337183792 0.19709320989812409 0 -0.33993633525554889 0.19055096072852831 0 -0.33993633525554889 0.19055096072852831 0 -0.33933674095816863 0.19971543786353729 0 -0.33069942903629101 0.19625725860753851 0 -0.34803897337183792 0.19709320989812409 0 -0.33993633525554889 0.19055096072852831 0 -0.33933674095816863 0.19971543786353729 0 -0.33933674095816863 0.19971543786353729 0 -0.33069942903629101 0.19625725860753851 0 -0.33422481296465362 0.2080963853910347 0 -0.33183788287013261 0.1831818366374682 0 -0.33993633525554889 0.19055096072852831 0 -0.33069942903629101 0.19625725860753851 0 -0.31632076704925127 0.18575639557221951 0 -0.33069942903629101 0.19625725860753851 0 -0.32036655352850157 0.2095523693350691 0 -0.33183788287013261 0.1831818366374682 0 -0.31632076704925127 0.18575639557221951 0 -0.33069942903629101 0.19625725860753851 0 -0.32036655352850157 0.2095523693350691 0 -0.32458589997660492 0.2266546254550818 0 -0.30779163400160159 0.21927945841494459 0 -0.32036655352850157 0.2095523693350691 0 -0.32934906837639222 0.21536895119528529 0 -0.32458589997660492 0.2266546254550818 0 -0.32036655352850157 0.2095523693350691 0 -0.32934906837639222 0.21536895119528529 0 -0.33422481296465362 0.2080963853910347 0 -0.32934906837639222 0.21536895119528529 0 -0.33422481296465362 0.2080963853910347 0 -0.33982416592956399 0.21665757569738961 0 -0.33069942903629101 0.19625725860753851 0 -0.32036655352850157 0.2095523693350691 0 -0.33422481296465362 0.2080963853910347 0 -0.34581283434165899 0.20861347152532789 0 -0.33933674095816863 0.19971543786353729 0 -0.33422481296465362 0.2080963853910347 0 -0.34581283434165899 0.20861347152532789 0 -0.33422481296465362 0.2080963853910347 0 -0.33982416592956399 0.21665757569738961 0 -0.34843396418698602 0.22381077072877051 0 -0.33982416592956399 0.21665757569738961 0 -0.32458589997660492 0.2266546254550818 0 -0.34843396418698602 0.22381077072877051 0 -0.32458589997660492 0.2266546254550818 0 -0.34843396418698602 0.22381077072877051 0 -0.32458589997660492 0.2266546254550818 0 -0.33845336435013867 0.242079554605789 0 -0.34843396418698602 0.22381077072877051 0 -0.33845336435013867 0.242079554605789 0 -0.32934906837639222 0.21536895119528529 0 -0.33982416592956399 0.21665757569738961 0 -0.32458589997660492 0.2266546254550818 0 -0.32458589997660492 0.2266546254550818 0 -0.30073783576622393 0.22949848018139329 0 -0.32458589997660492 0.2266546254550818 0 -0.32455092720978362 0.24357057421839101 0 -0.31122576982003303 0.23714335435801151 0 -0.32455092720978362 0.24357057421839101 0 -0.311575650220281 0.24878047680599949 0 -0.31122576982003303 0.23714335435801151 0 -0.32458589997660492 0.2266546254550818 0 -0.32455092720978362 0.24357057421839101 0 -0.33845336435013867 0.242079554605789 0 -0.32455092720978362 0.24357057421839101 0 -0.33845336435013867 0.242079554605789 0 -0.32847276451329022 0.26034833848280681 0 -0.29310990672191722 0.23613872254877591 0 -0.29467853592727078 0.23721261512919359 0 -0.28985028671148488 0.25537141990030859 0 -0.29310990672191722 0.23613872254877591 0 -0.27131573767068418 0.22826101281380451 0 -0.28058301219108422 0.24181621635705669 0 -0.29310990672191722 0.23613872254877591 0 -0.28985028671148488 0.25537141990030859 0 -0.29310990672191722 0.23613872254877591 0 -0.28058301219108422 0.24181621635705669 0 -0.28985028671148488 0.25537141990030859 0 -0.28058301219108422 0.24181621635705669 0 -0.28985028671148488 0.25537141990030859 0 -0.29310990672191722 0.23613872254877591 0 -0.29467853592727078 0.23721261512919359 0 -0.29467853592727078 0.23721261512919359 0 -0.31122576982003303 0.23714335435801151 0 -0.30073783576622393 0.22949848018139329 0 -0.29467853592727078 0.23721261512919359 0 -0.311575650220281 0.24878047680599949 0 -0.31122576982003303 0.23714335435801151 0 -0.29467853592727078 0.23721261512919359 0 -0.311575650220281 0.24878047680599949 0 -0.29467853592727078 0.23721261512919359 0 -0.311575650220281 0.24878047680599949 0 -0.29523766041035199 0.26325150879709891 0 -0.32458589997660492 0.2266546254550818 0 -0.30073783576622393 0.22949848018139329 0 -0.30779163400160159 0.21927945841494459 0 -0.32458589997660492 0.2266546254550818 0 -0.31122576982003303 0.23714335435801151 0 -0.30073783576622393 0.22949848018139329 0 -0.30073783576622393 0.22949848018139329 0 -0.30779163400160159 0.21927945841494459 0 -0.29448167989639912 0.22804486553003031 0 -0.29310990672191722 0.23613872254877591 0 -0.29448167989639912 0.22804486553003031 0 -0.27369133376421262 0.22284465576077489 0 -0.29448167989639912 0.22804486553003031 0 -0.2838712618875629 0.21479465795795599 0 -0.27369133376421262 0.22284465576077489 0 -0.29448167989639912 0.22804486553003031 0 -0.29413635243235581 0.21196267741475219 0 -0.29310990672191722 0.23613872254877591 0 -0.27369133376421262 0.22284465576077489 0 -0.29467853592727078 0.23721261512919359 0 -0.30073783576622393 0.22949848018139329 0 -0.29448167989639912 0.22804486553003031 0 -0.29310990672191722 0.23613872254877591 0 -0.29467853592727078 0.23721261512919359 0 -0.29448167989639912 0.22804486553003031 0 -0.29467853592727078 0.23721261512919359 0 -0.29448167989639912 0.22804486553003031 0 -0.29310990672191722 0.23613872254877591 0 -0.29448167989639912 0.22804486553003031 0 -0.29413635243235581 0.21196267741475219 0 -0.29878620084027852 0.20264695157314819 0 -0.29379102496831272 0.19588048929947419 0 -0.29448167989639912 0.22804486553003031 0 -0.29413635243235581 0.21196267741475219 0 -0.29878620084027852 0.20264695157314819 0 -0.29448167989639912 0.22804486553003031 0 -0.29878620084027852 0.20264695157314819 0 -0.29413635243235581 0.21196267741475219 0 -0.29379102496831272 0.19588048929947419 0 -0.28522308967114912 0.20452327137286261 0 -0.29413635243235581 0.21196267741475219 0 -0.29379102496831272 0.19588048929947419 0 -0.29448167989639912 0.22804486553003031 0 -0.2838712618875629 0.21479465795795599 0 -0.29413635243235581 0.21196267741475219 0 -0.2838712618875629 0.21479465795795599 0 -0.28522308967114912 0.20452327137286261 0 -0.29413635243235581 0.21196267741475219 0 -0.32036655352850157 0.2095523693350691 0 -0.30779163400160159 0.21927945841494459 0 -0.29878620084027852 0.20264695157314819 0 -0.30779163400160159 0.21927945841494459 0 -0.29448167989639912 0.22804486553003031 0 -0.29878620084027852 0.20264695157314819 0 -0.29878620084027852 0.20264695157314819 0 -0.29379102496831272 0.19588048929947419 0 -0.30309072178415769 0.17724903761626601 0 -0.31632076704925127 0.18575639557221951 0 -0.29878620084027852 0.20264695157314819 0 -0.30309072178415769 0.17724903761626601 0 -0.31632076704925127 0.18575639557221951 0 -0.32036655352850157 0.2095523693350691 0 -0.29878620084027852 0.20264695157314819 0 -0.29878620084027852 0.20264695157314819 0 -0.30309072178415769 0.17724903761626601 0 -0.28522308967114912 0.20452327137286261 0 -0.29379102496831272 0.19588048929947419 0 -0.28124953787461371 0.1935735916895788 0 -0.29379102496831272 0.19588048929947419 0 -0.28124953787461371 0.1935735916895788 0 -0.28752446549241689 0.1832489647230989 0 -0.28124953787461371 0.1935735916895788 0 -0.2659766044530758 0.19238405035351089 0 -0.27494974420821611 0.1793112011395637 0 -0.28522308967114912 0.20452327137286261 0 -0.28124953787461371 0.1935735916895788 0 -0.27431068871210279 0.20621206129374381 0 -0.28124953787461371 0.1935735916895788 0 -0.2659766044530758 0.19238405035351089 0 -0.27431068871210279 0.20621206129374381 0 -0.25427276080650663 0.20955058897277601 0 -0.24947341468037071 0.1874691479585941 0 -0.2659766044530758 0.19238405035351089 0 -0.25427276080650663 0.20955058897277601 0 -0.24947341468037071 0.1874691479585941 0 -0.2659766044530758 0.19238405035351089 0 -0.25427276080650663 0.20955058897277601 0 -0.27431068871210279 0.20621206129374381 0 -0.25427276080650663 0.20955058897277601 0 -0.27369133376421262 0.22284465576077489 0 -0.25427276080650663 0.20955058897277601 0 -0.25977281016601761 0.2185578892770178 0 -0.27369133376421262 0.22284465576077489 0 -0.25427276080650663 0.20955058897277601 0 -0.25561524088587501 0.21572724177218369 0 -0.25977281016601761 0.2185578892770178 0 -0.25427276080650663 0.20955058897277601 0 -0.25561524088587501 0.21572724177218369 0 -0.24333230173327219 0.21221501244476959 0 -0.25427276080650663 0.20955058897277601 0 -0.25561524088587501 0.21572724177218369 0 -0.25427276080650663 0.20955058897277601 0 -0.27431068871210279 0.20621206129374381 0 -0.27369133376421262 0.22284465576077489 0 -0.2838712618875629 0.21479465795795599 0 -0.27431068871210279 0.20621206129374381 0 -0.27369133376421262 0.22284465576077489 0 -0.2838712618875629 0.21479465795795599 0 -0.28522308967114912 0.20452327137286261 0 -0.27431068871210279 0.20621206129374381 0 -0.29310990672191722 0.23613872254877591 0 -0.27369133376421262 0.22284465576077489 0 -0.27131573767068418 0.22826101281380451 0 -0.27131573767068418 0.22826101281380451 0 -0.26439065681250729 0.2289784260688752 0 -0.26819560602517328 0.23507842756581021 0 -0.27131573767068418 0.22826101281380451 0 -0.26675876456119929 0.22568570462696191 0 -0.26439065681250729 0.2289784260688752 0 -0.27369133376421262 0.22284465576077489 0 -0.26675876456119929 0.22568570462696191 0 -0.26371349664181459 0.22286429712754721 0 -0.25977281016601761 0.2185578892770178 0 -0.27369133376421262 0.22284465576077489 0 -0.26371349664181459 0.22286429712754721 0 -0.27369133376421262 0.22284465576077489 0 -0.27131573767068418 0.22826101281380451 0 -0.26675876456119929 0.22568570462696191 0 -0.26675876456119929 0.22568570462696191 0 -0.26371349664181459 0.22286429712754721 0 -0.26068259791677789 0.22548013136380779 0 -0.26068259791677789 0.22548013136380779 0 -0.25678634991227811 0.22260498734460241 0 -0.2574101570832959 0.22971939663687391 0 -0.26371349664181459 0.22286429712754721 0 -0.26068259791677789 0.22548013136380779 0 -0.25678634991227811 0.22260498734460241 0 -0.25977281016601761 0.2185578892770178 0 -0.26371349664181459 0.22286429712754721 0 -0.25678634991227811 0.22260498734460241 0 -0.25561524088587501 0.21572724177218369 0 -0.25977281016601761 0.2185578892770178 0 -0.25678634991227811 0.22260498734460241 0 -0.25678634991227811 0.22260498734460241 0 -0.249817319625419 0.2274340479663062 0 -0.24904636230289101 0.22050689045355901 0 -0.25561524088587501 0.21572724177218369 0 -0.25678634991227811 0.22260498734460241 0 -0.24904636230289101 0.22050689045355901 0 -0.25109603964961891 0.234366577265785 0 -0.2574101570832959 0.22971939663687391 0 -0.249817319625419 0.2274340479663062 0 -0.25678634991227811 0.22260498734460241 0 -0.2574101570832959 0.22971939663687391 0 -0.249817319625419 0.2274340479663062 0 -0.2574101570832959 0.22971939663687391 0 -0.26439065681250729 0.2289784260688752 0 -0.26193406046231932 0.2344272911270443 0 -0.26068259791677789 0.22548013136380779 0 -0.2574101570832959 0.22971939663687391 0 -0.26439065681250729 0.2289784260688752 0 -0.26675876456119929 0.22568570462696191 0 -0.26068259791677789 0.22548013136380779 0 -0.26439065681250729 0.2289784260688752 0 -0.26439065681250729 0.2289784260688752 0 -0.26193406046231932 0.2344272911270443 0 -0.26819560602517328 0.23507842756581021 0 -0.26193406046231932 0.2344272911270443 0 -0.26614348890836192 0.24293385421211869 0 -0.26819560602517328 0.23507842756581021 0 -0.2574101570832959 0.22971939663687391 0 -0.26193406046231932 0.2344272911270443 0 -0.25699538715464082 0.23905233796863981 0 -0.26193406046231932 0.2344272911270443 0 -0.25699538715464082 0.23905233796863981 0 -0.26614348890836192 0.24293385421211869 0 -0.25109603964961891 0.234366577265785 0 -0.25699538715464082 0.23905233796863981 0 -0.2470081454867771 0.2422065880623451 0 -0.25109603964961891 0.234366577265785 0 -0.2574101570832959 0.22971939663687391 0 -0.25699538715464082 0.23905233796863981 0 -0.25699538715464082 0.23905233796863981 0 -0.25693865295534157 0.25278860643768353 0 -0.2470081454867771 0.2422065880623451 0 -0.25699538715464082 0.23905233796863981 0 -0.26614348890836192 0.24293385421211869 0 -0.25693865295534157 0.25278860643768353 0 -0.26614348890836192 0.24293385421211869 0 -0.2724296921133022 0.25217156250687062 0 -0.25693865295534157 0.25278860643768353 0 -0.26614348890836192 0.24293385421211869 0 -0.28058301219108422 0.24181621635705669 0 -0.2724296921133022 0.25217156250687062 0 -0.28058301219108422 0.24181621635705669 0 -0.28985028671148488 0.25537141990030859 0 -0.2724296921133022 0.25217156250687062 0 -0.26614348890836192 0.24293385421211869 0 -0.26819560602517328 0.23507842756581021 0 -0.28058301219108422 0.24181621635705669 0 -0.27131573767068418 0.22826101281380451 0 -0.26819560602517328 0.23507842756581021 0 -0.28058301219108422 0.24181621635705669 0 -0.27131573767068418 0.22826101281380451 0 -0.28058301219108422 0.24181621635705669 0 -0.29326612220823411 0.13512644163735801 0 -0.28648818467010168 0.15636331808772699 0 -0.27141175194646833 0.1445184244171912 0 -0.29326612220823411 0.13512644163735801 0 -0.30739524272803709 0.15185112365938391 0 -0.28648818467010168 0.15636331808772699 0 -0.30739524272803709 0.15185112365938391 0 -0.31211500736378339 0.1240031522641292 0 -0.29326612220823411 0.13512644163735801 0 -0.30739524272803709 0.15185112365938391 0 -0.31211500736378339 0.1240031522641292 0 -0.30739524272803709 0.15185112365938391 0 -0.28648818467010168 0.15636331808772699 0 -0.30739524272803709 0.15185112365938391 0 -0.30309072178415769 0.17724903761626601 0 -0.3167678101826048 0.16359462978275929 0 -0.30739524272803709 0.15185112365938391 0 -0.30309072178415769 0.17724903761626601 0 -0.30739524272803709 0.15185112365938391 0 -0.30309072178415769 0.17724903761626601 0 -0.28648818467010168 0.15636331808772699 0 -0.31632076704925127 0.18575639557221951 0 -0.3167678101826048 0.16359462978275929 0 -0.30309072178415769 0.17724903761626601 0 -0.30309072178415769 0.17724903761626601 0 -0.28752446549241689 0.1832489647230989 0 -0.28381669143151822 0.17107272026056419 0 -0.29379102496831272 0.19588048929947419 0 -0.30309072178415769 0.17724903761626601 0 -0.28752446549241689 0.1832489647230989 0 -0.28752446549241689 0.1832489647230989 0 -0.28381669143151822 0.17107272026056419 0 -0.27494974420821611 0.1793112011395637 0 -0.30309072178415769 0.17724903761626601 0 -0.28648818467010168 0.15636331808772699 0 -0.28381669143151822 0.17107272026056419 0 -0.28648818467010168 0.15636331808772699 0 -0.28381669143151822 0.17107272026056419 0 -0.26558112661216632 0.16087551251606999 0 -0.28381669143151822 0.17107272026056419 0 -0.27494974420821611 0.1793112011395637 0 -0.26558112661216632 0.16087551251606999 0 -0.28648818467010168 0.15636331808772699 0 -0.26558112661216632 0.16087551251606999 0 -0.27494974420821611 0.1793112011395637 0 -0.26084394980388648 0.17618123618614701 0 -0.26558112661216632 0.16087551251606999 0 -0.2659766044530758 0.19238405035351089 0 -0.27494974420821611 0.1793112011395637 0 -0.26084394980388648 0.17618123618614701 0 -0.28124953787461371 0.1935735916895788 0 -0.28752446549241689 0.1832489647230989 0 -0.27494974420821611 0.1793112011395637 0 -0.2659766044530758 0.19238405035351089 0 -0.26084394980388648 0.17618123618614701 0 -0.24947341468037071 0.1874691479585941 0 -0.26084394980388648 0.17618123618614701 0 -0.24467406855423091 0.1653877069444131 0 -0.24947341468037071 0.1874691479585941 0 -0.26558112661216632 0.16087551251606999 0 -0.24467406855423091 0.1653877069444131 0 -0.26558112661216632 0.16087551251606999 0 -0.2543915534089356 0.15018751405662761 0 -0.24467406855423091 0.1653877069444131 0 -0.26084394980388648 0.17618123618614701 0 -0.26558112661216632 0.16087551251606999 0 -0.24467406855423091 0.1653877069444131 0 -0.26558112661216632 0.16087551251606999 0 -0.2543915534089356 0.15018751405662761 0 -0.27141175194646833 0.1445184244171912 0 -0.2543915534089356 0.15018751405662761 0 -0.27141175194646833 0.1445184244171912 0 -0.25477231595188199 0.13792181725732239 0 -0.28648818467010168 0.15636331808772699 0 -0.26558112661216632 0.16087551251606999 0 -0.27141175194646833 0.1445184244171912 0 -0.29326612220823411 0.13512644163735801 0 -0.27141175194646833 0.1445184244171912 0 -0.27545980130109921 0.1239996051278405 0 -0.27141175194646833 0.1445184244171912 0 -0.25477231595188199 0.13792181725732239 0 -0.27545980130109921 0.1239996051278405 0 -0.25477231595188199 0.13792181725732239 0 -0.27545980130109921 0.1239996051278405 0 -0.25477231595188199 0.13792181725732239 0 -0.27545980130109921 0.1239996051278405 0 -0.2495823492922267 0.12121763785839371 0 -0.25610310449345419 0.1041046972302731 0 -0.27545980130109921 0.1239996051278405 0 -0.2495823492922267 0.12121763785839371 0 -0.25610310449345419 0.1041046972302731 0 -0.25413031243694739 0.089521027236778197 0 -0.2427234934652894 0.090762762990284518 0 -0.25610310449345419 0.1041046972302731 0 -0.26471001572300679 0.091779207982481292 0 -0.25413031243694739 0.089521027236778197 0 -0.25610310449345419 0.1041046972302731 0 -0.27632390472144541 0.10600366135062909 0 -0.26471001572300679 0.091779207982481292 0 -0.27632390472144541 0.10600366135062909 0 -0.27815219556391091 0.091433986845849968 0 -0.26471001572300679 0.091779207982481292 0 -0.27632390472144541 0.10600366135062909 0 -0.28783094919658059 0.096999283795453681 0 -0.27815219556391091 0.091433986845849968 0 -0.25610310449345419 0.1041046972302731 0 -0.27632390472144541 0.10600366135062909 0 -0.27545980130109921 0.1239996051278405 0 -0.27545980130109921 0.1239996051278405 0 -0.29614728665031642 0.1100773929983587 0 -0.29326612220823411 0.13512644163735801 0 -0.27545980130109921 0.1239996051278405 0 -0.29614728665031642 0.1100773929983587 0 -0.27632390472144541 0.10600366135062909 0 -0.27545980130109921 0.1239996051278405 0 -0.29614728665031642 0.1100773929983587 0 -0.27632390472144541 0.10600366135062909 0 -0.29614728665031642 0.1100773929983587 0 -0.28783094919658059 0.096999283795453681 0 -0.29614728665031642 0.1100773929983587 0 -0.28783094919658059 0.096999283795453681 0 -0.29903425758953422 0.090155638130954882 0 -0.29614728665031642 0.1100773929983587 0 -0.29903425758953422 0.090155638130954882 0 -0.31683477199953253 0.096155180868875256 0 -0.29614728665031642 0.1100773929983587 0 -0.31683477199953253 0.096155180868875256 0 -0.29614728665031642 0.1100773929983587 0 -0.31211500736378339 0.1240031522641292 0 -0.31683477199953253 0.096155180868875256 0 -0.29326612220823411 0.13512644163735801 0 -0.29614728665031642 0.1100773929983587 0 -0.31211500736378339 0.1240031522641292 0 -0.30635830999651792 0.07761242167179265 0 -0.30189037325813839 0.060543452134012458 0 -0.32146679815367007 0.068824891797761426 0 -0.30635830999651792 0.07761242167179265 0 -0.29256534898171721 0.072382945427359638 0 -0.30189037325813839 0.060543452134012458 0 -0.30635830999651792 0.07761242167179265 0 -0.29903425758953422 0.090155638130954882 0 -0.29256534898171721 0.072382945427359638 0 -0.30635830999651792 0.07761242167179265 0 -0.29903425758953422 0.090155638130954882 0 -0.31683477199953253 0.096155180868875256 0 -0.29903425758953422 0.090155638130954882 0 -0.28572263353681682 0.08337299634339973 0 -0.29256534898171721 0.072382945427359638 0 -0.28783094919658059 0.096999283795453681 0 -0.29903425758953422 0.090155638130954882 0 -0.28572263353681682 0.08337299634339973 0 -0.28783094919658059 0.096999283795453681 0 -0.28572263353681682 0.08337299634339973 0 -0.27815219556391091 0.091433986845849968 0 -0.28572263353681682 0.08337299634339973 0 -0.29256534898171721 0.072382945427359638 0 -0.28059357561043269 0.073644623599786935 0 -0.29256534898171721 0.072382945427359638 0 -0.29088471103165969 0.062671374321780771 0 -0.30189037325813839 0.060543452134012458 0 -0.29256534898171721 0.072382945427359638 0 -0.29088471103165969 0.062671374321780771 0 -0.28261649390190829 0.064291953838756216 0 -0.29256534898171721 0.072382945427359638 0 -0.28261649390190829 0.064291953838756216 0 -0.28059357561043269 0.073644623599786935 0 -0.28261649390190829 0.064291953838756216 0 -0.27678196032587499 0.069585006034529676 0 -0.27195195811963518 0.06635492754641531 0 -0.26855373331756138 0.063547936276670339 0 -0.27195195811963518 0.06635492754641531 0 -0.25743728825439521 0.07924270920583569 0 -0.28261649390190829 0.064291953838756216 0 -0.27678196032587499 0.069585006034529676 0 -0.28059357561043269 0.073644623599786935 0 -0.27678196032587499 0.069585006034529676 0 -0.27196581367152378 0.074048519153160283 0 -0.27195195811963518 0.06635492754641531 0 -0.27678196032587499 0.069585006034529676 0 -0.28059357561043269 0.073644623599786935 0 -0.27196581367152378 0.074048519153160283 0 -0.28059357561043269 0.073644623599786935 0 -0.27196581367152378 0.074048519153160283 0 -0.27303575277029413 0.081855029780232597 0 -0.27196581367152378 0.074048519153160283 0 -0.27195195811963518 0.06635492754641531 0 -0.25743728825439521 0.07924270920583569 0 -0.28572263353681682 0.08337299634339973 0 -0.27815219556391091 0.091433986845849968 0 -0.27303575277029413 0.081855029780232597 0 -0.28572263353681682 0.08337299634339973 0 -0.28059357561043269 0.073644623599786935 0 -0.27303575277029413 0.081855029780232597 0 -0.27196581367152378 0.074048519153160283 0 -0.27303575277029413 0.081855029780232597 0 -0.25743728825439521 0.07924270920583569 0 -0.27815219556391091 0.091433986845849968 0 -0.27303575277029413 0.081855029780232597 0 -0.26471001572300679 0.091779207982481292 0 -0.26471001572300679 0.091779207982481292 0 -0.25743728825439521 0.07924270920583569 0 -0.25413031243694739 0.089521027236778197 0 -0.27303575277029413 0.081855029780232597 0 -0.26471001572300679 0.091779207982481292 0 -0.25743728825439521 0.07924270920583569 0 -0.25743728825439521 0.07924270920583569 0 -0.25064083865024739 0.073628726666345984 0 -0.24857020570659841 0.081659589420377987 0 -0.25743728825439521 0.07924270920583569 0 -0.25413031243694739 0.089521027236778197 0 -0.24857020570659841 0.081659589420377987 0 -0.26855373331756138 0.063547936276670339 0 -0.25743728825439521 0.07924270920583569 0 -0.25064083865024739 0.073628726666345984 0 -0.26855373331756138 0.063547936276670339 0 -0.25064083865024739 0.073628726666345984 0 -0.2562734301216873 0.062061687155910393 0 -0.26855373331756138 0.063547936276670339 0 -0.25064083865024739 0.073628726666345984 0 -0.27195195811963518 0.06635492754641531 0 -0.25743728825439521 0.07924270920583569 0 -0.25064083865024739 0.073628726666345984 0 -0.2562734301216873 0.062061687155910393 0 -0.24829977196364941 0.065213336215906109 0 -0.2623477931936597 0.053657636987073307 0 -0.25116276906762952 0.054241108780248931 0 -0.26153642505613889 0.036367366133998442 0 -0.2562734301216873 0.062061687155910393 0 -0.2623477931936597 0.053657636987073307 0 -0.25116276906762952 0.054241108780248931 0 -0.2562734301216873 0.062061687155910393 0 -0.25116276906762952 0.054241108780248931 0 -0.24829977196364941 0.065213336215906109 0 -0.26855373331756138 0.063547936276670339 0 -0.2562734301216873 0.062061687155910393 0 -0.2623477931936597 0.053657636987073307 0 -0.25116276906762952 0.054241108780248931 0 -0.26153642505613889 0.036367366133998442 0 -0.239388393447095 0.04766651035075449 0 -0.2623477931936597 0.053657636987073307 0 -0.26153642505613889 0.036367366133998442 0 -0.27323710809808138 0.049716314049096537 0 -0.26153642505613889 0.036367366133998442 0 -0.28732673365434691 0.040933413293477772 0 -0.26153642505613889 0.036367366133998442 0 -0.2825074511423824 0.030310297232740709 0 -0.28732673365434691 0.040933413293477772 0 -0.26153642505613889 0.036367366133998442 0 -0.27323710809808138 0.049716314049096537 0 -0.28732673365434691 0.040933413293477772 0 -0.26855373331756138 0.063547936276670339 0 -0.27195195811963518 0.06635492754641531 0 -0.28646662798487532 0.053467145886994819 0 -0.26855373331756138 0.063547936276670339 0 -0.28646662798487532 0.053467145886994819 0 -0.26855373331756138 0.063547936276670339 0 -0.27323710809808138 0.049716314049096537 0 -0.28646662798487532 0.053467145886994819 0 -0.27195195811963518 0.06635492754641531 0 -0.28646662798487532 0.053467145886994819 0 -0.28261649390190829 0.064291953838756216 0 -0.27195195811963518 0.06635492754641531 0 -0.28646662798487532 0.053467145886994819 0 -0.26855373331756138 0.063547936276670339 0 -0.2623477931936597 0.053657636987073307 0 -0.27323710809808138 0.049716314049096537 0 -0.26176261374782622 0.0098260211376069873 0 -0.24854849079604721 0.020569936005881421 0 -0.24598119983726671 0.0037338506766126851 0 -0.26003022337954462 -0.0038093911555793728 0 -0.26176261374782622 0.0098260211376069873 0 -0.24598119983726671 0.0037338506766126851 0 -0.26003022337954462 -0.0038093911555793728 0 -0.27433688946420332 -0.0007833753365484626 0 -0.26176261374782622 0.0098260211376069873 0 -0.26153642505613889 0.036367366133998442 0 -0.26176261374782622 0.0098260211376069873 0 -0.24854849079604721 0.020569936005881421 0 -0.26153642505613889 0.036367366133998442 0 -0.26176261374782622 0.0098260211376069873 0 -0.27684491432135683 0.017453585025194441 0 -0.26153642505613889 0.036367366133998442 0 -0.27684491432135683 0.017453585025194441 0 -0.2825074511423824 0.030310297232740709 0 -0.27433688946420332 -0.0007833753365484626 0 -0.26176261374782622 0.0098260211376069873 0 -0.27684491432135683 0.017453585025194441 0 -0.27433688946420332 -0.0007833753365484626 0 -0.27684491432135683 0.017453585025194441 0 -0.28842838408131971 0.0076205693905790281 0 -0.28842838408131971 0.0076205693905790281 0 -0.29131927560690712 0.022062190579302341 0 -0.29989828236451899 0.011495108916467369 0 -0.27684491432135683 0.017453585025194441 0 -0.29131927560690712 0.022062190579302341 0 -0.2825074511423824 0.030310297232740709 0 -0.27684491432135683 0.017453585025194441 0 -0.28842838408131971 0.0076205693905790281 0 -0.29131927560690712 0.022062190579302341 0 -0.29131927560690712 0.022062190579302341 0 -0.2825074511423824 0.030310297232740709 0 -0.29550990707316249 0.034734931131730561 0 -0.29131927560690712 0.022062190579302341 0 -0.30587597075389272 0.02137954460474218 0 -0.29550990707316249 0.034734931131730561 0 -0.30587597075389272 0.02137954460474218 0 -0.29550990707316249 0.034734931131730561 0 -0.30859873922341308 0.03381572977126493 0 -0.29131927560690712 0.022062190579302341 0 -0.30587597075389272 0.02137954460474218 0 -0.29989828236451899 0.011495108916467369 0 -0.3025805037907468 -0.0027432771802810229 0 -0.3204068892458079 -0.0014125807301150939 0 -0.31128727758972891 0.0091565171879943417 0 -0.30587597075389272 0.02137954460474218 0 -0.29989828236451899 0.011495108916467369 0 -0.31128727758972891 0.0091565171879943417 0 -0.3025805037907468 -0.0027432771802810229 0 -0.29989828236451899 0.011495108916467369 0 -0.31128727758972891 0.0091565171879943417 0 -0.3025805037907468 -0.0027432771802810229 0 -0.28842838408131971 0.0076205693905790281 0 -0.29989828236451899 0.011495108916467369 0 -0.28646662798487532 0.053467145886994819 0 -0.304010183261538 0.043594207608826187 0 -0.29088471103165969 0.062671374321780771 0 -0.28646662798487532 0.053467145886994819 0 -0.30189037325813839 0.060543452134012458 0 -0.29088471103165969 0.062671374321780771 0 -0.28261649390190829 0.064291953838756216 0 -0.28646662798487532 0.053467145886994819 0 -0.27323710809808138 0.049716314049096537 0 -0.28646662798487532 0.053467145886994819 0 -0.28732673365434691 0.040933413293477772 0 -0.28646662798487532 0.053467145886994819 0 -0.29550990707316249 0.034734931131730561 0 -0.30859873922341308 0.03381572977126493 0 -0.28646662798487532 0.053467145886994819 0 -0.28732673365434691 0.040933413293477772 0 -0.29550990707316249 0.034734931131730561 0 -0.2825074511423824 0.030310297232740709 0 -0.28732673365434691 0.040933413293477772 0 -0.29550990707316249 0.034734931131730561 0 -0.28646662798487532 0.053467145886994819 0 -0.30859873922341308 0.03381572977126493 0 -0.28646662798487532 0.053467145886994819 0 -0.304010183261538 0.043594207608826187 0 -0.30859873922341308 0.03381572977126493 0 -0.304010183261538 0.043594207608826187 0 -0.30859873922341308 0.03381572977126493 0 -0.32155373853820057 0.033721269330657687 0 -0.304010183261538 0.043594207608826187 0 -0.3137915997446068 0.051476736654279882 0 -0.31549181974187701 0.042926529004151233 0 -0.28646662798487532 0.053467145886994819 0 -0.304010183261538 0.043594207608826187 0 -0.30189037325813839 0.060543452134012458 0 -0.30189037325813839 0.060543452134012458 0 -0.3137915997446068 0.051476736654279882 0 -0.32146679815367007 0.068824891797761426 0 -0.304010183261538 0.043594207608826187 0 -0.30189037325813839 0.060543452134012458 0 -0.3137915997446068 0.051476736654279882 0 -0.3137915997446068 0.051476736654279882 0 -0.32609882430781029 0.041494602726648067 0 -0.32146679815367007 0.068824891797761426 0 -0.32609882430781029 0.041494602726648067 0 -0.32146679815367007 0.068824891797761426 0 -0.3137915997446068 0.051476736654279882 0 -0.31549181974187701 0.042926529004151233 0 -0.32609882430781029 0.041494602726648067 0 -0.304010183261538 0.043594207608826187 0 -0.31549181974187701 0.042926529004151233 0 -0.32155373853820057 0.033721269330657687 0 -0.304010183261538 0.043594207608826187 0 -0.32155373853820057 0.033721269330657687 0 -0.31549181974187701 0.042926529004151233 0 -0.32155373853820057 0.033721269330657687 0 -0.32609882430781029 0.041494602726648067 0 -0.32609882430781029 0.041494602726648067 0 -0.34385517732675519 0.031131612817745031 0 -0.35163198926140088 0.046228739452983239 0 -0.32609882430781029 0.041494602726648067 0 -0.338272543408071 0.060603673933957783 0 -0.32146679815367007 0.068824891797761426 0 -0.32609882430781029 0.041494602726648067 0 -0.338272543408071 0.060603673933957783 0 -0.35163198926140088 0.046228739452983239 0 -0.3204068892458079 -0.0014125807301150939 0 -0.31128727758972891 0.0091565171879943417 0 -0.33073085046195078 0.01416431365553468 0 -0.30587597075389272 0.02137954460474218 0 -0.31128727758972891 0.0091565171879943417 0 -0.33073085046195078 0.01416431365553468 0 -0.30859873922341308 0.03381572977126493 0 -0.33073085046195078 0.01416431365553468 0 -0.30587597075389272 0.02137954460474218 0 -0.30859873922341308 0.03381572977126493 0 -0.33073085046195078 0.01416431365553468 0 -0.32155373853820057 0.033721269330657687 0 -0.32609882430781029 0.041494602726648067 0 -0.33073085046195078 0.01416431365553468 0 -0.30859873922341308 0.03381572977126493 0 -0.32155373853820057 0.033721269330657687 0 -0.33073085046195078 0.01416431365553468 0 -0.32609882430781029 0.041494602726648067 0 -0.33073085046195078 0.01416431365553468 0 -0.33073085046195078 0.01416431365553468 0 -0.34385517732675519 0.031131612817745031 0 -0.35381837275022032 0.01853105722209741 0 -0.32609882430781029 0.041494602726648067 0 -0.33073085046195078 0.01416431365553468 0 -0.34385517732675519 0.031131612817745031 0 -0.33540629353460438 -0.01342214774580049 0 -0.33073085046195078 0.01416431365553468 0 -0.35221409618436439 -0.0049109655465913588 0 -0.33073085046195078 0.01416431365553468 0 -0.35221409618436439 -0.0049109655465913588 0 -0.34857824671955512 -0.007874197240844389 0 -0.33073085046195078 0.01416431365553468 0 -0.35221409618436439 -0.0049109655465913588 0 -0.33073085046195078 0.01416431365553468 0 -0.34939877662876639 0.0070576099193848619 0 -0.33073085046195078 0.01416431365553468 0 -0.34939877662876639 0.0070576099193848619 0 -0.35381837275022032 0.01853105722209741 0 -0.35900139338342918 0.0020097317905480609 0 -0.34939877662876639 0.0070576099193848619 0 -0.35834074471334648 0.0096788928264882005 0 -0.35509488683577939 -0.0004162838960613095 0 -0.35900139338342918 0.0020097317905480609 0 -0.34939877662876639 0.0070576099193848619 0 -0.35509488683577939 -0.0004162838960613095 0 -0.35221409618436439 -0.0049109655465913588 0 -0.34939877662876639 0.0070576099193848619 0 -0.34939877662876639 0.0070576099193848619 0 -0.35834074471334648 0.0096788928264882005 0 -0.35381837275022032 0.01853105722209741 0 -0.34385517732675519 0.031131612817745031 0 -0.35381837275022032 0.01853105722209741 0 -0.36551724687399623 0.028318485711261141 0 -0.37937813184432773 0.031366277704107569 0 -0.36551724687399623 0.028318485711261141 0 -0.37479293228070759 0.022502646493578662 0 -0.36551724687399623 0.028318485711261141 0 -0.37479293228070759 0.022502646493578662 0 -0.36730783543836809 0.01519693074799966 0 -0.3778438638662554 0.014761087644765769 0 -0.37479293228070759 0.022502646493578662 0 -0.36730783543836809 0.01519693074799966 0 -0.35381837275022032 0.01853105722209741 0 -0.36551724687399623 0.028318485711261141 0 -0.36730783543836809 0.01519693074799966 0 -0.35834074471334648 0.0096788928264882005 0 -0.36730783543836809 0.01519693074799966 0 -0.36603012090457948 0.0050917054244422654 0 -0.35834074471334648 0.0096788928264882005 0 -0.35381837275022032 0.01853105722209741 0 -0.36730783543836809 0.01519693074799966 0 -0.36730783543836809 0.01519693074799966 0 -0.37464316483836829 0.0066416053135349984 0 -0.36603012090457948 0.0050917054244422654 0 -0.3778438638662554 0.014761087644765769 0 -0.36730783543836809 0.01519693074799966 0 -0.37464316483836829 0.0066416053135349984 0 -0.37126952376897032 -0.00085078512189483576 0 -0.37774077980655368 -0.001289555558904682 0 -0.37464316483836829 0.0066416053135349984 0 -0.37126952376897032 -0.00085078512189483576 0 -0.37464316483836829 0.0066416053135349984 0 -0.36603012090457948 0.0050917054244422654 0 -0.37126952376897032 -0.00085078512189483576 0 -0.36494834593608783 -0.001298186014321303 0 -0.36603012090457948 0.0050917054244422654 0 -0.36494834593608783 -0.001298186014321303 0 -0.35900139338342918 0.0020097317905480609 0 -0.36603012090457948 0.0050917054244422654 0 -0.35900139338342918 0.0020097317905480609 0 -0.35834074471334648 0.0096788928264882005 0 -0.36603012090457948 0.0050917054244422654 0 -0.35163198926140088 0.046228739452983239 0 -0.36891219827968119 0.060077996683558232 0 -0.35298131256760962 0.063034912088641357 0 -0.338272543408071 0.060603673933957783 0 -0.35163198926140088 0.046228739452983239 0 -0.35298131256760962 0.063034912088641357 0 -0.34385517732675519 0.031131612817745031 0 -0.36551724687399623 0.028318485711261141 0 -0.35163198926140088 0.046228739452983239 0 -0.36551724687399623 0.028318485711261141 0 -0.35163198926140088 0.046228739452983239 0 -0.37261014177358448 0.043145835856899219 0 -0.37937813184432773 0.031366277704107569 0 -0.36551724687399623 0.028318485711261141 0 -0.37261014177358448 0.043145835856899219 0 -0.35163198926140088 0.046228739452983239 0 -0.37261014177358448 0.043145835856899219 0 -0.36891219827968119 0.060077996683558232 0 -0.38207463336695202 0.051047668856640811 0 -0.37261014177358448 0.043145835856899219 0 -0.36891219827968119 0.060077996683558232 0 -0.37929074908003868 0.077603726490867345 0 -0.35694138538550352 0.073855345321458488 0 -0.37929074908003868 0.077603726490867345 0 -0.36891219827968119 0.060077996683558232 0 -0.35694138538550352 0.073855345321458488 0 -0.36891219827968119 0.060077996683558232 0 -0.35298131256760962 0.063034912088641357 0 -0.35694138538550352 0.073855345321458488 0 -0.35298131256760962 0.063034912088641357 0 -0.35694138538550352 0.073855345321458488 0 -0.34914844650339177 0.074408805051249083 0 -0.35694138538550352 0.073855345321458488 0 -0.34914844650339177 0.074408805051249083 0 -0.35387282561504041 0.085789381247760657 0 -0.338272543408071 0.060603673933957783 0 -0.35298131256760962 0.063034912088641357 0 -0.34914844650339177 0.074408805051249083 0 -0.34914844650339177 0.074408805051249083 0 -0.35387282561504041 0.085789381247760657 0 -0.33299160925146271 0.085281992960062933 0 -0.35694138538550352 0.073855345321458488 0 -0.35387282561504041 0.085789381247760657 0 -0.36438159895332511 0.085691586513687634 0 -0.35387282561504041 0.085789381247760657 0 -0.36438159895332511 0.085691586513687634 0 -0.35579278546844412 0.098564625017930646 0 -0.37929074908003868 0.077603726490867345 0 -0.35694138538550352 0.073855345321458488 0 -0.36438159895332511 0.085691586513687634 0 -0.37929074908003868 0.077603726490867345 0 -0.36438159895332511 0.085691586513687634 0 -0.37090825683648998 0.098456277756480637 0 -0.37090825683648998 0.098456277756480637 0 -0.36904533532088801 0.1177582563576956 0 -0.35579278546844412 0.098564625017930646 0 -0.36438159895332511 0.085691586513687634 0 -0.37090825683648998 0.098456277756480637 0 -0.35579278546844412 0.098564625017930646 0 -0.35823941519022368 0.13573745574644491 0 -0.36904533532088801 0.1177582563576956 0 -0.35158166360451942 0.11704707172714621 0 -0.36904533532088801 0.1177582563576956 0 -0.35158166360451942 0.11704707172714621 0 -0.35579278546844412 0.098564625017930646 0 -0.35158166360451942 0.11704707172714621 0 -0.35579278546844412 0.098564625017930646 0 -0.34047962299512569 0.099373871294989508 0 -0.35387282561504041 0.085789381247760657 0 -0.35579278546844412 0.098564625017930646 0 -0.34047962299512569 0.099373871294989508 0 -0.34047962299512569 0.099373871294989508 0 -0.33231339904552459 0.1171762944261375 0 -0.31683477199953253 0.096155180868875256 0 -0.34455851703438989 0.13305210298766909 0 -0.35158166360451942 0.11704707172714621 0 -0.33231339904552459 0.1171762944261375 0 -0.35158166360451942 0.11704707172714621 0 -0.34047962299512569 0.099373871294989508 0 -0.33231339904552459 0.1171762944261375 0 -0.31211500736378339 0.1240031522641292 0 -0.31683477199953253 0.096155180868875256 0 -0.31211500736378339 0.1240031522641292 0 -0.33231339904552459 0.1171762944261375 0 -0.31683477199953253 0.096155180868875256 0 -0.30635830999651792 0.07761242167179265 0 -0.31683477199953253 0.096155180868875256 0 -0.32146679815367007 0.068824891797761426 0 -0.31683477199953253 0.096155180868875256 0 -0.32146679815367007 0.068824891797761426 0 -0.33299160925146271 0.085281992960062933 0 -0.31683477199953253 0.096155180868875256 0 -0.32146679815367007 0.068824891797761426 0 -0.31683477199953253 0.096155180868875256 0 -0.33299160925146271 0.085281992960062933 0 -0.338272543408071 0.060603673933957783 0 -0.32146679815367007 0.068824891797761426 0 -0.33576809196089219 0.072507027900731907 0 -0.32146679815367007 0.068824891797761426 0 -0.33576809196089219 0.072507027900731907 0 -0.33299160925146271 0.085281992960062933 0 -0.34914844650339177 0.074408805051249083 0 -0.33576809196089219 0.072507027900731907 0 -0.33299160925146271 0.085281992960062933 0 -0.338272543408071 0.060603673933957783 0 -0.34914844650339177 0.074408805051249083 0 -0.33576809196089219 0.072507027900731907 0 -0.35387282561504041 0.085789381247760657 0 -0.34047962299512569 0.099373871294989508 0 -0.33299160925146271 0.085281992960062933 0 -0.34914844650339177 0.074408805051249083 0 -0.33299160925146271 0.085281992960062933 0 -0.34047962299512569 0.099373871294989508 0 -0.31683477199953253 0.096155180868875256 0 -0.33299160925146271 0.085281992960062933 0 -0.3938434845513461 0.48000301234504228 0 -0.4154786193197833 0.47000451851756458 0 -0.40908183102320411 0.4845696213484928 0 -0.3938434845513461 0.48000301234504228 0 -0.40110135887996978 0.47332954189399812 0 -0.4154786193197833 0.47000451851756458 0 -0.3938434845513461 0.48000301234504228 0 -0.4154786193197833 0.47000451851756458 0 -0.3938434845513461 0.48000301234504228 0 -0.40110135887996978 0.47332954189399812 0 -0.38930270813857232 0.46778113184491188 0 -0.3938434845513461 0.48000301234504228 0 -0.39546946259238258 0.49128185561313598 0 -0.40908183102320411 0.4845696213484928 0 -0.40521342881326272 0.5 0 -0.39546946259238258 0.49128185561313598 0 -0.37789332191386737 0.5 0 -0.40521342881326272 0.5 0 -0.39546946259238258 0.49128185561313598 0 -0.40908183102320411 0.4845696213484928 0 -0.3938434845513461 0.48000301234504228 0 -0.39546946259238258 0.49128185561313598 0 -0.38517353549973538 0.49039659604947999 0 -0.3938434845513461 0.48000301234504228 0 -0.37220834978290879 0.49000150617251997 0 -0.39546946259238258 0.49128185561313598 0 -0.38517353549973538 0.49039659604947999 0 -0.37789332191386737 0.5 0 -0.3938434845513461 0.48000301234504228 0 -0.38517353549973538 0.49039659604947999 0 -0.37220834978290879 0.49000150617251997 0 -0.38517353549973538 0.49039659604947999 0 -0.37789332191386737 0.5 0 -0.37220834978290879 0.49000150617251997 0 -0.3938434845513461 0.48000301234504228 0 -0.37805640255927542 0.47903421333972468 0 -0.3842367001720054 0.47454362448235632 0 -0.3938434845513461 0.48000301234504228 0 -0.37805640255927542 0.47903421333972468 0 -0.37220834978290879 0.49000150617251997 0 -0.3842367001720054 0.47454362448235632 0 -0.37701653082709469 0.46900635458093531 0 -0.38930270813857232 0.46778113184491188 0 -0.3938434845513461 0.48000301234504228 0 -0.3842367001720054 0.47454362448235632 0 -0.38930270813857232 0.46778113184491188 0 -0.37805640255927542 0.47903421333972468 0 -0.3842367001720054 0.47454362448235632 0 -0.37701653082709469 0.46900635458093531 0 -0.37701653082709469 0.46900635458093531 0 -0.38677844954541418 0.45747132953460651 0 -0.37376195539900242 0.45249759326054367 0 -0.37701653082709469 0.46900635458093531 0 -0.38677844954541418 0.45747132953460651 0 -0.38930270813857232 0.46778113184491188 0 -0.38473584783684761 0.44354080077547992 0 -0.36778315087773072 0.43214877602771662 0 -0.37376195539900242 0.45249759326054367 0 -0.38677844954541418 0.45747132953460651 0 -0.38473584783684761 0.44354080077547992 0 -0.37376195539900242 0.45249759326054367 0 -0.38677844954541418 0.45747132953460651 0 -0.38473584783684761 0.44354080077547992 0 -0.39843898125590987 0.45231631840454728 0 -0.39843898125590987 0.45231631840454728 0 -0.4072920944712265 0.44499890251068641 0 -0.39856520721893041 0.43647578570475237 0 -0.38473584783684761 0.44354080077547992 0 -0.39843898125590987 0.45231631840454728 0 -0.39856520721893041 0.43647578570475237 0 -0.39843898125590987 0.45231631840454728 0 -0.39841490533913748 0.46178879282826651 0 -0.41709791082295028 0.45456801136960878 0 -0.40110135887996978 0.47332954189399812 0 -0.39841490533913748 0.46178879282826651 0 -0.41709791082295028 0.45456801136960878 0 -0.38677844954541418 0.45747132953460651 0 -0.38930270813857232 0.46778113184491188 0 -0.39841490533913748 0.46178879282826651 0 -0.40110135887996978 0.47332954189399812 0 -0.38930270813857232 0.46778113184491188 0 -0.39841490533913748 0.46178879282826651 0 -0.38677844954541418 0.45747132953460651 0 -0.39843898125590987 0.45231631840454728 0 -0.39841490533913748 0.46178879282826651 0 -0.40110135887996978 0.47332954189399812 0 -0.41709791082295028 0.45456801136960878 0 -0.4154786193197833 0.47000451851756458 0 -0.40110135887996978 0.47332954189399812 0 -0.41709791082295028 0.45456801136960878 0 -0.41709791082295028 0.45456801136960878 0 -0.42692569345801529 0.46340213249295897 0 -0.4154786193197833 0.47000451851756458 0 -0.41709791082295028 0.45456801136960878 0 -0.43309446276593089 0.43580648084521972 0 -0.41506627858711548 0.4366354945638371 0 -0.39843898125590987 0.45231631840454728 0 -0.41709791082295028 0.45456801136960878 0 -0.4072920944712265 0.44499890251068641 0 -0.4072920944712265 0.44499890251068641 0 -0.41506627858711548 0.4366354945638371 0 -0.39856520721893041 0.43647578570475237 0 -0.41709791082295028 0.45456801136960878 0 -0.4072920944712265 0.44499890251068641 0 -0.41506627858711548 0.4366354945638371 0 -0.41709791082295028 0.45456801136960878 0 -0.43251943231727258 0.45189802077753072 0 -0.43309446276593089 0.43580648084521972 0 -0.41709791082295028 0.45456801136960878 0 -0.43309446276593089 0.43580648084521972 0 -0.43251943231727258 0.45189802077753072 0 -0.44285055445462801 0.44408738363144917 0 -0.43309446276593089 0.43580648084521972 0 -0.43251943231727258 0.45189802077753072 0 -0.42692569345801529 0.46340213249295897 0 -0.44262854008483871 0.46162609554841733 0 -0.42692569345801529 0.46340213249295897 0 -0.43014133963940671 0.47900644757454591 0 -0.44262854008483871 0.46162609554841733 0 -0.41709791082295028 0.45456801136960878 0 -0.43251943231727258 0.45189802077753072 0 -0.42692569345801529 0.46340213249295897 0 -0.42692569345801529 0.46340213249295897 0 -0.43014133963940671 0.47900644757454591 0 -0.4154786193197833 0.47000451851756458 0 -0.43014133963940671 0.47900644757454591 0 -0.4154786193197833 0.47000451851756458 0 -0.40908183102320411 0.4845696213484928 0 -0.40521342881326272 0.5 0 -0.40908183102320411 0.4845696213484928 0 -0.43253353571265801 0.5 0 -0.43014133963940671 0.47900644757454591 0 -0.40908183102320411 0.4845696213484928 0 -0.43253353571265801 0.5 0 -0.43014133963940671 0.47900644757454591 0 -0.43253353571265801 0.5 0 -0.44984012809851409 0.48033494727474779 0 -0.43253353571265801 0.5 0 -0.44984012809851409 0.48033494727474779 0 -0.45985364261205308 0.50000000000000111 0 -0.43014133963940671 0.47900644757454591 0 -0.44984012809851409 0.48033494727474779 0 -0.44262854008483871 0.46162609554841733 0 -0.44984012809851409 0.48033494727474779 0 -0.47312811744354261 0.47395110078869013 0 -0.45820768181792781 0.46325373185340701 0 -0.45985364261205308 0.50000000000000111 0 -0.47312811744354261 0.47395110078869013 0 -0.44984012809851409 0.48033494727474779 0 -0.45985364261205308 0.50000000000000111 0 -0.47312811744354261 0.47395110078869013 0 -0.5 0.5 0 -0.47312811744354261 0.47395110078869013 0 -0.49999999999999972 0.44664233614409321 0 -0.45985364261205308 0.50000000000000111 0 -0.5 0.5 0 -0.47312811744354261 0.47395110078869013 0 -0.48640259227503152 0.44790220157737892 0 -0.49999999999999972 0.44664233614409321 0 -0.47883616718389621 0.43347798499105172 0 -0.49999999999999972 0.44664233614409321 0 -0.47883616718389621 0.43347798499105172 0 -0.47312811744354261 0.47395110078869013 0 -0.48640259227503152 0.44790220157737892 0 -0.49999999999999972 0.44664233614409321 0 -0.47312811744354261 0.47395110078869013 0 -0.48640259227503152 0.44790220157737892 0 -0.47312811744354261 0.47395110078869013 0 -0.48640259227503152 0.44790220157737892 0 -0.46932328621444303 0.45009797021529852 0 -0.46932328621444303 0.45009797021529852 0 -0.46288197751253979 0.435741310408158 0 -0.47883616718389621 0.43347798499105172 0 -0.48640259227503152 0.44790220157737892 0 -0.46932328621444303 0.45009797021529852 0 -0.47883616718389621 0.43347798499105172 0 -0.46932328621444303 0.45009797021529852 0 -0.45653044061400749 0.44574373859450739 0 -0.46288197751253979 0.435741310408158 0 -0.46932328621444303 0.45009797021529852 0 -0.45653044061400749 0.44574373859450739 0 -0.45820768181792781 0.46325373185340701 0 -0.45653044061400749 0.44574373859450739 0 -0.44988321330808601 0.43264183945635343 0 -0.46288197751253979 0.435741310408158 0 -0.47312811744354261 0.47395110078869013 0 -0.46932328621444303 0.45009797021529852 0 -0.45820768181792781 0.46325373185340701 0 -0.45653044061400749 0.44574373859450739 0 -0.45820768181792781 0.46325373185340701 0 -0.44262854008483871 0.46162609554841733 0 -0.44984012809851409 0.48033494727474779 0 -0.45820768181792781 0.46325373185340701 0 -0.44262854008483871 0.46162609554841733 0 -0.43251943231727258 0.45189802077753072 0 -0.44262854008483871 0.46162609554841733 0 -0.44285055445462801 0.44408738363144917 0 -0.45653044061400749 0.44574373859450739 0 -0.44262854008483871 0.46162609554841733 0 -0.44285055445462801 0.44408738363144917 0 -0.44285055445462801 0.44408738363144917 0 -0.44988321330808601 0.43264183945635343 0 -0.43309446276593089 0.43580648084521972 0 -0.45653044061400749 0.44574373859450739 0 -0.44285055445462801 0.44408738363144917 0 -0.44988321330808601 0.43264183945635343 0 -0.44909101470891138 0.41704495032083061 0 -0.43309446276593089 0.43580648084521972 0 -0.44988321330808601 0.43264183945635343 0 -0.44909101470891138 0.41704495032083061 0 -0.43309446276593089 0.43580648084521972 0 -0.44988321330808601 0.43264183945635343 0 -0.44909101470891138 0.41704495032083061 0 -0.45767233436779298 0.42031363383801013 0 -0.44909101470891138 0.41704495032083061 0 -0.43642708593841462 0.41129790334070748 0 -0.43309446276593089 0.43580648084521972 0 -0.44909101470891138 0.41704495032083061 0 -0.44923652684218601 0.40651161443480333 0 -0.43642708593841462 0.41129790334070748 0 -0.44909101470891138 0.41704495032083061 0 -0.46310762304278369 0.4136785712167641 0 -0.46508756665189233 0.39828341979644161 0 -0.44909101470891138 0.41704495032083061 0 -0.46508756665189233 0.39828341979644161 0 -0.44909101470891138 0.41704495032083061 0 -0.44923652684218601 0.40651161443480333 0 -0.46508756665189233 0.39828341979644161 0 -0.44909101470891138 0.41704495032083061 0 -0.45767233436779298 0.42031363383801013 0 -0.46310762304278369 0.4136785712167641 0 -0.45767233436779298 0.42031363383801013 0 -0.46310762304278369 0.4136785712167641 0 -0.4689935185142321 0.42014913325858988 0 -0.46310762304278369 0.4136785712167641 0 -0.47635794946245552 0.41312634298853379 0 -0.46508756665189233 0.39828341979644161 0 -0.45767233436779298 0.42031363383801013 0 -0.47883616718389621 0.43347798499105172 0 -0.4689935185142321 0.42014913325858988 0 -0.45767233436779298 0.42031363383801013 0 -0.46288197751253979 0.435741310408158 0 -0.47883616718389621 0.43347798499105172 0 -0.45767233436779298 0.42031363383801013 0 -0.47883616718389621 0.43347798499105172 0 -0.44988321330808601 0.43264183945635343 0 -0.45767233436779298 0.42031363383801013 0 -0.46288197751253979 0.435741310408158 0 -0.47883616718389621 0.43347798499105172 0 -0.47635794946245552 0.41312634298853379 0 -0.48714440641974271 0.42351608680749347 0 -0.47883616718389621 0.43347798499105172 0 -0.4689935185142321 0.42014913325858988 0 -0.47635794946245552 0.41312634298853379 0 -0.46310762304278369 0.4136785712167641 0 -0.4689935185142321 0.42014913325858988 0 -0.47635794946245552 0.41312634298853379 0 -0.47635794946245552 0.41312634298853379 0 -0.48901457958177968 0.41012265573874179 0 -0.48254378332594611 0.39722493186941499 0 -0.47635794946245552 0.41312634298853379 0 -0.48901457958177968 0.41012265573874179 0 -0.48714440641974271 0.42351608680749347 0 -0.48901457958177968 0.41012265573874179 0 -0.5 0.42140439004324071 0 -0.49999999999999978 0.39616644394238798 0 -0.48901457958177968 0.41012265573874179 0 -0.5 0.42140439004324071 0 -0.48714440641974271 0.42351608680749347 0 -0.49999999999999972 0.44664233614409321 0 -0.47883616718389621 0.43347798499105172 0 -0.48714440641974271 0.42351608680749347 0 -0.49999999999999972 0.44664233614409321 0 -0.5 0.42140439004324071 0 -0.48714440641974271 0.42351608680749347 0 -0.49007778645481631 0.38142997617552599 0 -0.49999999999999978 0.39616644394238798 0 -0.50000000000000311 0.3685517992903854 0 -0.49007778645481631 0.38142997617552599 0 -0.47611467569506138 0.38535029247959018 0 -0.48714178473823078 0.37241716516273898 0 -0.49999999999999978 0.39616644394238798 0 -0.48254378332594611 0.39722493186941499 0 -0.48901457958177968 0.41012265573874179 0 -0.49999999999999978 0.39616644394238798 0 -0.48254378332594611 0.39722493186941499 0 -0.49007778645481631 0.38142997617552599 0 -0.49999999999999978 0.39616644394238798 0 -0.48254378332594611 0.39722493186941499 0 -0.48254378332594611 0.39722493186941499 0 -0.46508756665189233 0.39828341979644161 0 -0.47635794946245552 0.41312634298853379 0 -0.48254378332594611 0.39722493186941499 0 -0.46508756665189233 0.39828341979644161 0 -0.48254378332594611 0.39722493186941499 0 -0.47611467569506138 0.38535029247959018 0 -0.46508756665189233 0.39828341979644161 0 -0.47611467569506138 0.38535029247959018 0 -0.46508756665189233 0.39828341979644161 0 -0.49007778645481631 0.38142997617552599 0 -0.48254378332594611 0.39722493186941499 0 -0.47611467569506138 0.38535029247959018 0 -0.47611467569506138 0.38535029247959018 0 -0.47397397291215421 0.37493689296344251 0 -0.48714178473823078 0.37241716516273898 0 -0.47611467569506138 0.38535029247959018 0 -0.48714178473823078 0.37241716516273898 0 -0.46871814716203669 0.37906981455344119 0 -0.46360543106569913 0.37231654924431878 0 -0.47397397291215421 0.37493689296344251 0 -0.47611467569506138 0.38535029247959018 0 -0.46871814716203669 0.37906981455344119 0 -0.47397397291215421 0.37493689296344251 0 -0.46871814716203669 0.37906981455344119 0 -0.46117850897523233 0.38367552352641338 0 -0.46360543106569913 0.37231654924431878 0 -0.47611467569506138 0.38535029247959018 0 -0.46871814716203669 0.37906981455344119 0 -0.46117850897523233 0.38367552352641338 0 -0.47611467569506138 0.38535029247959018 0 -0.46117850897523233 0.38367552352641338 0 -0.46508756665189233 0.39828341979644161 0 -0.46117850897523233 0.38367552352641338 0 -0.45400385251667602 0.39093091030285698 0 -0.45110956684876158 0.38402681738971201 0 -0.46117850897523233 0.38367552352641338 0 -0.45110956684876158 0.38402681738971201 0 -0.44813402172652672 0.37354371539476261 0 -0.46117850897523233 0.38367552352641338 0 -0.44813402172652672 0.37354371539476261 0 -0.46360543106569913 0.37231654924431878 0 -0.44923652684218601 0.40651161443480333 0 -0.46508756665189233 0.39828341979644161 0 -0.44634044006952572 0.39942018428123321 0 -0.46508756665189233 0.39828341979644161 0 -0.45400385251667602 0.39093091030285698 0 -0.44634044006952572 0.39942018428123321 0 -0.46508756665189233 0.39828341979644161 0 -0.44634044006952572 0.39942018428123321 0 -0.46117850897523233 0.38367552352641338 0 -0.46508756665189233 0.39828341979644161 0 -0.45400385251667602 0.39093091030285698 0 -0.45400385251667602 0.39093091030285698 0 -0.44634044006952572 0.39942018428123321 0 -0.44518347515021223 0.38837251913440451 0 -0.44634044006952572 0.39942018428123321 0 -0.44518347515021223 0.38837251913440451 0 -0.43728617553129168 0.39370672697544878 0 -0.44923652684218601 0.40651161443480333 0 -0.44634044006952572 0.39942018428123321 0 -0.43642708593841462 0.41129790334070748 0 -0.45110956684876158 0.38402681738971201 0 -0.44480856609964842 0.38185924381796288 0 -0.44813402172652672 0.37354371539476261 0 -0.45400385251667602 0.39093091030285698 0 -0.45110956684876158 0.38402681738971201 0 -0.44518347515021223 0.38837251913440451 0 -0.45110956684876158 0.38402681738971201 0 -0.44518347515021223 0.38837251913440451 0 -0.44480856609964842 0.38185924381796288 0 -0.44518347515021223 0.38837251913440451 0 -0.43913693036841173 0.38484964203092692 0 -0.43002747341826991 0.3864772557201327 0 -0.44518347515021223 0.38837251913440451 0 -0.43002747341826991 0.3864772557201327 0 -0.44518347515021223 0.38837251913440451 0 -0.43913693036841173 0.38484964203092692 0 -0.44480856609964842 0.38185924381796288 0 -0.44480856609964842 0.38185924381796288 0 -0.4393591315165738 0.37762743775392832 0 -0.44813402172652672 0.37354371539476261 0 -0.43913693036841173 0.38484964203092692 0 -0.44480856609964842 0.38185924381796288 0 -0.4393591315165738 0.37762743775392832 0 -0.43913693036841173 0.38484964203092692 0 -0.43173797726570751 0.37658334167695551 0 -0.43913693036841173 0.38484964203092692 0 -0.43173797726570751 0.37658334167695551 0 -0.43002747341826991 0.3864772557201327 0 -0.43913693036841173 0.38484964203092692 0 -0.4393591315165738 0.37762743775392832 0 -0.43173797726570751 0.37658334167695551 0 -0.4393591315165738 0.37762743775392832 0 -0.43173797726570751 0.37658334167695551 0 -0.4325639091043616 0.37180597819459837 0 -0.43173797726570751 0.37658334167695551 0 -0.43002747341826991 0.3864772557201327 0 -0.44518347515021223 0.38837251913440451 0 -0.43002747341826991 0.3864772557201327 0 -0.43728617553129168 0.39370672697544878 0 -0.43002747341826991 0.3864772557201327 0 -0.41472776448615789 0.38456402166930481 0 -0.42117367656598032 0.39254991666010941 0 -0.43002747341826991 0.3864772557201327 0 -0.41472776448615789 0.38456402166930481 0 -0.43002747341826991 0.3864772557201327 0 -0.42328890360694349 0.38021744503538613 0 -0.41472776448615789 0.38456402166930481 0 -0.43173797726570751 0.37658334167695551 0 -0.43002747341826991 0.3864772557201327 0 -0.42328890360694349 0.38021744503538613 0 -0.43173797726570751 0.37658334167695551 0 -0.42328890360694349 0.38021744503538613 0 -0.42689564018809201 0.37117335838025439 0 -0.40881671944059661 0.37920357314115732 0 -0.42689564018809201 0.37117335838025439 0 -0.42328890360694349 0.38021744503538613 0 -0.40881671944059661 0.37920357314115732 0 -0.42689564018809201 0.37117335838025439 0 -0.42328890360694349 0.38021744503538613 0 -0.41472776448615789 0.38456402166930481 0 -0.40881671944059661 0.37920357314115732 0 -0.41472776448615789 0.38456402166930481 0 -0.40724106840129259 0.39428871981441299 0 -0.42117367656598032 0.39254991666010941 0 -0.41472776448615789 0.38456402166930481 0 -0.40826438028753348 0.3817067557430866 0 -0.39942805555404642 0.38265078761847338 0 -0.41472776448615789 0.38456402166930481 0 -0.40724106840129259 0.39428871981441299 0 -0.39942805555404642 0.38265078761847338 0 -0.41472776448615789 0.38456402166930481 0 -0.39942805555404642 0.38265078761847338 0 -0.40881671944059661 0.37920357314115732 0 -0.39942805555404642 0.38265078761847338 0 -0.41098055992701871 0.3693971202961519 0 -0.40826438028753348 0.3817067557430866 0 -0.40881671944059661 0.37920357314115732 0 -0.41472776448615789 0.38456402166930481 0 -0.40826438028753348 0.3817067557430866 0 -0.40881671944059661 0.37920357314115732 0 -0.40724106840129259 0.39428871981441299 0 -0.4157685575788832 0.40127396331749671 0 -0.40157856791931718 0.40704460823596672 0 -0.42117367656598032 0.39254991666010941 0 -0.4157685575788832 0.40127396331749671 0 -0.42759331348715912 0.40055694876602499 0 -0.40724106840129259 0.39428871981441299 0 -0.42117367656598032 0.39254991666010941 0 -0.4157685575788832 0.40127396331749671 0 -0.4157685575788832 0.40127396331749671 0 -0.42759331348715912 0.40055694876602499 0 -0.44634044006952572 0.39942018428123321 0 -0.42759331348715912 0.40055694876602499 0 -0.44634044006952572 0.39942018428123321 0 -0.42759331348715912 0.40055694876602499 0 -0.43728617553129168 0.39370672697544878 0 -0.44634044006952572 0.39942018428123321 0 -0.42759331348715912 0.40055694876602499 0 -0.43642708593841462 0.41129790334070748 0 -0.43002747341826991 0.3864772557201327 0 -0.42117367656598032 0.39254991666010941 0 -0.42759331348715912 0.40055694876602499 0 -0.43002747341826991 0.3864772557201327 0 -0.42759331348715912 0.40055694876602499 0 -0.43002747341826991 0.3864772557201327 0 -0.42759331348715912 0.40055694876602499 0 -0.43728617553129168 0.39370672697544878 0 -0.43642708593841462 0.41129790334070748 0 -0.42449994900394461 0.41844961959922572 0 -0.43309446276593089 0.43580648084521972 0 -0.42759331348715912 0.40055694876602499 0 -0.43642708593841462 0.41129790334070748 0 -0.42449994900394461 0.41844961959922572 0 -0.4157685575788832 0.40127396331749671 0 -0.42759331348715912 0.40055694876602499 0 -0.42449994900394461 0.41844961959922572 0 -0.42759331348715912 0.40055694876602499 0 -0.42449994900394461 0.41844961959922572 0 -0.42449994900394461 0.41844961959922572 0 -0.43309446276593089 0.43580648084521972 0 -0.41506627858711548 0.4366354945638371 0 -0.42449994900394461 0.41844961959922572 0 -0.41506627858711548 0.4366354945638371 0 -0.40746949035714619 0.42222882353716701 0 -0.41506627858711548 0.4366354945638371 0 -0.40746949035714619 0.42222882353716701 0 -0.39856520721893041 0.43647578570475237 0 -0.42449994900394461 0.41844961959922572 0 -0.40746949035714619 0.42222882353716701 0 -0.41232914121482278 0.41224925367246401 0 -0.4157685575788832 0.40127396331749671 0 -0.42449994900394461 0.41844961959922572 0 -0.41232914121482278 0.41224925367246401 0 -0.4157685575788832 0.40127396331749671 0 -0.41232914121482278 0.41224925367246401 0 -0.40157856791931718 0.40704460823596672 0 -0.40746949035714619 0.42222882353716701 0 -0.41232914121482278 0.41224925367246401 0 -0.40157856791931718 0.40704460823596672 0 -0.40746949035714619 0.42222882353716701 0 -0.40157856791931718 0.40704460823596672 0 -0.39298749241221759 0.42119507937603923 0 -0.40746949035714619 0.42222882353716701 0 -0.39298749241221759 0.42119507937603923 0 -0.39856520721893041 0.43647578570475237 0 -0.39298749241221759 0.42119507937603923 0 -0.39856520721893041 0.43647578570475237 0 -0.38373994498284608 0.43043669407259588 0 -0.38373994498284608 0.43043669407259588 0 -0.37668454372729859 0.41206883315114529 0 -0.36778315087773072 0.43214877602771662 0 -0.38473584783684761 0.44354080077547992 0 -0.38373994498284608 0.43043669407259588 0 -0.36778315087773072 0.43214877602771662 0 -0.38473584783684761 0.44354080077547992 0 -0.39856520721893041 0.43647578570475237 0 -0.38373994498284608 0.43043669407259588 0 -0.40157856791931718 0.40704460823596672 0 -0.39298749241221759 0.42119507937603923 0 -0.37668454372729859 0.41206883315114529 0 -0.39298749241221759 0.42119507937603923 0 -0.38373994498284608 0.43043669407259588 0 -0.37668454372729859 0.41206883315114529 0 -0.40157856791931718 0.40704460823596672 0 -0.37668454372729859 0.41206883315114529 0 -0.37668454372729859 0.41206883315114529 0 -0.37844474563582792 0.390355182046278 0 -0.39076978830337122 0.39764902138512792 0 -0.40157856791931718 0.40704460823596672 0 -0.37668454372729859 0.41206883315114529 0 -0.39076978830337122 0.39764902138512792 0 -0.38141148745950948 0.38039780936179463 0 -0.39942805555404642 0.38265078761847338 0 -0.37844474563582792 0.390355182046278 0 -0.39942805555404642 0.38265078761847338 0 -0.38141148745950948 0.38039780936179463 0 -0.37844474563582792 0.390355182046278 0 -0.39942805555404642 0.38265078761847338 0 -0.37844474563582792 0.390355182046278 0 -0.39942805555404642 0.38265078761847338 0 -0.39076978830337122 0.39764902138512792 0 -0.38141148745950948 0.38039780936179463 0 -0.39942805555404642 0.38265078761847338 0 -0.39128338495032239 0.36719877308275878 0 -0.40826438028753348 0.3817067557430866 0 -0.40881671944059661 0.37920357314115732 0 -0.39942805555404642 0.38265078761847338 0 -0.40881671944059661 0.37920357314115732 0 -0.39942805555404642 0.38265078761847338 0 -0.40724106840129259 0.39428871981441299 0 -0.40157856791931718 0.40704460823596672 0 -0.39076978830337122 0.39764902138512792 0 -0.40724106840129259 0.39428871981441299 0 -0.39942805555404642 0.38265078761847338 0 -0.39076978830337122 0.39764902138512792 0 -0.39259889148010241 0.34864188780489069 0 -0.39999637464883392 0.35559476271013252 0 -0.38966798311544332 0.35610238881872369 0 -0.39259889148010241 0.34864188780489069 0 -0.39999637464883392 0.35559476271013252 0 -0.40046159691170069 0.34164056661102238 0 -0.39999637464883392 0.35559476271013252 0 -0.40046159691170069 0.34164056661102238 0 -0.41381361947694889 0.35655778899711688 0 -0.39999637464883392 0.35559476271013252 0 -0.40397412088998857 0.3623881668075713 0 -0.41381361947694889 0.35655778899711688 0 -0.39128338495032239 0.36719877308275878 0 -0.41098055992701871 0.3693971202961519 0 -0.40397412088998857 0.3623881668075713 0 -0.39128338495032239 0.36719877308275878 0 -0.41098055992701871 0.3693971202961519 0 -0.39942805555404642 0.38265078761847338 0 -0.39128338495032239 0.36719877308275878 0 -0.41098055992701871 0.3693971202961519 0 -0.39999637464883392 0.35559476271013252 0 -0.39128338495032239 0.36719877308275878 0 -0.38966798311544332 0.35610238881872369 0 -0.39999637464883392 0.35559476271013252 0 -0.40397412088998857 0.3623881668075713 0 -0.39128338495032239 0.36719877308275878 0 -0.39128338495032239 0.36719877308275878 0 -0.38070440212728118 0.35956436367519867 0 -0.38966798311544332 0.35610238881872369 0 -0.39128338495032239 0.36719877308275878 0 -0.38070440212728118 0.35956436367519867 0 -0.37158620997362618 0.36500042586936587 0 -0.39128338495032239 0.36719877308275878 0 -0.37158620997362618 0.36500042586936587 0 -0.38141148745950948 0.38039780936179463 0 -0.39128338495032239 0.36719877308275878 0 -0.37158620997362618 0.36500042586936587 0 -0.38070440212728118 0.35956436367519867 0 -0.38259242285128608 0.34975193996759602 0 -0.36960199921418602 0.35731180584905542 0 -0.38259242285128608 0.34975193996759602 0 -0.37580907906339922 0.33647878059299557 0 -0.36960199921418602 0.35731180584905542 0 -0.38070440212728118 0.35956436367519867 0 -0.38966798311544332 0.35610238881872369 0 -0.38259242285128608 0.34975193996759602 0 -0.39259889148010241 0.34864188780489069 0 -0.38966798311544332 0.35610238881872369 0 -0.38259242285128608 0.34975193996759602 0 -0.39259889148010241 0.34864188780489069 0 -0.38259242285128608 0.34975193996759602 0 -0.38794720083446621 0.34059934721089508 0 -0.38259242285128608 0.34975193996759602 0 -0.37580907906339922 0.33647878059299557 0 -0.38794720083446621 0.34059934721089508 0 -0.37580907906339922 0.33647878059299557 0 -0.38794720083446621 0.34059934721089508 0 -0.38710957434645199 0.32672334422492838 0 -0.37580907906339922 0.33647878059299557 0 -0.38201615891261242 0.31564575533693578 0 -0.38201615891261242 0.31564575533693578 0 -0.38336946241093189 0.30974931290420182 0 -0.36531193472093021 0.32454274932608829 0 -0.37580907906339922 0.33647878059299557 0 -0.38201615891261242 0.31564575533693578 0 -0.38710957434645199 0.32672334422492838 0 -0.38201615891261242 0.31564575533693578 0 -0.39350880394476312 0.31593875705230262 0 -0.38336946241093189 0.30974931290420182 0 -0.38201615891261242 0.31564575533693578 0 -0.38710957434645199 0.32672334422492838 0 -0.39350880394476312 0.31593875705230262 0 -0.38710957434645199 0.32672334422492838 0 -0.39350880394476312 0.31593875705230262 0 -0.39921774374196328 0.327754485124091 0 -0.39350880394476312 0.31593875705230262 0 -0.39921774374196328 0.327754485124091 0 -0.40602554896887638 0.32011992980008452 0 -0.39921774374196328 0.327754485124091 0 -0.40602554896887638 0.32011992980008452 0 -0.40814721749945931 0.33505042297199122 0 -0.38794720083446621 0.34059934721089508 0 -0.38710957434645199 0.32672334422492838 0 -0.40046159691170069 0.34164056661102238 0 -0.39259889148010241 0.34864188780489069 0 -0.38794720083446621 0.34059934721089508 0 -0.40046159691170069 0.34164056661102238 0 -0.38710957434645199 0.32672334422492838 0 -0.39921774374196328 0.327754485124091 0 -0.40046159691170069 0.34164056661102238 0 -0.38710957434645199 0.32672334422492838 0 -0.40046159691170069 0.34164056661102238 0 -0.39921774374196328 0.327754485124091 0 -0.40046159691170069 0.34164056661102238 0 -0.40814721749945931 0.33505042297199122 0 -0.40814721749945931 0.33505042297199122 0 -0.41954562432067788 0.33058053440738988 0 -0.41381361947694889 0.35655778899711688 0 -0.41954562432067788 0.33058053440738988 0 -0.41381361947694889 0.35655778899711688 0 -0.40602554896887638 0.32011992980008452 0 -0.40814721749945931 0.33505042297199122 0 -0.41954562432067788 0.33058053440738988 0 -0.40602554896887638 0.32011992980008452 0 -0.41954562432067788 0.33058053440738988 0 -0.42527762916440792 0.30460327981766322 0 -0.41954562432067788 0.33058053440738988 0 -0.42527762916440792 0.30460327981766322 0 -0.41954562432067788 0.33058053440738988 0 -0.44001701522470671 0.31606260091672289 0 -0.42527762916440792 0.30460327981766322 0 -0.41954562432067788 0.33058053440738988 0 -0.42420657124029282 0.3485159257420361 0 -0.43843079740841773 0.33787066219507811 0 -0.41954562432067788 0.33058053440738988 0 -0.43843079740841773 0.33787066219507811 0 -0.44001701522470671 0.31606260091672289 0 -0.42420657124029282 0.3485159257420361 0 -0.43459164588172849 0.36007712215754689 0 -0.43843079740841773 0.33787066219507811 0 -0.42420657124029282 0.3485159257420361 0 -0.41381361947694889 0.35655778899711688 0 -0.43459164588172849 0.36007712215754689 0 -0.41381361947694889 0.35655778899711688 0 -0.43459164588172849 0.36007712215754689 0 -0.43459164588172849 0.36007712215754689 0 -0.43843079740841773 0.33787066219507811 0 -0.40046159691170069 0.34164056661102238 0 -0.40814721749945931 0.33505042297199122 0 -0.41381361947694889 0.35655778899711688 0 -0.41954562432067788 0.33058053440738988 0 -0.42420657124029282 0.3485159257420361 0 -0.41381361947694889 0.35655778899711688 0 -0.39999637464883392 0.35559476271013252 0 -0.41381361947694889 0.35655778899711688 0 -0.40046159691170069 0.34164056661102238 0 -0.41381361947694889 0.35655778899711688 0 -0.41381361947694889 0.35655778899711688 0 -0.41098055992701871 0.3693971202961519 0 -0.42689564018809201 0.37117335838025439 0 -0.41098055992701871 0.3693971202961519 0 -0.42689564018809201 0.37117335838025439 0 -0.40881671944059661 0.37920357314115732 0 -0.41098055992701871 0.3693971202961519 0 -0.42689564018809201 0.37117335838025439 0 -0.40881671944059661 0.37920357314115732 0 -0.41098055992701871 0.3693971202961519 0 -0.40397412088998857 0.3623881668075713 0 -0.41381361947694889 0.35655778899711688 0 -0.41098055992701871 0.3693971202961519 0 -0.41381361947694889 0.35655778899711688 0 -0.41098055992701871 0.3693971202961519 0 -0.41381361947694889 0.35655778899711688 0 -0.42689564018809201 0.37117335838025439 0 -0.41381361947694889 0.35655778899711688 0 -0.42907199843085347 0.36486274908666949 0 -0.43459164588172849 0.36007712215754689 0 -0.42689564018809201 0.37117335838025439 0 -0.42907199843085347 0.36486274908666949 0 -0.42980351636605002 0.37149789839679431 0 -0.43173797726570751 0.37658334167695551 0 -0.42689564018809201 0.37117335838025439 0 -0.43173797726570751 0.37658334167695551 0 -0.42689564018809201 0.37117335838025439 0 -0.42980351636605002 0.37149789839679431 0 -0.42689564018809201 0.37117335838025439 0 -0.42980351636605002 0.37149789839679431 0 -0.41381361947694889 0.35655778899711688 0 -0.42689564018809201 0.37117335838025439 0 -0.42907199843085347 0.36486274908666949 0 -0.43459164588172849 0.36007712215754689 0 -0.4325639091043616 0.37180597819459837 0 -0.42907199843085347 0.36486274908666949 0 -0.43459164588172849 0.36007712215754689 0 -0.4325639091043616 0.37180597819459837 0 -0.43173797726570751 0.37658334167695551 0 -0.4325639091043616 0.37180597819459837 0 -0.43173797726570751 0.37658334167695551 0 -0.4325639091043616 0.37180597819459837 0 -0.42980351636605002 0.37149789839679431 0 -0.4325639091043616 0.37180597819459837 0 -0.42980351636605002 0.37149789839679431 0 -0.42907199843085347 0.36486274908666949 0 -0.4325639091043616 0.37180597819459837 0 -0.42980351636605002 0.37149789839679431 0 -0.4393591315165738 0.37762743775392832 0 -0.4325639091043616 0.37180597819459837 0 -0.44813402172652672 0.37354371539476261 0 -0.4325639091043616 0.37180597819459837 0 -0.44813402172652672 0.37354371539476261 0 -0.4325639091043616 0.37180597819459837 0 -0.44813402172652672 0.37354371539476261 0 -0.45404419213644692 0.3625975043188554 0 -0.43459164588172849 0.36007712215754689 0 -0.45404419213644692 0.3625975043188554 0 -0.43459164588172849 0.36007712215754689 0 -0.4325639091043616 0.37180597819459837 0 -0.45404419213644692 0.3625975043188554 0 -0.4325639091043616 0.37180597819459837 0 -0.45404419213644692 0.3625975043188554 0 -0.43459164588172849 0.36007712215754689 0 -0.44549025602952702 0.35300777224981977 0 -0.45404419213644692 0.3625975043188554 0 -0.44549025602952702 0.35300777224981977 0 -0.45575207180717081 0.34762579988211101 0 -0.43843079740841773 0.33787066219507811 0 -0.43459164588172849 0.36007712215754689 0 -0.44549025602952702 0.35300777224981977 0 -0.43843079740841773 0.33787066219507811 0 -0.44549025602952702 0.35300777224981977 0 -0.45575207180717081 0.34762579988211101 0 -0.45404419213644692 0.3625975043188554 0 -0.45575207180717081 0.34762579988211101 0 -0.46674234051517471 0.35793515390827568 0 -0.45404419213644692 0.3625975043188554 0 -0.45575207180717081 0.34762579988211101 0 -0.46674234051517471 0.35793515390827568 0 -0.46933267881425472 0.34565439271282838 0 -0.45404419213644692 0.3625975043188554 0 -0.47441064506165659 0.36523629740895902 0 -0.46674234051517471 0.35793515390827568 0 -0.45404419213644692 0.3625975043188554 0 -0.47441064506165659 0.36523629740895902 0 -0.45404419213644692 0.3625975043188554 0 -0.46360543106569913 0.37231654924431878 0 -0.47441064506165659 0.36523629740895902 0 -0.44813402172652672 0.37354371539476261 0 -0.45404419213644692 0.3625975043188554 0 -0.46360543106569913 0.37231654924431878 0 -0.46674234051517471 0.35793515390827568 0 -0.45404419213644692 0.3625975043188554 0 -0.46360543106569913 0.37231654924431878 0 -0.47397397291215421 0.37493689296344251 0 -0.47441064506165659 0.36523629740895902 0 -0.47441064506165659 0.36523629740895902 0 -0.48058358620238051 0.35168401037216412 0 -0.49477709798686631 0.36787509049906381 0 -0.47397397291215421 0.37493689296344251 0 -0.47441064506165659 0.36523629740895902 0 -0.48714178473823078 0.37241716516273898 0 -0.46674234051517471 0.35793515390827568 0 -0.47441064506165659 0.36523629740895902 0 -0.48058358620238051 0.35168401037216412 0 -0.46674234051517471 0.35793515390827568 0 -0.46933267881425472 0.34565439271282838 0 -0.48058358620238051 0.35168401037216412 0 -0.46933267881425472 0.34565439271282838 0 -0.48058358620238051 0.35168401037216412 0 -0.48121002056386808 0.3369363626790518 0 -0.48058358620238051 0.35168401037216412 0 -0.49703354506598713 0.34759711953555122 0 -0.48121002056386808 0.3369363626790518 0 -0.49703354506598713 0.34759711953555122 0 -0.5 0.34812631329607491 0 -0.49477709798686631 0.36787509049906381 0 -0.48058358620238051 0.35168401037216412 0 -0.49703354506598713 0.34759711953555122 0 -0.49477709798686631 0.36787509049906381 0 -0.49703354506598713 0.34759711953555122 0 -0.49477709798686631 0.36787509049906381 0 -0.5 0.34812631329607491 0 -0.50000000000000311 0.3685517992903854 0 -0.49477709798686631 0.36787509049906381 0 -0.47441064506165659 0.36523629740895902 0 -0.49477709798686631 0.36787509049906381 0 -0.48714178473823078 0.37241716516273898 0 -0.47441064506165659 0.36523629740895902 0 -0.49477709798686631 0.36787509049906381 0 -0.49007778645481631 0.38142997617552599 0 -0.50000000000000311 0.3685517992903854 0 -0.49477709798686631 0.36787509049906381 0 -0.50000000000000311 0.3685517992903854 0 -0.49477709798686631 0.36787509049906381 0 -0.49007778645481631 0.38142997617552599 0 -0.49477709798686631 0.36787509049906381 0 -0.48714178473823078 0.37241716516273898 0 -0.4992899921451075 0.32731914857203848 0 -0.47890896772952718 0.31636292681222472 0 -0.4992899921451075 0.32731914857203848 0 -0.48121002056386808 0.3369363626790518 0 -0.47890896772952718 0.31636292681222472 0 -0.49999999999999989 0.32093853419885771 0 -0.47890896772952718 0.31636292681222472 0 -0.48920120729889771 0.30786362236022019 0 -0.49999999999999989 0.32093853419885771 0 -0.4992899921451075 0.32731914857203848 0 -0.47890896772952718 0.31636292681222472 0 -0.49999999999999989 0.32093853419885771 0 -0.4992899921451075 0.32731914857203848 0 -0.49703354506598713 0.34759711953555122 0 -0.4992899921451075 0.32731914857203848 0 -0.49703354506598713 0.34759711953555122 0 -0.4992899921451075 0.32731914857203848 0 -0.48121002056386808 0.3369363626790518 0 -0.49703354506598713 0.34759711953555122 0 -0.5 0.34812631329607491 0 -0.4992899921451075 0.32731914857203848 0 -0.46933267881425472 0.34565439271282838 0 -0.48121002056386808 0.3369363626790518 0 -0.46237537498267961 0.3340906367225393 0 -0.48121002056386808 0.3369363626790518 0 -0.47890896772952718 0.31636292681222472 0 -0.46237537498267961 0.3340906367225393 0 -0.47890896772952718 0.31636292681222472 0 -0.45636509730576869 0.32029680939338251 0 -0.45852794331394758 0.30540670505240958 0 -0.47890896772952718 0.31636292681222472 0 -0.45636509730576869 0.32029680939338251 0 -0.46237537498267961 0.3340906367225393 0 -0.45575207180717081 0.34762579988211101 0 -0.46933267881425472 0.34565439271282838 0 -0.46237537498267961 0.3340906367225393 0 -0.45575207180717081 0.34762579988211101 0 -0.46237537498267961 0.3340906367225393 0 -0.43843079740841773 0.33787066219507811 0 -0.45636509730576869 0.32029680939338251 0 -0.46237537498267961 0.3340906367225393 0 -0.43843079740841773 0.33787066219507811 0 -0.45636509730576869 0.32029680939338251 0 -0.43843079740841773 0.33787066219507811 0 -0.44001701522470671 0.31606260091672289 0 -0.45636509730576869 0.32029680939338251 0 -0.44001701522470671 0.31606260091672289 0 -0.45852794331394758 0.30540670505240958 0 -0.4381469188983681 0.2944504832925946 0 -0.45852794331394758 0.30540670505240958 0 -0.44001701522470671 0.31606260091672289 0 -0.4381469188983681 0.2944504832925946 0 -0.45852794331394758 0.30540670505240958 0 -0.4381469188983681 0.2944504832925946 0 -0.4447805513699985 0.27737231294201392 0 -0.43100963400813791 0.27862602522793672 0 -0.4381469188983681 0.2944504832925946 0 -0.45724976864254441 0.28334965182257721 0 -0.4447805513699985 0.27737231294201392 0 -0.4381469188983681 0.2944504832925946 0 -0.45724976864254441 0.28334965182257721 0 -0.45852794331394758 0.30540670505240958 0 -0.45724976864254441 0.28334965182257721 0 -0.45852794331394758 0.30540670505240958 0 -0.47789586146606378 0.29814868652574811 0 -0.47890896772952718 0.31636292681222472 0 -0.45852794331394758 0.30540670505240958 0 -0.47890896772952718 0.31636292681222472 0 -0.47789586146606378 0.29814868652574811 0 -0.48920120729889771 0.30786362236022019 0 -0.47890896772952718 0.31636292681222472 0 -0.45852794331394758 0.30540670505240958 0 -0.47789586146606378 0.29814868652574811 0 -0.45724976864254441 0.28334965182257721 0 -0.47789586146606378 0.29814868652574811 0 -0.48102565218130672 0.27929705551177292 0 -0.5 0.29600434190405073 0 -0.5 0.27107014960924369 0 -0.48102565218130672 0.27929705551177292 0 -0.47789586146606378 0.29814868652574811 0 -0.5 0.29600434190405073 0 -0.48102565218130672 0.27929705551177292 0 -0.47789586146606378 0.29814868652574811 0 -0.5 0.29600434190405073 0 -0.48920120729889771 0.30786362236022019 0 -0.49999999999999989 0.32093853419885771 0 -0.5 0.29600434190405073 0 -0.48920120729889771 0.30786362236022019 0 -0.48177750529808522 0.24619974485466931 0 -0.5 0.2461359573144368 0 -0.48654709528280549 0.26072196503438649 0 -0.5 0.2461359573144368 0 -0.48654709528280549 0.26072196503438649 0 -0.5 0.27107014960924369 0 -0.48654709528280549 0.26072196503438649 0 -0.5 0.27107014960924369 0 -0.48102565218130672 0.27929705551177292 0 -0.48654709528280549 0.26072196503438649 0 -0.48102565218130672 0.27929705551177292 0 -0.46993231893463527 0.26090691788180947 0 -0.45724976864254441 0.28334965182257721 0 -0.48102565218130672 0.27929705551177292 0 -0.46993231893463527 0.26090691788180947 0 -0.48177750529808522 0.24619974485466931 0 -0.48654709528280549 0.26072196503438649 0 -0.46993231893463527 0.26090691788180947 0 -0.45710504060219709 0.23686107433279269 0 -0.46993231893463527 0.26090691788180947 0 -0.44707755271196942 0.2637365605125353 0 -0.45724976864254441 0.28334965182257721 0 -0.46993231893463527 0.26090691788180947 0 -0.44707755271196942 0.2637365605125353 0 -0.45724976864254441 0.28334965182257721 0 -0.4447805513699985 0.27737231294201392 0 -0.44707755271196942 0.2637365605125353 0 -0.4447805513699985 0.27737231294201392 0 -0.44707755271196942 0.2637365605125353 0 -0.43100963400813791 0.27862602522793672 0 -0.45710504060219709 0.23686107433279269 0 -0.44707755271196942 0.2637365605125353 0 -0.44707755271196942 0.2637365605125353 0 -0.4367416388518679 0.25264877063821017 0 -0.43100963400813791 0.27862602522793672 0 -0.45710504060219709 0.23686107433279269 0 -0.44707755271196942 0.2637365605125353 0 -0.4367416388518679 0.25264877063821017 0 -0.4367416388518679 0.25264877063821017 0 -0.41175872593851298 0.2549478601346914 0 -0.41885046316002428 0.26850948483906401 0 -0.41175872593851298 0.2549478601346914 0 -0.41885046316002428 0.26850948483906401 0 -0.3976364837244763 0.27421361628784369 0 -0.41885046316002428 0.26850948483906401 0 -0.41710583327712653 0.28211115190663788 0 -0.3976364837244763 0.27421361628784369 0 -0.41885046316002428 0.26850948483906401 0 -0.43100963400813791 0.27862602522793672 0 -0.41710583327712653 0.28211115190663788 0 -0.4367416388518679 0.25264877063821017 0 -0.43100963400813791 0.27862602522793672 0 -0.4367416388518679 0.25264877063821017 0 -0.41885046316002428 0.26850948483906401 0 -0.43100963400813791 0.27862602522793672 0 -0.4381469188983681 0.2944504832925946 0 -0.43100963400813791 0.27862602522793672 0 -0.42527762916440792 0.30460327981766322 0 -0.43100963400813791 0.27862602522793672 0 -0.42527762916440792 0.30460327981766322 0 -0.41710583327712653 0.28211115190663788 0 -0.43100963400813791 0.27862602522793672 0 -0.42527762916440792 0.30460327981766322 0 -0.44001701522470671 0.31606260091672289 0 -0.4381469188983681 0.2944504832925946 0 -0.42527762916440792 0.30460327981766322 0 -0.40602554896887638 0.32011992980008452 0 -0.42527762916440792 0.30460327981766322 0 -0.4014269901009333 0.29495587648231503 0 -0.41710583327712653 0.28211115190663788 0 -0.4014269901009333 0.29495587648231503 0 -0.42527762916440792 0.30460327981766322 0 -0.41710583327712653 0.28211115190663788 0 -0.4014269901009333 0.29495587648231503 0 -0.41710583327712653 0.28211115190663788 0 -0.4014269901009333 0.29495587648231503 0 -0.3976364837244763 0.27421361628784369 0 -0.4014269901009333 0.29495587648231503 0 -0.38389766901197209 0.2919764357376447 0 -0.3976364837244763 0.27421361628784369 0 -0.4014269901009333 0.29495587648231503 0 -0.3976364837244763 0.27421361628784369 0 -0.39350880394476312 0.31593875705230262 0 -0.40602554896887638 0.32011992980008452 0 -0.4014269901009333 0.29495587648231503 0 -0.4014269901009333 0.29495587648231503 0 -0.38336946241093189 0.30974931290420182 0 -0.40602554896887638 0.32011992980008452 0 -0.4014269901009333 0.29495587648231503 0 -0.39350880394476312 0.31593875705230262 0 -0.4014269901009333 0.29495587648231503 0 -0.38336946241093189 0.30974931290420182 0 -0.38336946241093189 0.30974931290420182 0 -0.38389766901197209 0.2919764357376447 0 -0.36596935852520629 0.30787018431111951 0 -0.4014269901009333 0.29495587648231503 0 -0.38336946241093189 0.30974931290420182 0 -0.38389766901197209 0.2919764357376447 0 -0.38389766901197209 0.2919764357376447 0 -0.3839238193794226 0.27871888045260418 0 -0.3976364837244763 0.27421361628784369 0 -0.38389766901197209 0.2919764357376447 0 -0.3839238193794226 0.27871888045260418 0 -0.3703732677084236 0.2804332674389724 0 -0.3839238193794226 0.27871888045260418 0 -0.38378785707281859 0.2682522023459562 0 -0.3703732677084236 0.2804332674389724 0 -0.38378785707281859 0.2682522023459562 0 -0.37477717689163992 0.25299635056682518 0 -0.3703732677084236 0.2804332674389724 0 -0.3839238193794226 0.27871888045260418 0 -0.38378785707281859 0.2682522023459562 0 -0.3976364837244763 0.27421361628784369 0 -0.38378785707281859 0.2682522023459562 0 -0.39384597734802013 0.25347135609337229 0 -0.37477717689163992 0.25299635056682518 0 -0.39384597734802013 0.25347135609337229 0 -0.3976364837244763 0.27421361628784369 0 -0.41175872593851298 0.2549478601346914 0 -0.39384597734802013 0.25347135609337229 0 -0.3976364837244763 0.27421361628784369 0 -0.38378785707281859 0.2682522023459562 0 -0.39384597734802013 0.25347135609337229 0 -0.3976364837244763 0.27421361628784369 0 -0.35834524103505527 0.27479395617319979 0 -0.34490227433735798 0.27909378963084902 0 -0.35045174428906722 0.28677843618767362 0 -0.35834524103505527 0.27479395617319979 0 -0.34490227433735798 0.27909378963084902 0 -0.34728570068091402 0.2661688508290645 0 -0.34728570068091402 0.2661688508290645 0 -0.35464358931248319 0.25491115920099722 0 -0.34150965816976359 0.25817059719828012 0 -0.33845336435013867 0.242079554605789 0 -0.35464358931248319 0.25491115920099722 0 -0.34150965816976359 0.25817059719828012 0 -0.35834524103505527 0.27479395617319979 0 -0.34728570068091402 0.2661688508290645 0 -0.35464358931248319 0.25491115920099722 0 -0.35834524103505527 0.27479395617319979 0 -0.37477717689163992 0.25299635056682518 0 -0.35834524103505527 0.27479395617319979 0 -0.35464358931248319 0.25491115920099722 0 -0.37477717689163992 0.25299635056682518 0 -0.37477717689163992 0.25299635056682518 0 -0.3703732677084236 0.2804332674389724 0 -0.35834524103505527 0.27479395617319979 0 -0.37477717689163992 0.25299635056682518 0 -0.3703732677084236 0.2804332674389724 0 -0.3703732677084236 0.2804332674389724 0 -0.36596935852520629 0.30787018431111951 0 -0.38389766901197209 0.2919764357376447 0 -0.3703732677084236 0.2804332674389724 0 -0.36596935852520629 0.30787018431111951 0 -0.35834524103505527 0.27479395617319979 0 -0.3703732677084236 0.2804332674389724 0 -0.35925388220638338 0.290827281626163 0 -0.3703732677084236 0.2804332674389724 0 -0.36596935852520629 0.30787018431111951 0 -0.35925388220638338 0.290827281626163 0 -0.36596935852520629 0.30787018431111951 0 -0.35645499353340299 0.30154574554434233 0 -0.35925388220638338 0.290827281626163 0 -0.36596935852520629 0.30787018431111951 0 -0.35645499353340299 0.30154574554434233 0 -0.35774913989266272 0.31391262040183171 0 -0.35645499353340299 0.30154574554434233 0 -0.35013945535461871 0.3105838988596446 0 -0.35774913989266272 0.31391262040183171 0 -0.35645499353340299 0.30154574554434233 0 -0.34780240298166087 0.30288468022079579 0 -0.35285886900803182 0.29452238055293539 0 -0.34780240298166087 0.30288468022079579 0 -0.34622635383862083 0.29383585221412489 0 -0.33932813284697128 0.29730713825443927 0 -0.34780240298166087 0.30288468022079579 0 -0.35285886900803182 0.29452238055293539 0 -0.34622635383862083 0.29383585221412489 0 -0.34780240298166087 0.30288468022079579 0 -0.34514961405368982 0.30758965292055213 0 -0.33997231501418312 0.30473657218964828 0 -0.35645499353340299 0.30154574554434233 0 -0.34780240298166087 0.30288468022079579 0 -0.35013945535461871 0.3105838988596446 0 -0.34780240298166087 0.30288468022079579 0 -0.34514961405368982 0.30758965292055213 0 -0.35013945535461871 0.3105838988596446 0 -0.34514961405368982 0.30758965292055213 0 -0.35013945535461871 0.3105838988596446 0 -0.34268428286429659 0.31215346041211978 0 -0.35834524103505527 0.27479395617319979 0 -0.35925388220638338 0.290827281626163 0 -0.35045174428906722 0.28677843618767362 0 -0.35645499353340299 0.30154574554434233 0 -0.35925388220638338 0.290827281626163 0 -0.35285886900803182 0.29452238055293539 0 -0.35925388220638338 0.290827281626163 0 -0.35285886900803182 0.29452238055293539 0 -0.35045174428906722 0.28677843618767362 0 -0.35285886900803182 0.29452238055293539 0 -0.34622635383862083 0.29383585221412489 0 -0.35045174428906722 0.28677843618767362 0 -0.34622635383862083 0.29383585221412489 0 -0.35045174428906722 0.28677843618767362 0 -0.34088660642111013 0.2879281286912172 0 -0.34490227433735798 0.27909378963084902 0 -0.35045174428906722 0.28677843618767362 0 -0.34088660642111013 0.2879281286912172 0 -0.34490227433735798 0.27909378963084902 0 -0.34088660642111013 0.2879281286912172 0 -0.33262910378125132 0.278293493462413 0 -0.34088660642111013 0.2879281286912172 0 -0.33227483086849752 0.29261385498347509 0 -0.33932813284697128 0.29730713825443927 0 -0.34622635383862083 0.29383585221412489 0 -0.34088660642111013 0.2879281286912172 0 -0.33932813284697128 0.29730713825443927 0 -0.33227483086849752 0.29261385498347509 0 -0.32398535199451511 0.28524421774589648 0 -0.33262910378125132 0.278293493462413 0 -0.34088660642111013 0.2879281286912172 0 -0.33227483086849752 0.29261385498347509 0 -0.33262910378125132 0.278293493462413 0 -0.33718535734333338 0.30882123026638569 0 -0.34268428286429659 0.31215346041211978 0 -0.33477104767585758 0.31524888829805342 0 -0.33718535734333338 0.30882123026638569 0 -0.34268428286429659 0.31215346041211978 0 -0.33997231501418312 0.30473657218964828 0 -0.34514961405368982 0.30758965292055213 0 -0.34268428286429659 0.31215346041211978 0 -0.33997231501418312 0.30473657218964828 0 -0.33718535734333338 0.30882123026638569 0 -0.33997231501418312 0.30473657218964828 0 -0.33396296217470239 0.30554582684384218 0 -0.33997231501418312 0.30473657218964828 0 -0.33932813284697128 0.29730713825443927 0 -0.33396296217470239 0.30554582684384218 0 -0.34780240298166087 0.30288468022079579 0 -0.33997231501418312 0.30473657218964828 0 -0.33932813284697128 0.29730713825443927 0 -0.33227483086849752 0.29261385498347509 0 -0.33396296217470239 0.30554582684384218 0 -0.32251037119006698 0.3031431883822347 0 -0.33227483086849752 0.29261385498347509 0 -0.33932813284697128 0.29730713825443927 0 -0.33396296217470239 0.30554582684384218 0 -0.33718535734333338 0.30882123026638569 0 -0.33396296217470239 0.30554582684384218 0 -0.33477104767585758 0.31524888829805342 0 -0.33396296217470239 0.30554582684384218 0 -0.32251037119006698 0.3031431883822347 0 -0.33219148171911272 0.31730370811833031 0 -0.32251037119006698 0.3031431883822347 0 -0.31456388983813333 0.31636814557902659 0 -0.33219148171911272 0.31730370811833031 0 -0.32251037119006698 0.3031431883822347 0 -0.31282926066102218 0.28898266864613842 0 -0.30402337591517081 0.3051012194244167 0 -0.32251037119006698 0.3031431883822347 0 -0.30402337591517081 0.3051012194244167 0 -0.31456388983813333 0.31636814557902659 0 -0.32251037119006698 0.3031431883822347 0 -0.33219148171911272 0.31730370811833031 0 -0.33227483086849752 0.29261385498347509 0 -0.32251037119006698 0.3031431883822347 0 -0.32398535199451511 0.28524421774589648 0 -0.32251037119006698 0.3031431883822347 0 -0.32398535199451511 0.28524421774589648 0 -0.31282926066102218 0.28898266864613842 0 -0.32251037119006698 0.3031431883822347 0 -0.31282926066102218 0.28898266864613842 0 -0.31282926066102218 0.28898266864613842 0 -0.32065101258715689 0.274665503564473 0 -0.32398535199451511 0.28524421774589648 0 -0.31282926066102218 0.28898266864613842 0 -0.32065101258715689 0.274665503564473 0 -0.32065101258715689 0.274665503564473 0 -0.32847276451329022 0.26034833848280681 0 -0.31199410965335322 0.26463258327439948 0 -0.32065101258715689 0.274665503564473 0 -0.33262910378125132 0.278293493462413 0 -0.32847276451329022 0.26034833848280681 0 -0.31282926066102218 0.28898266864613842 0 -0.32065101258715689 0.274665503564473 0 -0.30403346053568642 0.27611708872161922 0 -0.32065101258715689 0.274665503564473 0 -0.32847276451329022 0.26034833848280681 0 -0.32398535199451511 0.28524421774589648 0 -0.32065101258715689 0.274665503564473 0 -0.33262910378125132 0.278293493462413 0 -0.33262910378125132 0.278293493462413 0 -0.33869287199199061 0.26734508287274228 0 -0.32847276451329022 0.26034833848280681 0 -0.34490227433735798 0.27909378963084902 0 -0.34728570068091402 0.2661688508290645 0 -0.33869287199199061 0.26734508287274228 0 -0.34490227433735798 0.27909378963084902 0 -0.33262910378125132 0.278293493462413 0 -0.33869287199199061 0.26734508287274228 0 -0.33845336435013867 0.242079554605789 0 -0.34150965816976359 0.25817059719828012 0 -0.32847276451329022 0.26034833848280681 0 -0.33845336435013867 0.242079554605789 0 -0.32847276451329022 0.26034833848280681 0 -0.34728570068091402 0.2661688508290645 0 -0.33869287199199061 0.26734508287274228 0 -0.34150965816976359 0.25817059719828012 0 -0.33869287199199061 0.26734508287274228 0 -0.34150965816976359 0.25817059719828012 0 -0.32847276451329022 0.26034833848280681 0 -0.33869287199199061 0.26734508287274228 0 -0.32847276451329022 0.26034833848280681 0 -0.311575650220281 0.24878047680599949 0 -0.32847276451329022 0.26034833848280681 0 -0.311575650220281 0.24878047680599949 0 -0.32847276451329022 0.26034833848280681 0 -0.31199410965335322 0.26463258327439948 0 -0.32455092720978362 0.24357057421839101 0 -0.311575650220281 0.24878047680599949 0 -0.32847276451329022 0.26034833848280681 0 -0.311575650220281 0.24878047680599949 0 -0.31199410965335322 0.26463258327439948 0 -0.29523766041035199 0.26325150879709891 0 -0.30403346053568642 0.27611708872161922 0 -0.29523766041035199 0.26325150879709891 0 -0.29574151564778611 0.28671646758259889 0 -0.31199410965335322 0.26463258327439948 0 -0.30403346053568642 0.27611708872161922 0 -0.29523766041035199 0.26325150879709891 0 -0.32065101258715689 0.274665503564473 0 -0.31199410965335322 0.26463258327439948 0 -0.30403346053568642 0.27611708872161922 0 -0.30403346053568642 0.27611708872161922 0 -0.29523766041035199 0.26325150879709891 0 -0.28985028671148488 0.25537141990030859 0 -0.26863301980023729 0.26794771562718522 0 -0.28534189936007232 0.28197220440765719 0 -0.29523766041035199 0.26325150879709891 0 -0.29574151564778611 0.28671646758259889 0 -0.29523766041035199 0.26325150879709891 0 -0.29574151564778611 0.28671646758259889 0 -0.28534189936007232 0.28197220440765719 0 -0.28985028671148488 0.25537141990030859 0 -0.29523766041035199 0.26325150879709891 0 -0.28534189936007232 0.28197220440765719 0 -0.28985028671148488 0.25537141990030859 0 -0.28534189936007232 0.28197220440765719 0 -0.29467853592727078 0.23721261512919359 0 -0.29523766041035199 0.26325150879709891 0 -0.29467853592727078 0.23721261512919359 0 -0.28985028671148488 0.25537141990030859 0 -0.29523766041035199 0.26325150879709891 0 -0.28985028671148488 0.25537141990030859 0 -0.29523766041035199 0.26325150879709891 0 -0.28985028671148488 0.25537141990030859 0 -0.2724296921133022 0.25217156250687062 0 -0.26863301980023729 0.26794771562718522 0 -0.2724296921133022 0.25217156250687062 0 -0.26863301980023729 0.26794771562718522 0 -0.25693865295534157 0.25278860643768353 0 -0.26863301980023729 0.26794771562718522 0 -0.26277913973510902 0.29023342414179659 0 -0.28534189936007232 0.28197220440765719 0 -0.26277913973510902 0.29023342414179659 0 -0.2447247674615598 0.2718938593685879 0 -0.26863301980023729 0.26794771562718522 0 -0.26277913973510902 0.29023342414179659 0 -0.2447247674615598 0.2718938593685879 0 -0.26863301980023729 0.26794771562718522 0 -0.25693865295534157 0.25278860643768353 0 -0.2447247674615598 0.2718938593685879 0 -0.26277913973510902 0.29023342414179659 0 -0.25757488899104952 0.31786411623381933 0 -0.2366570207200871 0.30010935915934539 0 -0.26277913973510902 0.29023342414179659 0 -0.28083351200865853 0.30857298891500562 0 -0.28534189936007232 0.28197220440765719 0 -0.26277913973510902 0.29023342414179659 0 -0.28083351200865853 0.30857298891500562 0 -0.26277913973510902 0.29023342414179659 0 -0.28083351200865853 0.30857298891500562 0 -0.25757488899104952 0.31786411623381933 0 -0.28083351200865853 0.30857298891500562 0 -0.29574151564778611 0.28671646758259889 0 -0.30402337591517081 0.3051012194244167 0 -0.28083351200865853 0.30857298891500562 0 -0.29574151564778611 0.28671646758259889 0 -0.28534189936007232 0.28197220440765719 0 -0.28083351200865853 0.30857298891500562 0 -0.28534189936007232 0.28197220440765719 0 -0.31282926066102218 0.28898266864613842 0 -0.29574151564778611 0.28671646758259889 0 -0.30402337591517081 0.3051012194244167 0 -0.31282926066102218 0.28898266864613842 0 -0.30403346053568642 0.27611708872161922 0 -0.29574151564778611 0.28671646758259889 0 -0.31282926066102218 0.28898266864613842 0 -0.30403346053568642 0.27611708872161922 0 -0.31282926066102218 0.28898266864613842 0 -0.30402337591517081 0.3051012194244167 0 -0.30402337591517081 0.3051012194244167 0 -0.29932851783868691 0.32736014762988469 0 -0.31456388983813333 0.31636814557902659 0 -0.29932851783868691 0.32736014762988469 0 -0.31400963374603508 0.33178692824556621 0 -0.31456388983813333 0.31636814557902659 0 -0.29582778577295937 0.3462701483728044 0 -0.31354931950312093 0.34747342072874071 0 -0.31400963374603508 0.33178692824556621 0 -0.29582778577295937 0.3462701483728044 0 -0.31400963374603508 0.33178692824556621 0 -0.29932851783868691 0.32736014762988469 0 -0.29582778577295937 0.3462701483728044 0 -0.31400963374603508 0.33178692824556621 0 -0.29932851783868691 0.32736014762988469 0 -0.27670802547122531 0.33291454828341721 0 -0.29582778577295937 0.3462701483728044 0 -0.27670802547122531 0.33291454828341721 0 -0.29582778577295937 0.3462701483728044 0 -0.28186865011063378 0.34863084123191301 0 -0.28083351200865853 0.30857298891500562 0 -0.30402337591517081 0.3051012194244167 0 -0.29932851783868691 0.32736014762988469 0 -0.28083351200865853 0.30857298891500562 0 -0.29932851783868691 0.32736014762988469 0 -0.28083351200865853 0.30857298891500562 0 -0.29932851783868691 0.32736014762988469 0 -0.27670802547122531 0.33291454828341721 0 -0.28083351200865853 0.30857298891500562 0 -0.27670802547122531 0.33291454828341721 0 -0.25757488899104952 0.31786411623381933 0 -0.28083351200865853 0.30857298891500562 0 -0.27670802547122531 0.33291454828341721 0 -0.27670802547122531 0.33291454828341721 0 -0.25757488899104952 0.31786411623381933 0 -0.25368472498167011 0.34420349485172652 0 -0.2613799420943046 0.36179346951182628 0 -0.25453646971320443 0.37462232419521813 0 -0.26689531734350652 0.36931705260985792 0 -0.2613799420943046 0.36179346951182628 0 -0.25453646971320443 0.37462232419521813 0 -0.24822911175635759 0.36217347122335058 0 -0.25368472498167011 0.34420349485172652 0 -0.27258253893379292 0.35725610765182902 0 -0.2613799420943046 0.36179346951182628 0 -0.25368472498167011 0.34420349485172652 0 -0.24822911175635759 0.36217347122335058 0 -0.2613799420943046 0.36179346951182628 0 -0.25368472498167011 0.34420349485172652 0 -0.27258253893379292 0.35725610765182902 0 -0.27670802547122531 0.33291454828341721 0 -0.27258253893379292 0.35725610765182902 0 -0.27670802547122531 0.33291454828341721 0 -0.27258253893379292 0.35725610765182902 0 -0.28186865011063378 0.34863084123191301 0 -0.27670802547122531 0.33291454828341721 0 -0.25368472498167011 0.34420349485172652 0 -0.27258253893379292 0.35725610765182902 0 -0.27258253893379292 0.35725610765182902 0 -0.27764593779988228 0.36075336850004069 0 -0.28186865011063378 0.34863084123191301 0 -0.27258253893379292 0.35725610765182902 0 -0.27764593779988228 0.36075336850004069 0 -0.27764593779988228 0.36075336850004069 0 -0.27110701654299552 0.36596211494311248 0 -0.28943519450698252 0.3688961411714532 0 -0.27110701654299552 0.36596211494311248 0 -0.28943519450698252 0.3688961411714532 0 -0.27110701654299552 0.36596211494311248 0 -0.28943519450698252 0.3688961411714532 0 -0.28084635904778937 0.37544065550995409 0 -0.27258253893379292 0.35725610765182902 0 -0.27764593779988228 0.36075336850004069 0 -0.27110701654299552 0.36596211494311248 0 -0.27764593779988228 0.36075336850004069 0 -0.27110701654299552 0.36596211494311248 0 -0.2613799420943046 0.36179346951182628 0 -0.27258253893379292 0.35725610765182902 0 -0.27110701654299552 0.36596211494311248 0 -0.2613799420943046 0.36179346951182628 0 -0.27110701654299552 0.36596211494311248 0 -0.26689531734350652 0.36931705260985792 0 -0.27258253893379292 0.35725610765182902 0 -0.27110701654299552 0.36596211494311248 0 -0.27110701654299552 0.36596211494311248 0 -0.26689531734350652 0.36931705260985792 0 -0.27110701654299552 0.36596211494311248 0 -0.28084635904778937 0.37544065550995409 0 -0.27663284499009211 0.37939207802828528 0 -0.28943519450698252 0.3688961411714532 0 -0.28685204816290072 0.37621819500323123 0 -0.28084635904778937 0.37544065550995409 0 -0.27764593779988228 0.36075336850004069 0 -0.28943519450698252 0.3688961411714532 0 -0.29551252006441958 0.37309371542857861 0 -0.28943519450698252 0.3688961411714532 0 -0.28685204816290072 0.37621819500323123 0 -0.29551252006441958 0.37309371542857861 0 -0.28943519450698252 0.3688961411714532 0 -0.27764593779988228 0.36075336850004069 0 -0.29582778577295937 0.3462701483728044 0 -0.27764593779988228 0.36075336850004069 0 -0.29582778577295937 0.3462701483728044 0 -0.28186865011063378 0.34863084123191301 0 -0.28943519450698252 0.3688961411714532 0 -0.29582778577295937 0.3462701483728044 0 -0.30300283950081008 0.36051339397403093 0 -0.27764593779988228 0.36075336850004069 0 -0.28943519450698252 0.3688961411714532 0 -0.29582778577295937 0.3462701483728044 0 -0.29582778577295937 0.3462701483728044 0 -0.30300283950081008 0.36051339397403093 0 -0.31354931950312093 0.34747342072874071 0 -0.28943519450698252 0.3688961411714532 0 -0.31408843612631249 0.37197903781600761 0 -0.28943519450698252 0.3688961411714532 0 -0.30300283950081008 0.36051339397403093 0 -0.31408843612631249 0.37197903781600761 0 -0.29551252006441958 0.37309371542857861 0 -0.28943519450698252 0.3688961411714532 0 -0.31408843612631249 0.37197903781600761 0 -0.30300283950081008 0.36051339397403093 0 -0.31408843612631249 0.37197903781600761 0 -0.32472866683278162 0.35786931268145811 0 -0.31408843612631249 0.37197903781600761 0 -0.32472866683278162 0.35786931268145811 0 -0.33874167774564268 0.3750619344605613 0 -0.31408843612631249 0.37197903781600761 0 -0.33874167774564268 0.3750619344605613 0 -0.33942470910854639 0.36092010030626542 0 -0.32472866683278162 0.35786931268145811 0 -0.33874167774564268 0.3750619344605613 0 -0.33942470910854639 0.36092010030626542 0 -0.3497530714632448 0.36534695126967459 0 -0.33874167774564268 0.3750619344605613 0 -0.33815763529499693 0.35089104021064632 0 -0.32472866683278162 0.35786931268145811 0 -0.33017767166301859 0.34092732036984391 0 -0.33815763529499693 0.35089104021064632 0 -0.33017767166301859 0.34092732036984391 0 -0.34251680356524339 0.34321741671518669 0 -0.33815763529499693 0.35089104021064632 0 -0.3460879504978186 0.35511096805544279 0 -0.34556584107983002 0.34849125976349993 0 -0.33815763529499693 0.35089104021064632 0 -0.34251680356524339 0.34321741671518669 0 -0.34556584107983002 0.34849125976349993 0 -0.33942470910854639 0.36092010030626542 0 -0.33815763529499693 0.35089104021064632 0 -0.3460879504978186 0.35511096805544279 0 -0.33942470910854639 0.36092010030626542 0 -0.33815763529499693 0.35089104021064632 0 -0.32472866683278162 0.35786931268145811 0 -0.31354931950312093 0.34747342072874071 0 -0.32472866683278162 0.35786931268145811 0 -0.33017767166301859 0.34092732036984391 0 -0.30300283950081008 0.36051339397403093 0 -0.31354931950312093 0.34747342072874071 0 -0.32472866683278162 0.35786931268145811 0 -0.31400963374603508 0.33178692824556621 0 -0.33219148171911272 0.31730370811833031 0 -0.33017767166301859 0.34092732036984391 0 -0.31354931950312093 0.34747342072874071 0 -0.31400963374603508 0.33178692824556621 0 -0.33017767166301859 0.34092732036984391 0 -0.31400963374603508 0.33178692824556621 0 -0.33219148171911272 0.31730370811833031 0 -0.31400963374603508 0.33178692824556621 0 -0.31456388983813333 0.31636814557902659 0 -0.33219148171911272 0.31730370811833031 0 -0.33477104767585758 0.31524888829805342 0 -0.33219148171911272 0.31730370811833031 0 -0.34795343649956839 0.3209401758966518 0 -0.33219148171911272 0.31730370811833031 0 -0.34725440703092858 0.33933618574797492 0 -0.34795343649956839 0.3209401758966518 0 -0.33396296217470239 0.30554582684384218 0 -0.33477104767585758 0.31524888829805342 0 -0.33219148171911272 0.31730370811833031 0 -0.33477104767585758 0.31524888829805342 0 -0.33219148171911272 0.31730370811833031 0 -0.34268428286429659 0.31215346041211978 0 -0.33477104767585758 0.31524888829805342 0 -0.34795343649956839 0.3209401758966518 0 -0.33219148171911272 0.31730370811833031 0 -0.34725440703092858 0.33933618574797492 0 -0.33219148171911272 0.31730370811833031 0 -0.33017767166301859 0.34092732036984391 0 -0.34725440703092858 0.33933618574797492 0 -0.33017767166301859 0.34092732036984391 0 -0.34251680356524339 0.34321741671518669 0 -0.34725440703092858 0.33933618574797492 0 -0.34725440703092858 0.33933618574797492 0 -0.34795343649956839 0.3209401758966518 0 -0.36531193472093021 0.32454274932608829 0 -0.34251680356524339 0.34321741671518669 0 -0.35002774160894051 0.34339273059465159 0 -0.34725440703092858 0.33933618574797492 0 -0.34725440703092858 0.33933618574797492 0 -0.35848812135385522 0.33902175933596412 0 -0.36531193472093021 0.32454274932608829 0 -0.34725440703092858 0.33933618574797492 0 -0.36531193472093021 0.32454274932608829 0 -0.34251680356524339 0.34321741671518669 0 -0.34725440703092858 0.33933618574797492 0 -0.35002774160894051 0.34339273059465159 0 -0.34725440703092858 0.33933618574797492 0 -0.35002774160894051 0.34339273059465159 0 -0.35848812135385522 0.33902175933596412 0 -0.35712059876301439 0.34740413424876382 0 -0.35002774160894051 0.34339273059465159 0 -0.34725440703092858 0.33933618574797492 0 -0.35848812135385522 0.33902175933596412 0 -0.34795343649956839 0.3209401758966518 0 -0.35774913989266272 0.31391262040183171 0 -0.36531193472093021 0.32454274932608829 0 -0.35013945535461871 0.3105838988596446 0 -0.34268428286429659 0.31215346041211978 0 -0.34795343649956839 0.3209401758966518 0 -0.35013945535461871 0.3105838988596446 0 -0.34795343649956839 0.3209401758966518 0 -0.35774913989266272 0.31391262040183171 0 -0.38336946241093189 0.30974931290420182 0 -0.36596935852520629 0.30787018431111951 0 -0.36531193472093021 0.32454274932608829 0 -0.36596935852520629 0.30787018431111951 0 -0.35774913989266272 0.31391262040183171 0 -0.36531193472093021 0.32454274932608829 0 -0.37580907906339922 0.33647878059299557 0 -0.38201615891261242 0.31564575533693578 0 -0.36531193472093021 0.32454274932608829 0 -0.38336946241093189 0.30974931290420182 0 -0.36531193472093021 0.32454274932608829 0 -0.35848812135385522 0.33902175933596412 0 -0.36629538785756799 0.33494858662202331 0 -0.36491865814174967 0.34450616947628299 0 -0.35848812135385522 0.33902175933596412 0 -0.36491865814174967 0.34450616947628299 0 -0.35712059876301439 0.34740413424876382 0 -0.35848812135385522 0.33902175933596412 0 -0.36531193472093021 0.32454274932608829 0 -0.36629538785756799 0.33494858662202331 0 -0.37580907906339922 0.33647878059299557 0 -0.36531193472093021 0.32454274932608829 0 -0.36629538785756799 0.33494858662202331 0 -0.37580907906339922 0.33647878059299557 0 -0.36629538785756799 0.33494858662202331 0 -0.36491865814174967 0.34450616947628299 0 -0.37580907906339922 0.33647878059299557 0 -0.36491865814174967 0.34450616947628299 0 -0.36960199921418602 0.35731180584905542 0 -0.37580907906339922 0.33647878059299557 0 -0.36960199921418602 0.35731180584905542 0 -0.36491865814174967 0.34450616947628299 0 -0.36204010283369881 0.35293053614415609 0 -0.35712059876301439 0.34740413424876382 0 -0.36491865814174967 0.34450616947628299 0 -0.36204010283369881 0.35293053614415609 0 -0.36960199921418602 0.35731180584905542 0 -0.36231373349064938 0.3583368008115923 0 -0.36204010283369881 0.35293053614415609 0 -0.35577634304253192 0.35617190760009498 0 -0.36231373349064938 0.3583368008115923 0 -0.36204010283369881 0.35293053614415609 0 -0.36960199921418602 0.35731180584905542 0 -0.36960199921418602 0.35731180584905542 0 -0.36339491936497281 0.37814483110511521 0 -0.36960199921418602 0.35731180584905542 0 -0.37158620997362618 0.36500042586936587 0 -0.36339491936497281 0.37814483110511521 0 -0.36960199921418602 0.35731180584905542 0 -0.36108579844600058 0.36545797327707619 0 -0.36339491936497281 0.37814483110511521 0 -0.38141148745950948 0.38039780936179463 0 -0.37158620997362618 0.36500042586936587 0 -0.36339491936497281 0.37814483110511521 0 -0.38070440212728118 0.35956436367519867 0 -0.36960199921418602 0.35731180584905542 0 -0.37158620997362618 0.36500042586936587 0 -0.36231373349064938 0.3583368008115923 0 -0.36108579844600058 0.36545797327707619 0 -0.35577634304253192 0.35617190760009498 0 -0.36231373349064938 0.3583368008115923 0 -0.36960199921418602 0.35731180584905542 0 -0.36108579844600058 0.36545797327707619 0 -0.36108579844600058 0.36545797327707619 0 -0.3497530714632448 0.36534695126967459 0 -0.35577634304253192 0.35617190760009498 0 -0.3497530714632448 0.36534695126967459 0 -0.36339491936497281 0.37814483110511521 0 -0.33874167774564268 0.3750619344605613 0 -0.36108579844600058 0.36545797327707619 0 -0.3497530714632448 0.36534695126967459 0 -0.36339491936497281 0.37814483110511521 0 -0.33942470910854639 0.36092010030626542 0 -0.3497530714632448 0.36534695126967459 0 -0.3460879504978186 0.35511096805544279 0 -0.3497530714632448 0.36534695126967459 0 -0.3460879504978186 0.35511096805544279 0 -0.35577634304253192 0.35617190760009498 0 -0.3460879504978186 0.35511096805544279 0 -0.35103907443215082 0.34984414324157243 0 -0.35577634304253192 0.35617190760009498 0 -0.3460879504978186 0.35511096805544279 0 -0.34556584107983002 0.34849125976349993 0 -0.35103907443215082 0.34984414324157243 0 -0.34251680356524339 0.34321741671518669 0 -0.35002774160894051 0.34339273059465159 0 -0.34556584107983002 0.34849125976349993 0 -0.35002774160894051 0.34339273059465159 0 -0.34556584107983002 0.34849125976349993 0 -0.35103907443215082 0.34984414324157243 0 -0.35103907443215082 0.34984414324157243 0 -0.35712059876301439 0.34740413424876382 0 -0.35577634304253192 0.35617190760009498 0 -0.35002774160894051 0.34339273059465159 0 -0.35103907443215082 0.34984414324157243 0 -0.35712059876301439 0.34740413424876382 0 -0.36204010283369881 0.35293053614415609 0 -0.35712059876301439 0.34740413424876382 0 -0.35577634304253192 0.35617190760009498 0 -0.35746143571760969 0.39805957647408341 0 -0.33700984602307921 0.4055687403903776 0 -0.35746143571760969 0.39805957647408341 0 -0.36339491936497281 0.37814483110511521 0 -0.33874167774564268 0.3750619344605613 0 -0.36339491936497281 0.37814483110511521 0 -0.33874167774564268 0.3750619344605613 0 -0.38141148745950948 0.38039780936179463 0 -0.37844474563582792 0.390355182046278 0 -0.36339491936497281 0.37814483110511521 0 -0.37844474563582792 0.390355182046278 0 -0.35746143571760969 0.39805957647408341 0 -0.36339491936497281 0.37814483110511521 0 -0.35746143571760969 0.39805957647408341 0 -0.36339491936497281 0.37814483110511521 0 -0.38141148745950948 0.38039780936179463 0 -0.36339491936497281 0.37814483110511521 0 -0.37668454372729859 0.41206883315114529 0 -0.37844474563582792 0.390355182046278 0 -0.35746143571760969 0.39805957647408341 0 -0.37844474563582792 0.390355182046278 0 -0.35746143571760969 0.39805957647408341 0 -0.37668454372729859 0.41206883315114529 0 -0.36778315087773072 0.43214877602771662 0 -0.35179051953527918 0.41709305806631919 0 -0.37668454372729859 0.41206883315114529 0 -0.35746143571760969 0.39805957647408341 0 -0.35179051953527918 0.41709305806631919 0 -0.37668454372729859 0.41206883315114529 0 -0.35179051953527918 0.41709305806631919 0 -0.36778315087773072 0.43214877602771662 0 -0.35179051953527918 0.41709305806631919 0 -0.34355933144160938 0.44471966407244162 0 -0.35179051953527918 0.41709305806631919 0 -0.34355933144160938 0.44471966407244162 0 -0.35746143571760969 0.39805957647408341 0 -0.35179051953527918 0.41709305806631919 0 -0.33700984602307921 0.4055687403903776 0 -0.35746143571760969 0.39805957647408341 0 -0.35179051953527918 0.41709305806631919 0 -0.35179051953527918 0.41709305806631919 0 -0.33092261172728182 0.42130471390500562 0 -0.33700984602307921 0.4055687403903776 0 -0.35179051953527918 0.41709305806631919 0 -0.33092261172728182 0.42130471390500562 0 -0.33092261172728182 0.42130471390500562 0 -0.31655825632854873 0.41307790430667191 0 -0.33700984602307921 0.4055687403903776 0 -0.35179051953527918 0.41709305806631919 0 -0.33092261172728182 0.42130471390500562 0 -0.34355933144160938 0.44471966407244162 0 -0.33092261172728182 0.42130471390500562 0 -0.32304151796324199 0.43794530689545591 0 -0.34355933144160938 0.44471966407244162 0 -0.33092261172728182 0.42130471390500562 0 -0.31005470391928353 0.42551636974368717 0 -0.32304151796324199 0.43794530689545591 0 -0.33092261172728182 0.42130471390500562 0 -0.31005470391928353 0.42551636974368717 0 -0.31005470391928353 0.42551636974368717 0 -0.30636015846579262 0.44081646755455739 0 -0.32304151796324199 0.43794530689545591 0 -0.31655825632854873 0.41307790430667191 0 -0.32178824989383492 0.40044082628072353 0 -0.33700984602307921 0.4055687403903776 0 -0.33092261172728182 0.42130471390500562 0 -0.31655825632854873 0.41307790430667191 0 -0.31005470391928353 0.42551636974368717 0 -0.31655825632854873 0.41307790430667191 0 -0.33700984602307921 0.4055687403903776 0 -0.31655825632854873 0.41307790430667191 0 -0.32178824989383492 0.40044082628072353 0 -0.30820761894760612 0.40180007281058999 0 -0.31589124725359768 0.39098578459502642 0 -0.32178824989383492 0.40044082628072353 0 -0.30820761894760612 0.40180007281058999 0 -0.31589124725359768 0.39098578459502642 0 -0.32178824989383492 0.40044082628072353 0 -0.33127428091634248 0.39077162930095188 0 -0.35746143571760969 0.39805957647408341 0 -0.33127428091634248 0.39077162930095188 0 -0.33700984602307921 0.4055687403903776 0 -0.32178824989383492 0.40044082628072353 0 -0.33127428091634248 0.39077162930095188 0 -0.33700984602307921 0.4055687403903776 0 -0.35746143571760969 0.39805957647408341 0 -0.33127428091634248 0.39077162930095188 0 -0.33874167774564268 0.3750619344605613 0 -0.31408843612631249 0.37197903781600761 0 -0.33127428091634248 0.39077162930095188 0 -0.33874167774564268 0.3750619344605613 0 -0.31408843612631249 0.37197903781600761 0 -0.31589124725359768 0.39098578459502642 0 -0.33127428091634248 0.39077162930095188 0 -0.29551252006441958 0.37309371542857861 0 -0.31408843612631249 0.37197903781600761 0 -0.30568017353146049 0.38157918508743732 0 -0.31408843612631249 0.37197903781600761 0 -0.31589124725359768 0.39098578459502642 0 -0.30568017353146049 0.38157918508743732 0 -0.31589124725359768 0.39098578459502642 0 -0.30568017353146049 0.38157918508743732 0 -0.30603649680964828 0.39194203915736708 0 -0.30568017353146049 0.38157918508743732 0 -0.29743858983336929 0.38628170497916159 0 -0.30603649680964828 0.39194203915736708 0 -0.29551252006441958 0.37309371542857861 0 -0.30568017353146049 0.38157918508743732 0 -0.29743858983336929 0.38628170497916159 0 -0.31589124725359768 0.39098578459502642 0 -0.30820761894760612 0.40180007281058999 0 -0.30603649680964828 0.39194203915736708 0 -0.30820761894760612 0.40180007281058999 0 -0.30603649680964828 0.39194203915736708 0 -0.29604813782321171 0.40003827384795049 0 -0.29743858983336929 0.38628170497916159 0 -0.30603649680964828 0.39194203915736708 0 -0.29604813782321171 0.40003827384795049 0 -0.30820761894760612 0.40180007281058999 0 -0.29604813782321171 0.40003827384795049 0 -0.2987408814332651 0.40933989620534528 0 -0.29604813782321171 0.40003827384795049 0 -0.28905057763704689 0.40562835892549581 0 -0.28392778011776681 0.39892722844600809 0 -0.29604813782321171 0.40003827384795049 0 -0.28905057763704689 0.40562835892549581 0 -0.2987408814332651 0.40933989620534528 0 -0.29604813782321171 0.40003827384795049 0 -0.28980128107673031 0.39400368344191522 0 -0.28392778011776681 0.39892722844600809 0 -0.29743858983336929 0.38628170497916159 0 -0.29604813782321171 0.40003827384795049 0 -0.28980128107673031 0.39400368344191522 0 -0.28980128107673031 0.39400368344191522 0 -0.28179061653257348 0.3907675264945405 0 -0.28392778011776681 0.39892722844600809 0 -0.28905057763704689 0.40562835892549581 0 -0.28392778011776681 0.39892722844600809 0 -0.27817781655911977 0.40726136879628272 0 -0.29743858983336929 0.38628170497916159 0 -0.28980128107673031 0.39400368344191522 0 -0.28179061653257348 0.3907675264945405 0 -0.29743858983336929 0.38628170497916159 0 -0.28179061653257348 0.3907675264945405 0 -0.28819376848868639 0.38228739672622841 0 -0.29743858983336929 0.38628170497916159 0 -0.28179061653257348 0.3907675264945405 0 -0.29551252006441958 0.37309371542857861 0 -0.29743858983336929 0.38628170497916159 0 -0.28819376848868639 0.38228739672622841 0 -0.29551252006441958 0.37309371542857861 0 -0.28819376848868639 0.38228739672622841 0 -0.28685204816290072 0.37621819500323123 0 -0.28179061653257348 0.3907675264945405 0 -0.28158428542699082 0.38279668863870758 0 -0.28819376848868639 0.38228739672622841 0 -0.28158428542699082 0.38279668863870758 0 -0.28819376848868639 0.38228739672622841 0 -0.28685204816290072 0.37621819500323123 0 -0.28158428542699082 0.38279668863870758 0 -0.28685204816290072 0.37621819500323123 0 -0.28084635904778937 0.37544065550995409 0 -0.27110701654299552 0.36596211494311248 0 -0.26614264323177789 0.39525334800991979 0 -0.27110701654299552 0.36596211494311248 0 -0.27663284499009211 0.37939207802828528 0 -0.27229768174870289 0.38438446135480281 0 -0.27110701654299552 0.36596211494311248 0 -0.27229768174870289 0.38438446135480281 0 -0.26614264323177789 0.39525334800991979 0 -0.27110701654299552 0.36596211494311248 0 -0.26689531734350652 0.36931705260985792 0 -0.26614264323177789 0.39525334800991979 0 -0.28158428542699082 0.38279668863870758 0 -0.28084635904778937 0.37544065550995409 0 -0.27663284499009211 0.37939207802828528 0 -0.27229768174870289 0.38438446135480281 0 -0.27641046434025379 0.38710393959788297 0 -0.26614264323177789 0.39525334800991979 0 -0.28179061653257348 0.3907675264945405 0 -0.28158428542699082 0.38279668863870758 0 -0.27641046434025379 0.38710393959788297 0 -0.27663284499009211 0.37939207802828528 0 -0.27229768174870289 0.38438446135480281 0 -0.27641046434025379 0.38710393959788297 0 -0.28158428542699082 0.38279668863870758 0 -0.27663284499009211 0.37939207802828528 0 -0.27641046434025379 0.38710393959788297 0 -0.28179061653257348 0.3907675264945405 0 -0.27641046434025379 0.38710393959788297 0 -0.26614264323177789 0.39525334800991979 0 -0.28179061653257348 0.3907675264945405 0 -0.27661435207820328 0.39472461325581981 0 -0.26614264323177789 0.39525334800991979 0 -0.28179061653257348 0.3907675264945405 0 -0.28392778011776681 0.39892722844600809 0 -0.27661435207820328 0.39472461325581981 0 -0.28179061653257348 0.3907675264945405 0 -0.26614264323177789 0.39525334800991979 0 -0.28392778011776681 0.39892722844600809 0 -0.27661435207820328 0.39472461325581981 0 -0.27572094251528112 0.40196054452149499 0 -0.28392778011776681 0.39892722844600809 0 -0.27572094251528112 0.40196054452149499 0 -0.27817781655911977 0.40726136879628272 0 -0.27572094251528112 0.40196054452149499 0 -0.26416382130603389 0.40692896758786917 0 -0.27817781655911977 0.40726136879628272 0 -0.27661435207820328 0.39472461325581981 0 -0.27572094251528112 0.40196054452149499 0 -0.26416382130603389 0.40692896758786917 0 -0.27661435207820328 0.39472461325581981 0 -0.26614264323177789 0.39525334800991979 0 -0.26416382130603389 0.40692896758786917 0 -0.27661435207820328 0.39472461325581981 0 -0.26416382130603389 0.40692896758786917 0 -0.26614264323177789 0.39525334800991979 0 -0.24781733580734391 0.38604582424895789 0 -0.24388213391773941 0.40163479241199579 0 -0.26614264323177789 0.39525334800991979 0 -0.25157066981256843 0.40894445920752592 0 -0.24388213391773941 0.40163479241199579 0 -0.26614264323177789 0.39525334800991979 0 -0.24388213391773941 0.40163479241199579 0 -0.26614264323177789 0.39525334800991979 0 -0.26416382130603389 0.40692896758786917 0 -0.26614264323177789 0.39525334800991979 0 -0.25157066981256843 0.40894445920752592 0 -0.26416382130603389 0.40692896758786917 0 -0.25453646971320443 0.37462232419521813 0 -0.26614264323177789 0.39525334800991979 0 -0.24781733580734391 0.38604582424895789 0 -0.25453646971320443 0.37462232419521813 0 -0.26689531734350652 0.36931705260985792 0 -0.26614264323177789 0.39525334800991979 0 -0.26107936510946472 0.42512814796255138 0 -0.25799490891289278 0.4433273283372331 0 -0.26107936510946472 0.42512814796255138 0 -0.27138668263498972 0.43431468825499642 0 -0.25799490891289278 0.4433273283372331 0 -0.26107936510946472 0.42512814796255138 0 -0.25799490891289278 0.4433273283372331 0 -0.24263019791012411 0.42803682032005991 0 -0.25799490891289278 0.4433273283372331 0 -0.24263019791012411 0.42803682032005991 0 -0.26107936510946472 0.42512814796255138 0 -0.26416382130603389 0.40692896758786917 0 -0.26107936510946472 0.42512814796255138 0 -0.26416382130603389 0.40692896758786917 0 -0.24263019791012411 0.42803682032005991 0 -0.26416382130603389 0.40692896758786917 0 -0.24263019791012411 0.42803682032005991 0 -0.25157066981256843 0.40894445920752592 0 -0.26416382130603389 0.40692896758786917 0 -0.24263019791012411 0.42803682032005991 0 -0.26107936510946472 0.42512814796255138 0 -0.26416382130603389 0.40692896758786917 0 -0.27370875903762831 0.41905129137381081 0 -0.26416382130603389 0.40692896758786917 0 -0.27817781655911977 0.40726136879628272 0 -0.27370875903762831 0.41905129137381081 0 -0.27817781655911977 0.40726136879628272 0 -0.27370875903762831 0.41905129137381081 0 -0.28647403122915938 0.41490769911839809 0 -0.27370875903762831 0.41905129137381081 0 -0.27138668263498972 0.43431468825499642 0 -0.28359142860916292 0.42646623900898489 0 -0.26107936510946472 0.42512814796255138 0 -0.27370875903762831 0.41905129137381081 0 -0.27138668263498972 0.43431468825499642 0 -0.27138668263498972 0.43431468825499642 0 -0.28359142860916292 0.42646623900898489 0 -0.28426041238301858 0.43930471826406531 0 -0.28359142860916292 0.42646623900898489 0 -0.29576073289665422 0.43347565529899762 0 -0.28426041238301858 0.43930471826406531 0 -0.28359142860916292 0.42646623900898489 0 -0.29576073289665422 0.43347565529899762 0 -0.29610666663401819 0.4205870682229661 0 -0.28905057763704689 0.40562835892549581 0 -0.27817781655911977 0.40726136879628272 0 -0.28647403122915938 0.41490769911839809 0 -0.27370875903762831 0.41905129137381081 0 -0.28359142860916292 0.42646623900898489 0 -0.28647403122915938 0.41490769911839809 0 -0.28359142860916292 0.42646623900898489 0 -0.28647403122915938 0.41490769911839809 0 -0.29610666663401819 0.4205870682229661 0 -0.28647403122915938 0.41490769911839809 0 -0.29610666663401819 0.4205870682229661 0 -0.2987408814332651 0.40933989620534528 0 -0.28905057763704689 0.40562835892549581 0 -0.28647403122915938 0.41490769911839809 0 -0.2987408814332651 0.40933989620534528 0 -0.31655825632854873 0.41307790430667191 0 -0.29610666663401819 0.4205870682229661 0 -0.2987408814332651 0.40933989620534528 0 -0.31655825632854873 0.41307790430667191 0 -0.29610666663401819 0.4205870682229661 0 -0.31005470391928353 0.42551636974368717 0 -0.31655825632854873 0.41307790430667191 0 -0.29610666663401819 0.4205870682229661 0 -0.31655825632854873 0.41307790430667191 0 -0.30820761894760612 0.40180007281058999 0 -0.2987408814332651 0.40933989620534528 0 -0.29576073289665422 0.43347565529899762 0 -0.31005470391928353 0.42551636974368717 0 -0.30636015846579262 0.44081646755455739 0 -0.29576073289665422 0.43347565529899762 0 -0.29610666663401819 0.4205870682229661 0 -0.31005470391928353 0.42551636974368717 0 -0.29576073289665422 0.43347565529899762 0 -0.30636015846579262 0.44081646755455739 0 -0.2944743431310044 0.45228094752776682 0 -0.30636015846579262 0.44081646755455739 0 -0.30512100021830008 0.46490456032657962 0 -0.30636015846579262 0.44081646755455739 0 -0.30512100021830008 0.46490456032657962 0 -0.2944743431310044 0.45228094752776682 0 -0.30636015846579262 0.44081646755455739 0 -0.30512100021830008 0.46490456032657962 0 -0.32381548421637429 0.45642326981327008 0 -0.30512100021830008 0.46490456032657962 0 -0.2944743431310044 0.45228094752776682 0 -0.28858619761816889 0.47377087817814589 0 -0.2944743431310044 0.45228094752776682 0 -0.27329055326553048 0.45854910325768988 0 -0.28858619761816889 0.47377087817814589 0 -0.2944743431310044 0.45228094752776682 0 -0.28426041238301858 0.43930471826406531 0 -0.27329055326553048 0.45854910325768988 0 -0.29576073289665422 0.43347565529899762 0 -0.2944743431310044 0.45228094752776682 0 -0.28426041238301858 0.43930471826406531 0 -0.27138668263498972 0.43431468825499642 0 -0.28426041238301858 0.43930471826406531 0 -0.27329055326553048 0.45854910325768988 0 -0.27138668263498972 0.43431468825499642 0 -0.27329055326553048 0.45854910325768988 0 -0.25799490891289278 0.4433273283372331 0 -0.27329055326553048 0.45854910325768988 0 -0.25799490891289278 0.4433273283372331 0 -0.27329055326553048 0.45854910325768988 0 -0.28858619761816889 0.47377087817814589 0 -0.27329055326553048 0.45854910325768988 0 -0.25438198006151169 0.46464464965965441 0 -0.25799490891289278 0.4433273283372331 0 -0.27329055326553048 0.45854910325768988 0 -0.25438198006151169 0.46464464965965441 0 -0.26859377699614329 0.4811575177290362 0 -0.25438198006151169 0.46464464965965441 0 -0.25799490891289278 0.4433273283372331 0 -0.25438198006151169 0.46464464965965441 0 -0.25799490891289278 0.4433273283372331 0 -0.24356894722331929 0.44821508210096461 0 -0.25080144613104921 0.5 0 -0.26859377699614329 0.4811575177290362 0 -0.2467553297522557 0.48147402383551691 0 -0.25080144613104921 0.5 0 -0.26859377699614329 0.4811575177290362 0 -0.27705851983630159 0.5 0 -0.25438198006151169 0.46464464965965441 0 -0.26859377699614329 0.4811575177290362 0 -0.2467553297522557 0.48147402383551691 0 -0.27329055326553048 0.45854910325768988 0 -0.26859377699614329 0.4811575177290362 0 -0.28858619761816889 0.47377087817814589 0 -0.26859377699614329 0.4811575177290362 0 -0.27705851983630159 0.5 0 -0.28830299895955541 0.48893487857068268 0 -0.27705851983630159 0.5 0 -0.28830299895955541 0.48893487857068268 0 -0.30331559354155391 0.49999999999999939 0 -0.26859377699614329 0.4811575177290362 0 -0.28830299895955541 0.48893487857068268 0 -0.28858619761816889 0.47377087817814589 0 -0.28830299895955541 0.48893487857068268 0 -0.28858619761816889 0.47377087817814589 0 -0.30388184197080759 0.48899265309860168 0 -0.28858619761816889 0.47377087817814589 0 -0.30388184197080759 0.48899265309860168 0 -0.30512100021830008 0.46490456032657962 0 -0.30388184197080759 0.48899265309860168 0 -0.30512100021830008 0.46490456032657962 0 -0.30388184197080759 0.48899265309860168 0 -0.31654611508668351 0.48621885406126381 0 -0.30512100021830008 0.46490456032657962 0 -0.28858619761816889 0.47377087817814589 0 -0.30388184197080759 0.48899265309860168 0 -0.30331559354155391 0.49999999999999939 0 -0.30388184197080759 0.48899265309860168 0 -0.28830299895955541 0.48893487857068268 0 -0.30331559354155391 0.49999999999999939 0 -0.30388184197080759 0.48899265309860168 0 -0.30388184197080759 0.48899265309860168 0 -0.31494260619507058 0.500000000000002 0 -0.31654611508668351 0.48621885406126381 0 -0.30331559354155391 0.49999999999999939 0 -0.30388184197080759 0.48899265309860168 0 -0.31494260619507058 0.500000000000002 0 -0.30388184197080759 0.48899265309860168 0 -0.31494260619507058 0.500000000000002 0 -0.31654611508668351 0.48621885406126381 0 -0.33275791060477139 0.5 0 -0.32602721644446891 0.47719705688113462 0 -0.31494260619507058 0.500000000000002 0 -0.31654611508668351 0.48621885406126381 0 -0.33275791060477139 0.5 0 -0.33275791060477139 0.5 0 -0.34200011506365208 0.48331572161184322 0 -0.32602721644446891 0.47719705688113462 0 -0.33275791060477139 0.5 0 -0.34200011506365208 0.48331572161184322 0 -0.35057321501447208 0.49999999999999872 0 -0.34200011506365208 0.48331572161184322 0 -0.32602721644446891 0.47719705688113462 0 -0.33593075250063148 0.46750731867274542 0 -0.34200011506365208 0.48331572161184322 0 -0.33593075250063148 0.46750731867274542 0 -0.35201810675435108 0.4676562019538536 0 -0.30512100021830008 0.46490456032657962 0 -0.31654611508668351 0.48621885406126381 0 -0.32602721644446891 0.47719705688113462 0 -0.30512100021830008 0.46490456032657962 0 -0.32602721644446891 0.47719705688113462 0 -0.32381548421637429 0.45642326981327008 0 -0.30636015846579262 0.44081646755455739 0 -0.32381548421637429 0.45642326981327008 0 -0.32304151796324199 0.43794530689545591 0 -0.32381548421637429 0.45642326981327008 0 -0.32304151796324199 0.43794530689545591 0 -0.34355933144160938 0.44471966407244162 0 -0.32381548421637429 0.45642326981327008 0 -0.34355933144160938 0.44471966407244162 0 -0.33593075250063148 0.46750731867274542 0 -0.32602721644446891 0.47719705688113462 0 -0.32381548421637429 0.45642326981327008 0 -0.33593075250063148 0.46750731867274542 0 -0.35201810675435108 0.4676562019538536 0 -0.36028404822733179 0.44939908513577981 0 -0.36566353784044697 0.46257036423753561 0 -0.34355933144160938 0.44471966407244162 0 -0.35201810675435108 0.4676562019538536 0 -0.36028404822733179 0.44939908513577981 0 -0.34355933144160938 0.44471966407244162 0 -0.33593075250063148 0.46750731867274542 0 -0.35201810675435108 0.4676562019538536 0 -0.36778315087773072 0.43214877602771662 0 -0.34355933144160938 0.44471966407244162 0 -0.36028404822733179 0.44939908513577981 0 -0.36778315087773072 0.43214877602771662 0 -0.36028404822733179 0.44939908513577981 0 -0.37376195539900242 0.45249759326054367 0 -0.37701653082709469 0.46900635458093531 0 -0.37376195539900242 0.45249759326054367 0 -0.36566353784044697 0.46257036423753561 0 -0.36028404822733179 0.44939908513577981 0 -0.37376195539900242 0.45249759326054367 0 -0.36566353784044697 0.46257036423753561 0 -0.36552159823955549 0.47691699748014749 0 -0.37220834978290879 0.49000150617251997 0 -0.35595833756876799 0.48470827593500232 0 -0.37701653082709469 0.46900635458093531 0 -0.36566353784044697 0.46257036423753561 0 -0.36552159823955549 0.47691699748014749 0 -0.37805640255927542 0.47903421333972468 0 -0.37701653082709469 0.46900635458093531 0 -0.36552159823955549 0.47691699748014749 0 -0.35201810675435108 0.4676562019538536 0 -0.36566353784044697 0.46257036423753561 0 -0.36552159823955549 0.47691699748014749 0 -0.37805640255927542 0.47903421333972468 0 -0.36552159823955549 0.47691699748014749 0 -0.37220834978290879 0.49000150617251997 0 -0.37220834978290879 0.49000150617251997 0 -0.35057321501447208 0.49999999999999872 0 -0.35595833756876799 0.48470827593500232 0 -0.37789332191386737 0.5 0 -0.37220834978290879 0.49000150617251997 0 -0.35057321501447208 0.49999999999999872 0 -0.37220834978290879 0.49000150617251997 0 -0.35057321501447208 0.49999999999999872 0 -0.34200011506365208 0.48331572161184322 0 -0.35057321501447208 0.49999999999999872 0 -0.35595833756876799 0.48470827593500232 0 -0.34200011506365208 0.48331572161184322 0 -0.35201810675435108 0.4676562019538536 0 -0.35595833756876799 0.48470827593500232 0 -0.35201810675435108 0.4676562019538536 0 -0.36552159823955549 0.47691699748014749 0 -0.35595833756876799 0.48470827593500232 0 -0.142080771754234 0.48212662116497451 0 -0.14744519938683801 0.47523243684594829 0 -0.1380962150490555 0.47248515407185221 0 -0.142080771754234 0.48212662116497451 0 -0.14744519938683801 0.47523243684594829 0 -0.15313912830386001 0.48632871978955722 0 -0.14744519938683801 0.47523243684594829 0 -0.1380962150490555 0.47248515407185221 0 -0.1446941887002707 0.46454185114692792 0 -0.14744519938683801 0.47523243684594829 0 -0.1446941887002707 0.46454185114692792 0 -0.15815775643206659 0.473198332503178 0 -0.14744519938683801 0.47523243684594829 0 -0.15313912830386001 0.48632871978955722 0 -0.15815775643206659 0.473198332503178 0 -0.142080771754234 0.48212662116497451 0 -0.15313912830386001 0.48632871978955722 0 -0.13803845513632401 0.5 0 -0.15313912830386001 0.48632871978955722 0 -0.13803845513632401 0.5 0 -0.1663114266205577 0.50000000000000011 0 -0.142080771754234 0.48212662116497451 0 -0.13803845513632401 0.5 0 -0.12908554574303099 0.47755934496718438 0 -0.13803845513632401 0.5 0 -0.12908554574303099 0.47755934496718438 0 -0.1160402402672886 0.48503019582547341 0 -0.142080771754234 0.48212662116497451 0 -0.12908554574303099 0.47755934496718438 0 -0.1380962150490555 0.47248515407185221 0 -0.12908554574303099 0.47755934496718438 0 -0.1380962150490555 0.47248515407185221 0 -0.13097929143795109 0.46459511115351071 0 -0.12908554574303099 0.47755934496718438 0 -0.13097929143795109 0.46459511115351071 0 -0.1176294132596279 0.46872710166108278 0 -0.13097929143795109 0.46459511115351071 0 -0.1351896940807357 0.45304119368279389 0 -0.1204057133641486 0.45504160574272429 0 -0.13097929143795109 0.46459511115351071 0 -0.1351896940807357 0.45304119368279389 0 -0.1446941887002707 0.46454185114692792 0 -0.1380962150490555 0.47248515407185221 0 -0.13097929143795109 0.46459511115351071 0 -0.1446941887002707 0.46454185114692792 0 -0.1351896940807357 0.45304119368279389 0 -0.13889501351409689 0.43598263237980822 0 -0.1242648033483075 0.43981492828754482 0 -0.1351896940807357 0.45304119368279389 0 -0.1242648033483075 0.43981492828754482 0 -0.1204057133641486 0.45504160574272429 0 -0.15017718620881049 0.45777983735391498 0 -0.13889501351409689 0.43598263237980822 0 -0.1351896940807357 0.45304119368279389 0 -0.15017718620881049 0.45777983735391498 0 -0.13889501351409689 0.43598263237980822 0 -0.15995177900170021 0.44572512983606088 0 -0.15376963845050121 0.4328235067909087 0 -0.13889501351409689 0.43598263237980822 0 -0.15017718620881049 0.45777983735391498 0 -0.15995177900170021 0.44572512983606088 0 -0.13889501351409689 0.43598263237980822 0 -0.15017718620881049 0.45777983735391498 0 -0.15995177900170021 0.44572512983606088 0 -0.1446941887002707 0.46454185114692792 0 -0.15017718620881049 0.45777983735391498 0 -0.1351896940807357 0.45304119368279389 0 -0.1446941887002707 0.46454185114692792 0 -0.15017718620881049 0.45777983735391498 0 -0.1446941887002707 0.46454185114692792 0 -0.15017718620881049 0.45777983735391498 0 -0.15815775643206659 0.473198332503178 0 -0.15017718620881049 0.45777983735391498 0 -0.15868634814382429 0.46531473325554851 0 -0.15815775643206659 0.473198332503178 0 -0.15017718620881049 0.45777983735391498 0 -0.15815775643206659 0.473198332503178 0 -0.160558198289461 0.46047642425523388 0 -0.1655661766345953 0.45099185016729298 0 -0.16585225164495951 0.46980433890986678 0 -0.1655661766345953 0.45099185016729298 0 -0.17867327812258871 0.46114583139567922 0 -0.16585225164495951 0.46980433890986678 0 -0.1655661766345953 0.45099185016729298 0 -0.16585225164495951 0.46980433890986678 0 -0.15868634814382429 0.46531473325554851 0 -0.160558198289461 0.46047642425523388 0 -0.16585225164495951 0.46980433890986678 0 -0.15017718620881049 0.45777983735391498 0 -0.15868634814382429 0.46531473325554851 0 -0.160558198289461 0.46047642425523388 0 -0.15017718620881049 0.45777983735391498 0 -0.160558198289461 0.46047642425523388 0 -0.15995177900170021 0.44572512983606088 0 -0.15995177900170021 0.44572512983606088 0 -0.1655661766345953 0.45099185016729298 0 -0.1697263717945888 0.43367042231820602 0 -0.160558198289461 0.46047642425523388 0 -0.15995177900170021 0.44572512983606088 0 -0.1655661766345953 0.45099185016729298 0 -0.15995177900170021 0.44572512983606088 0 -0.1697263717945888 0.43367042231820602 0 -0.1655661766345953 0.45099185016729298 0 -0.1926513277646352 0.45119866261047992 0 -0.1697263717945888 0.43367042231820602 0 -0.1926513277646352 0.45119866261047992 0 -0.1697263717945888 0.43367042231820602 0 -0.1926513277646352 0.45119866261047992 0 -0.18693863061853061 0.43491447939059907 0 -0.1697263717945888 0.43367042231820602 0 -0.1655661766345953 0.45099185016729298 0 -0.17867327812258871 0.46114583139567922 0 -0.1926513277646352 0.45119866261047992 0 -0.17867327812258871 0.46114583139567922 0 -0.17876854714149509 0.47093865696285842 0 -0.16585225164495951 0.46980433890986678 0 -0.17867327812258871 0.46114583139567922 0 -0.1899884502156329 0.46461586120334353 0 -0.1926513277646352 0.45119866261047992 0 -0.17867327812258871 0.46114583139567922 0 -0.17876854714149509 0.47093865696285842 0 -0.1899884502156329 0.46461586120334353 0 -0.17876854714149509 0.47093865696285842 0 -0.19138341924764241 0.47827032896460842 0 -0.1899884502156329 0.46461586120334353 0 -0.1757986315986971 0.48088398659212228 0 -0.17876854714149509 0.47093865696285842 0 -0.19138341924764241 0.47827032896460842 0 -0.1757986315986971 0.48088398659212228 0 -0.17876854714149509 0.47093865696285842 0 -0.16585225164495951 0.46980433890986678 0 -0.16585225164495951 0.46980433890986678 0 -0.16613832665532341 0.48861682765244069 0 -0.16585225164495951 0.46980433890986678 0 -0.15815775643206659 0.473198332503178 0 -0.16613832665532341 0.48861682765244069 0 -0.1757986315986971 0.48088398659212228 0 -0.16585225164495951 0.46980433890986678 0 -0.16613832665532341 0.48861682765244069 0 -0.15313912830386001 0.48632871978955722 0 -0.15815775643206659 0.473198332503178 0 -0.16613832665532341 0.48861682765244069 0 -0.15815775643206659 0.473198332503178 0 -0.16613832665532341 0.48861682765244069 0 -0.15868634814382429 0.46531473325554851 0 -0.16585225164495951 0.46980433890986678 0 -0.15815775643206659 0.473198332503178 0 -0.15313912830386001 0.48632871978955722 0 -0.16613832665532341 0.48861682765244069 0 -0.1663114266205577 0.50000000000000011 0 -0.16613832665532341 0.48861682765244069 0 -0.1720302250152923 0.50000000000000022 0 -0.16613832665532341 0.48861682765244069 0 -0.1663114266205577 0.50000000000000011 0 -0.1720302250152923 0.50000000000000022 0 -0.16613832665532341 0.48861682765244069 0 -0.1663114266205577 0.50000000000000011 0 -0.16613832665532341 0.48861682765244069 0 -0.17430115969348189 0.49501483184612438 0 -0.1720302250152923 0.50000000000000022 0 -0.17430115969348189 0.49501483184612438 0 -0.1720302250152923 0.50000000000000022 0 -0.1982872987205446 0.5 0 -0.1757986315986971 0.48088398659212228 0 -0.17430115969348189 0.49501483184612438 0 -0.19138341924764241 0.47827032896460842 0 -0.17430115969348189 0.49501483184612438 0 -0.19138341924764241 0.47827032896460842 0 -0.1757986315986971 0.48088398659212228 0 -0.16613832665532341 0.48861682765244069 0 -0.17430115969348189 0.49501483184612438 0 -0.17430115969348189 0.49501483184612438 0 -0.1982872987205446 0.5 0 -0.19138341924764241 0.47827032896460842 0 -0.1982872987205446 0.5 0 -0.19138341924764241 0.47827032896460842 0 -0.21217809917650449 0.48030286392854288 0 -0.19138341924764241 0.47827032896460842 0 -0.208465678801803 0.46152582608309223 0 -0.19138341924764241 0.47827032896460842 0 -0.21217809917650449 0.48030286392854288 0 -0.208465678801803 0.46152582608309223 0 -0.1982872987205446 0.5 0 -0.21217809917650449 0.48030286392854288 0 -0.22454437242579681 0.5 0 -0.22454437242579681 0.5 0 -0.2288960980978284 0.47674808914996208 0 -0.2467553297522557 0.48147402383551691 0 -0.21217809917650449 0.48030286392854288 0 -0.22454437242579681 0.5 0 -0.2288960980978284 0.47674808914996208 0 -0.21217809917650449 0.48030286392854288 0 -0.2288960980978284 0.47674808914996208 0 -0.22325063631842021 0.46203708915627778 0 -0.25438198006151169 0.46464464965965441 0 -0.2467553297522557 0.48147402383551691 0 -0.2372897108761052 0.46028528898629889 0 -0.2288960980978284 0.47674808914996208 0 -0.2467553297522557 0.48147402383551691 0 -0.2372897108761052 0.46028528898629889 0 -0.25080144613104921 0.5 0 -0.22454437242579681 0.5 0 -0.2467553297522557 0.48147402383551691 0 -0.24356894722331929 0.44821508210096461 0 -0.22554793835596351 0.44478132320157598 0 -0.24263019791012411 0.42803682032005991 0 -0.24356894722331929 0.44821508210096461 0 -0.2372897108761052 0.46028528898629889 0 -0.22554793835596351 0.44478132320157598 0 -0.25799490891289278 0.4433273283372331 0 -0.24356894722331929 0.44821508210096461 0 -0.24263019791012411 0.42803682032005991 0 -0.25438198006151169 0.46464464965965441 0 -0.24356894722331929 0.44821508210096461 0 -0.2372897108761052 0.46028528898629889 0 -0.2288960980978284 0.47674808914996208 0 -0.2372897108761052 0.46028528898629889 0 -0.22325063631842021 0.46203708915627778 0 -0.2372897108761052 0.46028528898629889 0 -0.22325063631842021 0.46203708915627778 0 -0.22554793835596351 0.44478132320157598 0 -0.22325063631842021 0.46203708915627778 0 -0.22554793835596351 0.44478132320157598 0 -0.208465678801803 0.46152582608309223 0 -0.22554793835596351 0.44478132320157598 0 -0.20785557032720109 0.44518798724498809 0 -0.21437917226951189 0.43588067273166847 0 -0.22554793835596351 0.44478132320157598 0 -0.20785557032720109 0.44518798724498809 0 -0.208465678801803 0.46152582608309223 0 -0.22554793835596351 0.44478132320157598 0 -0.208465678801803 0.46152582608309223 0 -0.21217809917650449 0.48030286392854288 0 -0.22325063631842021 0.46203708915627778 0 -0.208465678801803 0.46152582608309223 0 -0.19138341924764241 0.47827032896460842 0 -0.208465678801803 0.46152582608309223 0 -0.1899884502156329 0.46461586120334353 0 -0.208465678801803 0.46152582608309223 0 -0.1899884502156329 0.46461586120334353 0 -0.1926513277646352 0.45119866261047992 0 -0.20785557032720109 0.44518798724498809 0 -0.1926513277646352 0.45119866261047992 0 -0.18693863061853061 0.43491447939059907 0 -0.20785557032720109 0.44518798724498809 0 -0.208465678801803 0.46152582608309223 0 -0.1926513277646352 0.45119866261047992 0 -0.19176926968858449 0.42488004754311998 0 -0.20430089696141959 0.42856004989685992 0 -0.18693863061853061 0.43491447939059907 0 -0.20785557032720109 0.44518798724498809 0 -0.20430089696141959 0.42856004989685992 0 -0.18693863061853061 0.43491447939059907 0 -0.19176926968858449 0.42488004754311998 0 -0.19667758679306771 0.41738623802377928 0 -0.20430089696141959 0.42856004989685992 0 -0.19667758679306771 0.41738623802377928 0 -0.19460267291041519 0.40299123798476227 0 -0.182164522352502 0.41833083015148409 0 -0.19460267291041519 0.40299123798476227 0 -0.182164522352502 0.41833083015148409 0 -0.19176926968858449 0.42488004754311998 0 -0.19667758679306771 0.41738623802377928 0 -0.182164522352502 0.41833083015148409 0 -0.19667758679306771 0.41738623802377928 0 -0.2074030129404133 0.4163894186605448 0 -0.20430089696141959 0.42856004989685992 0 -0.19667758679306771 0.41738623802377928 0 -0.2074030129404133 0.4163894186605448 0 -0.19460267291041519 0.40299123798476227 0 -0.2074030129404133 0.4163894186605448 0 -0.21981228343346321 0.42499333058324978 0 -0.22162162460370111 0.40801623681407218 0 -0.2074030129404133 0.4163894186605448 0 -0.22162162460370111 0.40801623681407218 0 -0.19460267291041519 0.40299123798476227 0 -0.20785557032720109 0.44518798724498809 0 -0.20430089696141959 0.42856004989685992 0 -0.21437917226951189 0.43588067273166847 0 -0.2074030129404133 0.4163894186605448 0 -0.20430089696141959 0.42856004989685992 0 -0.21981228343346321 0.42499333058324978 0 -0.20430089696141959 0.42856004989685992 0 -0.21437917226951189 0.43588067273166847 0 -0.21981228343346321 0.42499333058324978 0 -0.22554793835596351 0.44478132320157598 0 -0.24263019791012411 0.42803682032005991 0 -0.22554793835596351 0.44478132320157598 0 -0.2313941741476824 0.42795323546389102 0 -0.24263019791012411 0.42803682032005991 0 -0.22554793835596351 0.44478132320157598 0 -0.21437917226951189 0.43588067273166847 0 -0.21981228343346321 0.42499333058324978 0 -0.22554793835596351 0.44478132320157598 0 -0.2313941741476824 0.42795323546389102 0 -0.21981228343346321 0.42499333058324978 0 -0.2313941741476824 0.42795323546389102 0 -0.21981228343346321 0.42499333058324978 0 -0.2301621318308705 0.41771135234831969 0 -0.2313941741476824 0.42795323546389102 0 -0.2301621318308705 0.41771135234831969 0 -0.23881831920799079 0.42424335086624981 0 -0.21981228343346321 0.42499333058324978 0 -0.22162162460370111 0.40801623681407218 0 -0.2301621318308705 0.41771135234831969 0 -0.22162162460370111 0.40801623681407218 0 -0.2301621318308705 0.41771135234831969 0 -0.241034552697166 0.41286836770778501 0 -0.25157066981256843 0.40894445920752592 0 -0.241034552697166 0.41286836770778501 0 -0.24263019791012411 0.42803682032005991 0 -0.241034552697166 0.41286836770778501 0 -0.24263019791012411 0.42803682032005991 0 -0.23881831920799079 0.42424335086624981 0 -0.22162162460370111 0.40801623681407218 0 -0.241034552697166 0.41286836770778501 0 -0.24388213391773941 0.40163479241199579 0 -0.2301621318308705 0.41771135234831969 0 -0.241034552697166 0.41286836770778501 0 -0.23881831920799079 0.42424335086624981 0 -0.25157066981256843 0.40894445920752592 0 -0.241034552697166 0.41286836770778501 0 -0.24388213391773941 0.40163479241199579 0 -0.2313941741476824 0.42795323546389102 0 -0.24263019791012411 0.42803682032005991 0 -0.23881831920799079 0.42424335086624981 0 -0.24263019791012411 0.42803682032005991 0 -0.23881831920799079 0.42424335086624981 0 -0.25453646971320443 0.37462232419521813 0 -0.24781733580734391 0.38604582424895789 0 -0.23735930512057779 0.37349779701461089 0 -0.2365264908337599 0.38834162546439549 0 -0.24781733580734391 0.38604582424895789 0 -0.23735930512057779 0.37349779701461089 0 -0.2365264908337599 0.38834162546439549 0 -0.24781733580734391 0.38604582424895789 0 -0.24388213391773941 0.40163479241199579 0 -0.22162162460370111 0.40801623681407218 0 -0.24388213391773941 0.40163479241199579 0 -0.22162162460370111 0.40801623681407218 0 -0.2365264908337599 0.38834162546439549 0 -0.2225569648072106 0.38059728391652659 0 -0.22162162460370111 0.40801623681407218 0 -0.2365264908337599 0.38834162546439549 0 -0.24388213391773941 0.40163479241199579 0 -0.2365264908337599 0.38834162546439549 0 -0.2225569648072106 0.38059728391652659 0 -0.23735930512057779 0.37349779701461089 0 -0.2225569648072106 0.38059728391652659 0 -0.20545957084956781 0.38789926664213359 0 -0.1994770785436861 0.36691897370504389 0 -0.22162162460370111 0.40801623681407218 0 -0.2225569648072106 0.38059728391652659 0 -0.20545957084956781 0.38789926664213359 0 -0.22162162460370111 0.40801623681407218 0 -0.20545957084956781 0.38789926664213359 0 -0.19460267291041519 0.40299123798476227 0 -0.20545957084956781 0.38789926664213359 0 -0.19460267291041519 0.40299123798476227 0 -0.18736095772118591 0.3836472042370111 0 -0.20545957084956781 0.38789926664213359 0 -0.18736095772118591 0.3836472042370111 0 -0.1994770785436861 0.36691897370504389 0 -0.18736095772118591 0.3836472042370111 0 -0.16248792359233191 0.38534127627451031 0 -0.17644948136236779 0.3976803029940168 0 -0.18736095772118591 0.3836472042370111 0 -0.16248792359233191 0.38534127627451031 0 -0.1741500565645078 0.37123080613525078 0 -0.16248792359233191 0.38534127627451031 0 -0.16330635783110381 0.4038062271485704 0 -0.14438589058212131 0.3948348353259919 0 -0.16248792359233191 0.38534127627451031 0 -0.16330635783110381 0.4038062271485704 0 -0.17644948136236779 0.3976803029940168 0 -0.19460267291041519 0.40299123798476227 0 -0.17644948136236779 0.3976803029940168 0 -0.17778078602166139 0.40821888849324761 0 -0.19460267291041519 0.40299123798476227 0 -0.18736095772118591 0.3836472042370111 0 -0.17644948136236779 0.3976803029940168 0 -0.16330635783110381 0.4038062271485704 0 -0.17644948136236779 0.3976803029940168 0 -0.17778078602166139 0.40821888849324761 0 -0.19460267291041519 0.40299123798476227 0 -0.182164522352502 0.41833083015148409 0 -0.17778078602166139 0.40821888849324761 0 -0.182164522352502 0.41833083015148409 0 -0.1723808956519178 0.41828584418740389 0 -0.17778078602166139 0.40821888849324761 0 -0.19176926968858449 0.42488004754311998 0 -0.182164522352502 0.41833083015148409 0 -0.18693863061853061 0.43491447939059907 0 -0.182164522352502 0.41833083015148409 0 -0.18693863061853061 0.43491447939059907 0 -0.1697263717945888 0.43367042231820602 0 -0.182164522352502 0.41833083015148409 0 -0.1697263717945888 0.43367042231820602 0 -0.182164522352502 0.41833083015148409 0 -0.1723808956519178 0.41828584418740389 0 -0.1697263717945888 0.43367042231820602 0 -0.15995177900170021 0.44572512983606088 0 -0.1697263717945888 0.43367042231820602 0 -0.15376963845050121 0.4328235067909087 0 -0.1697263717945888 0.43367042231820602 0 -0.14650538949161929 0.41591584262955861 0 -0.15376963845050121 0.4328235067909087 0 -0.1697263717945888 0.43367042231820602 0 -0.14650538949161929 0.41591584262955861 0 -0.1723808956519178 0.41828584418740389 0 -0.1697263717945888 0.43367042231820602 0 -0.14650538949161929 0.41591584262955861 0 -0.1723808956519178 0.41828584418740389 0 -0.14650538949161929 0.41591584262955861 0 -0.16330635783110381 0.4038062271485704 0 -0.1723808956519178 0.41828584418740389 0 -0.14650538949161929 0.41591584262955861 0 -0.16330635783110381 0.4038062271485704 0 -0.1723808956519178 0.41828584418740389 0 -0.17778078602166139 0.40821888849324761 0 -0.14650538949161929 0.41591584262955861 0 -0.15376963845050121 0.4328235067909087 0 -0.13889501351409689 0.43598263237980822 0 -0.13889501351409689 0.43598263237980822 0 -0.12761284081938409 0.41418542740570108 0 -0.14650538949161929 0.41591584262955861 0 -0.13889501351409689 0.43598263237980822 0 -0.12761284081938409 0.41418542740570108 0 -0.13889501351409689 0.43598263237980822 0 -0.12761284081938409 0.41418542740570108 0 -0.1242648033483075 0.43981492828754482 0 -0.14650538949161929 0.41591584262955861 0 -0.12761284081938409 0.41418542740570108 0 -0.12644786621320531 0.40058001872868543 0 -0.14650538949161929 0.41591584262955861 0 -0.12644786621320531 0.40058001872868543 0 -0.14650538949161929 0.41591584262955861 0 -0.12761284081938409 0.41418542740570108 0 -0.14650538949161929 0.41591584262955861 0 -0.12644786621320531 0.40058001872868543 0 -0.14438589058212131 0.3948348353259919 0 -0.12644786621320531 0.40058001872868543 0 -0.12826940643264259 0.38638828685515292 0 -0.14438589058212131 0.3948348353259919 0 -0.1399268433138337 0.37661104245066729 0 -0.12826940643264259 0.38638828685515292 0 -0.1198206075896991 0.37069234566290138 0 -0.1399268433138337 0.37661104245066729 0 -0.12826940643264259 0.38638828685515292 0 -0.14438589058212131 0.3948348353259919 0 -0.16248792359233191 0.38534127627451031 0 -0.1399268433138337 0.37661104245066729 0 -0.1571746455416145 0.36408416689185819 0 -0.16248792359233191 0.38534127627451031 0 -0.1399268433138337 0.37661104245066729 0 -0.14438589058212131 0.3948348353259919 0 -0.16330635783110381 0.4038062271485704 0 -0.14650538949161929 0.41591584262955861 0 -0.14438589058212131 0.3948348353259919 0 -0.1367685514822152 0.35851885971508118 0 -0.13367478836053351 0.33932016938713638 0 -0.15331730601663701 0.3395623532820784 0 -0.1367685514822152 0.35851885971508118 0 -0.15331730601663701 0.3395623532820784 0 -0.1571746455416145 0.36408416689185819 0 -0.1399268433138337 0.37661104245066729 0 -0.1367685514822152 0.35851885971508118 0 -0.1571746455416145 0.36408416689185819 0 -0.1399268433138337 0.37661104245066729 0 -0.1367685514822152 0.35851885971508118 0 -0.1198206075896991 0.37069234566290138 0 -0.1367685514822152 0.35851885971508118 0 -0.13367478836053351 0.33932016938713638 0 -0.1173066256070304 0.35104950557859033 0 -0.13367478836053351 0.33932016938713638 0 -0.1262409447270301 0.3211703831111522 0 -0.1175879007316586 0.33497855513245622 0 -0.13367478836053351 0.33932016938713638 0 -0.1262409447270301 0.3211703831111522 0 -0.14995133854557879 0.31573290008088639 0 -0.1262409447270301 0.3211703831111522 0 -0.14995133854557879 0.31573290008088639 0 -0.13170636281121431 0.30540396541675668 0 -0.13367478836053351 0.33932016938713638 0 -0.14995133854557879 0.31573290008088639 0 -0.15331730601663701 0.3395623532820784 0 -0.15331730601663701 0.3395623532820784 0 -0.17079439025487569 0.32494122108339912 0 -0.1763971922801616 0.3532406634935612 0 -0.14995133854557879 0.31573290008088639 0 -0.17079439025487569 0.32494122108339912 0 -0.167164841548782 0.29891422322321631 0 -0.14995133854557879 0.31573290008088639 0 -0.15331730601663701 0.3395623532820784 0 -0.17079439025487569 0.32494122108339912 0 -0.17079439025487569 0.32494122108339912 0 -0.19256976679114979 0.33165381796875049 0 -0.19699128312530151 0.30504565645142051 0 -0.17079439025487569 0.32494122108339912 0 -0.1763971922801616 0.3532406634935612 0 -0.19256976679114979 0.33165381796875049 0 -0.15331730601663701 0.3395623532820784 0 -0.1763971922801616 0.3532406634935612 0 -0.1571746455416145 0.36408416689185819 0 -0.15331730601663701 0.3395623532820784 0 -0.1763971922801616 0.3532406634935612 0 -0.1763971922801616 0.3532406634935612 0 -0.1571746455416145 0.36408416689185819 0 -0.1741500565645078 0.37123080613525078 0 -0.16248792359233191 0.38534127627451031 0 -0.1571746455416145 0.36408416689185819 0 -0.1741500565645078 0.37123080613525078 0 -0.18736095772118591 0.3836472042370111 0 -0.1741500565645078 0.37123080613525078 0 -0.1994770785436861 0.36691897370504389 0 -0.1763971922801616 0.3532406634935612 0 -0.1741500565645078 0.37123080613525078 0 -0.1994770785436861 0.36691897370504389 0 -0.1763971922801616 0.3532406634935612 0 -0.1994770785436861 0.36691897370504389 0 -0.1763971922801616 0.3532406634935612 0 -0.20127160642404629 0.34878804965207372 0 -0.19256976679114979 0.33165381796875049 0 -0.1763971922801616 0.3532406634935612 0 -0.1994770785436861 0.36691897370504389 0 -0.20127160642404629 0.34878804965207372 0 -0.1994770785436861 0.36691897370504389 0 -0.20127160642404629 0.34878804965207372 0 -0.22480168799342179 0.35512276170724633 0 -0.20127160642404629 0.34878804965207372 0 -0.22480168799342179 0.35512276170724633 0 -0.2131123065118124 0.33700403138576668 0 -0.2225569648072106 0.38059728391652659 0 -0.1994770785436861 0.36691897370504389 0 -0.2225569648072106 0.38059728391652659 0 -0.1994770785436861 0.36691897370504389 0 -0.22480168799342179 0.35512276170724633 0 -0.2225569648072106 0.38059728391652659 0 -0.22480168799342179 0.35512276170724633 0 -0.23735930512057779 0.37349779701461089 0 -0.25368472498167011 0.34420349485172652 0 -0.22480168799342179 0.35512276170724633 0 -0.24822911175635759 0.36217347122335058 0 -0.22480168799342179 0.35512276170724633 0 -0.24822911175635759 0.36217347122335058 0 -0.23735930512057779 0.37349779701461089 0 -0.25453646971320443 0.37462232419521813 0 -0.24822911175635759 0.36217347122335058 0 -0.23735930512057779 0.37349779701461089 0 -0.25757488899104952 0.31786411623381933 0 -0.23478691102954721 0.33115088205162452 0 -0.2366570207200871 0.30010935915934539 0 -0.25368472498167011 0.34420349485172652 0 -0.22480168799342179 0.35512276170724633 0 -0.23478691102954721 0.33115088205162452 0 -0.25368472498167011 0.34420349485172652 0 -0.23478691102954721 0.33115088205162452 0 -0.25757488899104952 0.31786411623381933 0 -0.25368472498167011 0.34420349485172652 0 -0.23478691102954721 0.33115088205162452 0 -0.23478691102954721 0.33115088205162452 0 -0.2158890970774244 0.31809826925152251 0 -0.2131123065118124 0.33700403138576668 0 -0.22480168799342179 0.35512276170724633 0 -0.23478691102954721 0.33115088205162452 0 -0.2131123065118124 0.33700403138576668 0 -0.23478691102954721 0.33115088205162452 0 -0.2158890970774244 0.31809826925152251 0 -0.2366570207200871 0.30010935915934539 0 -0.23478691102954721 0.33115088205162452 0 -0.2158890970774244 0.31809826925152251 0 -0.2158890970774244 0.31809826925152251 0 -0.2131123065118124 0.33700403138576668 0 -0.19256976679114979 0.33165381796875049 0 -0.20127160642404629 0.34878804965207372 0 -0.2131123065118124 0.33700403138576668 0 -0.19256976679114979 0.33165381796875049 0 -0.2158890970774244 0.31809826925152251 0 -0.19256976679114979 0.33165381796875049 0 -0.19699128312530151 0.30504565645142051 0 -0.19699128312530151 0.30504565645142051 0 -0.2044220976180971 0.2747921468301005 0 -0.18537993383704029 0.28397978744787411 0 -0.19699128312530151 0.30504565645142051 0 -0.21636901433909059 0.29447561219915308 0 -0.2044220976180971 0.2747921468301005 0 -0.2158890970774244 0.31809826925152251 0 -0.19699128312530151 0.30504565645142051 0 -0.21636901433909059 0.29447561219915308 0 -0.2158890970774244 0.31809826925152251 0 -0.19699128312530151 0.30504565645142051 0 -0.2158890970774244 0.31809826925152251 0 -0.21636901433909059 0.29447561219915308 0 -0.2366570207200871 0.30010935915934539 0 -0.21636901433909059 0.29447561219915308 0 -0.2366570207200871 0.30010935915934539 0 -0.2235041758045673 0.27405874977876837 0 -0.26277913973510902 0.29023342414179659 0 -0.2366570207200871 0.30010935915934539 0 -0.2447247674615598 0.2718938593685879 0 -0.2366570207200871 0.30010935915934539 0 -0.2447247674615598 0.2718938593685879 0 -0.2235041758045673 0.27405874977876837 0 -0.25693865295534157 0.25278860643768353 0 -0.2416444700809012 0.25186566196455601 0 -0.2447247674615598 0.2718938593685879 0 -0.2416444700809012 0.25186566196455601 0 -0.2447247674615598 0.2718938593685879 0 -0.22667039518801041 0.25355429459537898 0 -0.2447247674615598 0.2718938593685879 0 -0.22667039518801041 0.25355429459537898 0 -0.2447247674615598 0.2718938593685879 0 -0.2235041758045673 0.27405874977876837 0 -0.22667039518801041 0.25355429459537898 0 -0.2235041758045673 0.27405874977876837 0 -0.22667039518801041 0.25355429459537898 0 -0.21218175950055909 0.24952722652004439 0 -0.2044220976180971 0.2747921468301005 0 -0.1929026130837673 0.25762258695206858 0 -0.21218175950055909 0.24952722652004439 0 -0.2044220976180971 0.2747921468301005 0 -0.21218175950055909 0.24952722652004439 0 -0.2235041758045673 0.27405874977876837 0 -0.2044220976180971 0.2747921468301005 0 -0.21218175950055909 0.24952722652004439 0 -0.21636901433909059 0.29447561219915308 0 -0.2235041758045673 0.27405874977876837 0 -0.2044220976180971 0.2747921468301005 0 -0.2044220976180971 0.2747921468301005 0 -0.1929026130837673 0.25762258695206858 0 -0.18537993383704029 0.28397978744787411 0 -0.1929026130837673 0.25762258695206858 0 -0.16582228118094081 0.26466105519565358 0 -0.18651378479530609 0.23505073182760211 0 -0.1929026130837673 0.25762258695206858 0 -0.16582228118094081 0.26466105519565358 0 -0.18537993383704029 0.28397978744787411 0 -0.16582228118094081 0.26466105519565358 0 -0.167164841548782 0.29891422322321631 0 -0.14136362158270599 0.28508793949713551 0 -0.16582228118094081 0.26466105519565358 0 -0.18537993383704029 0.28397978744787411 0 -0.167164841548782 0.29891422322321631 0 -0.19699128312530151 0.30504565645142051 0 -0.18537993383704029 0.28397978744787411 0 -0.167164841548782 0.29891422322321631 0 -0.17079439025487569 0.32494122108339912 0 -0.19699128312530151 0.30504565645142051 0 -0.167164841548782 0.29891422322321631 0 -0.167164841548782 0.29891422322321631 0 -0.14136362158270599 0.28508793949713551 0 -0.14995133854557879 0.31573290008088639 0 -0.167164841548782 0.29891422322321631 0 -0.14136362158270599 0.28508793949713551 0 -0.14995133854557879 0.31573290008088639 0 -0.14136362158270599 0.28508793949713551 0 -0.13170636281121431 0.30540396541675668 0 -0.1262409447270301 0.3211703831111522 0 -0.13170636281121431 0.30540396541675668 0 -0.1173504618646501 0.30916380798395637 0 -0.14136362158270599 0.28508793949713551 0 -0.13170636281121431 0.30540396541675668 0 -0.1202787732923796 0.29457691953651272 0 -0.14136362158270599 0.28508793949713551 0 -0.1196693143642453 0.28329908912575552 0 -0.1202787732923796 0.29457691953651272 0 -0.14136362158270599 0.28508793949713551 0 -0.1155624016166297 0.27126165577105521 0 -0.1196693143642453 0.28329908912575552 0 -0.14136362158270599 0.28508793949713551 0 -0.1155624016166297 0.27126165577105521 0 -0.12872708527658799 0.25991420809329241 0 -0.1416417428525672 0.26777243923482702 0 -0.1155624016166297 0.27126165577105521 0 -0.14136362158270599 0.28508793949713551 0 -0.1416417428525672 0.26777243923482702 0 -0.1155624016166297 0.27126165577105521 0 -0.12872708527658799 0.25991420809329241 0 -0.14534546737678511 0.25129379472131641 0 -0.1416417428525672 0.26777243923482702 0 -0.12872708527658799 0.25991420809329241 0 -0.14534546737678511 0.25129379472131641 0 -0.12470300375741469 0.2457033751303839 0 -0.16582228118094081 0.26466105519565358 0 -0.14534546737678511 0.25129379472131641 0 -0.1416417428525672 0.26777243923482702 0 -0.16582228118094081 0.26466105519565358 0 -0.14136362158270599 0.28508793949713551 0 -0.1416417428525672 0.26777243923482702 0 -0.1083690905562489 0.27746201143443072 0 -0.10470287070229969 0.27376422074294909 0 -0.09206590757372593 0.27740472432850488 0 -0.099741497972773749 0.27068482051400677 0 -0.1098053558875477 0.27272524579145851 0 -0.092391857727521592 0.25884509119311472 0 -0.1155624016166297 0.27126165577105521 0 -0.1098053558875477 0.27272524579145851 0 -0.092391857727521592 0.25884509119311472 0 -0.099741497972773749 0.27068482051400677 0 -0.09206590757372593 0.27740472432850488 0 -0.092391857727521592 0.25884509119311472 0 -0.10470287070229969 0.27376422074294909 0 -0.099741497972773749 0.27068482051400677 0 -0.1098053558875477 0.27272524579145851 0 -0.1083690905562489 0.27746201143443072 0 -0.1098053558875477 0.27272524579145851 0 -0.1083690905562489 0.27746201143443072 0 -0.10470287070229969 0.27376422074294909 0 -0.1098053558875477 0.27272524579145851 0 -0.10470287070229969 0.27376422074294909 0 -0.099741497972773749 0.27068482051400677 0 -0.09206590757372593 0.27740472432850488 0 -0.1155624016166297 0.27126165577105521 0 -0.092391857727521592 0.25884509119311472 0 -0.11076524853809321 0.25238606884059173 0 -0.1155624016166297 0.27126165577105521 0 -0.092391857727521592 0.25884509119311472 0 -0.11076524853809321 0.25238606884059173 0 -0.1199394347971814 0.25731632695883078 0 -0.1155624016166297 0.27126165577105521 0 -0.12872708527658799 0.25991420809329241 0 -0.1199394347971814 0.25731632695883078 0 -0.12470300375741469 0.2457033751303839 0 -0.11076524853809321 0.25238606884059173 0 -0.1199394347971814 0.25731632695883078 0 -0.12470300375741469 0.2457033751303839 0 -0.12872708527658799 0.25991420809329241 0 -0.1199394347971814 0.25731632695883078 0 -0.1155624016166297 0.27126165577105521 0 -0.12872708527658799 0.25991420809329241 0 -0.1155624016166297 0.27126165577105521 0 -0.1083690905562489 0.27746201143443072 0 -0.1155624016166297 0.27126165577105521 0 -0.1196693143642453 0.28329908912575552 0 -0.1083690905562489 0.27746201143443072 0 -0.1155624016166297 0.27126165577105521 0 -0.1098053558875477 0.27272524579145851 0 -0.1083690905562489 0.27746201143443072 0 -0.1155624016166297 0.27126165577105521 0 -0.1083690905562489 0.27746201143443072 0 -0.1202787732923796 0.29457691953651272 0 -0.1003457715998239 0.30392270831765028 0 -0.1083690905562489 0.27746201143443072 0 -0.1196693143642453 0.28329908912575552 0 -0.1202787732923796 0.29457691953651272 0 -0.1202787732923796 0.29457691953651272 0 -0.1173504618646501 0.30916380798395637 0 -0.1003457715998239 0.30392270831765028 0 -0.13170636281121431 0.30540396541675668 0 -0.1202787732923796 0.29457691953651272 0 -0.1173504618646501 0.30916380798395637 0 -0.1173504618646501 0.30916380798395637 0 -0.1003457715998239 0.30392270831765028 0 -0.1081804568928026 0.32074506353771021 0 -0.1083690905562489 0.27746201143443072 0 -0.08834593029567378 0.29472120043351602 0 -0.09206590757372593 0.27740472432850488 0 -0.1083690905562489 0.27746201143443072 0 -0.1003457715998239 0.30392270831765028 0 -0.08834593029567378 0.29472120043351602 0 -0.1083690905562489 0.27746201143443072 0 -0.1003457715998239 0.30392270831765028 0 -0.1083690905562489 0.27746201143443072 0 -0.08834593029567378 0.29472120043351602 0 -0.08834593029567378 0.29472120043351602 0 -0.079344374197139078 0.28508182268507098 0 -0.09206590757372593 0.27740472432850488 0 -0.08834593029567378 0.29472120043351602 0 -0.072463929930227558 0.29930610977545041 0 -0.077617967212061698 0.29366907382828078 0 -0.08834593029567378 0.29472120043351602 0 -0.079344374197139078 0.28508182268507098 0 -0.077617967212061698 0.29366907382828078 0 -0.08834593029567378 0.29472120043351602 0 -0.087527931766016032 0.31235393694025021 0 -0.08121949171140587 0.31012908581564408 0 -0.08834593029567378 0.29472120043351602 0 -0.068322770035098762 0.31198038943260148 0 -0.1003457715998239 0.30392270831765028 0 -0.08834593029567378 0.29472120043351602 0 -0.087527931766016032 0.31235393694025021 0 -0.08834593029567378 0.29472120043351602 0 -0.08121949171140587 0.31012908581564408 0 -0.069852456288818351 0.31207980665071 0 -0.08834593029567378 0.29472120043351602 0 -0.068322770035098762 0.31198038943260148 0 -0.069852456288818351 0.31207980665071 0 -0.08834593029567378 0.29472120043351602 0 -0.072463929930227558 0.29930610977545041 0 -0.068322770035098762 0.31198038943260148 0 -0.072463929930227558 0.29930610977545041 0 -0.064179569528432873 0.29754197169583518 0 -0.063962500348327456 0.30379626580195229 0 -0.072463929930227558 0.29930610977545041 0 -0.063962500348327456 0.30379626580195229 0 -0.068322770035098762 0.31198038943260148 0 -0.068322770035098762 0.31198038943260148 0 -0.069852456288818351 0.31207980665071 0 -0.079344374197139078 0.28508182268507098 0 -0.070510141993048517 0.29225124769799787 0 -0.067485792004003509 0.28106498521306011 0 -0.079344374197139078 0.28508182268507098 0 -0.077617967212061698 0.29366907382828078 0 -0.070510141993048517 0.29225124769799787 0 -0.072463929930227558 0.29930610977545041 0 -0.077617967212061698 0.29366907382828078 0 -0.070510141993048517 0.29225124769799787 0 -0.064179569528432873 0.29754197169583518 0 -0.070510141993048517 0.29225124769799787 0 -0.059799020663136082 0.29068729405280619 0 -0.072463929930227558 0.29930610977545041 0 -0.064179569528432873 0.29754197169583518 0 -0.070510141993048517 0.29225124769799787 0 -0.070510141993048517 0.29225124769799787 0 -0.067485792004003509 0.28106498521306011 0 -0.059799020663136082 0.29068729405280619 0 -0.079344374197139078 0.28508182268507098 0 -0.077112635008727601 0.26938653581869981 0 -0.067485792004003509 0.28106498521306011 0 -0.077112635008727601 0.26938653581869981 0 -0.067485792004003509 0.28106498521306011 0 -0.060296114269721542 0.26705395206363342 0 -0.079344374197139078 0.28508182268507098 0 -0.077112635008727601 0.26938653581869981 0 -0.09206590757372593 0.27740472432850488 0 -0.077112635008727601 0.26938653581869981 0 -0.09206590757372593 0.27740472432850488 0 -0.092391857727521592 0.25884509119311472 0 -0.092391857727521592 0.25884509119311472 0 -0.069221313838413207 0.24642852661517459 0 -0.077112635008727601 0.26938653581869981 0 -0.092391857727521592 0.25884509119311472 0 -0.069221313838413207 0.24642852661517459 0 -0.077112635008727601 0.26938653581869981 0 -0.060296114269721542 0.26705395206363342 0 -0.069221313838413207 0.24642852661517459 0 -0.048126263350958612 0.25465777805589501 0 -0.060296114269721542 0.26705395206363342 0 -0.069221313838413207 0.24642852661517459 0 -0.048126263350958612 0.25465777805589501 0 -0.060296114269721542 0.26705395206363342 0 -0.041784573477856593 0.2719242686623195 0 -0.055384127889045079 0.27986410773994991 0 -0.060296114269721542 0.26705395206363342 0 -0.041784573477856593 0.2719242686623195 0 -0.055384127889045079 0.27986410773994991 0 -0.041784573477856593 0.2719242686623195 0 -0.044370237993260717 0.29032640624232281 0 -0.067485792004003509 0.28106498521306011 0 -0.055384127889045079 0.27986410773994991 0 -0.060296114269721542 0.26705395206363342 0 -0.041784573477856593 0.2719242686623195 0 -0.028053557715267439 0.25838243531431121 0 -0.02550209953536561 0.27186686885002359 0 -0.041784573477856593 0.2719242686623195 0 -0.02550209953536561 0.27186686885002359 0 -0.031040102747703489 0.28267752730564011 0 -0.048126263350958612 0.25465777805589501 0 -0.041784573477856593 0.2719242686623195 0 -0.028053557715267439 0.25838243531431121 0 -0.048126263350958612 0.25465777805589501 0 -0.028053557715267439 0.25838243531431121 0 -0.033382390283993792 0.24359412621706661 0 -0.028053557715267439 0.25838243531431121 0 -0.01504563196256534 0.26333196488375049 0 -0.01778818590069102 0.2421293126167848 0 -0.01504563196256534 0.26333196488375049 0 -0.01778818590069102 0.2421293126167848 0 -0.028053557715267439 0.25838243531431121 0 -0.02550209953536561 0.27186686885002359 0 -0.01504563196256534 0.26333196488375049 0 -0.028053557715267439 0.25838243531431121 0 -0.01504563196256534 0.26333196488375049 0 -0.02550209953536561 0.27186686885002359 0 -0.01214761008608776 0.28573653795517551 0 -0.031040102747703489 0.28267752730564011 0 -0.02550209953536561 0.27186686885002359 0 -0.01504563196256534 0.26333196488375049 0 -0.01214761008608776 0.28573653795517551 0 -0.001267499687089951 0.2776013217203892 0 -0.01504563196256534 0.26333196488375049 0 -0.01214761008608776 0.28573653795517551 0 -0.01504563196256534 0.26333196488375049 0 -0.01214761008608776 0.28573653795517551 0 -0.00067809962666212902 0.26216505597133072 0 -0.01504563196256534 0.26333196488375049 0 0.010965700908337589 0.27322930467739909 0 -0.001267499687089951 0.2776013217203892 0 -0.01504563196256534 0.26333196488375049 0 0.010965700908337589 0.27322930467739909 0 -0.01504563196256534 0.26333196488375049 0 0.010965700908337589 0.27322930467739909 0 -0.0087132352456033638 0.25173417187717928 0 -0.01504563196256534 0.26333196488375049 0 -0.01778818590069102 0.2421293126167848 0 -0.00067809962666212902 0.26216505597133072 0 -0.0087132352456033638 0.25173417187717928 0 0.0027594708259384838 0.25829047161104352 0 -0.00067809962666212902 0.26216505597133072 0 -0.0087132352456033638 0.25173417187717928 0 -0.01504563196256534 0.26333196488375049 0 -0.009249588209606344 0.30814111102660002 0 -0.01214761008608776 0.28573653795517551 0 0.0038021096493471361 0.29689124930627131 0 -0.009249588209606344 0.30814111102660002 0 -0.01214761008608776 0.28573653795517551 0 -0.01214761008608776 0.28573653795517551 0 0.002380999114604244 0.28599596302517022 0 0.0038021096493471361 0.29689124930627131 0 -0.001267499687089951 0.2776013217203892 0 -0.01214761008608776 0.28573653795517551 0 0.002380999114604244 0.28599596302517022 0 -0.009249588209606344 0.30814111102660002 0 -0.01214761008608776 0.28573653795517551 0 -0.02711874363180217 0.2953884665518679 0 -0.01214761008608776 0.28573653795517551 0 -0.031040102747703489 0.28267752730564011 0 -0.02711874363180217 0.2953884665518679 0 -0.009249588209606344 0.30814111102660002 0 -0.02711874363180217 0.2953884665518679 0 -0.038786179122352507 0.31006075022960111 0 -0.009249588209606344 0.30814111102660002 0 -0.038786179122352507 0.31006075022960111 0 -0.02711874363180217 0.2953884665518679 0 -0.038786179122352507 0.31006075022960111 0 -0.044370237993260717 0.29032640624232281 0 -0.038786179122352507 0.31006075022960111 0 -0.044370237993260717 0.29032640624232281 0 -0.054162254707424723 0.30166894115096898 0 -0.031040102747703489 0.28267752730564011 0 -0.02711874363180217 0.2953884665518679 0 -0.044370237993260717 0.29032640624232281 0 -0.041784573477856593 0.2719242686623195 0 -0.031040102747703489 0.28267752730564011 0 -0.044370237993260717 0.29032640624232281 0 -0.055384127889045079 0.27986410773994991 0 -0.044370237993260717 0.29032640624232281 0 -0.059799020663136082 0.29068729405280619 0 -0.044370237993260717 0.29032640624232281 0 -0.059799020663136082 0.29068729405280619 0 -0.054162254707424723 0.30166894115096898 0 -0.064179569528432873 0.29754197169583518 0 -0.059799020663136082 0.29068729405280619 0 -0.054162254707424723 0.30166894115096898 0 -0.067485792004003509 0.28106498521306011 0 -0.055384127889045079 0.27986410773994991 0 -0.059799020663136082 0.29068729405280619 0 -0.068322770035098762 0.31198038943260148 0 -0.038786179122352507 0.31006075022960111 0 -0.068322770035098762 0.31198038943260148 0 -0.038786179122352507 0.31006075022960111 0 -0.054162254707424723 0.30166894115096898 0 -0.064179569528432873 0.29754197169583518 0 -0.063962500348327456 0.30379626580195229 0 -0.054162254707424723 0.30166894115096898 0 -0.063962500348327456 0.30379626580195229 0 -0.068322770035098762 0.31198038943260148 0 -0.054162254707424723 0.30166894115096898 0 -0.068322770035098762 0.31198038943260148 0 -0.038786179122352507 0.31006075022960111 0 -0.053879496619987192 0.32442993198196868 0 -0.068322770035098762 0.31198038943260148 0 -0.053879496619987192 0.32442993198196868 0 -0.059045099567240703 0.33862263320968672 0 -0.059976501396798443 0.34640013057040159 0 -0.068046633572776155 0.34513696516333192 0 -0.053879496619987192 0.32442993198196868 0 -0.059045099567240703 0.33862263320968672 0 -0.06815446288386498 0.3263880450875648 0 -0.053879496619987192 0.32442993198196868 0 -0.059045099567240703 0.33862263320968672 0 -0.049717572699208172 0.33977374392884352 0 -0.053879496619987192 0.32442993198196868 0 -0.049717572699208172 0.33977374392884352 0 -0.039436223204876379 0.33687947453133682 0 -0.059045099567240703 0.33862263320968672 0 -0.049717572699208172 0.33977374392884352 0 -0.052933118771744558 0.34753778728834739 0 -0.049717572699208172 0.33977374392884352 0 -0.039436223204876379 0.33687947453133682 0 -0.045752302425533672 0.34929255203680049 0 -0.053879496619987192 0.32442993198196868 0 -0.039436223204876379 0.33687947453133682 0 -0.039359444206513459 0.32419621080282812 0 -0.053879496619987192 0.32442993198196868 0 -0.039436223204876379 0.33687947453133682 0 -0.039436223204876379 0.33687947453133682 0 -0.039359444206513459 0.32419621080282812 0 -0.02531264429424256 0.33765677836634578 0 -0.039436223204876379 0.33687947453133682 0 -0.02531264429424256 0.33765677836634578 0 -0.034795741464765127 0.3466441775467104 0 -0.038786179122352507 0.31006075022960111 0 -0.053879496619987192 0.32442993198196868 0 -0.039359444206513459 0.32419621080282812 0 -0.038786179122352507 0.31006075022960111 0 -0.039359444206513459 0.32419621080282812 0 -0.024068293084679539 0.32272721199300619 0 -0.009249588209606344 0.30814111102660002 0 -0.038786179122352507 0.31006075022960111 0 -0.024068293084679539 0.32272721199300619 0 -0.024068293084679539 0.32272721199300619 0 -0.02531264429424256 0.33765677836634578 0 -0.005758602284471958 0.33512988219008361 0 -0.039359444206513459 0.32419621080282812 0 -0.024068293084679539 0.32272721199300619 0 -0.02531264429424256 0.33765677836634578 0 -0.005758602284471958 0.33512988219008361 0 -0.0077202170519437719 0.34710906184019069 0 0.0082446038140756572 0.34376242611402219 0 -0.02531264429424256 0.33765677836634578 0 -0.005758602284471958 0.33512988219008361 0 -0.0077202170519437719 0.34710906184019069 0 -0.009249588209606344 0.30814111102660002 0 -0.005758602284471958 0.33512988219008361 0 0.0094307060340404689 0.32376070079746733 0 -0.009249588209606344 0.30814111102660002 0 -0.005758602284471958 0.33512988219008361 0 -0.009249588209606344 0.30814111102660002 0 -0.024068293084679539 0.32272721199300619 0 -0.005758602284471958 0.33512988219008361 0 -0.0045677851665312944 0.36532665559408428 0 -0.0087141207398781558 0.37710904293520409 0 0.0077169544749549623 0.36306791211952738 0 -0.0045677851665312944 0.36532665559408428 0 -0.019623601183504629 0.35541479533684739 0 -0.0087141207398781558 0.37710904293520409 0 -0.0087141207398781558 0.37710904293520409 0 0.0077169544749549623 0.36306791211952738 0 -0.0077202170519437719 0.34710906184019069 0 -0.019623601183504629 0.35541479533684739 0 0.0038095970876644218 0.35606187191015221 0 -0.019623601183504629 0.35541479533684739 0 0.0038095970876644218 0.35606187191015221 0 -0.0045677851665312944 0.36532665559408428 0 -0.019623601183504629 0.35541479533684739 0 0.0038095970876644218 0.35606187191015221 0 -0.02531264429424256 0.33765677836634578 0 -0.019623601183504629 0.35541479533684739 0 -0.034795741464765127 0.3466441775467104 0 -0.02531264429424256 0.33765677836634578 0 -0.0077202170519437719 0.34710906184019069 0 -0.019623601183504629 0.35541479533684739 0 -0.019623601183504629 0.35541479533684739 0 -0.034100997704691827 0.37295894625721099 0 -0.0087141207398781558 0.37710904293520409 0 -0.019623601183504629 0.35541479533684739 0 -0.034100997704691827 0.37295894625721099 0 -0.043056799454673583 0.35476771876354157 0 -0.034100997704691827 0.37295894625721099 0 -0.047131069669461997 0.36807368878450081 0 -0.054593457040109393 0.3822816536988497 0 -0.034100997704691827 0.37295894625721099 0 -0.043056799454673583 0.35476771876354157 0 -0.034100997704691827 0.37295894625721099 0 -0.043056799454673583 0.35476771876354157 0 -0.047131069669461997 0.36807368878450081 0 -0.019623601183504629 0.35541479533684739 0 -0.043056799454673583 0.35476771876354157 0 -0.019623601183504629 0.35541479533684739 0 -0.034795741464765127 0.3466441775467104 0 -0.043056799454673583 0.35476771876354157 0 -0.043056799454673583 0.35476771876354157 0 -0.045752302425533672 0.34929255203680049 0 -0.039436223204876379 0.33687947453133682 0 -0.034795741464765127 0.3466441775467104 0 -0.045752302425533672 0.34929255203680049 0 -0.034795741464765127 0.3466441775467104 0 -0.043056799454673583 0.35476771876354157 0 -0.045752302425533672 0.34929255203680049 0 -0.043056799454673583 0.35476771876354157 0 -0.052933118771744558 0.34753778728834739 0 -0.059881153675432383 0.35430313662024071 0 -0.043056799454673583 0.35476771876354157 0 -0.059881153675432383 0.35430313662024071 0 -0.051828064233363932 0.36038047858465339 0 -0.043056799454673583 0.35476771876354157 0 -0.059881153675432383 0.35430313662024071 0 -0.043056799454673583 0.35476771876354157 0 -0.045752302425533672 0.34929255203680049 0 -0.052933118771744558 0.34753778728834739 0 -0.049717572699208172 0.33977374392884352 0 -0.045752302425533672 0.34929255203680049 0 -0.052933118771744558 0.34753778728834739 0 -0.059881153675432383 0.35430313662024071 0 -0.051828064233363932 0.36038047858465339 0 -0.058626870601395778 0.36023180910453118 0 -0.059045099567240703 0.33862263320968672 0 -0.052933118771744558 0.34753778728834739 0 -0.059976501396798443 0.34640013057040159 0 -0.052933118771744558 0.34753778728834739 0 -0.059881153675432383 0.35430313662024071 0 -0.059976501396798443 0.34640013057040159 0 -0.047131069669461997 0.36807368878450081 0 -0.054116187566776573 0.36544526432200969 0 -0.058148679921659119 0.37186744297544022 0 -0.047131069669461997 0.36807368878450081 0 -0.058148679921659119 0.37186744297544022 0 -0.054593457040109393 0.3822816536988497 0 -0.043056799454673583 0.35476771876354157 0 -0.047131069669461997 0.36807368878450081 0 -0.051828064233363932 0.36038047858465339 0 -0.047131069669461997 0.36807368878450081 0 -0.051828064233363932 0.36038047858465339 0 -0.054116187566776573 0.36544526432200969 0 -0.054116187566776573 0.36544526432200969 0 -0.058626870601395778 0.36023180910453118 0 -0.058148679921659119 0.37186744297544022 0 -0.051828064233363932 0.36038047858465339 0 -0.054116187566776573 0.36544526432200969 0 -0.058626870601395778 0.36023180910453118 0 -0.058626870601395778 0.36023180910453118 0 -0.058148679921659119 0.37186744297544022 0 -0.076275814730551866 0.38330479896731001 0 -0.058626870601395778 0.36023180910453118 0 -0.071157696118109362 0.36170448025062218 0 -0.076275814730551866 0.38330479896731001 0 -0.071157696118109362 0.36170448025062218 0 -0.084299133686975572 0.35684410208409001 0 -0.076275814730551866 0.38330479896731001 0 -0.058626870601395778 0.36023180910453118 0 -0.076275814730551866 0.38330479896731001 0 -0.084299133686975572 0.35684410208409001 0 -0.089436666146690338 0.3774527594588406 0 -0.076275814730551866 0.38330479896731001 0 -0.084299133686975572 0.35684410208409001 0 -0.076275814730551866 0.38330479896731001 0 -0.093494049974744503 0.36523362229143391 0 -0.084299133686975572 0.35684410208409001 0 -0.089436666146690338 0.3774527594588406 0 -0.084299133686975572 0.35684410208409001 0 -0.076705507896191183 0.35383855447693902 0 -0.080753986599573127 0.33990497651870988 0 -0.084299133686975572 0.35684410208409001 0 -0.092322452643399749 0.33038340520087017 0 -0.095141502753968779 0.35097174187852381 0 -0.093494049974744503 0.36523362229143391 0 -0.084299133686975572 0.35684410208409001 0 -0.095141502753968779 0.35097174187852381 0 -0.059881153675432383 0.35430313662024071 0 -0.071157696118109362 0.36170448025062218 0 -0.076705507896191183 0.35383855447693902 0 -0.076705507896191183 0.35383855447693902 0 -0.068046633572776155 0.34513696516333192 0 -0.080753986599573127 0.33990497651870988 0 -0.059881153675432383 0.35430313662024071 0 -0.076705507896191183 0.35383855447693902 0 -0.068046633572776155 0.34513696516333192 0 -0.059881153675432383 0.35430313662024071 0 -0.076705507896191183 0.35383855447693902 0 -0.071157696118109362 0.36170448025062218 0 -0.084299133686975572 0.35684410208409001 0 -0.076705507896191183 0.35383855447693902 0 -0.059881153675432383 0.35430313662024071 0 -0.058626870601395778 0.36023180910453118 0 -0.071157696118109362 0.36170448025062218 0 -0.059881153675432383 0.35430313662024071 0 -0.059976501396798443 0.34640013057040159 0 -0.068046633572776155 0.34513696516333192 0 -0.06815446288386498 0.3263880450875648 0 -0.079151648495115301 0.32136139923810009 0 -0.080753986599573127 0.33990497651870988 0 -0.068046633572776155 0.34513696516333192 0 -0.06815446288386498 0.3263880450875648 0 -0.080753986599573127 0.33990497651870988 0 -0.059045099567240703 0.33862263320968672 0 -0.068046633572776155 0.34513696516333192 0 -0.06815446288386498 0.3263880450875648 0 -0.068322770035098762 0.31198038943260148 0 -0.069852456288818351 0.31207980665071 0 -0.06815446288386498 0.3263880450875648 0 -0.068322770035098762 0.31198038943260148 0 -0.053879496619987192 0.32442993198196868 0 -0.06815446288386498 0.3263880450875648 0 -0.08121949171140587 0.31012908581564408 0 -0.069852456288818351 0.31207980665071 0 -0.079151648495115301 0.32136139923810009 0 -0.069852456288818351 0.31207980665071 0 -0.06815446288386498 0.3263880450875648 0 -0.079151648495115301 0.32136139923810009 0 -0.087527931766016032 0.31235393694025021 0 -0.079151648495115301 0.32136139923810009 0 -0.092322452643399749 0.33038340520087017 0 -0.1003457715998239 0.30392270831765028 0 -0.087527931766016032 0.31235393694025021 0 -0.092322452643399749 0.33038340520087017 0 -0.087527931766016032 0.31235393694025021 0 -0.08121949171140587 0.31012908581564408 0 -0.079151648495115301 0.32136139923810009 0 -0.084299133686975572 0.35684410208409001 0 -0.092322452643399749 0.33038340520087017 0 -0.079151648495115301 0.32136139923810009 0 -0.092322452643399749 0.33038340520087017 0 -0.080753986599573127 0.33990497651870988 0 -0.084299133686975572 0.35684410208409001 0 -0.092322452643399749 0.33038340520087017 0 -0.080753986599573127 0.33990497651870988 0 -0.092322452643399749 0.33038340520087017 0 -0.10472406897533799 0.34168768652513631 0 -0.095141502753968779 0.35097174187852381 0 -0.092322452643399749 0.33038340520087017 0 -0.10472406897533799 0.34168768652513631 0 -0.1081804568928026 0.32074506353771021 0 -0.1003457715998239 0.30392270831765028 0 -0.092322452643399749 0.33038340520087017 0 -0.1003457715998239 0.30392270831765028 0 -0.092322452643399749 0.33038340520087017 0 -0.1081804568928026 0.32074506353771021 0 -0.1262409447270301 0.3211703831111522 0 -0.1173504618646501 0.30916380798395637 0 -0.1081804568928026 0.32074506353771021 0 -0.1262409447270301 0.3211703831111522 0 -0.1081804568928026 0.32074506353771021 0 -0.1175879007316586 0.33497855513245622 0 -0.13367478836053351 0.33932016938713638 0 -0.1175879007316586 0.33497855513245622 0 -0.1173066256070304 0.35104950557859033 0 -0.10472406897533799 0.34168768652513631 0 -0.1081804568928026 0.32074506353771021 0 -0.1175879007316586 0.33497855513245622 0 -0.10472406897533799 0.34168768652513631 0 -0.1175879007316586 0.33497855513245622 0 -0.1173066256070304 0.35104950557859033 0 -0.1173066256070304 0.35104950557859033 0 -0.1198206075896991 0.37069234566290138 0 -0.1030551893938276 0.35978992576853291 0 -0.1367685514822152 0.35851885971508118 0 -0.1173066256070304 0.35104950557859033 0 -0.1198206075896991 0.37069234566290138 0 -0.1198206075896991 0.37069234566290138 0 -0.1030551893938276 0.35978992576853291 0 -0.10026372758235801 0.37465761506622741 0 -0.093494049974744503 0.36523362229143391 0 -0.10026372758235801 0.37465761506622741 0 -0.089436666146690338 0.3774527594588406 0 -0.093494049974744503 0.36523362229143391 0 -0.1030551893938276 0.35978992576853291 0 -0.10026372758235801 0.37465761506622741 0 -0.10472406897533799 0.34168768652513631 0 -0.1030551893938276 0.35978992576853291 0 -0.095141502753968779 0.35097174187852381 0 -0.093494049974744503 0.36523362229143391 0 -0.1030551893938276 0.35978992576853291 0 -0.095141502753968779 0.35097174187852381 0 -0.10472406897533799 0.34168768652513631 0 -0.1173066256070304 0.35104950557859033 0 -0.1030551893938276 0.35978992576853291 0 -0.101128536279416 0.3977608810528192 0 -0.11378235269799521 0.38746486633725291 0 -0.11258596611237601 0.40408595479252452 0 -0.101128536279416 0.3977608810528192 0 -0.095244926421122186 0.38729621463576269 0 -0.11378235269799521 0.38746486633725291 0 -0.101128536279416 0.3977608810528192 0 -0.11258596611237601 0.40408595479252452 0 -0.097808874238227678 0.41145560844912898 0 -0.101128536279416 0.3977608810528192 0 -0.097808874238227678 0.41145560844912898 0 -0.087042344484389883 0.39738020370821953 0 -0.101128536279416 0.3977608810528192 0 -0.095244926421122186 0.38729621463576269 0 -0.087042344484389883 0.39738020370821953 0 -0.10026372758235801 0.37465761506622741 0 -0.095244926421122186 0.38729621463576269 0 -0.11378235269799521 0.38746486633725291 0 -0.10026372758235801 0.37465761506622741 0 -0.095244926421122186 0.38729621463576269 0 -0.089436666146690338 0.3774527594588406 0 -0.1198206075896991 0.37069234566290138 0 -0.10026372758235801 0.37465761506622741 0 -0.11378235269799521 0.38746486633725291 0 -0.12826940643264259 0.38638828685515292 0 -0.1198206075896991 0.37069234566290138 0 -0.11378235269799521 0.38746486633725291 0 -0.12644786621320531 0.40058001872868543 0 -0.12826940643264259 0.38638828685515292 0 -0.11378235269799521 0.38746486633725291 0 -0.12761284081938409 0.41418542740570108 0 -0.11378235269799521 0.38746486633725291 0 -0.12761284081938409 0.41418542740570108 0 -0.12644786621320531 0.40058001872868543 0 -0.11378235269799521 0.38746486633725291 0 -0.12761284081938409 0.41418542740570108 0 -0.11378235269799521 0.38746486633725291 0 -0.11258596611237601 0.40408595479252452 0 -0.12761284081938409 0.41418542740570108 0 -0.11258596611237601 0.40408595479252452 0 -0.097808874238227678 0.41145560844912898 0 -0.12761284081938409 0.41418542740570108 0 -0.1126245701039178 0.4308246085444013 0 -0.097808874238227678 0.41145560844912898 0 -0.12761284081938409 0.41418542740570108 0 -0.097808874238227678 0.41145560844912898 0 -0.12761284081938409 0.41418542740570108 0 -0.1126245701039178 0.4308246085444013 0 -0.1242648033483075 0.43981492828754482 0 -0.1126245701039178 0.4308246085444013 0 -0.096605527178418776 0.42311346390882398 0 -0.097170403390676049 0.43571281837191522 0 -0.1126245701039178 0.4308246085444013 0 -0.097170403390676049 0.43571281837191522 0 -0.10338783084247161 0.44098956532991213 0 -0.1126245701039178 0.4308246085444013 0 -0.097808874238227678 0.41145560844912898 0 -0.1126245701039178 0.4308246085444013 0 -0.096605527178418776 0.42311346390882398 0 -0.097808874238227678 0.41145560844912898 0 -0.096605527178418776 0.42311346390882398 0 -0.097808874238227678 0.41145560844912898 0 -0.090623427087895073 0.41079747558654428 0 -0.097808874238227678 0.41145560844912898 0 -0.090623427087895073 0.41079747558654428 0 -0.096605527178418776 0.42311346390882398 0 -0.090623427087895073 0.41079747558654428 0 -0.084800361071377284 0.4267768085921303 0 -0.090623427087895073 0.41079747558654428 0 -0.084347825254610875 0.40943513047528779 0 -0.084800361071377284 0.4267768085921303 0 -0.084800361071377284 0.4267768085921303 0 -0.074925168374781331 0.40278603401425761 0 -0.084347825254610875 0.40943513047528779 0 -0.084800361071377284 0.4267768085921303 0 -0.074925168374781331 0.40278603401425761 0 -0.097808874238227678 0.41145560844912898 0 -0.090623427087895073 0.41079747558654428 0 -0.087042344484389883 0.39738020370821953 0 -0.096605527178418776 0.42311346390882398 0 -0.097170403390676049 0.43571281837191522 0 -0.084800361071377284 0.4267768085921303 0 -0.084800361071377284 0.4267768085921303 0 -0.077689053426030094 0.43734830183904833 0 -0.073740177733494089 0.43015549729097768 0 -0.084800361071377284 0.4267768085921303 0 -0.077689053426030094 0.43734830183904833 0 -0.085627028266785254 0.44117175463919189 0 -0.077689053426030094 0.43734830183904833 0 -0.073740177733494089 0.43015549729097768 0 -0.069373851585076945 0.43677151010665521 0 -0.084800361071377284 0.4267768085921303 0 -0.073740177733494089 0.43015549729097768 0 -0.074963529381557356 0.42372471124402672 0 -0.084800361071377284 0.4267768085921303 0 -0.074963529381557356 0.42372471124402672 0 -0.074207610301873977 0.415826985147286 0 -0.073740177733494089 0.43015549729097768 0 -0.07134827269677288 0.42521816639912852 0 -0.067010261651664849 0.42692585223643509 0 -0.073740177733494089 0.43015549729097768 0 -0.074963529381557356 0.42372471124402672 0 -0.07134827269677288 0.42521816639912852 0 -0.074963529381557356 0.42372471124402672 0 -0.07134827269677288 0.42521816639912852 0 -0.069903249343569923 0.42035209495099629 0 -0.06803153127557314 0.42418340705062968 0 -0.063864341410284964 0.42423751461595932 0 -0.069903249343569923 0.42035209495099629 0 -0.07134827269677288 0.42521816639912852 0 -0.06803153127557314 0.42418340705062968 0 -0.067010261651664849 0.42692585223643509 0 -0.07134827269677288 0.42521816639912852 0 -0.06803153127557314 0.42418340705062968 0 -0.069903249343569923 0.42035209495099629 0 -0.06803153127557314 0.42418340705062968 0 -0.063864341410284964 0.42423751461595932 0 -0.067010261651664849 0.42692585223643509 0 -0.063864341410284964 0.42423751461595932 0 -0.067010261651664849 0.42692585223643509 0 -0.067010261651664849 0.42692585223643509 0 -0.06657591115514655 0.43192586875325267 0 -0.062357688865182517 0.42920641545622512 0 -0.063864341410284964 0.42423751461595932 0 -0.067010261651664849 0.42692585223643509 0 -0.062357688865182517 0.42920641545622512 0 -0.063864341410284964 0.42423751461595932 0 -0.062357688865182517 0.42920641545622512 0 -0.073740177733494089 0.43015549729097768 0 -0.067010261651664849 0.42692585223643509 0 -0.06657591115514655 0.43192586875325267 0 -0.073740177733494089 0.43015549729097768 0 -0.06657591115514655 0.43192586875325267 0 -0.069373851585076945 0.43677151010665521 0 -0.06657591115514655 0.43192586875325267 0 -0.062750456602468974 0.43554137489064498 0 -0.062357688865182517 0.42920641545622512 0 -0.06657591115514655 0.43192586875325267 0 -0.062750456602468974 0.43554137489064498 0 -0.069373851585076945 0.43677151010665521 0 -0.063864341410284964 0.42423751461595932 0 -0.069903249343569923 0.42035209495099629 0 -0.070070078070418332 0.40377115679163461 0 -0.074207610301873977 0.415826985147286 0 -0.069903249343569923 0.42035209495099629 0 -0.070070078070418332 0.40377115679163461 0 -0.063864341410284964 0.42423751461595932 0 -0.070070078070418332 0.40377115679163461 0 -0.058881304157308093 0.40804381518971672 0 -0.063864341410284964 0.42423751461595932 0 -0.070070078070418332 0.40377115679163461 0 -0.084800361071377284 0.4267768085921303 0 -0.074207610301873977 0.415826985147286 0 -0.074925168374781331 0.40278603401425761 0 -0.074207610301873977 0.415826985147286 0 -0.070070078070418332 0.40377115679163461 0 -0.074925168374781331 0.40278603401425761 0 -0.074963529381557356 0.42372471124402672 0 -0.074207610301873977 0.415826985147286 0 -0.069903249343569923 0.42035209495099629 0 -0.070070078070418332 0.40377115679163461 0 -0.064506344576777661 0.39145758865641178 0 -0.076275814730551866 0.38330479896731001 0 -0.070070078070418332 0.40377115679163461 0 -0.074925168374781331 0.40278603401425761 0 -0.076275814730551866 0.38330479896731001 0 -0.070070078070418332 0.40377115679163461 0 -0.076275814730551866 0.38330479896731001 0 -0.070070078070418332 0.40377115679163461 0 -0.064506344576777661 0.39145758865641178 0 -0.057086028466031037 0.39647274516785291 0 -0.074925168374781331 0.40278603401425761 0 -0.087042344484389883 0.39738020370821953 0 -0.076275814730551866 0.38330479896731001 0 -0.084347825254610875 0.40943513047528779 0 -0.074925168374781331 0.40278603401425761 0 -0.087042344484389883 0.39738020370821953 0 -0.097808874238227678 0.41145560844912898 0 -0.087042344484389883 0.39738020370821953 0 -0.090623427087895073 0.41079747558654428 0 -0.084347825254610875 0.40943513047528779 0 -0.087042344484389883 0.39738020370821953 0 -0.087042344484389883 0.39738020370821953 0 -0.089436666146690338 0.3774527594588406 0 -0.076275814730551866 0.38330479896731001 0 -0.095244926421122186 0.38729621463576269 0 -0.087042344484389883 0.39738020370821953 0 -0.089436666146690338 0.3774527594588406 0 -0.087042344484389883 0.39738020370821953 0 -0.076275814730551866 0.38330479896731001 0 -0.064506344576777661 0.39145758865641178 0 -0.076275814730551866 0.38330479896731001 0 -0.054593457040109393 0.3822816536988497 0 -0.058148679921659119 0.37186744297544022 0 -0.076275814730551866 0.38330479896731001 0 -0.054593457040109393 0.3822816536988497 0 -0.064506344576777661 0.39145758865641178 0 -0.054593457040109393 0.3822816536988497 0 -0.057086028466031037 0.39647274516785291 0 -0.054593457040109393 0.3822816536988497 0 -0.057086028466031037 0.39647274516785291 0 -0.042391572779214973 0.39096282696345341 0 -0.057086028466031037 0.39647274516785291 0 -0.042391572779214973 0.39096282696345341 0 -0.044504768682498037 0.40769384418342008 0 -0.070070078070418332 0.40377115679163461 0 -0.057086028466031037 0.39647274516785291 0 -0.058881304157308093 0.40804381518971672 0 -0.057086028466031037 0.39647274516785291 0 -0.044504768682498037 0.40769384418342008 0 -0.058881304157308093 0.40804381518971672 0 -0.02514519595471108 0.39115017375088101 0 -0.044504768682498037 0.40769384418342008 0 -0.042391572779214973 0.39096282696345341 0 -0.02514519595471108 0.39115017375088101 0 -0.044504768682498037 0.40769384418342008 0 -0.034100997704691827 0.37295894625721099 0 -0.054593457040109393 0.3822816536988497 0 -0.042391572779214973 0.39096282696345341 0 -0.034100997704691827 0.37295894625721099 0 -0.042391572779214973 0.39096282696345341 0 -0.02514519595471108 0.39115017375088101 0 -0.034100997704691827 0.37295894625721099 0 -0.02514519595471108 0.39115017375088101 0 -0.034100997704691827 0.37295894625721099 0 -0.02514519595471108 0.39115017375088101 0 -0.0087141207398781558 0.37710904293520409 0 -0.02514519595471108 0.39115017375088101 0 -0.0087141207398781558 0.37710904293520409 0 -0.02514519595471108 0.39115017375088101 0 -0.014810785045769751 0.41214166341376801 0 -0.02514519595471108 0.39115017375088101 0 -0.014810785045769751 0.41214166341376801 0 -0.044504768682498037 0.40769384418342008 0 -0.0068648610501423502 0.39382000907293813 0 -0.014810785045769751 0.41214166341376801 0 0.0046995574085186929 0.41194005205042061 0 -0.02514519595471108 0.39115017375088101 0 -0.0068648610501423502 0.39382000907293813 0 -0.014810785045769751 0.41214166341376801 0 -0.02514519595471108 0.39115017375088101 0 -0.0068648610501423502 0.39382000907293813 0 -0.0087141207398781558 0.37710904293520409 0 -0.0068648610501423502 0.39382000907293813 0 -0.0087141207398781558 0.37710904293520409 0 0.0053185270157129726 0.37689571945341471 0 -0.0044763741368290672 0.43313315307665529 0 -0.014810785045769751 0.41214166341376801 0 -0.0044763741368290672 0.43313315307665529 0 -0.014810785045769751 0.41214166341376801 0 -0.026116443713473419 0.4246575807879529 0 -0.0044763741368290672 0.43313315307665529 0 -0.014810785045769751 0.41214166341376801 0 0.0046995574085186929 0.41194005205042061 0 -0.014810785045769751 0.41214166341376801 0 -0.026116443713473419 0.4246575807879529 0 -0.044504768682498037 0.40769384418342008 0 -0.0044763741368290672 0.43313315307665529 0 -0.026116443713473419 0.4246575807879529 0 -0.02623027688729573 0.44118750916919391 0 -0.026116443713473419 0.4246575807879529 0 -0.040560013814974517 0.42913173409672722 0 -0.02623027688729573 0.44118750916919391 0 -0.040560013814974517 0.42913173409672722 0 -0.048293098329248912 0.43867666423002288 0 -0.039090066940739521 0.44352471403713711 0 -0.026116443713473419 0.4246575807879529 0 -0.040560013814974517 0.42913173409672722 0 -0.044504768682498037 0.40769384418342008 0 -0.040560013814974517 0.42913173409672722 0 -0.044504768682498037 0.40769384418342008 0 -0.051886787429848112 0.42350176277299723 0 -0.063864341410284964 0.42423751461595932 0 -0.044504768682498037 0.40769384418342008 0 -0.058881304157308093 0.40804381518971672 0 -0.063864341410284964 0.42423751461595932 0 -0.044504768682498037 0.40769384418342008 0 -0.051886787429848112 0.42350176277299723 0 -0.063864341410284964 0.42423751461595932 0 -0.044504768682498037 0.40769384418342008 0 -0.053936434918908913 0.43159717611494758 0 -0.057641003333182179 0.44086754716312743 0 -0.048293098329248912 0.43867666423002288 0 -0.040560013814974517 0.42913173409672722 0 -0.053936434918908913 0.43159717611494758 0 -0.048293098329248912 0.43867666423002288 0 -0.040560013814974517 0.42913173409672722 0 -0.053936434918908913 0.43159717611494758 0 -0.051886787429848112 0.42350176277299723 0 -0.053936434918908913 0.43159717611494758 0 -0.051886787429848112 0.42350176277299723 0 -0.062357688865182517 0.42920641545622512 0 -0.063864341410284964 0.42423751461595932 0 -0.051886787429848112 0.42350176277299723 0 -0.062357688865182517 0.42920641545622512 0 -0.062750456602468974 0.43554137489064498 0 -0.053936434918908913 0.43159717611494758 0 -0.062357688865182517 0.42920641545622512 0 -0.062750456602468974 0.43554137489064498 0 -0.053936434918908913 0.43159717611494758 0 -0.057641003333182179 0.44086754716312743 0 -0.062750456602468974 0.43554137489064498 0 -0.057641003333182179 0.44086754716312743 0 -0.065491549478626135 0.44200233464982802 0 -0.057641003333182179 0.44086754716312743 0 -0.062398417199954148 0.4499603094023914 0 -0.065491549478626135 0.44200233464982802 0 -0.057641003333182179 0.44086754716312743 0 -0.062398417199954148 0.4499603094023914 0 -0.050237972638439453 0.44826214973817502 0 -0.057641003333182179 0.44086754716312743 0 -0.050237972638439453 0.44826214973817502 0 -0.048293098329248912 0.43867666423002288 0 -0.062398417199954148 0.4499603094023914 0 -0.050230730183752688 0.46259696058471089 0 -0.064501224992871267 0.46542691543905351 0 -0.062398417199954148 0.4499603094023914 0 -0.050237972638439453 0.44826214973817502 0 -0.050230730183752688 0.46259696058471089 0 -0.050230730183752688 0.46259696058471089 0 -0.035748626011326709 0.45858167758110602 0 -0.046040344352481867 0.47841272498986082 0 -0.050237972638439453 0.44826214973817502 0 -0.050230730183752688 0.46259696058471089 0 -0.035748626011326709 0.45858167758110602 0 -0.035748626011326709 0.45858167758110602 0 -0.039090066940739521 0.44352471403713711 0 -0.02623027688729573 0.44118750916919391 0 -0.050237972638439453 0.44826214973817502 0 -0.048293098329248912 0.43867666423002288 0 -0.039090066940739521 0.44352471403713711 0 -0.050237972638439453 0.44826214973817502 0 -0.035748626011326709 0.45858167758110602 0 -0.039090066940739521 0.44352471403713711 0 -0.040560013814974517 0.42913173409672722 0 -0.039090066940739521 0.44352471403713711 0 -0.02623027688729573 0.44118750916919391 0 -0.035748626011326709 0.45858167758110602 0 -0.02623027688729573 0.44118750916919391 0 -0.01728298942402769 0.45556140426229003 0 -0.0044763741368290672 0.43313315307665529 0 -0.02623027688729573 0.44118750916919391 0 -0.01728298942402769 0.45556140426229003 0 -0.035748626011326709 0.45858167758110602 0 -0.01728298942402769 0.45556140426229003 0 -0.022784747477638551 0.4775754860453762 0 -0.01728298942402769 0.45556140426229003 0 -0.0062093312902834459 0.46527566221073008 0 0.006403582431216831 0.45126676372832991 0 -0.01728298942402769 0.45556140426229003 0 -0.0062093312902834459 0.46527566221073008 0 -0.022784747477638551 0.4775754860453762 0 -0.0044763741368290672 0.43313315307665529 0 -0.01728298942402769 0.45556140426229003 0 0.006403582431216831 0.45126676372832991 0 -0.0062093312902834459 0.46527566221073008 0 -0.022784747477638551 0.4775754860453762 0 0.0095498935665802413 0.47810272379952351 0 -0.022784747477638551 0.4775754860453762 0 -0.021427984417146221 0.5 0 0.0095498935665802413 0.47810272379952351 0 -0.021427984417146221 0.5 0 0.0095498935665802413 0.47810272379952351 0 0.0086042794582089632 0.5 0 -0.022784747477638551 0.4775754860453762 0 -0.021427984417146221 0.5 0 -0.046040344352481867 0.47841272498986082 0 -0.021427984417146221 0.5 0 -0.046040344352481867 0.47841272498986082 0 -0.051460248292501398 0.5 0 -0.035748626011326709 0.45858167758110602 0 -0.022784747477638551 0.4775754860453762 0 -0.046040344352481867 0.47841272498986082 0 -0.046040344352481867 0.47841272498986082 0 -0.067939054777113927 0.48291587414950521 0 -0.064501224992871267 0.46542691543905351 0 -0.050230730183752688 0.46259696058471089 0 -0.046040344352481867 0.47841272498986082 0 -0.064501224992871267 0.46542691543905351 0 -0.046040344352481867 0.47841272498986082 0 -0.051460248292501398 0.5 0 -0.067939054777113927 0.48291587414950521 0 -0.051460248292501398 0.5 0 -0.081492512167856565 0.50000000000000011 0 -0.067939054777113927 0.48291587414950521 0 -0.081492512167856565 0.50000000000000011 0 -0.085878896958769185 0.47675925450649242 0 -0.067939054777113927 0.48291587414950521 0 -0.081492512167856565 0.50000000000000011 0 -0.085878896958769185 0.47675925450649242 0 -0.099362977551805121 0.48745008538217821 0 -0.081492512167856565 0.50000000000000011 0 -0.085878896958769185 0.47675925450649242 0 -0.085878896958769185 0.47675925450649242 0 -0.075452149305044958 0.46933040044586682 0 -0.067939054777113927 0.48291587414950521 0 -0.075452149305044958 0.46933040044586682 0 -0.067939054777113927 0.48291587414950521 0 -0.064501224992871267 0.46542691543905351 0 -0.064501224992871267 0.46542691543905351 0 -0.075214053997903707 0.45912990264989012 0 -0.070315415620740368 0.45334812155980347 0 -0.062398417199954148 0.4499603094023914 0 -0.064501224992871267 0.46542691543905351 0 -0.070315415620740368 0.45334812155980347 0 -0.075214053997903707 0.45912990264989012 0 -0.070315415620740368 0.45334812155980347 0 -0.081419329692844739 0.44979703694502599 0 -0.075452149305044958 0.46933040044586682 0 -0.064501224992871267 0.46542691543905351 0 -0.075214053997903707 0.45912990264989012 0 -0.075452149305044958 0.46933040044586682 0 -0.075214053997903707 0.45912990264989012 0 -0.082509194984251868 0.46007906520350089 0 -0.069373851585076945 0.43677151010665521 0 -0.065491549478626135 0.44200233464982802 0 -0.073041418115067244 0.44511613748665291 0 -0.062750456602468974 0.43554137489064498 0 -0.069373851585076945 0.43677151010665521 0 -0.065491549478626135 0.44200233464982802 0 -0.062398417199954148 0.4499603094023914 0 -0.065491549478626135 0.44200233464982802 0 -0.073041418115067244 0.44511613748665291 0 -0.062398417199954148 0.4499603094023914 0 -0.070315415620740368 0.45334812155980347 0 -0.073041418115067244 0.44511613748665291 0 -0.070315415620740368 0.45334812155980347 0 -0.073041418115067244 0.44511613748665291 0 -0.081419329692844739 0.44979703694502599 0 -0.073041418115067244 0.44511613748665291 0 -0.07941018481149445 0.44345804230003222 0 -0.081419329692844739 0.44979703694502599 0 -0.077689053426030094 0.43734830183904833 0 -0.069373851585076945 0.43677151010665521 0 -0.073041418115067244 0.44511613748665291 0 -0.077689053426030094 0.43734830183904833 0 -0.073041418115067244 0.44511613748665291 0 -0.07941018481149445 0.44345804230003222 0 -0.097170403390676049 0.43571281837191522 0 -0.084800361071377284 0.4267768085921303 0 -0.094675553767973264 0.45076758317000298 0 -0.084800361071377284 0.4267768085921303 0 -0.094675553767973264 0.45076758317000298 0 -0.084800361071377284 0.4267768085921303 0 -0.085627028266785254 0.44117175463919189 0 -0.094675553767973264 0.45076758317000298 0 -0.085627028266785254 0.44117175463919189 0 -0.07941018481149445 0.44345804230003222 0 -0.081419329692844739 0.44979703694502599 0 -0.077689053426030094 0.43734830183904833 0 -0.085627028266785254 0.44117175463919189 0 -0.07941018481149445 0.44345804230003222 0 -0.085627028266785254 0.44117175463919189 0 -0.081419329692844739 0.44979703694502599 0 -0.088082484801868088 0.44854024150695748 0 -0.081419329692844739 0.44979703694502599 0 -0.086047819819581178 0.45134535453790131 0 -0.088082484801868088 0.44854024150695748 0 -0.085627028266785254 0.44117175463919189 0 -0.088082484801868088 0.44854024150695748 0 -0.094675553767973264 0.45076758317000298 0 -0.086047819819581178 0.45134535453790131 0 -0.088082484801868088 0.44854024150695748 0 -0.090265281749681819 0.45351850901298468 0 -0.088082484801868088 0.44854024150695748 0 -0.090265281749681819 0.45351850901298468 0 -0.094675553767973264 0.45076758317000298 0 -0.085878896958769185 0.47675925450649242 0 -0.075452149305044958 0.46933040044586682 0 -0.082509194984251868 0.46007906520350089 0 -0.085878896958769185 0.47675925450649242 0 -0.090265281749681819 0.45351850901298468 0 -0.085878896958769185 0.47675925450649242 0 -0.090265281749681819 0.45351850901298468 0 -0.093944937474792503 0.46462082789344678 0 -0.085878896958769185 0.47675925450649242 0 -0.082509194984251868 0.46007906520350089 0 -0.090265281749681819 0.45351850901298468 0 -0.081419329692844739 0.44979703694502599 0 -0.086047819819581178 0.45134535453790131 0 -0.082509194984251868 0.46007906520350089 0 -0.075214053997903707 0.45912990264989012 0 -0.081419329692844739 0.44979703694502599 0 -0.082509194984251868 0.46007906520350089 0 -0.090265281749681819 0.45351850901298468 0 -0.093944937474792503 0.46462082789344678 0 -0.094675553767973264 0.45076758317000298 0 -0.086047819819581178 0.45134535453790131 0 -0.082509194984251868 0.46007906520350089 0 -0.090265281749681819 0.45351850901298468 0 -0.093944937474792503 0.46462082789344678 0 -0.094675553767973264 0.45076758317000298 0 -0.1045507464645692 0.47475835774787573 0 -0.094675553767973264 0.45076758317000298 0 -0.1045507464645692 0.47475835774787573 0 -0.1087715055698807 0.4588247561088431 0 -0.094675553767973264 0.45076758317000298 0 -0.1045507464645692 0.47475835774787573 0 -0.1126245701039178 0.4308246085444013 0 -0.1090807961073193 0.44665325123332839 0 -0.10338783084247161 0.44098956532991213 0 -0.097170403390676049 0.43571281837191522 0 -0.094675553767973264 0.45076758317000298 0 -0.10338783084247161 0.44098956532991213 0 -0.1087715055698807 0.4588247561088431 0 -0.094675553767973264 0.45076758317000298 0 -0.1090807961073193 0.44665325123332839 0 -0.094675553767973264 0.45076758317000298 0 -0.1090807961073193 0.44665325123332839 0 -0.10338783084247161 0.44098956532991213 0 -0.1126245701039178 0.4308246085444013 0 -0.1090807961073193 0.44665325123332839 0 -0.1242648033483075 0.43981492828754482 0 -0.1090807961073193 0.44665325123332839 0 -0.1242648033483075 0.43981492828754482 0 -0.1204057133641486 0.45504160574272429 0 -0.1087715055698807 0.4588247561088431 0 -0.1176294132596279 0.46872710166108278 0 -0.1045507464645692 0.47475835774787573 0 -0.1087715055698807 0.4588247561088431 0 -0.1204057133641486 0.45504160574272429 0 -0.1176294132596279 0.46872710166108278 0 -0.1087715055698807 0.4588247561088431 0 -0.1090807961073193 0.44665325123332839 0 -0.1204057133641486 0.45504160574272429 0 -0.13097929143795109 0.46459511115351071 0 -0.1204057133641486 0.45504160574272429 0 -0.1176294132596279 0.46872710166108278 0 -0.12908554574303099 0.47755934496718438 0 -0.1176294132596279 0.46872710166108278 0 -0.1160402402672886 0.48503019582547341 0 -0.1176294132596279 0.46872710166108278 0 -0.1160402402672886 0.48503019582547341 0 -0.1045507464645692 0.47475835774787573 0 -0.13803845513632401 0.5 0 -0.1097654836520903 0.5 0 -0.1160402402672886 0.48503019582547341 0 -0.1097654836520903 0.5 0 -0.1160402402672886 0.48503019582547341 0 -0.099362977551805121 0.48745008538217821 0 -0.081492512167856565 0.50000000000000011 0 -0.1097654836520903 0.5 0 -0.099362977551805121 0.48745008538217821 0 -0.085878896958769185 0.47675925450649242 0 -0.093944937474792503 0.46462082789344678 0 -0.1045507464645692 0.47475835774787573 0 -0.085878896958769185 0.47675925450649242 0 -0.099362977551805121 0.48745008538217821 0 -0.1045507464645692 0.47475835774787573 0 -0.1160402402672886 0.48503019582547341 0 -0.099362977551805121 0.48745008538217821 0 -0.1045507464645692 0.47475835774787573 0 -0.15850742705232401 0.077073165420907211 0 -0.17832815471062741 0.080370175701138483 0 -0.15596223049933161 0.089669487892629185 0 -0.17128916945913089 0.092189477241546317 0 -0.17832815471062741 0.080370175701138483 0 -0.15596223049933161 0.089669487892629185 0 -0.17832815471062741 0.080370175701138483 0 -0.15596223049933161 0.089669487892629185 0 -0.15850742705232401 0.077073165420907211 0 -0.16907692184479731 0.071953328836937142 0 -0.17832815471062741 0.080370175701138483 0 -0.15850742705232401 0.077073165420907211 0 -0.15722519427174569 0.065058312825911402 0 -0.16907692184479731 0.071953328836937142 0 -0.16907692184479731 0.071953328836937142 0 -0.1809864334298861 0.069780609401686525 0 -0.17832815471062741 0.080370175701138483 0 -0.16907692184479731 0.071953328836937142 0 -0.1809864334298861 0.069780609401686525 0 -0.18167022033174851 0.056262687610226528 0 -0.1809864334298861 0.069780609401686525 0 -0.17832815471062741 0.080370175701138483 0 -0.20069407892192309 0.071070863509647808 0 -0.1809864334298861 0.069780609401686525 0 -0.18167022033174851 0.056262687610226528 0 -0.1876556690991136 0.063313821709693935 0 -0.17128916945913089 0.092189477241546317 0 -0.18444466814129201 0.081023499242751457 0 -0.17631468167186989 0.1066384650542631 0 -0.17128916945913089 0.092189477241546317 0 -0.18444466814129201 0.081023499242751457 0 -0.17832815471062741 0.080370175701138483 0 -0.18444466814129201 0.081023499242751457 0 -0.17631468167186989 0.1066384650542631 0 -0.19937405773042491 0.1071019237599893 0 -0.17631468167186989 0.1066384650542631 0 -0.16393492635195239 0.1245978723337525 0 -0.1795193575176991 0.1294692331289829 0 -0.17631468167186989 0.1066384650542631 0 -0.19937405773042491 0.1071019237599893 0 -0.1795193575176991 0.1294692331289829 0 -0.16393492635195239 0.1245978723337525 0 -0.16139611227253359 0.1032457583169494 0 -0.15311233888185891 0.1152965378839053 0 -0.17631468167186989 0.1066384650542631 0 -0.16393492635195239 0.1245978723337525 0 -0.16139611227253359 0.1032457583169494 0 -0.17128916945913089 0.092189477241546317 0 -0.17631468167186989 0.1066384650542631 0 -0.16139611227253359 0.1032457583169494 0 -0.17128916945913089 0.092189477241546317 0 -0.16139611227253359 0.1032457583169494 0 -0.15596223049933161 0.089669487892629185 0 -0.16139611227253359 0.1032457583169494 0 -0.13359630628803579 0.098968800084119873 0 -0.15596223049933161 0.089669487892629185 0 -0.16139611227253359 0.1032457583169494 0 -0.15311233888185891 0.1152965378839053 0 -0.13359630628803579 0.098968800084119873 0 -0.13359630628803579 0.098968800084119873 0 -0.15596223049933161 0.089669487892629185 0 -0.15311233888185891 0.1152965378839053 0 -0.13930859898956699 0.1145050369687237 0 -0.153752621985453 0.14073392350839439 0 -0.15311233888185891 0.1152965378839053 0 -0.13930859898956699 0.1145050369687237 0 -0.13359630628803579 0.098968800084119873 0 -0.13930859898956699 0.1145050369687237 0 -0.12607259725238279 0.11330641960449821 0 -0.12916618827146031 0.12390190950899049 0 -0.13930859898956699 0.1145050369687237 0 -0.12607259725238279 0.11330641960449821 0 -0.13359630628803579 0.098968800084119873 0 -0.13359630628803579 0.098968800084119873 0 -0.12697672020224329 0.087309090757334687 0 -0.14089006822782121 0.082531143958766096 0 -0.12697672020224329 0.087309090757334687 0 -0.14089006822782121 0.082531143958766096 0 -0.12697985749263241 0.07630636069427757 0 -0.15850742705232401 0.077073165420907211 0 -0.14089006822782121 0.082531143958766096 0 -0.15596223049933161 0.089669487892629185 0 -0.13359630628803579 0.098968800084119873 0 -0.14089006822782121 0.082531143958766096 0 -0.15596223049933161 0.089669487892629185 0 -0.15850742705232401 0.077073165420907211 0 -0.14089006822782121 0.082531143958766096 0 -0.14764327064684279 0.071644858797684771 0 -0.15722519427174569 0.065058312825911402 0 -0.14764327064684279 0.071644858797684771 0 -0.1471722955607111 0.059591957907519158 0 -0.15850742705232401 0.077073165420907211 0 -0.15722519427174569 0.065058312825911402 0 -0.14764327064684279 0.071644858797684771 0 -0.14089006822782121 0.082531143958766096 0 -0.14764327064684279 0.071644858797684771 0 -0.13666502121529681 0.069478967649866344 0 -0.14764327064684279 0.071644858797684771 0 -0.13666502121529681 0.069478967649866344 0 -0.1471722955607111 0.059591957907519158 0 -0.14089006822782121 0.082531143958766096 0 -0.13666502121529681 0.069478967649866344 0 -0.12697985749263241 0.07630636069427757 0 -0.13666502121529681 0.069478967649866344 0 -0.12697985749263241 0.07630636069427757 0 -0.12509646681095879 0.065597408261105467 0 -0.13666502121529681 0.069478967649866344 0 -0.12509646681095879 0.065597408261105467 0 -0.13233523162579211 0.057527865090889828 0 -0.13233523162579211 0.057527865090889828 0 -0.1197320338084647 0.057760070231756527 0 -0.1244920148619628 0.050381604022983993 0 -0.12509646681095879 0.065597408261105467 0 -0.13233523162579211 0.057527865090889828 0 -0.1197320338084647 0.057760070231756527 0 -0.13666502121529681 0.069478967649866344 0 -0.13233523162579211 0.057527865090889828 0 -0.1471722955607111 0.059591957907519158 0 -0.13233523162579211 0.057527865090889828 0 -0.131277092146349 0.043237905602295942 0 -0.1435202772377579 0.047601805401877667 0 -0.13233523162579211 0.057527865090889828 0 -0.131277092146349 0.043237905602295942 0 -0.1244920148619628 0.050381604022983993 0 -0.131277092146349 0.043237905602295942 0 -0.14194951185496399 0.035172378083737049 0 -0.12424451236807239 0.027069144312366941 0 -0.131277092146349 0.043237905602295942 0 -0.12424451236807239 0.027069144312366941 0 -0.12075472355362291 0.04122338309529356 0 -0.131277092146349 0.043237905602295942 0 -0.12075472355362291 0.04122338309529356 0 -0.1244920148619628 0.050381604022983993 0 -0.131277092146349 0.043237905602295942 0 -0.14194951185496399 0.035172378083737049 0 -0.1435202772377579 0.047601805401877667 0 -0.14194951185496399 0.035172378083737049 0 -0.15126073753592009 0.02487777788828089 0 -0.1637260562540532 0.045028253166508762 0 -0.14194951185496399 0.035172378083737049 0 -0.1435202772377579 0.047601805401877667 0 -0.1637260562540532 0.045028253166508762 0 -0.15722519427174569 0.065058312825911402 0 -0.1471722955607111 0.059591957907519158 0 -0.1637260562540532 0.045028253166508762 0 -0.1471722955607111 0.059591957907519158 0 -0.1435202772377579 0.047601805401877667 0 -0.1637260562540532 0.045028253166508762 0 -0.13233523162579211 0.057527865090889828 0 -0.1471722955607111 0.059591957907519158 0 -0.1435202772377579 0.047601805401877667 0 -0.1244522405185825 -0.00038769298458709092 0 -0.1310798501921922 0.016754836893075501 0 -0.12424451236807239 0.027069144312366941 0 -0.1244522405185825 -0.00038769298458709092 0 -0.13302987177733741 0.0072862060594841918 0 -0.1310798501921922 0.016754836893075501 0 -0.13796817939809339 -7.5853332940862265e-05 0 -0.13302987177733741 0.0072862060594841918 0 -0.13861921700048169 0.01285353366238922 0 -0.1244522405185825 -0.00038769298458709092 0 -0.13796817939809339 -7.5853332940862265e-05 0 -0.13302987177733741 0.0072862060594841918 0 -0.13302987177733741 0.0072862060594841918 0 -0.13861921700048169 0.01285353366238922 0 -0.1310798501921922 0.016754836893075501 0 -0.14194951185496399 0.035172378083737049 0 -0.1395360945068517 0.023372288850015029 0 -0.12424451236807239 0.027069144312366941 0 -0.13861921700048169 0.01285353366238922 0 -0.1395360945068517 0.023372288850015029 0 -0.1310798501921922 0.016754836893075501 0 -0.1395360945068517 0.023372288850015029 0 -0.1310798501921922 0.016754836893075501 0 -0.12424451236807239 0.027069144312366941 0 -0.14194951185496399 0.035172378083737049 0 -0.1395360945068517 0.023372288850015029 0 -0.15126073753592009 0.02487777788828089 0 -0.15126073753592009 0.02487777788828089 0 -0.15188271994169991 0.01786916074884114 0 -0.14657132146084931 0.01677767438903701 0 -0.15126073753592009 0.02487777788828089 0 -0.15837519066330749 0.018103177496080571 0 -0.1567842680697151 0.017821512483746641 0 -0.15126073753592009 0.02487777788828089 0 -0.15188271994169991 0.01786916074884114 0 -0.1567842680697151 0.017821512483746641 0 -0.1543123506052223 0.01567032783345056 0 -0.15188271994169991 0.01786916074884114 0 -0.1567842680697151 0.017821512483746641 0 -0.13861921700048169 0.01285353366238922 0 -0.1395360945068517 0.023372288850015029 0 -0.14657132146084931 0.01677767438903701 0 -0.1395360945068517 0.023372288850015029 0 -0.15126073753592009 0.02487777788828089 0 -0.14657132146084931 0.01677767438903701 0 -0.15381676672243971 -0.0048344028756085976 0 -0.13796817939809339 -7.5853332940862265e-05 0 -0.14598604308907309 0.0075397954886723484 0 -0.15381676672243971 -0.0048344028756085976 0 -0.15837519066330749 0.018103177496080571 0 -0.15381676672243971 -0.0048344028756085976 0 -0.15182406541376531 0.011854288846745499 0 -0.15837519066330749 0.018103177496080571 0 -0.15381676672243971 -0.0048344028756085976 0 -0.15182406541376531 0.011854288846745499 0 -0.14598604308907309 0.0075397954886723484 0 -0.13861921700048169 0.01285353366238922 0 -0.14657132146084931 0.01677767438903701 0 -0.14598604308907309 0.0075397954886723484 0 -0.14657132146084931 0.01677767438903701 0 -0.15182406541376531 0.011854288846745499 0 -0.14598604308907309 0.0075397954886723484 0 -0.15188271994169991 0.01786916074884114 0 -0.14657132146084931 0.01677767438903701 0 -0.15182406541376531 0.011854288846745499 0 -0.1543123506052223 0.01567032783345056 0 -0.15182406541376531 0.011854288846745499 0 -0.15837519066330749 0.018103177496080571 0 -0.1543123506052223 0.01567032783345056 0 -0.15188271994169991 0.01786916074884114 0 -0.15182406541376531 0.011854288846745499 0 -0.13796817939809339 -7.5853332940862265e-05 0 -0.13861921700048169 0.01285353366238922 0 -0.14598604308907309 0.0075397954886723484 0 -0.15381676672243971 -0.0048344028756085976 0 -0.16872927738725291 0.0066655648670224509 0 -0.15837519066330749 0.018103177496080571 0 -0.16872927738725291 0.0066655648670224509 0 -0.15837519066330749 0.018103177496080571 0 -0.17312315274812851 0.016956976572924821 0 -0.15837519066330749 0.018103177496080571 0 -0.17088268452158301 0.030303691123205939 0 -0.18416549926151529 0.022669224655560441 0 -0.15837519066330749 0.018103177496080571 0 -0.17088268452158301 0.030303691123205939 0 -0.1637260562540532 0.045028253166508762 0 -0.15126073753592009 0.02487777788828089 0 -0.15837519066330749 0.018103177496080571 0 -0.1637260562540532 0.045028253166508762 0 -0.15837519066330749 0.018103177496080571 0 -0.18416549926151529 0.022669224655560441 0 -0.1543123506052223 0.01567032783345056 0 -0.15837519066330749 0.018103177496080571 0 -0.1567842680697151 0.017821512483746641 0 -0.15837519066330749 0.018103177496080571 0 -0.1567842680697151 0.017821512483746641 0 -0.15837519066330749 0.018103177496080571 0 -0.18416549926151529 0.022669224655560441 0 -0.17312315274812851 0.016956976572924821 0 -0.17088268452158301 0.030303691123205939 0 -0.18416549926151529 0.022669224655560441 0 -0.1815242396402782 0.037713578252632912 0 -0.18416549926151529 0.022669224655560441 0 -0.17919408738426101 0.017592611389363012 0 -0.18518118592807509 0.0154377595936586 0 -0.18416549926151529 0.022669224655560441 0 -0.17312315274812851 0.016956976572924821 0 -0.17919408738426101 0.017592611389363012 0 -0.1785064095432054 -0.0066611219507198768 0 -0.16872927738725291 0.0066655648670224509 0 -0.193034969706537 0.00064734206737222756 0 -0.16872927738725291 0.0066655648670224509 0 -0.193034969706537 0.00064734206737222756 0 -0.16872927738725291 0.0066655648670224509 0 -0.18518118592807509 0.0154377595936586 0 -0.193034969706537 0.00064734206737222756 0 -0.16872927738725291 0.0066655648670224509 0 -0.17919408738426101 0.017592611389363012 0 -0.18518118592807509 0.0154377595936586 0 -0.16872927738725291 0.0066655648670224509 0 -0.17312315274812851 0.016956976572924821 0 -0.17919408738426101 0.017592611389363012 0 -0.16907692184479731 0.071953328836937142 0 -0.1637260562540532 0.045028253166508762 0 -0.18167022033174851 0.056262687610226528 0 -0.15722519427174569 0.065058312825911402 0 -0.16907692184479731 0.071953328836937142 0 -0.1637260562540532 0.045028253166508762 0 -0.16907692184479731 0.071953328836937142 0 -0.1637260562540532 0.045028253166508762 0 -0.15837519066330749 0.018103177496080571 0 -0.1637260562540532 0.045028253166508762 0 -0.17088268452158301 0.030303691123205939 0 -0.1637260562540532 0.045028253166508762 0 -0.1815242396402782 0.037713578252632912 0 -0.1815242396402782 0.037713578252632912 0 -0.18167022033174851 0.056262687610226528 0 -0.1948999673891425 0.045815662425189529 0 -0.1637260562540532 0.045028253166508762 0 -0.1815242396402782 0.037713578252632912 0 -0.18167022033174851 0.056262687610226528 0 -0.18416549926151529 0.022669224655560441 0 -0.1815242396402782 0.037713578252632912 0 -0.19539241544158811 0.034915353149486399 0 -0.19598386328254799 0.058823167906541372 0 -0.20873259774339259 0.055173182954087172 0 -0.20069407892192309 0.071070863509647808 0 -0.18167022033174851 0.056262687610226528 0 -0.19598386328254799 0.058823167906541372 0 -0.1876556690991136 0.063313821709693935 0 -0.19598386328254799 0.058823167906541372 0 -0.1948999673891425 0.045815662425189529 0 -0.20873259774339259 0.055173182954087172 0 -0.18167022033174851 0.056262687610226528 0 -0.19598386328254799 0.058823167906541372 0 -0.1948999673891425 0.045815662425189529 0 -0.1815242396402782 0.037713578252632912 0 -0.1948999673891425 0.045815662425189529 0 -0.19539241544158811 0.034915353149486399 0 -0.1948999673891425 0.045815662425189529 0 -0.19539241544158811 0.034915353149486399 0 -0.20641656305728129 0.041143028599009299 0 -0.20641656305728129 0.041143028599009299 0 -0.20995580785972329 0.027235271815039791 0 -0.22080882119384479 0.043900986742667819 0 -0.19539241544158811 0.034915353149486399 0 -0.20641656305728129 0.041143028599009299 0 -0.20995580785972329 0.027235271815039791 0 -0.20641656305728129 0.041143028599009299 0 -0.20873259774339259 0.055173182954087172 0 -0.22080882119384479 0.043900986742667819 0 -0.20873259774339259 0.055173182954087172 0 -0.2267202713125637 0.058975611642501508 0 -0.2176358721649875 0.072186860311035453 0 -0.1948999673891425 0.045815662425189529 0 -0.20641656305728129 0.041143028599009299 0 -0.20873259774339259 0.055173182954087172 0 -0.20993853639106591 -0.0035380738047605968 0 -0.2009137908539024 0.01431144198083124 0 -0.193034969706537 0.00064734206737222756 0 -0.18518118592807509 0.0154377595936586 0 -0.2009137908539024 0.01431144198083124 0 -0.193034969706537 0.00064734206737222756 0 -0.18518118592807509 0.0154377595936586 0 -0.193034969706537 0.00064734206737222756 0 -0.18416549926151529 0.022669224655560441 0 -0.20995580785972329 0.027235271815039791 0 -0.18416549926151529 0.022669224655560441 0 -0.18518118592807509 0.0154377595936586 0 -0.2009137908539024 0.01431144198083124 0 -0.18416549926151529 0.022669224655560441 0 -0.2009137908539024 0.01431144198083124 0 -0.20995580785972329 0.027235271815039791 0 -0.18416549926151529 0.022669224655560441 0 -0.19539241544158811 0.034915353149486399 0 -0.20995580785972329 0.027235271815039791 0 -0.2009137908539024 0.01431144198083124 0 -0.20995580785972329 0.027235271815039791 0 -0.21568563774484731 0.0082874278720449449 0 -0.20993853639106591 -0.0035380738047605968 0 -0.2009137908539024 0.01431144198083124 0 -0.21568563774484731 0.0082874278720449449 0 -0.22684210307559549 -0.0077234896768903086 0 -0.21568563774484731 0.0082874278720449449 0 -0.23077795054394901 0.01115198904600462 0 -0.22684210307559549 -0.0077234896768903086 0 -0.23077795054394901 0.01115198904600462 0 -0.20995580785972329 0.027235271815039791 0 -0.21568563774484731 0.0082874278720449449 0 -0.23077795054394901 0.01115198904600462 0 -0.20995580785972329 0.027235271815039791 0 -0.2357461164579312 0.03180131897451912 0 -0.20995580785972329 0.027235271815039791 0 -0.23077795054394901 0.01115198904600462 0 -0.2357461164579312 0.03180131897451912 0 -0.23077795054394901 0.01115198904600462 0 -0.24854849079604721 0.020569936005881421 0 -0.2357461164579312 0.03180131897451912 0 -0.26153642505613889 0.036367366133998442 0 -0.24854849079604721 0.020569936005881421 0 -0.2357461164579312 0.03180131897451912 0 -0.23077795054394901 0.01115198904600462 0 -0.24854849079604721 0.020569936005881421 0 -0.24598119983726671 0.0037338506766126851 0 -0.22684210307559549 -0.0077234896768903086 0 -0.23077795054394901 0.01115198904600462 0 -0.24598119983726671 0.0037338506766126851 0 -0.20873259774339259 0.055173182954087172 0 -0.2267202713125637 0.058975611642501508 0 -0.22080882119384479 0.043900986742667819 0 -0.2267202713125637 0.058975611642501508 0 -0.22080882119384479 0.043900986742667819 0 -0.239388393447095 0.04766651035075449 0 -0.22080882119384479 0.043900986742667819 0 -0.2357461164579312 0.03180131897451912 0 -0.239388393447095 0.04766651035075449 0 -0.20995580785972329 0.027235271815039791 0 -0.22080882119384479 0.043900986742667819 0 -0.2357461164579312 0.03180131897451912 0 -0.26153642505613889 0.036367366133998442 0 -0.2357461164579312 0.03180131897451912 0 -0.26153642505613889 0.036367366133998442 0 -0.2357461164579312 0.03180131897451912 0 -0.239388393447095 0.04766651035075449 0 -0.25116276906762952 0.054241108780248931 0 -0.239388393447095 0.04766651035075449 0 -0.24035595759446179 0.060712669830591162 0 -0.2267202713125637 0.058975611642501508 0 -0.239388393447095 0.04766651035075449 0 -0.24035595759446179 0.060712669830591162 0 -0.25116276906762952 0.054241108780248931 0 -0.24035595759446179 0.060712669830591162 0 -0.24829977196364941 0.065213336215906109 0 -0.2267202713125637 0.058975611642501508 0 -0.24035595759446179 0.060712669830591162 0 -0.23791909572611269 0.075142721002645518 0 -0.24035595759446179 0.060712669830591162 0 -0.24829977196364941 0.065213336215906109 0 -0.23791909572611269 0.075142721002645518 0 -0.25064083865024739 0.073628726666345984 0 -0.23791909572611269 0.075142721002645518 0 -0.24857020570659841 0.081659589420377987 0 -0.25064083865024739 0.073628726666345984 0 -0.24829977196364941 0.065213336215906109 0 -0.23791909572611269 0.075142721002645518 0 -0.23791909572611269 0.075142721002645518 0 -0.2427234934652894 0.090762762990284518 0 -0.22646138453880821 0.085461994072224837 0 -0.25413031243694739 0.089521027236778197 0 -0.2427234934652894 0.090762762990284518 0 -0.24857020570659841 0.081659589420377987 0 -0.23791909572611269 0.075142721002645518 0 -0.2427234934652894 0.090762762990284518 0 -0.24857020570659841 0.081659589420377987 0 -0.2267202713125637 0.058975611642501508 0 -0.23791909572611269 0.075142721002645518 0 -0.2176358721649875 0.072186860311035453 0 -0.23791909572611269 0.075142721002645518 0 -0.22646138453880821 0.085461994072224837 0 -0.2176358721649875 0.072186860311035453 0 -0.20873259774339259 0.055173182954087172 0 -0.2176358721649875 0.072186860311035453 0 -0.20069407892192309 0.071070863509647808 0 -0.2176358721649875 0.072186860311035453 0 -0.20525373999263671 0.08640341449760941 0 -0.20069407892192309 0.071070863509647808 0 -0.22646138453880821 0.085461994072224837 0 -0.2176358721649875 0.072186860311035453 0 -0.20525373999263671 0.08640341449760941 0 -0.22646138453880821 0.085461994072224837 0 -0.20525373999263671 0.08640341449760941 0 -0.2161514522581473 0.1006972439961434 0 -0.18444466814129201 0.081023499242751457 0 -0.20525373999263671 0.08640341449760941 0 -0.20069407892192309 0.071070863509647808 0 -0.18444466814129201 0.081023499242751457 0 -0.20525373999263671 0.08640341449760941 0 -0.19937405773042491 0.1071019237599893 0 -0.17832815471062741 0.080370175701138483 0 -0.20069407892192309 0.071070863509647808 0 -0.18444466814129201 0.081023499242751457 0 -0.17832815471062741 0.080370175701138483 0 -0.20069407892192309 0.071070863509647808 0 -0.1809864334298861 0.069780609401686525 0 -0.1876556690991136 0.063313821709693935 0 -0.20069407892192309 0.071070863509647808 0 -0.19598386328254799 0.058823167906541372 0 -0.1876556690991136 0.063313821709693935 0 -0.20069407892192309 0.071070863509647808 0 -0.19937405773042491 0.1071019237599893 0 -0.2161514522581473 0.1006972439961434 0 -0.21430344731955769 0.133180348277227 0 -0.19937405773042491 0.1071019237599893 0 -0.19727411993202021 0.1275714443648302 0 -0.1795193575176991 0.1294692331289829 0 -0.18444466814129201 0.081023499242751457 0 -0.19937405773042491 0.1071019237599893 0 -0.20525373999263671 0.08640341449760941 0 -0.19937405773042491 0.1071019237599893 0 -0.2161514522581473 0.1006972439961434 0 -0.19937405773042491 0.1071019237599893 0 -0.21430344731955769 0.133180348277227 0 -0.19937405773042491 0.1071019237599893 0 -0.19727411993202021 0.1275714443648302 0 -0.21430344731955769 0.133180348277227 0 -0.2161514522581473 0.1006972439961434 0 -0.23231730930006211 0.10853516007106349 0 -0.21430344731955769 0.133180348277227 0 -0.2427234934652894 0.090762762990284518 0 -0.22646138453880821 0.085461994072224837 0 -0.23231730930006211 0.10853516007106349 0 -0.22646138453880821 0.085461994072224837 0 -0.2161514522581473 0.1006972439961434 0 -0.23231730930006211 0.10853516007106349 0 -0.25610310449345419 0.1041046972302731 0 -0.2427234934652894 0.090762762990284518 0 -0.23231730930006211 0.10853516007106349 0 -0.25610310449345419 0.1041046972302731 0 -0.23231730930006211 0.10853516007106349 0 -0.2495823492922267 0.12121763785839371 0 -0.23231730930006211 0.10853516007106349 0 -0.2495823492922267 0.12121763785839371 0 -0.23849568892714909 0.13696143350773771 0 -0.23231730930006211 0.10853516007106349 0 -0.23849568892714909 0.13696143350773771 0 -0.25477231595188199 0.13792181725732239 0 -0.2495823492922267 0.12121763785839371 0 -0.23849568892714909 0.13696143350773771 0 -0.23231730930006211 0.10853516007106349 0 -0.23849568892714909 0.13696143350773771 0 -0.21430344731955769 0.133180348277227 0 -0.23849568892714909 0.13696143350773771 0 -0.22923283690869051 0.15925877279446471 0 -0.21430344731955769 0.133180348277227 0 -0.22923283690869051 0.15925877279446471 0 -0.21430344731955769 0.133180348277227 0 -0.2543915534089356 0.15018751405662761 0 -0.23849568892714909 0.13696143350773771 0 -0.24467406855423091 0.1653877069444131 0 -0.23849568892714909 0.13696143350773771 0 -0.24467406855423091 0.1653877069444131 0 -0.22923283690869051 0.15925877279446471 0 -0.2543915534089356 0.15018751405662761 0 -0.25477231595188199 0.13792181725732239 0 -0.23849568892714909 0.13696143350773771 0 -0.23849568892714909 0.13696143350773771 0 -0.24467406855423091 0.1653877069444131 0 -0.24467406855423091 0.1653877069444131 0 -0.2350219134637796 0.18103954803765679 0 -0.22379977898383499 0.16989282922580509 0 -0.24467406855423091 0.1653877069444131 0 -0.24947341468037071 0.1874691479585941 0 -0.2350219134637796 0.18103954803765679 0 -0.24467406855423091 0.1653877069444131 0 -0.24947341468037071 0.1874691479585941 0 -0.2350219134637796 0.18103954803765679 0 -0.22004124654446131 0.18611549732905991 0 -0.22379977898383499 0.16989282922580509 0 -0.24467406855423091 0.1653877069444131 0 -0.22379977898383499 0.16989282922580509 0 -0.22923283690869051 0.15925877279446471 0 -0.22379977898383499 0.16989282922580509 0 -0.22923283690869051 0.15925877279446471 0 -0.20989634202023699 0.1560844752241346 0 -0.24467406855423091 0.1653877069444131 0 -0.22379977898383499 0.16989282922580509 0 -0.22379977898383499 0.16989282922580509 0 -0.20292548941343971 0.17439795150720031 0 -0.20989634202023699 0.1560844752241346 0 -0.20292548941343971 0.17439795150720031 0 -0.20989634202023699 0.1560844752241346 0 -0.17833905569944569 0.15756593750779829 0 -0.22379977898383499 0.16989282922580509 0 -0.20292548941343971 0.17439795150720031 0 -0.22004124654446131 0.18611549732905991 0 -0.22379977898383499 0.16989282922580509 0 -0.20292548941343971 0.17439795150720031 0 -0.22004124654446131 0.18611549732905991 0 -0.20292548941343971 0.17439795150720031 0 -0.22004124654446131 0.18611549732905991 0 -0.20292548941343971 0.17439795150720031 0 -0.20568385543668641 0.19260324117033031 0 -0.20292548941343971 0.17439795150720031 0 -0.1757122088887666 0.1802711648698879 0 -0.20292548941343971 0.17439795150720031 0 -0.1897130520823497 0.19444680225630501 0 -0.1757122088887666 0.1802711648698879 0 -0.20292548941343971 0.17439795150720031 0 -0.20568385543668641 0.19260324117033031 0 -0.1897130520823497 0.19444680225630501 0 -0.20292548941343971 0.17439795150720031 0 -0.17833905569944569 0.15756593750779829 0 -0.19589961716039911 0.1405342722931214 0 -0.20989634202023699 0.1560844752241346 0 -0.17833905569944569 0.15756593750779829 0 -0.19727411993202021 0.1275714443648302 0 -0.19589961716039911 0.1405342722931214 0 -0.1795193575176991 0.1294692331289829 0 -0.19727411993202021 0.1275714443648302 0 -0.19589961716039911 0.1405342722931214 0 -0.21430344731955769 0.133180348277227 0 -0.22923283690869051 0.15925877279446471 0 -0.21430344731955769 0.133180348277227 0 -0.20989634202023699 0.1560844752241346 0 -0.19589961716039911 0.1405342722931214 0 -0.21430344731955769 0.133180348277227 0 -0.20989634202023699 0.1560844752241346 0 -0.23288038931281729 0.23888496135878451 0 -0.21994142138302111 0.22426230620998819 0 -0.21218175950055909 0.24952722652004439 0 -0.22667039518801041 0.25355429459537898 0 -0.23288038931281729 0.23888496135878451 0 -0.21218175950055909 0.24952722652004439 0 -0.2416444700809012 0.25186566196455601 0 -0.22667039518801041 0.25355429459537898 0 -0.23288038931281729 0.23888496135878451 0 -0.2416444700809012 0.25186566196455601 0 -0.23288038931281729 0.23888496135878451 0 -0.2470081454867771 0.2422065880623451 0 -0.25693865295534157 0.25278860643768353 0 -0.2416444700809012 0.25186566196455601 0 -0.2470081454867771 0.2422065880623451 0 -0.25109603964961891 0.234366577265785 0 -0.2470081454867771 0.2422065880623451 0 -0.24424918889796191 0.23342051569475999 0 -0.23288038931281729 0.23888496135878451 0 -0.2470081454867771 0.2422065880623451 0 -0.24424918889796191 0.23342051569475999 0 -0.23288038931281729 0.23888496135878451 0 -0.24424918889796191 0.23342051569475999 0 -0.2396805993576108 0.22455316273993289 0 -0.24424918889796191 0.23342051569475999 0 -0.249817319625419 0.2274340479663062 0 -0.2396805993576108 0.22455316273993289 0 -0.25109603964961891 0.234366577265785 0 -0.24424918889796191 0.23342051569475999 0 -0.249817319625419 0.2274340479663062 0 -0.249817319625419 0.2274340479663062 0 -0.24904636230289101 0.22050689045355901 0 -0.2396805993576108 0.22455316273993289 0 -0.24904636230289101 0.22050689045355901 0 -0.2396805993576108 0.22455316273993289 0 -0.24333230173327219 0.21221501244476959 0 -0.2396805993576108 0.22455316273993289 0 -0.21994142138302111 0.22426230620998819 0 -0.23304733008138001 0.21339205942673259 0 -0.23288038931281729 0.23888496135878451 0 -0.2396805993576108 0.22455316273993289 0 -0.21994142138302111 0.22426230620998819 0 -0.21994142138302111 0.22426230620998819 0 -0.22770108326548311 0.19899738589993199 0 -0.210353022999335 0.20567537760669019 0 -0.21994142138302111 0.22426230620998819 0 -0.23304733008138001 0.21339205942673259 0 -0.22770108326548311 0.19899738589993199 0 -0.21994142138302111 0.22426230620998819 0 -0.22770108326548311 0.19899738589993199 0 -0.23304733008138001 0.21339205942673259 0 -0.2346933251094325 0.20523388649383931 0 -0.22770108326548311 0.19899738589993199 0 -0.25427276080650663 0.20955058897277601 0 -0.23715700367548431 0.1978330431509176 0 -0.2396805993576108 0.22455316273993289 0 -0.23304733008138001 0.21339205942673259 0 -0.24333230173327219 0.21221501244476959 0 -0.25427276080650663 0.20955058897277601 0 -0.24333230173327219 0.21221501244476959 0 -0.23715700367548431 0.1978330431509176 0 -0.25561524088587501 0.21572724177218369 0 -0.24904636230289101 0.22050689045355901 0 -0.24333230173327219 0.21221501244476959 0 -0.24333230173327219 0.21221501244476959 0 -0.2346933251094325 0.20523388649383931 0 -0.23715700367548431 0.1978330431509176 0 -0.23304733008138001 0.21339205942673259 0 -0.24333230173327219 0.21221501244476959 0 -0.2346933251094325 0.20523388649383931 0 -0.25427276080650663 0.20955058897277601 0 -0.24947341468037071 0.1874691479585941 0 -0.23715700367548431 0.1978330431509176 0 -0.24947341468037071 0.1874691479585941 0 -0.2350219134637796 0.18103954803765679 0 -0.23715700367548431 0.1978330431509176 0 -0.22004124654446131 0.18611549732905991 0 -0.23715700367548431 0.1978330431509176 0 -0.22004124654446131 0.18611549732905991 0 -0.23715700367548431 0.1978330431509176 0 -0.22770108326548311 0.19899738589993199 0 -0.2350219134637796 0.18103954803765679 0 -0.22004124654446131 0.18611549732905991 0 -0.23715700367548431 0.1978330431509176 0 -0.2346933251094325 0.20523388649383931 0 -0.23715700367548431 0.1978330431509176 0 -0.22770108326548311 0.19899738589993199 0 -0.22004124654446131 0.18611549732905991 0 -0.22770108326548311 0.19899738589993199 0 -0.21594480206149139 0.19584787550150309 0 -0.22770108326548311 0.19899738589993199 0 -0.21594480206149139 0.19584787550150309 0 -0.210353022999335 0.20567537760669019 0 -0.22004124654446131 0.18611549732905991 0 -0.21594480206149139 0.19584787550150309 0 -0.20568385543668641 0.19260324117033031 0 -0.21594480206149139 0.19584787550150309 0 -0.20568385543668641 0.19260324117033031 0 -0.210353022999335 0.20567537760669019 0 -0.20568385543668641 0.19260324117033031 0 -0.19800517532583911 0.2033181044808495 0 -0.210353022999335 0.20567537760669019 0 -0.20568385543668641 0.19260324117033031 0 -0.1897130520823497 0.19444680225630501 0 -0.19800517532583911 0.2033181044808495 0 -0.1897130520823497 0.19444680225630501 0 -0.19800517532583911 0.2033181044808495 0 -0.1863200837324982 0.20555600776477401 0 -0.19800517532583911 0.2033181044808495 0 -0.19795586237832599 0.21830909360614789 0 -0.210353022999335 0.20567537760669019 0 -0.19800517532583911 0.2033181044808495 0 -0.19795586237832599 0.21830909360614789 0 -0.1863200837324982 0.20555600776477401 0 -0.19795586237832599 0.21830909360614789 0 -0.18240126852579899 0.21930684119835961 0 -0.1863200837324982 0.20555600776477401 0 -0.21994142138302111 0.22426230620998819 0 -0.19795586237832599 0.21830909360614789 0 -0.210353022999335 0.20567537760669019 0 -0.21994142138302111 0.22426230620998819 0 -0.19795586237832599 0.21830909360614789 0 -0.20314208847108339 0.23556135501649109 0 -0.19795586237832599 0.21830909360614789 0 -0.18651378479530609 0.23505073182760211 0 -0.18240126852579899 0.21930684119835961 0 -0.19795586237832599 0.21830909360614789 0 -0.20314208847108339 0.23556135501649109 0 -0.18651378479530609 0.23505073182760211 0 -0.1929026130837673 0.25762258695206858 0 -0.20314208847108339 0.23556135501649109 0 -0.18651378479530609 0.23505073182760211 0 -0.1929026130837673 0.25762258695206858 0 -0.20314208847108339 0.23556135501649109 0 -0.21218175950055909 0.24952722652004439 0 -0.21994142138302111 0.22426230620998819 0 -0.21218175950055909 0.24952722652004439 0 -0.21994142138302111 0.22426230620998819 0 -0.20314208847108339 0.23556135501649109 0 -0.21218175950055909 0.24952722652004439 0 -0.16582228118094081 0.26466105519565358 0 -0.18651378479530609 0.23505073182760211 0 -0.1608218935138386 0.23306973899941771 0 -0.16582228118094081 0.26466105519565358 0 -0.14534546737678511 0.25129379472131641 0 -0.1608218935138386 0.23306973899941771 0 -0.18651378479530609 0.23505073182760211 0 -0.1608218935138386 0.23306973899941771 0 -0.18651378479530609 0.23505073182760211 0 -0.18240126852579899 0.21930684119835961 0 -0.1608218935138386 0.23306973899941771 0 -0.1608218935138386 0.23306973899941771 0 -0.16716432822862029 0.21469463307327219 0 -0.14537567171977789 0.21373021027012479 0 -0.18240126852579899 0.21930684119835961 0 -0.1608218935138386 0.23306973899941771 0 -0.16716432822862029 0.21469463307327219 0 -0.16716432822862029 0.21469463307327219 0 -0.15728284033457929 0.19872471446884221 0 -0.14537567171977789 0.21373021027012479 0 -0.16716432822862029 0.21469463307327219 0 -0.1863200837324982 0.20555600776477401 0 -0.15728284033457929 0.19872471446884221 0 -0.18240126852579899 0.21930684119835961 0 -0.16716432822862029 0.21469463307327219 0 -0.1863200837324982 0.20555600776477401 0 -0.1863200837324982 0.20555600776477401 0 -0.1747365466553682 0.1940095109997643 0 -0.15728284033457929 0.19872471446884221 0 -0.1897130520823497 0.19444680225630501 0 -0.1863200837324982 0.20555600776477401 0 -0.1747365466553682 0.1940095109997643 0 -0.1897130520823497 0.19444680225630501 0 -0.1747365466553682 0.1940095109997643 0 -0.1757122088887666 0.1802711648698879 0 -0.1747365466553682 0.1940095109997643 0 -0.16534449221108169 0.19019064904669619 0 -0.1757122088887666 0.1802711648698879 0 -0.1863200837324982 0.20555600776477401 0 -0.15728284033457929 0.19872471446884221 0 -0.1747365466553682 0.1940095109997643 0 -0.16534449221108169 0.19019064904669619 0 -0.15728284033457929 0.19872471446884221 0 -0.16534449221108169 0.19019064904669619 0 -0.15728284033457929 0.19872471446884221 0 -0.15629575781976141 0.184461654133797 0 -0.15728284033457929 0.19872471446884221 0 -0.12824559693666041 0.19189342117291039 0 -0.15629575781976141 0.184461654133797 0 -0.15728284033457929 0.19872471446884221 0 -0.12824559693666041 0.19189342117291039 0 -0.14537567171977789 0.21373021027012479 0 -0.15728284033457929 0.19872471446884221 0 -0.12824559693666041 0.19189342117291039 0 -0.12824559693666041 0.19189342117291039 0 -0.14537567171977789 0.21373021027012479 0 -0.1242544958201173 0.21504107598638081 0 -0.1608218935138386 0.23306973899941771 0 -0.14537567171977789 0.21373021027012479 0 -0.13513000223237101 0.23108874617123329 0 -0.1608218935138386 0.23306973899941771 0 -0.13513000223237101 0.23108874617123329 0 -0.14537567171977789 0.21373021027012479 0 -0.13513000223237101 0.23108874617123329 0 -0.1242544958201173 0.21504107598638081 0 -0.14534546737678511 0.25129379472131641 0 -0.13513000223237101 0.23108874617123329 0 -0.12470300375741469 0.2457033751303839 0 -0.14534546737678511 0.25129379472131641 0 -0.1608218935138386 0.23306973899941771 0 -0.13513000223237101 0.23108874617123329 0 -0.17833905569944569 0.15756593750779829 0 -0.1561619761378806 0.16047685630827471 0 -0.153752621985453 0.14073392350839439 0 -0.1795193575176991 0.1294692331289829 0 -0.17833905569944569 0.15756593750779829 0 -0.153752621985453 0.14073392350839439 0 -0.17833905569944569 0.15756593750779829 0 -0.153752621985453 0.14073392350839439 0 -0.16393492635195239 0.1245978723337525 0 -0.15311233888185891 0.1152965378839053 0 -0.153752621985453 0.14073392350839439 0 -0.16393492635195239 0.1245978723337525 0 -0.1795193575176991 0.1294692331289829 0 -0.153752621985453 0.14073392350839439 0 -0.19589961716039911 0.1405342722931214 0 -0.1795193575176991 0.1294692331289829 0 -0.17833905569944569 0.15756593750779829 0 -0.20292548941343971 0.17439795150720031 0 -0.17833905569944569 0.15756593750779829 0 -0.1757122088887666 0.1802711648698879 0 -0.1897130520823497 0.19444680225630501 0 -0.1757122088887666 0.1802711648698879 0 -0.16534449221108169 0.19019064904669619 0 -0.1757122088887666 0.1802711648698879 0 -0.15629575781976141 0.184461654133797 0 -0.1757122088887666 0.1802711648698879 0 -0.15629575781976141 0.184461654133797 0 -0.1757122088887666 0.1802711648698879 0 -0.15629575781976141 0.184461654133797 0 -0.1561619761378806 0.16047685630827471 0 -0.17833905569944569 0.15756593750779829 0 -0.1757122088887666 0.1802711648698879 0 -0.1561619761378806 0.16047685630827471 0 -0.1757122088887666 0.1802711648698879 0 -0.1561619761378806 0.16047685630827471 0 -0.1561619761378806 0.16047685630827471 0 -0.14126926821389521 0.17232478353634881 0 -0.1371080151487378 0.15864895140394189 0 -0.15629575781976141 0.184461654133797 0 -0.1561619761378806 0.16047685630827471 0 -0.14126926821389521 0.17232478353634881 0 -0.12824559693666041 0.19189342117291039 0 -0.15629575781976141 0.184461654133797 0 -0.14126926821389521 0.17232478353634881 0 -0.12824559693666041 0.19189342117291039 0 -0.14126926821389521 0.17232478353634881 0 -0.1248941403316576 0.1686438139500778 0 -0.14126926821389521 0.17232478353634881 0 -0.1371080151487378 0.15864895140394189 0 -0.1248941403316576 0.1686438139500778 0 -0.1371080151487378 0.15864895140394189 0 -0.1239269324459726 0.1539154783358255 0 -0.1248941403316576 0.1686438139500778 0 -0.1371080151487378 0.15864895140394189 0 -0.13661174338699569 0.1406825477466605 0 -0.1239269324459726 0.1539154783358255 0 -0.1561619761378806 0.16047685630827471 0 -0.13661174338699569 0.1406825477466605 0 -0.1561619761378806 0.16047685630827471 0 -0.13661174338699569 0.1406825477466605 0 -0.153752621985453 0.14073392350839439 0 -0.1561619761378806 0.16047685630827471 0 -0.1371080151487378 0.15864895140394189 0 -0.13661174338699569 0.1406825477466605 0 -0.12916618827146031 0.12390190950899049 0 -0.153752621985453 0.14073392350839439 0 -0.13930859898956699 0.1145050369687237 0 -0.12916618827146031 0.12390190950899049 0 -0.153752621985453 0.14073392350839439 0 -0.13661174338699569 0.1406825477466605 0 -0.11706151063611089 0.1208882391850464 0 -0.12916618827146031 0.12390190950899049 0 -0.13661174338699569 0.1406825477466605 0 -0.11706151063611089 0.1208882391850464 0 -0.12916618827146031 0.12390190950899049 0 -0.13661174338699569 0.1406825477466605 0 -0.153752621985453 0.14073392350839439 0 -0.13661174338699569 0.1406825477466605 0 -0.11473911200363 0.13153944404780621 0 -0.1132109842275667 0.1430328284895945 0 -0.13661174338699569 0.1406825477466605 0 -0.11473911200363 0.13153944404780621 0 -0.11706151063611089 0.1208882391850464 0 -0.11473911200363 0.13153944404780621 0 -0.1039338124667491 0.13009472872812991 0 -0.1132109842275667 0.1430328284895945 0 -0.11473911200363 0.13153944404780621 0 -0.1039338124667491 0.13009472872812991 0 -0.10601879130899509 0.12208205668825579 0 -0.1039338124667491 0.13009472872812991 0 -0.093398168270057425 0.14218175111966569 0 -0.093946486761182085 0.1175508364221631 0 -0.1039338124667491 0.13009472872812991 0 -0.1132109842275667 0.1430328284895945 0 -0.093398168270057425 0.14218175111966569 0 -0.1078097791349048 0.15856925008885259 0 -0.089544080768145809 0.16137822361845131 0 -0.093398168270057425 0.14218175111966569 0 -0.1132109842275667 0.1430328284895945 0 -0.1078097791349048 0.15856925008885259 0 -0.093398168270057425 0.14218175111966569 0 -0.13661174338699569 0.1406825477466605 0 -0.1132109842275667 0.1430328284895945 0 -0.1239269324459726 0.1539154783358255 0 -0.1132109842275667 0.1430328284895945 0 -0.1239269324459726 0.1539154783358255 0 -0.1078097791349048 0.15856925008885259 0 -0.1248941403316576 0.1686438139500778 0 -0.099208353538741523 0.18506212787697859 0 -0.1078097791349048 0.15856925008885259 0 -0.1239269324459726 0.1539154783358255 0 -0.1248941403316576 0.1686438139500778 0 -0.1078097791349048 0.15856925008885259 0 -0.12824559693666041 0.19189342117291039 0 -0.1248941403316576 0.1686438139500778 0 -0.099208353538741523 0.18506212787697859 0 -0.099208353538741523 0.18506212787697859 0 -0.1078097791349048 0.15856925008885259 0 -0.089544080768145809 0.16137822361845131 0 -0.089544080768145809 0.16137822361845131 0 -0.070171110140822543 0.1782308345810468 0 -0.074669823138777097 0.15727584041375819 0 -0.099208353538741523 0.18506212787697859 0 -0.089544080768145809 0.16137822361845131 0 -0.070171110140822543 0.1782308345810468 0 -0.099208353538741523 0.18506212787697859 0 -0.070171110140822543 0.1782308345810468 0 -0.070171110140822543 0.1782308345810468 0 -0.074669823138777097 0.15727584041375819 0 -0.057722578482997257 0.16273086802879619 0 -0.074669823138777097 0.15727584041375819 0 -0.066369438716585821 0.14892706699039879 0 -0.057722578482997257 0.16273086802879619 0 -0.074669823138777097 0.15727584041375819 0 -0.066369438716585821 0.14892706699039879 0 -0.074733199104357148 0.14603812585323231 0 -0.074669823138777097 0.15727584041375819 0 -0.074733199104357148 0.14603812585323231 0 -0.082756465015383474 0.1492386270883771 0 -0.074733199104357148 0.14603812585323231 0 -0.067315024607703278 0.13662092079142449 0 -0.081437053795579945 0.1393191944367777 0 -0.066369438716585821 0.14892706699039879 0 -0.074733199104357148 0.14603812585323231 0 -0.067315024607703278 0.13662092079142449 0 -0.066369438716585821 0.14892706699039879 0 -0.067315024607703278 0.13662092079142449 0 -0.054361576129613079 0.15178129246158931 0 -0.067315024607703278 0.13662092079142449 0 -0.088852304720190942 0.12644129241805541 0 -0.067315024607703278 0.13662092079142449 0 -0.088852304720190942 0.12644129241805541 0 -0.075786521408142987 0.12443322189858901 0 -0.067315024607703278 0.13662092079142449 0 -0.062016764747578973 0.12884034001808189 0 -0.075786521408142987 0.12443322189858901 0 -0.088852304720190942 0.12644129241805541 0 -0.093398168270057425 0.14218175111966569 0 -0.093946486761182085 0.1175508364221631 0 -0.067315024607703278 0.13662092079142449 0 -0.081437053795579945 0.1393191944367777 0 -0.088852304720190942 0.12644129241805541 0 -0.093398168270057425 0.14218175111966569 0 -0.093946486761182085 0.1175508364221631 0 -0.081437053795579945 0.1393191944367777 0 -0.088852304720190942 0.12644129241805541 0 -0.093398168270057425 0.14218175111966569 0 -0.089544080768145809 0.16137822361845131 0 -0.093398168270057425 0.14218175111966569 0 -0.082756465015383474 0.1492386270883771 0 -0.089544080768145809 0.16137822361845131 0 -0.074669823138777097 0.15727584041375819 0 -0.082756465015383474 0.1492386270883771 0 -0.074733199104357148 0.14603812585323231 0 -0.081437053795579945 0.1393191944367777 0 -0.082756465015383474 0.1492386270883771 0 -0.081437053795579945 0.1393191944367777 0 -0.093398168270057425 0.14218175111966569 0 -0.082756465015383474 0.1492386270883771 0 -0.11076524853809321 0.25238606884059173 0 -0.1094381109509034 0.22910775334304889 0 -0.091345724210048884 0.23566487628332011 0 -0.11076524853809321 0.25238606884059173 0 -0.092391857727521592 0.25884509119311472 0 -0.091345724210048884 0.23566487628332011 0 -0.13513000223237101 0.23108874617123329 0 -0.12470300375741469 0.2457033751303839 0 -0.1094381109509034 0.22910775334304889 0 -0.11076524853809321 0.25238606884059173 0 -0.12470300375741469 0.2457033751303839 0 -0.1094381109509034 0.22910775334304889 0 -0.13513000223237101 0.23108874617123329 0 -0.1094381109509034 0.22910775334304889 0 -0.13513000223237101 0.23108874617123329 0 -0.1094381109509034 0.22910775334304889 0 -0.1242544958201173 0.21504107598638081 0 -0.1094381109509034 0.22910775334304889 0 -0.10308309726087379 0.20938524897458621 0 -0.091345724210048884 0.23566487628332011 0 -0.1094381109509034 0.22910775334304889 0 -0.10308309726087379 0.20938524897458621 0 -0.1242544958201173 0.21504107598638081 0 -0.12824559693666041 0.19189342117291039 0 -0.10308309726087379 0.20938524897458621 0 -0.1242544958201173 0.21504107598638081 0 -0.12824559693666041 0.19189342117291039 0 -0.099208353538741523 0.18506212787697859 0 -0.12824559693666041 0.19189342117291039 0 -0.099208353538741523 0.18506212787697859 0 -0.10308309726087379 0.20938524897458621 0 -0.099208353538741523 0.18506212787697859 0 -0.070171110140822543 0.1782308345810468 0 -0.078220861930521898 0.21057701145176541 0 -0.070171110140822543 0.1782308345810468 0 -0.078220861930521898 0.21057701145176541 0 -0.056949983849450658 0.19269083667038239 0 -0.099208353538741523 0.18506212787697859 0 -0.10308309726087379 0.20938524897458621 0 -0.078220861930521898 0.21057701145176541 0 -0.078220861930521898 0.21057701145176541 0 -0.056178602179823331 0.21732906463454121 0 -0.056949983849450658 0.19269083667038239 0 -0.10308309726087379 0.20938524897458621 0 -0.078220861930521898 0.21057701145176541 0 -0.091345724210048884 0.23566487628332011 0 -0.078220861930521898 0.21057701145176541 0 -0.069221313838413207 0.24642852661517459 0 -0.091345724210048884 0.23566487628332011 0 -0.078220861930521898 0.21057701145176541 0 -0.069221313838413207 0.24642852661517459 0 -0.056178602179823331 0.21732906463454121 0 -0.092391857727521592 0.25884509119311472 0 -0.069221313838413207 0.24642852661517459 0 -0.091345724210048884 0.23566487628332011 0 -0.033382390283993792 0.24359412621706661 0 -0.046050769949304807 0.23401196203723451 0 -0.025866468353912139 0.2289639569827632 0 -0.048126263350958612 0.25465777805589501 0 -0.033382390283993792 0.24359412621706661 0 -0.046050769949304807 0.23401196203723451 0 -0.048126263350958612 0.25465777805589501 0 -0.069221313838413207 0.24642852661517459 0 -0.046050769949304807 0.23401196203723451 0 -0.069221313838413207 0.24642852661517459 0 -0.046050769949304807 0.23401196203723451 0 -0.069221313838413207 0.24642852661517459 0 -0.046050769949304807 0.23401196203723451 0 -0.056178602179823331 0.21732906463454121 0 -0.046050769949304807 0.23401196203723451 0 -0.03692704292774221 0.2147422921961073 0 -0.025866468353912139 0.2289639569827632 0 -0.046050769949304807 0.23401196203723451 0 -0.03692704292774221 0.2147422921961073 0 -0.056178602179823331 0.21732906463454121 0 -0.03692704292774221 0.2147422921961073 0 -0.056178602179823331 0.21732906463454121 0 -0.044221089124866657 0.20193605474889509 0 -0.03692704292774221 0.2147422921961073 0 -0.044221089124866657 0.20193605474889509 0 -0.032331133115066808 0.19858524020914661 0 -0.056178602179823331 0.21732906463454121 0 -0.056949983849450658 0.19269083667038239 0 -0.044221089124866657 0.20193605474889509 0 -0.056949983849450658 0.19269083667038239 0 -0.040360849617421202 0.18777351164107661 0 -0.044221089124866657 0.20193605474889509 0 -0.040360849617421202 0.18777351164107661 0 -0.032331133115066808 0.19858524020914661 0 -0.026751027678188599 0.18229597604057349 0 -0.040360849617421202 0.18777351164107661 0 -0.044221089124866657 0.20193605474889509 0 -0.032331133115066808 0.19858524020914661 0 -0.016914194843479571 0.2076274745640635 0 -0.026751027678188599 0.18229597604057349 0 -0.032331133115066808 0.19858524020914661 0 -0.016914194843479571 0.2076274745640635 0 -0.026751027678188599 0.18229597604057349 0 -0.01405220631290922 0.19352016069679451 0 -0.016914194843479571 0.2076274745640635 0 -0.026751027678188599 0.18229597604057349 0 -0.01405220631290922 0.19352016069679451 0 -0.0012364494800765971 0.1960628175593882 0 -0.01891215499648707 0.1765136475382359 0 -0.01405220631290922 0.19352016069679451 0 -0.0012364494800765971 0.1960628175593882 0 -0.0064787008301582438 0.20475797647738719 0 -0.0012364494800765971 0.1960628175593882 0 -0.0064787008301582438 0.20475797647738719 0 0.003893562275735573 0.2064819102401671 0 -0.01405220631290922 0.19352016069679451 0 -0.0064787008301582438 0.20475797647738719 0 -0.016914194843479571 0.2076274745640635 0 -0.0045317147067566524 0.21522543551468479 0 -0.016914194843479571 0.2076274745640635 0 -0.0070773620087705444 0.23295897308755351 0 -0.0064787008301582438 0.20475797647738719 0 -0.0045317147067566524 0.21522543551468479 0 -0.016914194843479571 0.2076274745640635 0 -0.0064787008301582438 0.20475797647738719 0 -0.0045317147067566524 0.21522543551468479 0 0.003893562275735573 0.2064819102401671 0 -0.03692704292774221 0.2147422921961073 0 -0.016914194843479571 0.2076274745640635 0 -0.025866468353912139 0.2289639569827632 0 -0.03692704292774221 0.2147422921961073 0 -0.032331133115066808 0.19858524020914661 0 -0.016914194843479571 0.2076274745640635 0 -0.016914194843479571 0.2076274745640635 0 -0.025866468353912139 0.2289639569827632 0 -0.0070773620087705444 0.23295897308755351 0 -0.016914194843479571 0.2076274745640635 0 -0.0070773620087705444 0.23295897308755351 0 -0.0045317147067566524 0.21522543551468479 0 -0.0070773620087705444 0.23295897308755351 0 0.0038866256090455522 0.2239579318999283 0 -0.0070773620087705444 0.23295897308755351 0 0.001894876929373096 0.24743045501984201 0 0.0027594708259384838 0.25829047161104352 0 -0.0070773620087705444 0.23295897308755351 0 0.0027594708259384838 0.25829047161104352 0 -0.0087132352456033638 0.25173417187717928 0 -0.0070773620087705444 0.23295897308755351 0 -0.01778818590069102 0.2421293126167848 0 -0.0087132352456033638 0.25173417187717928 0 -0.0070773620087705444 0.23295897308755351 0 0.0027594708259384838 0.25829047161104352 0 -0.025866468353912139 0.2289639569827632 0 -0.0070773620087705444 0.23295897308755351 0 -0.01778818590069102 0.2421293126167848 0 -0.028053557715267439 0.25838243531431121 0 -0.033382390283993792 0.24359412621706661 0 -0.01778818590069102 0.2421293126167848 0 -0.033382390283993792 0.24359412621706661 0 -0.025866468353912139 0.2289639569827632 0 -0.01778818590069102 0.2421293126167848 0 -0.044416936009294992 0.14744373737619401 0 -0.030319635528424791 0.14770209815471691 0 -0.021396469969749188 0.1374028974533886 0 -0.044416936009294992 0.14744373737619401 0 -0.030319635528424791 0.14770209815471691 0 -0.027639103276038759 0.15537380566908321 0 -0.044416936009294992 0.14744373737619401 0 -0.038116788675066252 0.15302723042411279 0 -0.027639103276038759 0.15537380566908321 0 -0.044416936009294992 0.14744373737619401 0 -0.041458398192443832 0.13942314763129199 0 -0.021396469969749188 0.1374028974533886 0 -0.044416936009294992 0.14744373737619401 0 -0.027639103276038759 0.15537380566908321 0 -0.044416936009294992 0.14744373737619401 0 -0.021396469969749188 0.1374028974533886 0 -0.044416936009294992 0.14744373737619401 0 -0.036587860512897558 0.15696447751708351 0 -0.044416936009294992 0.14744373737619401 0 -0.047012455662473793 0.15786975055381819 0 -0.036587860512897558 0.15696447751708351 0 -0.044416936009294992 0.14744373737619401 0 -0.038116788675066252 0.15302723042411279 0 -0.036587860512897558 0.15696447751708351 0 -0.038116788675066252 0.15302723042411279 0 -0.036587860512897558 0.15696447751708351 0 -0.027639103276038759 0.15537380566908321 0 -0.038116788675066252 0.15302723042411279 0 -0.036587860512897558 0.15696447751708351 0 -0.037500573576258918 0.13069979942664511 0 -0.041458398192443832 0.13942314763129199 0 -0.021396469969749188 0.1374028974533886 0 -0.037500573576258918 0.13069979942664511 0 -0.028643554108799551 0.12806760582925611 0 -0.034668926388748328 0.1237436995229996 0 -0.037500573576258918 0.13069979942664511 0 -0.047589673205635397 0.1324549890601831 0 -0.046884900963607742 0.11986348336078891 0 -0.037500573576258918 0.13069979942664511 0 -0.041458398192443832 0.13942314763129199 0 -0.047589673205635397 0.1324549890601831 0 -0.044416936009294992 0.14744373737619401 0 -0.041458398192443832 0.13942314763129199 0 -0.047589673205635397 0.1324549890601831 0 -0.067315024607703278 0.13662092079142449 0 -0.044416936009294992 0.14744373737619401 0 -0.062016764747578973 0.12884034001808189 0 -0.044416936009294992 0.14744373737619401 0 -0.062016764747578973 0.12884034001808189 0 -0.044416936009294992 0.14744373737619401 0 -0.047589673205635397 0.1324549890601831 0 -0.062016764747578973 0.12884034001808189 0 -0.047589673205635397 0.1324549890601831 0 -0.062016764747578973 0.12884034001808189 0 -0.046884900963607742 0.11986348336078891 0 -0.067315024607703278 0.13662092079142449 0 -0.044416936009294992 0.14744373737619401 0 -0.054361576129613079 0.15178129246158931 0 -0.067315024607703278 0.13662092079142449 0 -0.044416936009294992 0.14744373737619401 0 -0.044416936009294992 0.14744373737619401 0 -0.054361576129613079 0.15178129246158931 0 -0.044416936009294992 0.14744373737619401 0 -0.054361576129613079 0.15178129246158931 0 -0.047012455662473793 0.15786975055381819 0 -0.066369438716585821 0.14892706699039879 0 -0.054361576129613079 0.15178129246158931 0 -0.057722578482997257 0.16273086802879619 0 -0.057722578482997257 0.16273086802879619 0 -0.050411583818504503 0.1777900037548745 0 -0.045636115300606919 0.16650756778262649 0 -0.054361576129613079 0.15178129246158931 0 -0.057722578482997257 0.16273086802879619 0 -0.047012455662473793 0.15786975055381819 0 -0.057722578482997257 0.16273086802879619 0 -0.047012455662473793 0.15786975055381819 0 -0.045636115300606919 0.16650756778262649 0 -0.070171110140822543 0.1782308345810468 0 -0.056949983849450658 0.19269083667038239 0 -0.050411583818504503 0.1777900037548745 0 -0.070171110140822543 0.1782308345810468 0 -0.057722578482997257 0.16273086802879619 0 -0.050411583818504503 0.1777900037548745 0 -0.056949983849450658 0.19269083667038239 0 -0.040360849617421202 0.18777351164107661 0 -0.050411583818504503 0.1777900037548745 0 -0.040360849617421202 0.18777351164107661 0 -0.050411583818504503 0.1777900037548745 0 -0.039949487385523758 0.17426630734724691 0 -0.050411583818504503 0.1777900037548745 0 -0.039949487385523758 0.17426630734724691 0 -0.045636115300606919 0.16650756778262649 0 -0.040360849617421202 0.18777351164107661 0 -0.039949487385523758 0.17426630734724691 0 -0.026751027678188599 0.18229597604057349 0 -0.039949487385523758 0.17426630734724691 0 -0.036587860512897558 0.15696447751708351 0 -0.026751027678188599 0.18229597604057349 0 -0.036587860512897558 0.15696447751708351 0 -0.026751027678188599 0.18229597604057349 0 -0.039949487385523758 0.17426630734724691 0 -0.045636115300606919 0.16650756778262649 0 -0.036587860512897558 0.15696447751708351 0 -0.047012455662473793 0.15786975055381819 0 -0.045636115300606919 0.16650756778262649 0 -0.036587860512897558 0.15696447751708351 0 -0.01891215499648707 0.1765136475382359 0 -0.010861270542782259 0.1633038739619718 0 -0.027639103276038759 0.15537380566908321 0 -0.010861270542782259 0.1633038739619718 0 -0.027639103276038759 0.15537380566908321 0 -0.036587860512897558 0.15696447751708351 0 -0.01891215499648707 0.1765136475382359 0 -0.036587860512897558 0.15696447751708351 0 -0.01891215499648707 0.1765136475382359 0 -0.027639103276038759 0.15537380566908321 0 -0.01405220631290922 0.19352016069679451 0 -0.01891215499648707 0.1765136475382359 0 -0.026751027678188599 0.18229597604057349 0 -0.036587860512897558 0.15696447751708351 0 -0.01891215499648707 0.1765136475382359 0 -0.026751027678188599 0.18229597604057349 0 -0.01891215499648707 0.1765136475382359 0 -0.010861270542782259 0.1633038739619718 0 0.00061104658230836653 0.17769045695541219 0 -0.0012364494800765971 0.1960628175593882 0 -0.01891215499648707 0.1765136475382359 0 0.00061104658230836653 0.17769045695541219 0 -0.0012364494800765971 0.1960628175593882 0 -0.01891215499648707 0.1765136475382359 0 -0.010861270542782259 0.1633038739619718 0 0.001788155555331062 0.1557637096651584 0 0.00061104658230836653 0.17769045695541219 0 -0.01542264584752753 0.14956457798035719 0 -0.015783289274076458 0.13495459563681389 0 0.001788155555331062 0.1557637096651584 0 -0.015783289274076458 0.13495459563681389 0 0.001788155555331062 0.1557637096651584 0 0.01185912902997375 0.14130758542593569 0 -0.010861270542782259 0.1633038739619718 0 -0.01542264584752753 0.14956457798035719 0 0.001788155555331062 0.1557637096651584 0 -0.015783289274076458 0.13495459563681389 0 0.001788155555331062 0.1557637096651584 0 -0.01542264584752753 0.14956457798035719 0 -0.023159931299824549 0.14839209377580129 0 -0.027639103276038759 0.15537380566908321 0 -0.010861270542782259 0.1633038739619718 0 -0.01542264584752753 0.14956457798035719 0 -0.027639103276038759 0.15537380566908321 0 -0.01542264584752753 0.14956457798035719 0 -0.023159931299824549 0.14839209377580129 0 -0.021396469969749188 0.1374028974533886 0 -0.01542264584752753 0.14956457798035719 0 -0.021396469969749188 0.1374028974533886 0 -0.015783289274076458 0.13495459563681389 0 -0.030319635528424791 0.14770209815471691 0 -0.021396469969749188 0.1374028974533886 0 -0.023159931299824549 0.14839209377580129 0 -0.030319635528424791 0.14770209815471691 0 -0.021396469969749188 0.1374028974533886 0 -0.023159931299824549 0.14839209377580129 0 -0.030319635528424791 0.14770209815471691 0 -0.027639103276038759 0.15537380566908321 0 -0.028643554108799551 0.12806760582925611 0 -0.017506847497941139 0.13291345901070739 0 -0.032144953111298558 0.1155781737325411 0 -0.037500573576258918 0.13069979942664511 0 -0.028643554108799551 0.12806760582925611 0 -0.021396469969749188 0.1374028974533886 0 -0.021396469969749188 0.1374028974533886 0 -0.015783289274076458 0.13495459563681389 0 -0.017506847497941139 0.13291345901070739 0 -0.021396469969749188 0.1374028974533886 0 -0.015783289274076458 0.13495459563681389 0 -0.021396469969749188 0.1374028974533886 0 -0.017506847497941139 0.13291345901070739 0 -0.015783289274076458 0.13495459563681389 0 -0.017506847497941139 0.13291345901070739 0 -0.028643554108799551 0.12806760582925611 0 -0.021396469969749188 0.1374028974533886 0 -0.017506847497941139 0.13291345901070739 0 -0.015783289274076458 0.13495459563681389 0 -0.017506847497941139 0.13291345901070739 0 -0.0052228475358298988 0.1187351519746004 0 -0.015783289274076458 0.13495459563681389 0 -0.0052228475358298988 0.1187351519746004 0 0.0081407562022233586 0.1245196413435004 0 -0.017506847497941139 0.13291345901070739 0 -0.0052228475358298988 0.1187351519746004 0 -0.015783289274076458 0.13495459563681389 0 0.0081407562022233586 0.1245196413435004 0 -0.0052228475358298988 0.1187351519746004 0 -0.0040597014752050652 0.1051126182356364 0 -0.02761291541641378 0.1090435214711212 0 -0.017506847497941139 0.13291345901070739 0 -0.0052228475358298988 0.1187351519746004 0 -0.019344259015361451 0.119617058157429 0 -0.0040597014752050652 0.1051126182356364 0 -0.01533391803445322 0.09737838425916874 0 0.0051087594610210148 0.080527692295617709 0 -0.0052228475358298988 0.1187351519746004 0 -0.0040597014752050652 0.1051126182356364 0 0.0092582498306486675 0.1020209346744549 0 -0.0040597014752050652 0.1051126182356364 0 -0.01533391803445322 0.09737838425916874 0 -0.02761291541641378 0.1090435214711212 0 -0.01533391803445322 0.09737838425916874 0 -0.027797722535604891 0.095528124355643507 0 -0.02761291541641378 0.1090435214711212 0 -0.0052228475358298988 0.1187351519746004 0 -0.02761291541641378 0.1090435214711212 0 -0.019344259015361451 0.119617058157429 0 -0.017506847497941139 0.13291345901070739 0 -0.019344259015361451 0.119617058157429 0 -0.032144953111298558 0.1155781737325411 0 -0.02761291541641378 0.1090435214711212 0 -0.019344259015361451 0.119617058157429 0 -0.032144953111298558 0.1155781737325411 0 -0.0052228475358298988 0.1187351519746004 0 -0.02761291541641378 0.1090435214711212 0 -0.017506847497941139 0.13291345901070739 0 -0.032144953111298558 0.1155781737325411 0 -0.0012292332505543029 0.06378464068123596 0 -0.011084303888442551 0.081696622097620714 0 -0.018620569400409771 0.06708533464306303 0 -0.0012292332505543029 0.06378464068123596 0 -0.011084303888442551 0.081696622097620714 0 0.0051087594610210148 0.080527692295617709 0 -0.01533391803445322 0.09737838425916874 0 -0.011084303888442551 0.081696622097620714 0 0.0051087594610210148 0.080527692295617709 0 -0.01533391803445322 0.09737838425916874 0 0.0051087594610210148 0.080527692295617709 0 -0.011084303888442551 0.081696622097620714 0 0.0051087594610210148 0.080527692295617709 0 -0.027797722535604891 0.095528124355643507 0 -0.011084303888442551 0.081696622097620714 0 -0.032921925083363349 0.0833654898886593 0 -0.01533391803445322 0.09737838425916874 0 -0.027797722535604891 0.095528124355643507 0 -0.011084303888442551 0.081696622097620714 0 -0.018620569400409771 0.06708533464306303 0 -0.031868141831282552 0.069818555696904067 0 -0.028283535649973771 0.053358049395037133 0 -0.018620569400409771 0.06708533464306303 0 -0.031868141831282552 0.069818555696904067 0 -0.032921925083363349 0.0833654898886593 0 -0.011084303888442551 0.081696622097620714 0 -0.018620569400409771 0.06708533464306303 0 -0.032921925083363349 0.0833654898886593 0 -0.046276495737503101 0.06795068115397529 0 -0.032921925083363349 0.0833654898886593 0 -0.055882409073029139 0.082732437330199013 0 -0.046276495737503101 0.06795068115397529 0 -0.031868141831282552 0.069818555696904067 0 -0.028283535649973771 0.053358049395037133 0 -0.046276495737503101 0.06795068115397529 0 -0.031868141831282552 0.069818555696904067 0 -0.032921925083363349 0.0833654898886593 0 -0.027797722535604891 0.095528124355643507 0 -0.032921925083363349 0.0833654898886593 0 -0.050002983296997462 0.099351890967641507 0 -0.032921925083363349 0.0833654898886593 0 -0.055882409073029139 0.082732437330199013 0 -0.050002983296997462 0.099351890967641507 0 -0.055882409073029139 0.082732437330199013 0 -0.050002983296997462 0.099351890967641507 0 -0.072393051177581158 0.089660260464161839 0 -0.046276495737503101 0.06795068115397529 0 -0.055882409073029139 0.082732437330199013 0 -0.062589921296568873 0.06642957971461419 0 -0.032144953111298558 0.1155781737325411 0 -0.050002983296997462 0.099351890967641507 0 -0.046884900963607742 0.11986348336078891 0 -0.037500573576258918 0.13069979942664511 0 -0.034668926388748328 0.1237436995229996 0 -0.046884900963607742 0.11986348336078891 0 -0.028643554108799551 0.12806760582925611 0 -0.034668926388748328 0.1237436995229996 0 -0.032144953111298558 0.1155781737325411 0 -0.034668926388748328 0.1237436995229996 0 -0.032144953111298558 0.1155781737325411 0 -0.046884900963607742 0.11986348336078891 0 -0.027797722535604891 0.095528124355643507 0 -0.02761291541641378 0.1090435214711212 0 -0.050002983296997462 0.099351890967641507 0 -0.02761291541641378 0.1090435214711212 0 -0.050002983296997462 0.099351890967641507 0 -0.02761291541641378 0.1090435214711212 0 -0.032144953111298558 0.1155781737325411 0 -0.050002983296997462 0.099351890967641507 0 -0.050002983296997462 0.099351890967641507 0 -0.072393051177581158 0.089660260464161839 0 -0.050002983296997462 0.099351890967641507 0 -0.062115440392200259 0.1100516779477724 0 -0.072393051177581158 0.089660260464161839 0 -0.062016764747578973 0.12884034001808189 0 -0.062115440392200259 0.1100516779477724 0 -0.046884900963607742 0.11986348336078891 0 -0.050002983296997462 0.099351890967641507 0 -0.062115440392200259 0.1100516779477724 0 -0.046884900963607742 0.11986348336078891 0 -0.062016764747578973 0.12884034001808189 0 -0.062115440392200259 0.1100516779477724 0 -0.07825578499994286 0.1108801308713713 0 -0.062016764747578973 0.12884034001808189 0 -0.07825578499994286 0.1108801308713713 0 -0.062016764747578973 0.12884034001808189 0 -0.075786521408142987 0.12443322189858901 0 -0.07825578499994286 0.1108801308713713 0 -0.088852304720190942 0.12644129241805541 0 -0.075786521408142987 0.12443322189858901 0 -0.083719546898917335 0.119699814685821 0 -0.083719546898917335 0.119699814685821 0 -0.07825578499994286 0.1108801308713713 0 -0.093946486761182085 0.1175508364221631 0 -0.075786521408142987 0.12443322189858901 0 -0.083719546898917335 0.119699814685821 0 -0.07825578499994286 0.1108801308713713 0 -0.088852304720190942 0.12644129241805541 0 -0.083719546898917335 0.119699814685821 0 -0.093946486761182085 0.1175508364221631 0 -0.07825578499994286 0.1108801308713713 0 -0.072393051177581158 0.089660260464161839 0 -0.094494805252306774 0.092919921724660626 0 -0.07825578499994286 0.1108801308713713 0 -0.094494805252306774 0.092919921724660626 0 -0.093946486761182085 0.1175508364221631 0 -0.07825578499994286 0.1108801308713713 0 -0.094494805252306774 0.092919921724660626 0 -0.062115440392200259 0.1100516779477724 0 -0.07825578499994286 0.1108801308713713 0 -0.072393051177581158 0.089660260464161839 0 -0.055882409073029139 0.082732437330199013 0 -0.072393051177581158 0.089660260464161839 0 -0.062589921296568873 0.06642957971461419 0 -0.072393051177581158 0.089660260464161839 0 -0.062589921296568873 0.06642957971461419 0 -0.079461892795990779 0.070449194571112136 0 -0.062589921296568873 0.06642957971461419 0 -0.079461892795990779 0.070449194571112136 0 -0.072380178782229632 0.053292134703331731 0 -0.079461892795990779 0.070449194571112136 0 -0.094783119058163612 0.079968629960679383 0 -0.095163193665411511 0.062895368012773595 0 -0.072393051177581158 0.089660260464161839 0 -0.079461892795990779 0.070449194571112136 0 -0.094783119058163612 0.079968629960679383 0 -0.072393051177581158 0.089660260464161839 0 -0.094494805252306774 0.092919921724660626 0 -0.094783119058163612 0.079968629960679383 0 -0.072393051177581158 0.089660260464161839 0 -0.094783119058163612 0.079968629960679383 0 -0.094494805252306774 0.092919921724660626 0 -0.1072570836689255 0.074569224449017327 0 -0.1143352617609841 0.070976556735617355 0 -0.094494805252306774 0.092919921724660626 0 -0.094783119058163612 0.079968629960679383 0 -0.1072570836689255 0.074569224449017327 0 -0.094494805252306774 0.092919921724660626 0 -0.094783119058163612 0.079968629960679383 0 -0.094494805252306774 0.092919921724660626 0 -0.1143352617609841 0.070976556735617355 0 -0.11134444788944529 0.091345452974062963 0 -0.094494805252306774 0.092919921724660626 0 -0.1143352617609841 0.070976556735617355 0 -0.094783119058163612 0.079968629960679383 0 -0.095163193665411511 0.062895368012773595 0 -0.094783119058163612 0.079968629960679383 0 -0.095163193665411511 0.062895368012773595 0 -0.1072570836689255 0.074569224449017327 0 -0.095163193665411511 0.062895368012773595 0 -0.1143352617609841 0.070976556735617355 0 -0.1079186055395126 0.059947093390224047 0 -0.095163193665411511 0.062895368012773595 0 -0.1072570836689255 0.074569224449017327 0 -0.1143352617609841 0.070976556735617355 0 -0.095163193665411511 0.062895368012773595 0 -0.1143352617609841 0.070976556735617355 0 -0.094783119058163612 0.079968629960679383 0 -0.1072570836689255 0.074569224449017327 0 -0.1131683311422218 0.062814464837820119 0 -0.1163519950294771 0.068746068028026575 0 -0.1143352617609841 0.070976556735617355 0 -0.1131683311422218 0.062814464837820119 0 -0.1143352617609841 0.070976556735617355 0 -0.1079186055395126 0.059947093390224047 0 -0.1131683311422218 0.062814464837820119 0 -0.1163519950294771 0.068746068028026575 0 -0.1185872066977806 0.063729502839677182 0 -0.1163519950294771 0.068746068028026575 0 -0.1143352617609841 0.070976556735617355 0 -0.12697985749263241 0.07630636069427757 0 -0.1143352617609841 0.070976556735617355 0 -0.12697985749263241 0.07630636069427757 0 -0.1143352617609841 0.070976556735617355 0 -0.1200161930876608 0.081776906418299489 0 -0.12697985749263241 0.07630636069427757 0 -0.1163519950294771 0.068746068028026575 0 -0.1143352617609841 0.070976556735617355 0 -0.12697985749263241 0.07630636069427757 0 -0.12509646681095879 0.065597408261105467 0 -0.1163519950294771 0.068746068028026575 0 -0.12509646681095879 0.065597408261105467 0 -0.1163519950294771 0.068746068028026575 0 -0.1185872066977806 0.063729502839677182 0 -0.13359630628803579 0.098968800084119873 0 -0.12697672020224329 0.087309090757334687 0 -0.11134444788944529 0.091345452974062963 0 -0.1143352617609841 0.070976556735617355 0 -0.11134444788944529 0.091345452974062963 0 -0.1200161930876608 0.081776906418299489 0 -0.12697672020224329 0.087309090757334687 0 -0.11134444788944529 0.091345452974062963 0 -0.1200161930876608 0.081776906418299489 0 -0.12697672020224329 0.087309090757334687 0 -0.12697985749263241 0.07630636069427757 0 -0.1200161930876608 0.081776906418299489 0 -0.12607259725238279 0.11330641960449821 0 -0.13359630628803579 0.098968800084119873 0 -0.11123038207674001 0.1082681122756106 0 -0.13359630628803579 0.098968800084119873 0 -0.11134444788944529 0.091345452974062963 0 -0.11123038207674001 0.1082681122756106 0 -0.13359630628803579 0.098968800084119873 0 -0.11123038207674001 0.1082681122756106 0 -0.11134444788944529 0.091345452974062963 0 -0.11123038207674001 0.1082681122756106 0 -0.1057361510920251 0.099277959283072717 0 -0.12607259725238279 0.11330641960449821 0 -0.11123038207674001 0.1082681122756106 0 -0.11706151063611089 0.1208882391850464 0 -0.12607259725238279 0.11330641960449821 0 -0.12916618827146031 0.12390190950899049 0 -0.11706151063611089 0.1208882391850464 0 -0.11473911200363 0.13153944404780621 0 -0.11706151063611089 0.1208882391850464 0 -0.10601879130899509 0.12208205668825579 0 -0.1036345166478785 0.1154037657297244 0 -0.093946486761182085 0.1175508364221631 0 -0.097511277885226108 0.1010939306234323 0 -0.11123038207674001 0.1082681122756106 0 -0.11706151063611089 0.1208882391850464 0 -0.097511277885226108 0.1010939306234323 0 -0.11706151063611089 0.1208882391850464 0 -0.1036345166478785 0.1154037657297244 0 -0.097511277885226108 0.1010939306234323 0 -0.11706151063611089 0.1208882391850464 0 -0.097511277885226108 0.1010939306234323 0 -0.11706151063611089 0.1208882391850464 0 -0.1036345166478785 0.1154037657297244 0 -0.10601879130899509 0.12208205668825579 0 -0.1039338124667491 0.13009472872812991 0 -0.10601879130899509 0.12208205668825579 0 -0.093946486761182085 0.1175508364221631 0 -0.1036345166478785 0.1154037657297244 0 -0.10601879130899509 0.12208205668825579 0 -0.093946486761182085 0.1175508364221631 0 -0.094494805252306774 0.092919921724660626 0 -0.11134444788944529 0.091345452974062963 0 -0.1057361510920251 0.099277959283072717 0 -0.094494805252306774 0.092919921724660626 0 -0.093946486761182085 0.1175508364221631 0 -0.094494805252306774 0.092919921724660626 0 -0.093946486761182085 0.1175508364221631 0 -0.097511277885226108 0.1010939306234323 0 -0.094494805252306774 0.092919921724660626 0 -0.097511277885226108 0.1010939306234323 0 -0.1057361510920251 0.099277959283072717 0 -0.11123038207674001 0.1082681122756106 0 -0.097511277885226108 0.1010939306234323 0 -0.1057361510920251 0.099277959283072717 0 -0.1001339578063882 0.022436777626384768 0 -0.09536928659882779 0.01424719335382847 0 -0.1128440433065038 0.01636018592503535 0 -0.1001339578063882 0.022436777626384768 0 -0.1128440433065038 0.01636018592503535 0 -0.1012358460944251 0.033108064834657697 0 -0.1128440433065038 0.01636018592503535 0 -0.11393466639619521 0.035004472642448957 0 -0.1012358460944251 0.033108064834657697 0 -0.1128440433065038 0.01636018592503535 0 -0.1012358460944251 0.033108064834657697 0 -0.1001339578063882 0.022436777626384768 0 -0.1012358460944251 0.033108064834657697 0 -0.091086655225796079 0.026031666392017531 0 -0.1001339578063882 0.022436777626384768 0 -0.09536928659882779 0.01424719335382847 0 -0.091086655225796079 0.026031666392017531 0 -0.10394313851700079 0.0020556251079679459 0 -0.09536928659882779 0.01424719335382847 0 -0.085958893623968774 0.001514634656162053 0 -0.10394313851700079 0.0020556251079679459 0 -0.09536928659882779 0.01424719335382847 0 -0.1128440433065038 0.01636018592503535 0 -0.1244522405185825 -0.00038769298458709092 0 -0.12424451236807239 0.027069144312366941 0 -0.1244522405185825 -0.00038769298458709092 0 -0.1128440433065038 0.01636018592503535 0 -0.12424451236807239 0.027069144312366941 0 -0.1244522405185825 -0.00038769298458709092 0 -0.1128440433065038 0.01636018592503535 0 -0.1244522405185825 -0.00038769298458709092 0 -0.10394313851700079 0.0020556251079679459 0 -0.1128440433065038 0.01636018592503535 0 -0.1128440433065038 0.01636018592503535 0 -0.12424451236807239 0.027069144312366941 0 -0.11393466639619521 0.035004472642448957 0 -0.12424451236807239 0.027069144312366941 0 -0.12075472355362291 0.04122338309529356 0 -0.11393466639619521 0.035004472642448957 0 -0.12075472355362291 0.04122338309529356 0 -0.1244920148619628 0.050381604022983993 0 -0.1151670195775447 0.0482238646449 0 -0.11393466639619521 0.035004472642448957 0 -0.1151670195775447 0.0482238646449 0 -0.10635909785250069 0.04125385698526951 0 -0.12075472355362291 0.04122338309529356 0 -0.11393466639619521 0.035004472642448957 0 -0.1151670195775447 0.0482238646449 0 -0.12509646681095879 0.065597408261105467 0 -0.1185872066977806 0.063729502839677182 0 -0.1197320338084647 0.057760070231756527 0 -0.1197320338084647 0.057760070231756527 0 -0.1244920148619628 0.050381604022983993 0 -0.1151670195775447 0.0482238646449 0 -0.1151670195775447 0.0482238646449 0 -0.1125210466915524 0.054978807834542787 0 -0.1051700993263314 0.050476507920077678 0 -0.1197320338084647 0.057760070231756527 0 -0.1151670195775447 0.0482238646449 0 -0.1125210466915524 0.054978807834542787 0 -0.1131683311422218 0.062814464837820119 0 -0.1197320338084647 0.057760070231756527 0 -0.1125210466915524 0.054978807834542787 0 -0.1131683311422218 0.062814464837820119 0 -0.1125210466915524 0.054978807834542787 0 -0.1079186055395126 0.059947093390224047 0 -0.1131683311422218 0.062814464837820119 0 -0.1185872066977806 0.063729502839677182 0 -0.1197320338084647 0.057760070231756527 0 -0.095163193665411511 0.062895368012773595 0 -0.1051700993263314 0.050476507920077678 0 -0.095336714328198874 0.041619114628837717 0 -0.095163193665411511 0.062895368012773595 0 -0.095336714328198874 0.041619114628837717 0 -0.1125210466915524 0.054978807834542787 0 -0.1079186055395126 0.059947093390224047 0 -0.1051700993263314 0.050476507920077678 0 -0.095163193665411511 0.062895368012773595 0 -0.1079186055395126 0.059947093390224047 0 -0.1051700993263314 0.050476507920077678 0 -0.11393466639619521 0.035004472642448957 0 -0.10635909785250069 0.04125385698526951 0 -0.1012358460944251 0.033108064834657697 0 -0.1051700993263314 0.050476507920077678 0 -0.10635909785250069 0.04125385698526951 0 -0.095336714328198874 0.041619114628837717 0 -0.1151670195775447 0.0482238646449 0 -0.1051700993263314 0.050476507920077678 0 -0.10635909785250069 0.04125385698526951 0 -0.095336714328198874 0.041619114628837717 0 -0.1012358460944251 0.033108064834657697 0 -0.08853862327275358 0.036894035852943478 0 -0.10635909785250069 0.04125385698526951 0 -0.095336714328198874 0.041619114628837717 0 -0.1012358460944251 0.033108064834657697 0 -0.095336714328198874 0.041619114628837717 0 -0.1012358460944251 0.033108064834657697 0 -0.1012358460944251 0.033108064834657697 0 -0.08853862327275358 0.036894035852943478 0 -0.091086655225796079 0.026031666392017531 0 -0.08853862327275358 0.036894035852943478 0 -0.081088353484909961 0.032020518526829703 0 -0.091086655225796079 0.026031666392017531 0 -0.08853862327275358 0.036894035852943478 0 -0.079654612676290371 0.043453985766932421 0 -0.089627648882346422 0.049855943744280047 0 -0.095336714328198874 0.041619114628837717 0 -0.08853862327275358 0.036894035852943478 0 -0.089627648882346422 0.049855943744280047 0 -0.095336714328198874 0.041619114628837717 0 -0.089627648882346422 0.049855943744280047 0 -0.08853862327275358 0.036894035852943478 0 -0.079654612676290371 0.043453985766932421 0 -0.081088353484909961 0.032020518526829703 0 -0.095163193665411511 0.062895368012773595 0 -0.089627648882346422 0.049855943744280047 0 -0.072380178782229632 0.053292134703331731 0 -0.095163193665411511 0.062895368012773595 0 -0.095336714328198874 0.041619114628837717 0 -0.089627648882346422 0.049855943744280047 0 -0.095163193665411511 0.062895368012773595 0 -0.072380178782229632 0.053292134703331731 0 -0.079461892795990779 0.070449194571112136 0 -0.095163193665411511 0.062895368012773595 0 -0.072380178782229632 0.053292134703331731 0 -0.079654612676290371 0.043453985766932421 0 -0.089627648882346422 0.049855943744280047 0 -0.072380178782229632 0.053292134703331731 0 -0.079654612676290371 0.043453985766932421 0 -0.072380178782229632 0.053292134703331731 0 -0.065785112224924183 0.037111289768743512 0 -0.072380178782229632 0.053292134703331731 0 -0.065785112224924183 0.037111289768743512 0 -0.049597163899048183 0.043688901393888827 0 -0.079654612676290371 0.043453985766932421 0 -0.081088353484909961 0.032020518526829703 0 -0.065785112224924183 0.037111289768743512 0 -0.081088353484909961 0.032020518526829703 0 -0.065785112224924183 0.037111289768743512 0 -0.069646162847898541 0.026335067629459381 0 -0.069646162847898541 0.026335067629459381 0 -0.076118231742993758 0.01527396050979404 0 -0.05559295393876626 0.02093450171247024 0 -0.065785112224924183 0.037111289768743512 0 -0.069646162847898541 0.026335067629459381 0 -0.05559295393876626 0.02093450171247024 0 -0.081088353484909961 0.032020518526829703 0 -0.069646162847898541 0.026335067629459381 0 -0.076118231742993758 0.01527396050979404 0 -0.081088353484909961 0.032020518526829703 0 -0.091086655225796079 0.026031666392017531 0 -0.076118231742993758 0.01527396050979404 0 -0.09536928659882779 0.01424719335382847 0 -0.091086655225796079 0.026031666392017531 0 -0.076118231742993758 0.01527396050979404 0 -0.09536928659882779 0.01424719335382847 0 -0.085958893623968774 0.001514634656162053 0 -0.076118231742993758 0.01527396050979404 0 -0.076118231742993758 0.01527396050979404 0 -0.065648076432031049 0.00090955339710942099 0 -0.05559295393876626 0.02093450171247024 0 -0.085958893623968774 0.001514634656162053 0 -0.076118231742993758 0.01527396050979404 0 -0.065648076432031049 0.00090955339710942099 0 -0.045118160941850949 -0.00049033847668307538 0 -0.065648076432031049 0.00090955339710942099 0 -0.05559295393876626 0.02093450171247024 0 -0.05559295393876626 0.02093450171247024 0 -0.041197297059898302 0.028587588038626519 0 -0.049597163899048183 0.043688901393888827 0 -0.05559295393876626 0.02093450171247024 0 -0.032784921385912158 0.01564128096370114 0 -0.041197297059898302 0.028587588038626519 0 -0.032784921385912158 0.01564128096370114 0 -0.041197297059898302 0.028587588038626519 0 -0.02681414901586664 0.034085668084445887 0 -0.045118160941850949 -0.00049033847668307538 0 -0.05559295393876626 0.02093450171247024 0 -0.032784921385912158 0.01564128096370114 0 -0.045118160941850949 -0.00049033847668307538 0 -0.027025641752002061 -0.0079319500279313396 0 -0.032784921385912158 0.01564128096370114 0 -0.062589921296568873 0.06642957971461419 0 -0.072380178782229632 0.053292134703331731 0 -0.049597163899048183 0.043688901393888827 0 -0.046276495737503101 0.06795068115397529 0 -0.062589921296568873 0.06642957971461419 0 -0.049597163899048183 0.043688901393888827 0 -0.072380178782229632 0.053292134703331731 0 -0.049597163899048183 0.043688901393888827 0 -0.065785112224924183 0.037111289768743512 0 -0.05559295393876626 0.02093450171247024 0 -0.049597163899048183 0.043688901393888827 0 -0.049597163899048183 0.043688901393888827 0 -0.02681414901586664 0.034085668084445887 0 -0.041197297059898302 0.028587588038626519 0 -0.049597163899048183 0.043688901393888827 0 -0.02681414901586664 0.034085668084445887 0 -0.049597163899048183 0.043688901393888827 0 -0.028283535649973771 0.053358049395037133 0 -0.02681414901586664 0.034085668084445887 0 -0.046276495737503101 0.06795068115397529 0 -0.028283535649973771 0.053358049395037133 0 -0.046276495737503101 0.06795068115397529 0 -0.049597163899048183 0.043688901393888827 0 -0.028283535649973771 0.053358049395037133 0 -0.028283535649973771 0.053358049395037133 0 -0.010290575562444429 0.038765417636098962 0 -0.0097640400442320502 0.053032197103308337 0 -0.018620569400409771 0.06708533464306303 0 -0.028283535649973771 0.053358049395037133 0 -0.0097640400442320502 0.053032197103308337 0 -0.028283535649973771 0.053358049395037133 0 -0.010290575562444429 0.038765417636098962 0 -0.02681414901586664 0.034085668084445887 0 -0.010290575562444429 0.038765417636098962 0 -0.020835528804160591 0.022374223573919171 0 -0.028283535649973771 0.053358049395037133 0 -0.02681414901586664 0.034085668084445887 0 -0.010290575562444429 0.038765417636098962 0 -0.010290575562444429 0.038765417636098962 0 0.0077023845250848884 0.024172785877160811 0 -0.010290575562444429 0.038765417636098962 0 -0.0034349793211087142 0.044893397967285961 0 0.0047272217829380687 0.036246676438490527 0 -0.010290575562444429 0.038765417636098962 0 -0.0034349793211087142 0.044893397967285961 0 -0.0097640400442320502 0.053032197103308337 0 -0.0012292332505543029 0.06378464068123596 0 -0.018620569400409771 0.06708533464306303 0 -0.0097640400442320502 0.053032197103308337 0 -0.0034349793211087142 0.044893397967285961 0 -0.0097640400442320502 0.053032197103308337 0 0.0015874765393035599 0.051529300691246019 0 -0.0012292332505543029 0.06378464068123596 0 -0.0097640400442320502 0.053032197103308337 0 0.0015874765393035599 0.051529300691246019 0 -0.027025641752002061 -0.0079319500279313396 0 -0.032784921385912158 0.01564128096370114 0 -0.01566814095190756 0.010235570601176981 0 -0.032784921385912158 0.01564128096370114 0 -0.02681414901586664 0.034085668084445887 0 -0.020835528804160591 0.022374223573919171 0 -0.032784921385912158 0.01564128096370114 0 -0.01566814095190756 0.010235570601176981 0 -0.020835528804160591 0.022374223573919171 0 -0.010290575562444429 0.038765417636098962 0 -0.020835528804160591 0.022374223573919171 0 -0.0077262750329500059 0.02266504195052366 0 -0.01566814095190756 0.010235570601176981 0 -0.020835528804160591 0.022374223573919171 0 -0.0077262750329500059 0.02266504195052366 0 -0.010290575562444429 0.038765417636098962 0 -0.0077262750329500059 0.02266504195052366 0 0.0077023845250848884 0.024172785877160811 0 -0.0091716063734174208 -0.003332990253060792 0 -0.01566814095190756 0.010235570601176981 0 0.001118487675879971 0.0096665619175221752 0 -0.0091716063734174208 -0.003332990253060792 0 0.001118487675879971 0.0096665619175221752 0 0.006935528729737548 -0.0054826371559186567 0 -0.01566814095190756 0.010235570601176981 0 -0.0077262750329500059 0.02266504195052366 0 0.001118487675879971 0.0096665619175221752 0 0.001118487675879971 0.0096665619175221752 0 0.0077023845250848884 0.024172785877160811 0 0.025695344612614111 0.0095801541182225364 0 0.001118487675879971 0.0096665619175221752 0 0.025695344612614111 0.0095801541182225364 0 0.006935528729737548 -0.0054826371559186567 0 -0.0077262750329500059 0.02266504195052366 0 0.001118487675879971 0.0096665619175221752 0 0.0077023845250848884 0.024172785877160811 0 0.0077023845250848884 0.024172785877160811 0 0.024648998497944961 0.02642224341189468 0 0.015911730558903318 0.034762274935307848 0 0.024648998497944961 0.02642224341189468 0 0.025695344612614111 0.0095801541182225364 0 0.038363400138324961 0.019751697241263279 0 0.0077023845250848884 0.024172785877160811 0 0.024648998497944961 0.02642224341189468 0 0.025695344612614111 0.0095801541182225364 0 0.0077023845250848884 0.024172785877160811 0 0.025695344612614111 0.0095801541182225364 0 0.025695344612614111 0.0095801541182225364 0 0.006935528729737548 -0.0054826371559186567 0 0.01459521235494949 0.061710637509134872 0 0.0047272217829380687 0.036246676438490527 0 -0.0012292332505543029 0.06378464068123596 0 0.01459521235494949 0.061710637509134872 0 0.0015874765393035599 0.051529300691246019 0 0.01459521235494949 0.061710637509134872 0 0.0015874765393035599 0.051529300691246019 0 0.0047272217829380687 0.036246676438490527 0 0.01459521235494949 0.061710637509134872 0 0.0047272217829380687 0.036246676438490527 0 0.016570281580619739 0.045526930476817662 0 -0.010290575562444429 0.038765417636098962 0 0.0077023845250848884 0.024172785877160811 0 0.0047272217829380687 0.036246676438490527 0 -0.0034349793211087142 0.044893397967285961 0 0.0015874765393035599 0.051529300691246019 0 0.0047272217829380687 0.036246676438490527 0 0.0047272217829380687 0.036246676438490527 0 0.015911730558903318 0.034762274935307848 0 0.016570281580619739 0.045526930476817662 0 0.0077023845250848884 0.024172785877160811 0 0.0047272217829380687 0.036246676438490527 0 0.015911730558903318 0.034762274935307848 0 0.024648998497944961 0.02642224341189468 0 0.015911730558903318 0.034762274935307848 0 0.025892041879535671 0.039420421904702428 0 0.024648998497944961 0.02642224341189468 0 0.025892041879535671 0.039420421904702428 0 0.038236142792751733 0.035111405712831077 0 0.015911730558903318 0.034762274935307848 0 0.025892041879535671 0.039420421904702428 0 0.016570281580619739 0.045526930476817662 0 0.025892041879535671 0.039420421904702428 0 0.016570281580619739 0.045526930476817662 0 0.021716339062575678 0.05448348331271597 0 0.01459521235494949 0.061710637509134872 0 0.016570281580619739 0.045526930476817662 0 0.021716339062575678 0.05448348331271597 0 0.01459521235494949 0.061710637509134872 0 0.021716339062575678 0.05448348331271597 0 0.030459386295035529 0.05963142741263059 0 0.01459521235494949 0.061710637509134872 0 0.030459386295035529 0.05963142741263059 0 0.021716339062575678 0.05448348331271597 0 0.030459386295035529 0.05963142741263059 0 0.032703710623893968 0.046893395464013943 0 0.025892041879535671 0.039420421904702428 0 0.021716339062575678 0.05448348331271597 0 0.032703710623893968 0.046893395464013943 0 0.030459386295035529 0.05963142741263059 0 0.032703710623893968 0.046893395464013943 0 0.047214643089571059 0.045820238977188371 0 0.030459386295035529 0.05963142741263059 0 0.04797297407010033 0.057336039788577382 0 0.030459386295035529 0.05963142741263059 0 0.04797297407010033 0.057336039788577382 0 0.027635028654909001 0.06907575978797427 0 0.030459386295035529 0.05963142741263059 0 0.047214643089571059 0.045820238977188371 0 0.04797297407010033 0.057336039788577382 0 0.030459386295035529 0.05963142741263059 0 0.047214643089571059 0.045820238977188371 0 0.038236142792751733 0.035111405712831077 0 0.047214643089571059 0.045820238977188371 0 0.051031455664035288 0.029923240364304559 0 0.032703710623893968 0.046893395464013943 0 0.038236142792751733 0.035111405712831077 0 0.047214643089571059 0.045820238977188371 0 0.025892041879535671 0.039420421904702428 0 0.032703710623893968 0.046893395464013943 0 0.038236142792751733 0.035111405712831077 0 0.062359133547200143 0.040731400683572692 0 0.047214643089571059 0.045820238977188371 0 0.063969899884107562 0.032009050541747332 0 0.047214643089571059 0.045820238977188371 0 0.063969899884107562 0.032009050541747332 0 0.047214643089571059 0.045820238977188371 0 0.051031455664035288 0.029923240364304559 0 0.063969899884107562 0.032009050541747332 0 0.062359133547200143 0.040731400683572692 0 0.04797297407010033 0.057336039788577382 0 0.072379857481358154 0.054137194478101919 0 0.04797297407010033 0.057336039788577382 0 0.072379857481358154 0.054137194478101919 0 0.062359133547200143 0.040731400683572692 0 0.04797297407010033 0.057336039788577382 0 0.062359133547200143 0.040731400683572692 0 0.047214643089571059 0.045820238977188371 0 0.04797297407010033 0.057336039788577382 0 0.04797297407010033 0.057336039788577382 0 0.072379857481358154 0.054137194478101919 0 0.06072113176624426 0.066105246874810966 0 0.040835927619124697 0.0088703260301804514 0 0.038363400138324961 0.019751697241263279 0 0.051939500327619889 0.017318508583630769 0 0.040835927619124697 0.0088703260301804514 0 0.046640351189982193 0.001482106492276504 0 0.040314465242246092 -0.002276229875846851 0 0.025695344612614111 0.0095801541182225364 0 0.040314465242246092 -0.002276229875846851 0 0.025695344612614111 0.0095801541182225364 0 0.040835927619124697 0.0088703260301804514 0 0.040314465242246092 -0.002276229875846851 0 0.025695344612614111 0.0095801541182225364 0 0.040835927619124697 0.0088703260301804514 0 0.038363400138324961 0.019751697241263279 0 0.025695344612614111 0.0095801541182225364 0 0.038363400138324961 0.019751697241263279 0 0.024648998497944961 0.02642224341189468 0 0.038236142792751733 0.035111405712831077 0 0.038363400138324961 0.019751697241263279 0 0.038363400138324961 0.019751697241263279 0 0.051031455664035288 0.029923240364304559 0 0.038236142792751733 0.035111405712831077 0 0.038363400138324961 0.019751697241263279 0 0.051031455664035288 0.029923240364304559 0 0.038363400138324961 0.019751697241263279 0 0.051939500327619889 0.017318508583630769 0 0.051031455664035288 0.029923240364304559 0 0.051031455664035288 0.029923240364304559 0 0.062107590562420073 0.0228568457980407 0 0.063969899884107562 0.032009050541747332 0 0.051939500327619889 0.017318508583630769 0 0.062107590562420073 0.0228568457980407 0 0.064696567818308529 0.01472149906873369 0 0.051939500327619889 0.017318508583630769 0 0.051031455664035288 0.029923240364304559 0 0.062107590562420073 0.0228568457980407 0 0.055514373943813228 0.0067304088365214816 0 0.075461568133428525 0.0044331687040122013 0 0.049896637954744763 -0.0073960790217490677 0 0.051939500327619889 0.017318508583630769 0 0.055514373943813228 0.0067304088365214816 0 0.064696567818308529 0.01472149906873369 0 0.040835927619124697 0.0088703260301804514 0 0.051939500327619889 0.017318508583630769 0 0.055514373943813228 0.0067304088365214816 0 0.046640351189982193 0.001482106492276504 0 0.055514373943813228 0.0067304088365214816 0 0.049896637954744763 -0.0073960790217490677 0 0.040835927619124697 0.0088703260301804514 0 0.046640351189982193 0.001482106492276504 0 0.055514373943813228 0.0067304088365214816 0 0.075461568133428525 0.0044331687040122013 0 0.064696567818308529 0.01472149906873369 0 0.08072515667864405 0.018197862106306289 0 0.055514373943813228 0.0067304088365214816 0 0.075461568133428525 0.0044331687040122013 0 0.064696567818308529 0.01472149906873369 0 0.075461568133428525 0.0044331687040122013 0 0.1010264983121123 0.016262416429773479 0 0.075461568133428525 0.0044331687040122013 0 0.1010264983121123 0.016262416429773479 0 0.098011391193308373 -0.0056982583262641584 0 0.075461568133428525 0.0044331687040122013 0 0.08072515667864405 0.018197862106306289 0 0.1010264983121123 0.016262416429773479 0 0.088041666307225416 0.02743399724937181 0 0.08072515667864405 0.018197862106306289 0 0.1010264983121123 0.016262416429773479 0 0.088041666307225416 0.02743399724937181 0 0.08072515667864405 0.018197862106306289 0 0.076745293024301803 0.02412676157856956 0 0.088041666307225416 0.02743399724937181 0 0.076745293024301803 0.02412676157856956 0 0.082258845210710349 0.03253561428057717 0 0.08072515667864405 0.018197862106306289 0 0.076745293024301803 0.02412676157856956 0 0.063969899884107562 0.032009050541747332 0 0.062107590562420073 0.0228568457980407 0 0.064696567818308529 0.01472149906873369 0 0.08072515667864405 0.018197862106306289 0 0.08072515667864405 0.018197862106306289 0 0.063969899884107562 0.032009050541747332 0 0.062107590562420073 0.0228568457980407 0 0.08072515667864405 0.018197862106306289 0 0.063969899884107562 0.032009050541747332 0 0.062359133547200143 0.040731400683572692 0 0.076745293024301803 0.02412676157856956 0 0.062359133547200143 0.040731400683572692 0 0.076745293024301803 0.02412676157856956 0 0.076375628159171968 0.038405412939545532 0 0.062359133547200143 0.040731400683572692 0 0.076745293024301803 0.02412676157856956 0 0.063969899884107562 0.032009050541747332 0 0.062359133547200143 0.040731400683572692 0 0.076375628159171968 0.038405412939545532 0 0.072379857481358154 0.054137194478101919 0 0.072379857481358154 0.054137194478101919 0 0.087872793352142223 0.040176285354821803 0 0.096786740892615686 0.050938349167624693 0 0.072379857481358154 0.054137194478101919 0 0.096786740892615686 0.050938349167624693 0 0.072379857481358154 0.054137194478101919 0 0.096786740892615686 0.050938349167624693 0 0.089592915186254174 0.067390154600646832 0 0.076375628159171968 0.038405412939545532 0 0.072379857481358154 0.054137194478101919 0 0.087872793352142223 0.040176285354821803 0 0.076375628159171968 0.038405412939545532 0 0.082258845210710349 0.03253561428057717 0 0.087872793352142223 0.040176285354821803 0 0.076745293024301803 0.02412676157856956 0 0.076375628159171968 0.038405412939545532 0 0.082258845210710349 0.03253561428057717 0 0.088041666307225416 0.02743399724937181 0 0.087872793352142223 0.040176285354821803 0 0.098246025398924644 0.032379674771496843 0 0.088041666307225416 0.02743399724937181 0 0.082258845210710349 0.03253561428057717 0 0.087872793352142223 0.040176285354821803 0 0.098246025398924644 0.032379674771496843 0 0.09859813872304253 0.041737690340159041 0 0.1063796333462841 0.038668109643535398 0 0.087872793352142223 0.040176285354821803 0 0.098246025398924644 0.032379674771496843 0 0.09859813872304253 0.041737690340159041 0 0.087872793352142223 0.040176285354821803 0 0.09859813872304253 0.041737690340159041 0 0.096786740892615686 0.050938349167624693 0 0.09859813872304253 0.041737690340159041 0 0.1037055006252459 0.04652603276331644 0 0.096786740892615686 0.050938349167624693 0 0.1037055006252459 0.04652603276331644 0 0.1091701701315707 0.045405346223324289 0 0.1063796333462841 0.038668109643535398 0 0.09859813872304253 0.041737690340159041 0 0.1037055006252459 0.04652603276331644 0 0.1063796333462841 0.038668109643535398 0 0.098246025398924644 0.032379674771496843 0 0.1063796333462841 0.038668109643535398 0 0.1080469394596527 0.029312409717345649 0 0.1063796333462841 0.038668109643535398 0 0.11369005285381351 0.036564640387925021 0 0.1080469394596527 0.029312409717345649 0 0.10140855114010359 0.056741753968867333 0 0.1082136550722141 0.059696613986540442 0 0.089592915186254174 0.067390154600646832 0 0.10140855114010359 0.056741753968867333 0 0.096786740892615686 0.050938349167624693 0 0.089592915186254174 0.067390154600646832 0 0.10140855114010359 0.056741753968867333 0 0.096786740892615686 0.050938349167624693 0 0.1040187002827474 0.052009313231975308 0 0.1037055006252459 0.04652603276331644 0 0.096786740892615686 0.050938349167624693 0 0.1040187002827474 0.052009313231975308 0 0.1037055006252459 0.04652603276331644 0 0.10828434687670541 0.049049973369521209 0 0.1040187002827474 0.052009313231975308 0 0.1037055006252459 0.04652603276331644 0 0.1091701701315707 0.045405346223324289 0 0.10828434687670541 0.049049973369521209 0 0.10828434687670541 0.049049973369521209 0 0.1040187002827474 0.052009313231975308 0 0.1085923347430168 0.054888678040205661 0 0.10140855114010359 0.056741753968867333 0 0.1040187002827474 0.052009313231975308 0 0.1085923347430168 0.054888678040205661 0 0.10140855114010359 0.056741753968867333 0 0.1085923347430168 0.054888678040205661 0 0.1082136550722141 0.059696613986540442 0 0.1082136550722141 0.059696613986540442 0 0.12683439495817461 0.052003073372435288 0 0.1085923347430168 0.054888678040205661 0 0.1082136550722141 0.059696613986540442 0 0.12683439495817461 0.052003073372435288 0 0.1082136550722141 0.059696613986540442 0 0.1213053233293625 0.063977455960140386 0 0.12683439495817461 0.052003073372435288 0 0.1085923347430168 0.054888678040205661 0 0.11545296983014219 0.044674578582556468 0 0.12683439495817461 0.052003073372435288 0 0.1085923347430168 0.054888678040205661 0 0.11545296983014219 0.044674578582556468 0 0.10828434687670541 0.049049973369521209 0 0.1085923347430168 0.054888678040205661 0 0.11545296983014219 0.044674578582556468 0 0.11545296983014219 0.044674578582556468 0 0.12683439495817461 0.052003073372435288 0 0.11545296983014219 0.044674578582556468 0 0.12659142849079691 0.028091664155532971 0 0.13015300311198849 0.040381385354086502 0 0.11369005285381351 0.036564640387925021 0 0.11545296983014219 0.044674578582556468 0 0.12659142849079691 0.028091664155532971 0 0.11369005285381351 0.036564640387925021 0 0.1080469394596527 0.029312409717345649 0 0.12659142849079691 0.028091664155532971 0 0.11545296983014219 0.044674578582556468 0 0.12659142849079691 0.028091664155532971 0 0.1091701701315707 0.045405346223324289 0 0.1063796333462841 0.038668109643535398 0 0.11316657253878901 0.043202368340974628 0 0.11369005285381351 0.036564640387925021 0 0.11316657253878901 0.043202368340974628 0 0.11545296983014219 0.044674578582556468 0 0.1063796333462841 0.038668109643535398 0 0.11369005285381351 0.036564640387925021 0 0.11316657253878901 0.043202368340974628 0 0.1091701701315707 0.045405346223324289 0 0.10828434687670541 0.049049973369521209 0 0.11545296983014219 0.044674578582556468 0 0.1091701701315707 0.045405346223324289 0 0.11316657253878901 0.043202368340974628 0 0.11545296983014219 0.044674578582556468 0 0.11316657253878901 0.043202368340974628 0 0.11545296983014219 0.044674578582556468 0 0.11545296983014219 0.044674578582556468 0 0.13015300311198849 0.040381385354086502 0 0.12683439495817461 0.052003073372435288 0 0.11882011836095251 0.0065886106746579649 0 0.1010264983121123 0.016262416429773479 0 0.12659142849079691 0.028091664155532971 0 0.1010264983121123 0.016262416429773479 0 0.12659142849079691 0.028091664155532971 0 0.1010264983121123 0.016262416429773479 0 0.1080469394596527 0.029312409717345649 0 0.12659142849079691 0.028091664155532971 0 0.11882011836095251 0.0065886106746579649 0 0.1010264983121123 0.016262416429773479 0 0.098011391193308373 -0.0056982583262641584 0 0.088041666307225416 0.02743399724937181 0 0.098246025398924644 0.032379674771496843 0 0.1010264983121123 0.016262416429773479 0 0.098246025398924644 0.032379674771496843 0 0.1010264983121123 0.016262416429773479 0 0.1080469394596527 0.029312409717345649 0 0.102028599401492 0.1079210482782756 0 0.1185648575779607 0.095458187827811403 0 0.097454497296707604 0.093489332089851121 0 0.102028599401492 0.1079210482782756 0 0.094862282777670462 0.1196438628042634 0 0.1117522404438802 0.12667258555115829 0 0.123281054128593 0.11724462113534739 0 0.1117522404438802 0.12667258555115829 0 0.13947052033133081 0.1245003570974072 0 0.102028599401492 0.1079210482782756 0 0.123281054128593 0.11724462113534739 0 0.1117522404438802 0.12667258555115829 0 0.102028599401492 0.1079210482782756 0 0.123281054128593 0.11724462113534739 0 0.102028599401492 0.1079210482782756 0 0.123281054128593 0.11724462113534739 0 0.1185648575779607 0.095458187827811403 0 0.1185648575779607 0.095458187827811403 0 0.10766661625946521 0.081617344394697103 0 0.12679961534922851 0.075073796793526271 0 0.1127439035567581 0.069567645006608142 0 0.10766661625946521 0.081617344394697103 0 0.12679961534922851 0.075073796793526271 0 0.1213053233293625 0.063977455960140386 0 0.1127439035567581 0.069567645006608142 0 0.12679961534922851 0.075073796793526271 0 0.1082136550722141 0.059696613986540442 0 0.1213053233293625 0.063977455960140386 0 0.1127439035567581 0.069567645006608142 0 0.1082136550722141 0.059696613986540442 0 0.089592915186254174 0.067390154600646832 0 0.1014387622560044 0.070574023901201433 0 0.10766661625946521 0.081617344394697103 0 0.08998097741878798 0.081820185866337797 0 0.1082136550722141 0.059696613986540442 0 0.1014387622560044 0.070574023901201433 0 0.089592915186254174 0.067390154600646832 0 0.1082136550722141 0.059696613986540442 0 0.1127439035567581 0.069567645006608142 0 0.1014387622560044 0.070574023901201433 0 0.1127439035567581 0.069567645006608142 0 0.1014387622560044 0.070574023901201433 0 0.10766661625946521 0.081617344394697103 0 0.1185648575779607 0.095458187827811403 0 0.097454497296707604 0.093489332089851121 0 0.10766661625946521 0.081617344394697103 0 0.097454497296707604 0.093489332089851121 0 0.10766661625946521 0.081617344394697103 0 0.08998097741878798 0.081820185866337797 0 0.097454497296707604 0.093489332089851121 0 0.08998097741878798 0.081820185866337797 0 0.080776144674391009 0.098597475421203867 0 0.08998097741878798 0.081820185866337797 0 0.071888117261322881 0.075707086101057836 0 0.080776144674391009 0.098597475421203867 0 0.08998097741878798 0.081820185866337797 0 0.089592915186254174 0.067390154600646832 0 0.071888117261322881 0.075707086101057836 0 0.1014387622560044 0.070574023901201433 0 0.08998097741878798 0.081820185866337797 0 0.089592915186254174 0.067390154600646832 0 0.072379857481358154 0.054137194478101919 0 0.089592915186254174 0.067390154600646832 0 0.071888117261322881 0.075707086101057836 0 0.072379857481358154 0.054137194478101919 0 0.071888117261322881 0.075707086101057836 0 0.06072113176624426 0.066105246874810966 0 0.071888117261322881 0.075707086101057836 0 0.080776144674391009 0.098597475421203867 0 0.059523689947290133 0.089273902564132146 0 0.069834633883481517 0.1065625652268001 0 0.059315065316452309 0.1025539410383776 0 0.059523689947290133 0.089273902564132146 0 0.080776144674391009 0.098597475421203867 0 0.059523689947290133 0.089273902564132146 0 0.069834633883481517 0.1065625652268001 0 0.080776144674391009 0.098597475421203867 0 0.081634330708880196 0.1151370033827101 0 0.069834633883481517 0.1065625652268001 0 0.080776144674391009 0.098597475421203867 0 0.059523689947290133 0.089273902564132146 0 0.069834633883481517 0.1065625652268001 0 0.064307476710745728 0.1098785041095611 0 0.059315065316452309 0.1025539410383776 0 0.102028599401492 0.1079210482782756 0 0.080776144674391009 0.098597475421203867 0 0.081634330708880196 0.1151370033827101 0 0.102028599401492 0.1079210482782756 0 0.080776144674391009 0.098597475421203867 0 0.102028599401492 0.1079210482782756 0 0.097454497296707604 0.093489332089851121 0 0.080776144674391009 0.098597475421203867 0 0.102028599401492 0.1079210482782756 0 0.094862282777670462 0.1196438628042634 0 0.081634330708880196 0.1151370033827101 0 0.094862282777670462 0.1196438628042634 0 0.081634330708880196 0.1151370033827101 0 0.084033960556429532 0.12884481400490949 0 0.081634330708880196 0.1151370033827101 0 0.071861500007931359 0.1232467005620789 0 0.084033960556429532 0.12884481400490949 0 0.081634330708880196 0.1151370033827101 0 0.071861500007931359 0.1232467005620789 0 0.068543873750645412 0.1149277749384955 0 0.069834633883481517 0.1065625652268001 0 0.081634330708880196 0.1151370033827101 0 0.068543873750645412 0.1149277749384955 0 0.068543873750645412 0.1149277749384955 0 0.064307476710745728 0.1098785041095611 0 0.059536333892403683 0.1154697352345713 0 0.069834633883481517 0.1065625652268001 0 0.068543873750645412 0.1149277749384955 0 0.064307476710745728 0.1098785041095611 0 0.071861500007931359 0.1232467005620789 0 0.068543873750645412 0.1149277749384955 0 0.059536333892403683 0.1154697352345713 0 0.056458373241313059 0.1220229844831647 0 0.046980594318971967 0.103944553472415 0 0.044984286063853948 0.1144984098979744 0 0.056458373241313059 0.1220229844831647 0 0.059536333892403683 0.1154697352345713 0 0.047111977694586651 0.095143209078012936 0 0.056458373241313059 0.1220229844831647 0 0.047823074661834691 0.1229743903388081 0 0.044984286063853948 0.1144984098979744 0 0.056458373241313059 0.1220229844831647 0 0.047111977694586651 0.095143209078012936 0 0.056458373241313059 0.1220229844831647 0 0.047111977694586651 0.095143209078012936 0 0.046980594318971967 0.103944553472415 0 0.059536333892403683 0.1154697352345713 0 0.059315065316452309 0.1025539410383776 0 0.048250118395506067 0.092934788779969885 0 0.064307476710745728 0.1098785041095611 0 0.059536333892403683 0.1154697352345713 0 0.059315065316452309 0.1025539410383776 0 0.059536333892403683 0.1154697352345713 0 0.047111977694586651 0.095143209078012936 0 0.048250118395506067 0.092934788779969885 0 0.059536333892403683 0.1154697352345713 0 0.048250118395506067 0.092934788779969885 0 0.059315065316452309 0.1025539410383776 0 0.059523689947290133 0.089273902564132146 0 0.048250118395506067 0.092934788779969885 0 0.046980594318971967 0.103944553472415 0 0.031997015267580219 0.10661530464401089 0 0.044984286063853948 0.1144984098979744 0 0.046980594318971967 0.103944553472415 0 0.039592722901722707 0.099159129702000026 0 0.031997015267580219 0.10661530464401089 0 0.047111977694586651 0.095143209078012936 0 0.046980594318971967 0.103944553472415 0 0.044236279529428407 0.098362398272746204 0 0.043259823202432338 0.095202700838556822 0 0.039592722901722707 0.099159129702000026 0 0.040006298791842428 0.091064350555588536 0 0.047111977694586651 0.095143209078012936 0 0.043259823202432338 0.095202700838556822 0 0.043326765309194368 0.091114650811160686 0 0.047111977694586651 0.095143209078012936 0 0.043259823202432338 0.095202700838556822 0 0.044236279529428407 0.098362398272746204 0 0.046980594318971967 0.103944553472415 0 0.044236279529428407 0.098362398272746204 0 0.039592722901722707 0.099159129702000026 0 0.043259823202432338 0.095202700838556822 0 0.044236279529428407 0.098362398272746204 0 0.039592722901722707 0.099159129702000026 0 0.039592722901722707 0.099159129702000026 0 0.040006298791842428 0.091064350555588536 0 0.033999193661208522 0.092549709374426317 0 0.039592722901722707 0.099159129702000026 0 0.031997015267580219 0.10661530464401089 0 0.033999193661208522 0.092549709374426317 0 0.031997015267580219 0.10661530464401089 0 0.044984286063853948 0.1144984098979744 0 0.040254683338031831 0.12792389191371131 0 0.031997015267580219 0.10661530464401089 0 0.027418588341799281 0.11951208787462859 0 0.040254683338031831 0.12792389191371131 0 0.031997015267580219 0.10661530464401089 0 0.040254683338031831 0.12792389191371131 0 0.047823074661834691 0.1229743903388081 0 0.044984286063853948 0.1144984098979744 0 0.040254683338031831 0.12792389191371131 0 0.071888117261322881 0.075707086101057836 0 0.050643578252195447 0.077240667131504986 0 0.06072113176624426 0.066105246874810966 0 0.071888117261322881 0.075707086101057836 0 0.050643578252195447 0.077240667131504986 0 0.04797297407010033 0.057336039788577382 0 0.050643578252195447 0.077240667131504986 0 0.06072113176624426 0.066105246874810966 0 0.059523689947290133 0.089273902564132146 0 0.048250118395506067 0.092934788779969885 0 0.038271235220189187 0.079950329707060411 0 0.050643578252195447 0.077240667131504986 0 0.059523689947290133 0.089273902564132146 0 0.038271235220189187 0.079950329707060411 0 0.059523689947290133 0.089273902564132146 0 0.038271235220189187 0.079950329707060411 0 0.071888117261322881 0.075707086101057836 0 0.050643578252195447 0.077240667131504986 0 0.059523689947290133 0.089273902564132146 0 0.050643578252195447 0.077240667131504986 0 0.038271235220189187 0.079950329707060411 0 0.029399039243067929 0.078774248161950916 0 0.043326765309194368 0.091114650811160686 0 0.040006298791842428 0.091064350555588536 0 0.038271235220189187 0.079950329707060411 0 0.048250118395506067 0.092934788779969885 0 0.043326765309194368 0.091114650811160686 0 0.038271235220189187 0.079950329707060411 0 0.047111977694586651 0.095143209078012936 0 0.048250118395506067 0.092934788779969885 0 0.043326765309194368 0.091114650811160686 0 0.043259823202432338 0.095202700838556822 0 0.043326765309194368 0.091114650811160686 0 0.040006298791842428 0.091064350555588536 0 0.040006298791842428 0.091064350555588536 0 0.033999193661208522 0.092549709374426317 0 0.035112272261912547 0.085996705185296951 0 0.033999193661208522 0.092549709374426317 0 0.035112272261912547 0.085996705185296951 0 0.030562463090829231 0.085656845023995995 0 0.040006298791842428 0.091064350555588536 0 0.035112272261912547 0.085996705185296951 0 0.038271235220189187 0.079950329707060411 0 0.035112272261912547 0.085996705185296951 0 0.038271235220189187 0.079950329707060411 0 0.029399039243067929 0.078774248161950916 0 0.035112272261912547 0.085996705185296951 0 0.029399039243067929 0.078774248161950916 0 0.030562463090829231 0.085656845023995995 0 0.04797297407010033 0.057336039788577382 0 0.027635028654909001 0.06907575978797427 0 0.029399039243067929 0.078774248161950916 0 0.04797297407010033 0.057336039788577382 0 0.050643578252195447 0.077240667131504986 0 0.029399039243067929 0.078774248161950916 0 0.050643578252195447 0.077240667131504986 0 0.029399039243067929 0.078774248161950916 0 0.04797297407010033 0.057336039788577382 0 0.029399039243067929 0.078774248161950916 0 0.01459521235494949 0.061710637509134872 0 0.030459386295035529 0.05963142741263059 0 0.017825248683011649 0.070045619055208203 0 0.01459521235494949 0.061710637509134872 0 0.017825248683011649 0.070045619055208203 0 0.030459386295035529 0.05963142741263059 0 0.017825248683011649 0.070045619055208203 0 0.030459386295035529 0.05963142741263059 0 0.017825248683011649 0.070045619055208203 0 0.027635028654909001 0.06907575978797427 0 0.027635028654909001 0.06907575978797427 0 0.021430743364398389 0.07934945609652827 0 0.029399039243067929 0.078774248161950916 0 0.017825248683011649 0.070045619055208203 0 0.027635028654909001 0.06907575978797427 0 0.021430743364398389 0.07934945609652827 0 0.017825248683011649 0.070045619055208203 0 0.021430743364398389 0.07934945609652827 0 0.023739347197128589 0.085306717374310406 0 0.0092582498306486675 0.1020209346744549 0 0.021430743364398389 0.07934945609652827 0 0.023739347197128589 0.085306717374310406 0 0.01369104835205702 0.085774757015682671 0 0.021430743364398389 0.07934945609652827 0 0.023739347197128589 0.085306717374310406 0 0.021430743364398389 0.07934945609652827 0 0.029399039243067929 0.078774248161950916 0 0.023739347197128589 0.085306717374310406 0 0.021430743364398389 0.07934945609652827 0 0.029399039243067929 0.078774248161950916 0 0.029399039243067929 0.078774248161950916 0 0.030562463090829231 0.085656845023995995 0 0.023739347197128589 0.085306717374310406 0 0.029399039243067929 0.078774248161950916 0 0.023739347197128589 0.085306717374310406 0 0.033999193661208522 0.092549709374426317 0 0.030562463090829231 0.085656845023995995 0 0.023739347197128589 0.085306717374310406 0 0.023739347197128589 0.085306717374310406 0 0.01369104835205702 0.085774757015682671 0 0.0092582498306486675 0.1020209346744549 0 0.0051087594610210148 0.080527692295617709 0 0.01369104835205702 0.085774757015682671 0 0.0092582498306486675 0.1020209346744549 0 0.021430743364398389 0.07934945609652827 0 0.0051087594610210148 0.080527692295617709 0 0.021430743364398389 0.07934945609652827 0 0.0051087594610210148 0.080527692295617709 0 0.01369104835205702 0.085774757015682671 0 -0.0012292332505543029 0.06378464068123596 0 0.01459521235494949 0.061710637509134872 0 -0.0012292332505543029 0.06378464068123596 0 0.01459521235494949 0.061710637509134872 0 0.0080955592782806732 0.069159055867407046 0 0.017825248683011649 0.070045619055208203 0 0.021430743364398389 0.07934945609652827 0 0.0051087594610210148 0.080527692295617709 0 -0.0012292332505543029 0.06378464068123596 0 0.0051087594610210148 0.080527692295617709 0 0.0080955592782806732 0.069159055867407046 0 0.017825248683011649 0.070045619055208203 0 0.0051087594610210148 0.080527692295617709 0 0.0080955592782806732 0.069159055867407046 0 0.017825248683011649 0.070045619055208203 0 0.0051087594610210148 0.080527692295617709 0 0.01459521235494949 0.061710637509134872 0 0.017825248683011649 0.070045619055208203 0 0.0080955592782806732 0.069159055867407046 0 0.019482067178466251 0.1107491432724047 0 0.017356945103072018 0.1204998149293544 0 0.027418588341799281 0.11951208787462859 0 0.017356945103072018 0.1204998149293544 0 0.027418588341799281 0.11951208787462859 0 0.028136896369567631 0.1331750506540591 0 0.031997015267580219 0.10661530464401089 0 0.019482067178466251 0.1107491432724047 0 0.027418588341799281 0.11951208787462859 0 0.031997015267580219 0.10661530464401089 0 0.033999193661208522 0.092549709374426317 0 0.023739347197128589 0.085306717374310406 0 0.023739347197128589 0.085306717374310406 0 0.02108550348152554 0.10082233348119581 0 0.0092582498306486675 0.1020209346744549 0 0.031997015267580219 0.10661530464401089 0 0.023739347197128589 0.085306717374310406 0 0.031997015267580219 0.10661530464401089 0 0.023739347197128589 0.085306717374310406 0 0.02108550348152554 0.10082233348119581 0 0.031997015267580219 0.10661530464401089 0 0.019482067178466251 0.1107491432724047 0 0.02108550348152554 0.10082233348119581 0 0.019482067178466251 0.1107491432724047 0 0.02108550348152554 0.10082233348119581 0 0.0092582498306486675 0.1020209346744549 0 -0.0040597014752050652 0.1051126182356364 0 0.0051087594610210148 0.080527692295617709 0 0.0092582498306486675 0.1020209346744549 0 0.019482067178466251 0.1107491432724047 0 0.0092582498306486675 0.1020209346744549 0 0.0097761010461718117 0.1150243840307837 0 -0.0052228475358298988 0.1187351519746004 0 0.0092582498306486675 0.1020209346744549 0 -0.0052228475358298988 0.1187351519746004 0 0.0092582498306486675 0.1020209346744549 0 0.0097761010461718117 0.1150243840307837 0 0.019482067178466251 0.1107491432724047 0 0.017356945103072018 0.1204998149293544 0 0.0097761010461718117 0.1150243840307837 0 0.017356945103072018 0.1204998149293544 0 0.0081407562022233586 0.1245196413435004 0 0.017356945103072018 0.1204998149293544 0 0.0097761010461718117 0.1150243840307837 0 0.0081407562022233586 0.1245196413435004 0 -0.0052228475358298988 0.1187351519746004 0 0.0097761010461718117 0.1150243840307837 0 0.0081407562022233586 0.1245196413435004 0 -0.0052228475358298988 0.1187351519746004 0 0.0081407562022233586 0.1245196413435004 0 -0.015783289274076458 0.13495459563681389 0 0.0081407562022233586 0.1245196413435004 0 0.01185912902997375 0.14130758542593569 0 0.017356945103072018 0.1204998149293544 0 0.0081407562022233586 0.1245196413435004 0 0.028136896369567631 0.1331750506540591 0 0.0081407562022233586 0.1245196413435004 0 0.028136896369567631 0.1331750506540591 0 0.0081407562022233586 0.1245196413435004 0 0.028136896369567631 0.1331750506540591 0 0.01185912902997375 0.14130758542593569 0 0.028136896369567631 0.1331750506540591 0 0.0267736462585265 0.15269096182544131 0 0.035919394343652343 0.14075559589415579 0 0.028136896369567631 0.1331750506540591 0 0.0267736462585265 0.15269096182544131 0 0.01185912902997375 0.14130758542593569 0 0.0267736462585265 0.15269096182544131 0 0.001788155555331062 0.1557637096651584 0 0.01185912902997375 0.14130758542593569 0 0.001788155555331062 0.1557637096651584 0 0.00061104658230836653 0.17769045695541219 0 0.019359600384737739 0.17657282369350361 0 0.001788155555331062 0.1557637096651584 0 0.019359600384737739 0.17657282369350361 0 0.00061104658230836653 0.17769045695541219 0 0.019359600384737739 0.17657282369350361 0 0.017852612557627559 0.19656860209324539 0 0.019359600384737739 0.17657282369350361 0 0.036931045214144441 0.19738193772184889 0 0.0267736462585265 0.15269096182544131 0 0.001788155555331062 0.1557637096651584 0 0.019359600384737739 0.17657282369350361 0 0.0267736462585265 0.15269096182544131 0 0.019359600384737739 0.17657282369350361 0 0.038399134829123632 0.17159850230738899 0 0.0267736462585265 0.15269096182544131 0 0.038399134829123632 0.17159850230738899 0 0.048512351408483409 0.1492324791834117 0 0.019359600384737739 0.17657282369350361 0 0.038399134829123632 0.17159850230738899 0 0.036931045214144441 0.19738193772184889 0 0.038399134829123632 0.17159850230738899 0 0.053915020648589329 0.181809847856817 0 0.036931045214144441 0.19738193772184889 0 0.053915020648589329 0.181809847856817 0 0.056298621576963533 0.16595151756685289 0 0.075151164334765874 0.17578253529346821 0 0.038399134829123632 0.17159850230738899 0 0.053915020648589329 0.181809847856817 0 0.056298621576963533 0.16595151756685289 0 0.038399134829123632 0.17159850230738899 0 0.056298621576963533 0.16595151756685289 0 0.048512351408483409 0.1492324791834117 0 0.048512351408483409 0.1492324791834117 0 0.055211699142625699 0.13746009370018761 0 0.065804768788039439 0.14890275988831639 0 0.056298621576963533 0.16595151756685289 0 0.048512351408483409 0.1492324791834117 0 0.065804768788039439 0.14890275988831639 0 0.048512351408483409 0.1492324791834117 0 0.055211699142625699 0.13746009370018761 0 0.049904412172306151 0.13036597214331841 0 0.056458373241313059 0.1220229844831647 0 0.059536333892403683 0.1154697352345713 0 0.070822549389301243 0.1380046816891726 0 0.056458373241313059 0.1220229844831647 0 0.055211699142625699 0.13746009370018761 0 0.065804768788039439 0.14890275988831639 0 0.056458373241313059 0.1220229844831647 0 0.065804768788039439 0.14890275988831639 0 0.056458373241313059 0.1220229844831647 0 0.047823074661834691 0.1229743903388081 0 0.049904412172306151 0.13036597214331841 0 0.056458373241313059 0.1220229844831647 0 0.055211699142625699 0.13746009370018761 0 0.049904412172306151 0.13036597214331841 0 0.048512351408483409 0.1492324791834117 0 0.040254683338031831 0.12792389191371131 0 0.048512351408483409 0.1492324791834117 0 0.040254683338031831 0.12792389191371131 0 0.035919394343652343 0.14075559589415579 0 0.048512351408483409 0.1492324791834117 0 0.049904412172306151 0.13036597214331841 0 0.040254683338031831 0.12792389191371131 0 0.047823074661834691 0.1229743903388081 0 0.049904412172306151 0.13036597214331841 0 0.040254683338031831 0.12792389191371131 0 0.027418588341799281 0.11951208787462859 0 0.028136896369567631 0.1331750506540591 0 0.040254683338031831 0.12792389191371131 0 0.028136896369567631 0.1331750506540591 0 0.040254683338031831 0.12792389191371131 0 0.035919394343652343 0.14075559589415579 0 0.0267736462585265 0.15269096182544131 0 0.048512351408483409 0.1492324791834117 0 0.035919394343652343 0.14075559589415579 0 0.020197736684044801 0.2291273398277828 0 0.034114961552744377 0.23516115760169301 0 0.036501911092354018 0.25177276941539839 0 0.018629400856135309 0.24429501886194191 0 0.020197736684044801 0.2291273398277828 0 0.02692674034290404 0.25134916217479408 0 0.020197736684044801 0.2291273398277828 0 0.02692674034290404 0.25134916217479408 0 0.036501911092354018 0.25177276941539839 0 0.020197736684044801 0.2291273398277828 0 0.036501911092354018 0.25177276941539839 0 0.018629400856135309 0.24429501886194191 0 0.0082785766384091443 0.23618007315607359 0 0.020197736684044801 0.2291273398277828 0 0.018629400856135309 0.24429501886194191 0 0.012944211518790589 0.24639919126045251 0 0.0082785766384091443 0.23618007315607359 0 0.012944211518790589 0.24639919126045251 0 0.001894876929373096 0.24743045501984201 0 0.0082785766384091443 0.23618007315607359 0 -0.0070773620087705444 0.23295897308755351 0 0.001894876929373096 0.24743045501984201 0 0.0082785766384091443 0.23618007315607359 0 0.0082785766384091443 0.23618007315607359 0 0.0038866256090455522 0.2239579318999283 0 0.020197736684044801 0.2291273398277828 0 0.0038866256090455522 0.2239579318999283 0 0.020197736684044801 0.2291273398277828 0 0.003893562275735573 0.2064819102401671 0 -0.0070773620087705444 0.23295897308755351 0 0.0082785766384091443 0.23618007315607359 0 0.0038866256090455522 0.2239579318999283 0 0.01643925603633389 0.21561198758054059 0 0.035370792182188207 0.216260201755786 0 0.034114961552744377 0.23516115760169301 0 0.020197736684044801 0.2291273398277828 0 0.01643925603633389 0.21561198758054059 0 0.034114961552744377 0.23516115760169301 0 0.01643925603633389 0.21561198758054059 0 0.034114961552744377 0.23516115760169301 0 0.017852612557627559 0.19656860209324539 0 0.036931045214144441 0.19738193772184889 0 0.035370792182188207 0.216260201755786 0 0.01643925603633389 0.21561198758054059 0 0.017852612557627559 0.19656860209324539 0 0.035370792182188207 0.216260201755786 0 0.020197736684044801 0.2291273398277828 0 0.003893562275735573 0.2064819102401671 0 -0.0045317147067566524 0.21522543551468479 0 0.0038866256090455522 0.2239579318999283 0 0.003893562275735573 0.2064819102401671 0 -0.0012364494800765971 0.1960628175593882 0 0.01643925603633389 0.21561198758054059 0 -0.0012364494800765971 0.1960628175593882 0 0.01643925603633389 0.21561198758054059 0 0.003893562275735573 0.2064819102401671 0 0.020197736684044801 0.2291273398277828 0 0.01643925603633389 0.21561198758054059 0 0.003893562275735573 0.2064819102401671 0 -0.0012364494800765971 0.1960628175593882 0 0.01643925603633389 0.21561198758054059 0 0.017852612557627559 0.19656860209324539 0 -0.0012364494800765971 0.1960628175593882 0 0.00061104658230836653 0.17769045695541219 0 0.017852612557627559 0.19656860209324539 0 0.019359600384737739 0.17657282369350361 0 0.017852612557627559 0.19656860209324539 0 0.036931045214144441 0.19738193772184889 0 0.053915020648589329 0.181809847856817 0 0.036931045214144441 0.19738193772184889 0 0.062795137287949193 0.19833474639452611 0 0.036931045214144441 0.19738193772184889 0 0.054502490043551163 0.2181910517501941 0 0.062795137287949193 0.19833474639452611 0 0.036931045214144441 0.19738193772184889 0 0.054502490043551163 0.2181910517501941 0 0.036931045214144441 0.19738193772184889 0 0.054502490043551163 0.2181910517501941 0 0.035370792182188207 0.216260201755786 0 0.054502490043551163 0.2181910517501941 0 0.035370792182188207 0.216260201755786 0 0.034114961552744377 0.23516115760169301 0 0.054502490043551163 0.2181910517501941 0 0.055174909047777811 0.2396291133956362 0 0.034114961552744377 0.23516115760169301 0 0.054502490043551163 0.2181910517501941 0 0.055174909047777811 0.2396291133956362 0 0.072073934872957782 0.23900016577853919 0 0.055174909047777811 0.2396291133956362 0 0.034114961552744377 0.23516115760169301 0 0.051790667069154861 0.2547103276228454 0 0.055174909047777811 0.2396291133956362 0 0.051790667069154861 0.2547103276228454 0 0.063392491700480919 0.2510828642249095 0 0.034114961552744377 0.23516115760169301 0 0.036501911092354018 0.25177276941539839 0 0.051790667069154861 0.2547103276228454 0 0.034114961552744377 0.23516115760169301 0 0.051790667069154861 0.2547103276228454 0 0.072073934872957782 0.23900016577853919 0 0.093843955428218759 0.229542086103772 0 0.089645379702363526 0.25980927980688501 0 0.072073934872957782 0.23900016577853919 0 0.089645379702363526 0.25980927980688501 0 0.055174909047777811 0.2396291133956362 0 0.072073934872957782 0.23900016577853919 0 0.063392491700480919 0.2510828642249095 0 0.072073934872957782 0.23900016577853919 0 0.063392491700480919 0.2510828642249095 0 0.074261774750864804 0.25289133929391111 0 0.054502490043551163 0.2181910517501941 0 0.072073934872957782 0.23900016577853919 0 0.054502490043551163 0.2181910517501941 0 0.072073934872957782 0.23900016577853919 0 0.07691655231929137 0.22036312128655 0 0.072073934872957782 0.23900016577853919 0 0.07691655231929137 0.22036312128655 0 0.093843955428218759 0.229542086103772 0 0.084497559881492323 0.20266231069862009 0 0.1011551627426199 0.2154511434485995 0 0.093843955428218759 0.229542086103772 0 0.084497559881492323 0.20266231069862009 0 0.093843955428218759 0.229542086103772 0 0.07691655231929137 0.22036312128655 0 0.084497559881492323 0.20266231069862009 0 0.093843955428218759 0.229542086103772 0 0.07691655231929137 0.22036312128655 0 0.062795137287949193 0.19833474639452611 0 0.084497559881492323 0.20266231069862009 0 0.054502490043551163 0.2181910517501941 0 0.07691655231929137 0.22036312128655 0 0.062795137287949193 0.19833474639452611 0 0.062795137287949193 0.19833474639452611 0 0.084497559881492323 0.20266231069862009 0 0.075151164334765874 0.17578253529346821 0 0.084497559881492323 0.20266231069862009 0 0.075151164334765874 0.17578253529346821 0 0.084497559881492323 0.20266231069862009 0 0.10184565838461331 0.1924014028594688 0 0.093394980383096363 0.18307457459837531 0 0.084497559881492323 0.20266231069862009 0 0.10184565838461331 0.1924014028594688 0 0.10260278643249959 0.20376756124449391 0 0.10184565838461331 0.1924014028594688 0 0.1105875138732399 0.1994169567440035 0 0.10260278643249959 0.20376756124449391 0 0.10184565838461331 0.1924014028594688 0 0.1131184160342838 0.18994185980391479 0 0.1105875138732399 0.1994169567440035 0 0.10184565838461331 0.1924014028594688 0 0.1131184160342838 0.18994185980391479 0 0.1054525685194168 0.18020148819897211 0 0.1131184160342838 0.18994185980391479 0 0.1210814068145178 0.19423580856195369 0 0.1131184160342838 0.18994185980391479 0 0.1210814068145178 0.19423580856195369 0 0.1196286990311512 0.18236386641526309 0 0.1210814068145178 0.19423580856195369 0 0.11958782189190099 0.20227867846385961 0 0.13241563583181001 0.2003476577346209 0 0.1131184160342838 0.18994185980391479 0 0.1210814068145178 0.19423580856195369 0 0.11958782189190099 0.20227867846385961 0 0.1131184160342838 0.18994185980391479 0 0.11958782189190099 0.20227867846385961 0 0.1105875138732399 0.1994169567440035 0 0.11958782189190099 0.20227867846385961 0 0.1105875138732399 0.1994169567440035 0 0.11467542950451071 0.21015036581969679 0 0.11958782189190099 0.20227867846385961 0 0.11467542950451071 0.21015036581969679 0 0.12714211421566091 0.2115365522170618 0 0.11467542950451071 0.21015036581969679 0 0.1287590091161889 0.22454109023782651 0 0.12714211421566091 0.2115365522170618 0 0.11467542950451071 0.21015036581969679 0 0.1011551627426199 0.2154511434485995 0 0.1117838155087727 0.22779371718329239 0 0.084497559881492323 0.20266231069862009 0 0.10260278643249959 0.20376756124449391 0 0.1011551627426199 0.2154511434485995 0 0.1105875138732399 0.1994169567440035 0 0.11467542950451071 0.21015036581969679 0 0.10260278643249959 0.20376756124449391 0 0.11467542950451071 0.21015036581969679 0 0.10260278643249959 0.20376756124449391 0 0.1011551627426199 0.2154511434485995 0 0.1011551627426199 0.2154511434485995 0 0.093843955428218759 0.229542086103772 0 0.1117838155087727 0.22779371718329239 0 0.11467542950451071 0.21015036581969679 0 0.1117838155087727 0.22779371718329239 0 0.1287590091161889 0.22454109023782651 0 0.1117838155087727 0.22779371718329239 0 0.1287590091161889 0.22454109023782651 0 0.116065923487036 0.25155424759680489 0 0.093843955428218759 0.229542086103772 0 0.089645379702363526 0.25980927980688501 0 0.116065923487036 0.25155424759680489 0 0.093843955428218759 0.229542086103772 0 0.1117838155087727 0.22779371718329239 0 0.116065923487036 0.25155424759680489 0 0.085867858697711436 0.14453522140638461 0 0.070822549389301243 0.1380046816891726 0 0.082108764886198796 0.1605396281437739 0 0.085867858697711436 0.14453522140638461 0 0.082108764886198796 0.1605396281437739 0 0.098061838006449922 0.1524476624703702 0 0.085867858697711436 0.14453522140638461 0 0.084033960556429532 0.12884481400490949 0 0.098019367542785563 0.1407790739484335 0 0.085867858697711436 0.14453522140638461 0 0.084033960556429532 0.12884481400490949 0 0.070822549389301243 0.1380046816891726 0 0.071861500007931359 0.1232467005620789 0 0.059536333892403683 0.1154697352345713 0 0.070822549389301243 0.1380046816891726 0 0.059536333892403683 0.1154697352345713 0 0.070822549389301243 0.1380046816891726 0 0.056458373241313059 0.1220229844831647 0 0.070822549389301243 0.1380046816891726 0 0.065804768788039439 0.14890275988831639 0 0.071861500007931359 0.1232467005620789 0 0.084033960556429532 0.12884481400490949 0 0.070822549389301243 0.1380046816891726 0 0.070822549389301243 0.1380046816891726 0 0.082108764886198796 0.1605396281437739 0 0.070822549389301243 0.1380046816891726 0 0.065804768788039439 0.14890275988831639 0 0.082108764886198796 0.1605396281437739 0 0.056298621576963533 0.16595151756685289 0 0.065804768788039439 0.14890275988831639 0 0.075151164334765874 0.17578253529346821 0 0.065804768788039439 0.14890275988831639 0 0.075151164334765874 0.17578253529346821 0 0.082108764886198796 0.1605396281437739 0 0.065804768788039439 0.14890275988831639 0 0.075151164334765874 0.17578253529346821 0 0.053915020648589329 0.181809847856817 0 0.062795137287949193 0.19833474639452611 0 0.075151164334765874 0.17578253529346821 0 0.075151164334765874 0.17578253529346821 0 0.093394980383096363 0.18307457459837531 0 0.082108764886198796 0.1605396281437739 0 0.084497559881492323 0.20266231069862009 0 0.075151164334765874 0.17578253529346821 0 0.093394980383096363 0.18307457459837531 0 0.093394980383096363 0.18307457459837531 0 0.082108764886198796 0.1605396281437739 0 0.1017810834163356 0.16778327145988009 0 0.093394980383096363 0.18307457459837531 0 0.082108764886198796 0.1605396281437739 0 0.082108764886198796 0.1605396281437739 0 0.1017810834163356 0.16778327145988009 0 0.098061838006449922 0.1524476624703702 0 0.1017810834163356 0.16778327145988009 0 0.1094413004412432 0.1568441156191657 0 0.098061838006449922 0.1524476624703702 0 0.10184565838461331 0.1924014028594688 0 0.093394980383096363 0.18307457459837531 0 0.1054525685194168 0.18020148819897211 0 0.093394980383096363 0.18307457459837531 0 0.1017810834163356 0.16778327145988009 0 0.1054525685194168 0.18020148819897211 0 0.1017810834163356 0.16778327145988009 0 0.1054525685194168 0.18020148819897211 0 0.1143103312636523 0.17467474260035151 0 0.1131184160342838 0.18994185980391479 0 0.1132877880089454 0.18182979361660931 0 0.1196286990311512 0.18236386641526309 0 0.1131184160342838 0.18994185980391479 0 0.1054525685194168 0.18020148819897211 0 0.1132877880089454 0.18182979361660931 0 0.1054525685194168 0.18020148819897211 0 0.1132877880089454 0.18182979361660931 0 0.1143103312636523 0.17467474260035151 0 0.1132877880089454 0.18182979361660931 0 0.1143103312636523 0.17467474260035151 0 0.1196286990311512 0.18236386641526309 0 0.1143103312636523 0.17467474260035151 0 0.1229466648353691 0.17360959233997481 0 0.1196286990311512 0.18236386641526309 0 0.1229466648353691 0.17360959233997481 0 0.1196286990311512 0.18236386641526309 0 0.1315359285025598 0.17914174819028489 0 0.1210814068145178 0.19423580856195369 0 0.1196286990311512 0.18236386641526309 0 0.1315359285025598 0.17914174819028489 0 0.1017810834163356 0.16778327145988009 0 0.1143103312636523 0.17467474260035151 0 0.11826309888899959 0.1638296446882945 0 0.1017810834163356 0.16778327145988009 0 0.1094413004412432 0.1568441156191657 0 0.11826309888899959 0.1638296446882945 0 0.1094413004412432 0.1568441156191657 0 0.11826309888899959 0.1638296446882945 0 0.12116198843957229 0.15461983439099389 0 0.1143103312636523 0.17467474260035151 0 0.1229466648353691 0.17360959233997481 0 0.11826309888899959 0.1638296446882945 0 0.1229466648353691 0.17360959233997481 0 0.11826309888899959 0.1638296446882945 0 0.1286748755814317 0.16568949079043779 0 0.11826309888899959 0.1638296446882945 0 0.12116198843957229 0.15461983439099389 0 0.1286748755814317 0.16568949079043779 0 0.12116198843957229 0.15461983439099389 0 0.1235319134973574 0.14279740261083959 0 0.11069945258584669 0.14552439304262721 0 0.1094413004412432 0.1568441156191657 0 0.12116198843957229 0.15461983439099389 0 0.11069945258584669 0.14552439304262721 0 0.1094413004412432 0.1568441156191657 0 0.11069945258584669 0.14552439304262721 0 0.098061838006449922 0.1524476624703702 0 0.11069945258584669 0.14552439304262721 0 0.098019367542785563 0.1407790739484335 0 0.098061838006449922 0.1524476624703702 0 0.085867858697711436 0.14453522140638461 0 0.098019367542785563 0.1407790739484335 0 0.098061838006449922 0.1524476624703702 0 0.084033960556429532 0.12884481400490949 0 0.1117522404438802 0.12667258555115829 0 0.094862282777670462 0.1196438628042634 0 0.084033960556429532 0.12884481400490949 0 0.1117522404438802 0.12667258555115829 0 0.084033960556429532 0.12884481400490949 0 0.098019367542785563 0.1407790739484335 0 0.1117522404438802 0.12667258555115829 0 0.11069945258584669 0.14552439304262721 0 0.098019367542785563 0.1407790739484335 0 0.1117522404438802 0.12667258555115829 0 0.1235319134973574 0.14279740261083959 0 0.11069945258584669 0.14552439304262721 0 0.1117522404438802 0.12667258555115829 0 0.1235319134973574 0.14279740261083959 0 0.1117522404438802 0.12667258555115829 0 0.1338250830151082 0.13680555700437169 0 0.1117522404438802 0.12667258555115829 0 0.1338250830151082 0.13680555700437169 0 0.13947052033133081 0.1245003570974072 0 0.1117522404438802 0.12667258555115829 0 0.13947052033133081 0.1245003570974072 0 0.1338250830151082 0.13680555700437169 0 0.14773514824261011 0.13994704674368119 0 0.13947052033133081 0.1245003570974072 0 0.14773514824261011 0.13994704674368119 0 0.13947052033133081 0.1245003570974072 0 0.16718880021878149 0.12232812864365609 0 0.14773514824261011 0.13994704674368119 0 0.1492794596183103 0.15557552201751701 0 0.16307655427518189 0.1461583771030025 0 0.14773514824261011 0.13994704674368119 0 0.1492794596183103 0.15557552201751701 0 0.13636128964255501 0.15303395959459851 0 0.1235319134973574 0.14279740261083959 0 0.1338250830151082 0.13680555700437169 0 0.13636128964255501 0.15303395959459851 0 0.1338250830151082 0.13680555700437169 0 0.14773514824261011 0.13994704674368119 0 0.13636128964255501 0.15303395959459851 0 0.12116198843957229 0.15461983439099389 0 0.1235319134973574 0.14279740261083959 0 0.13636128964255501 0.15303395959459851 0 0.12116198843957229 0.15461983439099389 0 0.13636128964255501 0.15303395959459851 0 0.1286748755814317 0.16568949079043779 0 0.13636128964255501 0.15303395959459851 0 0.1286748755814317 0.16568949079043779 0 0.1402599975996246 0.1687496010839549 0 0.1286748755814317 0.16568949079043779 0 0.1402599975996246 0.1687496010839549 0 0.1315359285025598 0.17914174819028489 0 0.1210814068145178 0.19423580856195369 0 0.1315359285025598 0.17914174819028489 0 0.14172685770208041 0.18088834424850889 0 0.1229466648353691 0.17360959233997481 0 0.1286748755814317 0.16568949079043779 0 0.1315359285025598 0.17914174819028489 0 0.1402599975996246 0.1687496010839549 0 0.1315359285025598 0.17914174819028489 0 0.14172685770208041 0.18088834424850889 0 0.1315359285025598 0.17914174819028489 0 0.14172685770208041 0.18088834424850889 0 0.14172685770208041 0.18088834424850889 0 0.1589643083315804 0.1699886255623487 0 0.15664227980061579 0.1834446584897341 0 0.14172685770208041 0.18088834424850889 0 0.1589643083315804 0.1699886255623487 0 0.1402599975996246 0.1687496010839549 0 0.14172685770208041 0.18088834424850889 0 0.1589643083315804 0.1699886255623487 0 0.14172685770208041 0.18088834424850889 0 0.15664227980061579 0.1834446584897341 0 0.14735069213281321 0.19092796682168489 0 0.14172685770208041 0.18088834424850889 0 0.15664227980061579 0.1834446584897341 0 0.1492794596183103 0.15557552201751701 0 0.1402599975996246 0.1687496010839549 0 0.1589643083315804 0.1699886255623487 0 0.1492794596183103 0.15557552201751701 0 0.13636128964255501 0.15303395959459851 0 0.1402599975996246 0.1687496010839549 0 0.1492794596183103 0.15557552201751701 0 0.1589643083315804 0.1699886255623487 0 0.16307655427518189 0.1461583771030025 0 0.1589643083315804 0.1699886255623487 0 0.1832181015668064 0.15465227861531949 0 0.16307655427518189 0.1461583771030025 0 0.1589643083315804 0.1699886255623487 0 0.16307655427518189 0.1461583771030025 0 0.1589643083315804 0.1699886255623487 0 0.1832181015668064 0.15465227861531949 0 0.1589643083315804 0.1699886255623487 0 0.15664227980061579 0.1834446584897341 0 0.17367876449497299 0.17356388092826039 0 0.15664227980061579 0.1834446584897341 0 0.17803712215301101 0.18711146321258301 0 0.15664227980061579 0.1834446584897341 0 0.17367876449497299 0.17356388092826039 0 0.17803712215301101 0.18711146321258301 0 0.1589643083315804 0.1699886255623487 0 0.15664227980061579 0.1834446584897341 0 0.17367876449497299 0.17356388092826039 0 0.17803712215301101 0.18711146321258301 0 0.1915320106228488 0.17262237876131631 0 0.1589643083315804 0.1699886255623487 0 0.17367876449497299 0.17356388092826039 0 0.1832181015668064 0.15465227861531949 0 0.17367876449497299 0.17356388092826039 0 0.1832181015668064 0.15465227861531949 0 0.1915320106228488 0.17262237876131631 0 0.1832181015668064 0.15465227861531949 0 0.18154761934540289 0.13534417850528041 0 0.16307655427518189 0.1461583771030025 0 0.18154761934540289 0.13534417850528041 0 0.19370351113240411 0.1202502215829211 0 0.16718880021878149 0.12232812864365609 0 0.16307655427518189 0.1461583771030025 0 0.16718880021878149 0.12232812864365609 0 0.14773514824261011 0.13994704674368119 0 0.16307655427518189 0.1461583771030025 0 0.16718880021878149 0.12232812864365609 0 0.18154761934540289 0.13534417850528041 0 0.16307655427518189 0.1461583771030025 0 0.16718880021878149 0.12232812864365609 0 0.14248646727170791 0.24329921538672239 0 0.16890701105638031 0.23504418317664161 0 0.14248646727170791 0.24329921538672239 0 0.116065923487036 0.25155424759680489 0 0.14248646727170791 0.24329921538672239 0 0.1287590091161889 0.22454109023782651 0 0.116065923487036 0.25155424759680489 0 0.14248646727170791 0.24329921538672239 0 0.1287590091161889 0.22454109023782651 0 0.14216045677169509 0.2226427774354276 0 0.1287590091161889 0.22454109023782651 0 0.14216045677169509 0.2226427774354276 0 0.13903299807830019 0.21154409335764149 0 0.14248646727170791 0.24329921538672239 0 0.14216045677169509 0.2226427774354276 0 0.16890701105638031 0.23504418317664161 0 0.14216045677169509 0.2226427774354276 0 0.1513137794066001 0.21432303737238931 0 0.16890701105638031 0.23504418317664161 0 0.15183105921464751 0.210852851725322 0 0.13241563583181001 0.2003476577346209 0 0.15183105921464751 0.210852851725322 0 0.13903299807830019 0.21154409335764149 0 0.13241563583181001 0.2003476577346209 0 0.1513137794066001 0.21432303737238931 0 0.15183105921464751 0.210852851725322 0 0.14522842943996589 0.21534193400985699 0 0.1513137794066001 0.21432303737238931 0 0.15183105921464751 0.210852851725322 0 0.15183105921464751 0.210852851725322 0 0.14522842943996589 0.21534193400985699 0 0.13903299807830019 0.21154409335764149 0 0.14216045677169509 0.2226427774354276 0 0.1513137794066001 0.21432303737238931 0 0.14522842943996589 0.21534193400985699 0 0.14216045677169509 0.2226427774354276 0 0.14522842943996589 0.21534193400985699 0 0.13903299807830019 0.21154409335764149 0 0.1287590091161889 0.22454109023782651 0 0.13903299807830019 0.21154409335764149 0 0.12714211421566091 0.2115365522170618 0 0.11958782189190099 0.20227867846385961 0 0.12714211421566091 0.2115365522170618 0 0.13241563583181001 0.2003476577346209 0 0.13903299807830019 0.21154409335764149 0 0.12714211421566091 0.2115365522170618 0 0.13241563583181001 0.2003476577346209 0 0.1210814068145178 0.19423580856195369 0 0.13241563583181001 0.2003476577346209 0 0.13808072668616231 0.19149491569441959 0 0.1210814068145178 0.19423580856195369 0 0.14172685770208041 0.18088834424850889 0 0.13808072668616231 0.19149491569441959 0 0.1210814068145178 0.19423580856195369 0 0.14172685770208041 0.18088834424850889 0 0.1210814068145178 0.19423580856195369 0 0.13241563583181001 0.2003476577346209 0 0.15664227980061579 0.1834446584897341 0 0.15183105921464751 0.210852851725322 0 0.14735069213281321 0.19092796682168489 0 0.14172685770208041 0.18088834424850889 0 0.13808072668616231 0.19149491569441959 0 0.14735069213281321 0.19092796682168489 0 0.15183105921464751 0.210852851725322 0 0.13808072668616231 0.19149491569441959 0 0.14735069213281321 0.19092796682168489 0 0.15664227980061579 0.1834446584897341 0 0.15183105921464751 0.210852851725322 0 0.15183105921464751 0.210852851725322 0 0.13241563583181001 0.2003476577346209 0 0.13808072668616231 0.19149491569441959 0 0.15183105921464751 0.210852851725322 0 0.13808072668616231 0.19149491569441959 0 0.15664227980061579 0.1834446584897341 0 0.17803712215301101 0.18711146321258301 0 0.17078007948547791 0.20461318166966591 0 0.15664227980061579 0.1834446584897341 0 0.15183105921464751 0.210852851725322 0 0.17078007948547791 0.20461318166966591 0 0.17803712215301101 0.18711146321258301 0 0.18699821765939811 0.20575379358823331 0 0.17078007948547791 0.20461318166966591 0 0.18699821765939811 0.20575379358823331 0 0.18150256540618689 0.21619068467845909 0 0.17078007948547791 0.20461318166966591 0 0.18150256540618689 0.21619068467845909 0 0.17078007948547791 0.20461318166966591 0 0.1696832039875637 0.2204437538389574 0 0.15183105921464751 0.210852851725322 0 0.1696832039875637 0.2204437538389574 0 0.15183105921464751 0.210852851725322 0 0.17078007948547791 0.20461318166966591 0 0.1696832039875637 0.2204437538389574 0 0.15183105921464751 0.210852851725322 0 0.16890701105638031 0.23504418317664161 0 0.15183105921464751 0.210852851725322 0 0.1696832039875637 0.2204437538389574 0 0.16890701105638031 0.23504418317664161 0 0.1513137794066001 0.21432303737238931 0 0.15183105921464751 0.210852851725322 0 0.16890701105638031 0.23504418317664161 0 0.1696832039875637 0.2204437538389574 0 0.1730962958839812 0.23373525170759399 0 0.16890701105638031 0.23504418317664161 0 0.18150256540618689 0.21619068467845909 0 0.1696832039875637 0.2204437538389574 0 0.1874551123034256 0.23002704556275291 0 0.1696832039875637 0.2204437538389574 0 0.1874551123034256 0.23002704556275291 0 0.1730962958839812 0.23373525170759399 0 0.1696832039875637 0.2204437538389574 0 0.1874551123034256 0.23002704556275291 0 0.16890701105638031 0.23504418317664161 0 0.18564289691528729 0.25868749876629671 0 0.1821848497420967 0.24129823675235251 0 0.16890701105638031 0.23504418317664161 0 0.18564289691528729 0.25868749876629671 0 0.1730962958839812 0.23373525170759399 0 0.1821848497420967 0.24129823675235251 0 0.16890701105638031 0.23504418317664161 0 0.1874551123034256 0.23002704556275291 0 0.1730962958839812 0.23373525170759399 0 0.1821848497420967 0.24129823675235251 0 0.14248646727170791 0.24329921538672239 0 0.16890701105638031 0.23504418317664161 0 0.1631161995596529 0.25657386530356069 0 0.1730962958839812 0.23373525170759399 0 0.16890701105638031 0.23504418317664161 0 0.2052270206192876 0.23961033728654851 0 0.2245441737887168 0.23093760545441711 0 0.21458810326103989 0.25029177234766842 0 0.2052270206192876 0.23961033728654851 0 0.2050239072751949 0.2492833193895482 0 0.21458810326103989 0.25029177234766842 0 0.2052270206192876 0.23961033728654851 0 0.2050239072751949 0.2492833193895482 0 0.1956251304139873 0.24830732682566101 0 0.1874551123034256 0.23002704556275291 0 0.1821848497420967 0.24129823675235251 0 0.1956251304139873 0.24830732682566101 0 0.1874551123034256 0.23002704556275291 0 0.2052270206192876 0.23961033728654851 0 0.1821848497420967 0.24129823675235251 0 0.1956251304139873 0.24830732682566101 0 0.18564289691528729 0.25868749876629671 0 0.1874551123034256 0.23002704556275291 0 0.2052270206192876 0.23961033728654851 0 0.1956251304139873 0.24830732682566101 0 0.1874551123034256 0.23002704556275291 0 0.2052270206192876 0.23961033728654851 0 0.20110338325899621 0.22697869990708769 0 0.18150256540618689 0.21619068467845909 0 0.1874551123034256 0.23002704556275291 0 0.19422843088031849 0.2167901493339745 0 0.1874551123034256 0.23002704556275291 0 0.20110338325899621 0.22697869990708769 0 0.19422843088031849 0.2167901493339745 0 0.20110338325899621 0.22697869990708769 0 0.2086865974780466 0.21738525977654841 0 0.19422843088031849 0.2167901493339745 0 0.2052270206192876 0.23961033728654851 0 0.21155197229915221 0.22775520817690251 0 0.2245441737887168 0.23093760545441711 0 0.20110338325899621 0.22697869990708769 0 0.21155197229915221 0.22775520817690251 0 0.2086865974780466 0.21738525977654841 0 0.2052270206192876 0.23961033728654851 0 0.20110338325899621 0.22697869990708769 0 0.21155197229915221 0.22775520817690251 0 0.21155197229915221 0.22775520817690251 0 0.2086865974780466 0.21738525977654841 0 0.22156171208109349 0.2232889965660497 0 0.211417792929007 0.20448623071467029 0 0.2086865974780466 0.21738525977654841 0 0.22411523440486891 0.2128525325182862 0 0.2086865974780466 0.21738525977654841 0 0.22411523440486891 0.2128525325182862 0 0.22156171208109349 0.2232889965660497 0 0.211417792929007 0.20448623071467029 0 0.2086865974780466 0.21738525977654841 0 0.19996516513116139 0.20542151256053021 0 0.2086865974780466 0.21738525977654841 0 0.19422843088031849 0.2167901493339745 0 0.19996516513116139 0.20542151256053021 0 0.18699821765939811 0.20575379358823331 0 0.18150256540618689 0.21619068467845909 0 0.19422843088031849 0.2167901493339745 0 0.18699821765939811 0.20575379358823331 0 0.19422843088031849 0.2167901493339745 0 0.19996516513116139 0.20542151256053021 0 0.18699821765939811 0.20575379358823331 0 0.19996516513116139 0.20542151256053021 0 0.19943196450540629 0.19077826793543179 0 0.17803712215301101 0.18711146321258301 0 0.19943196450540629 0.19077826793543179 0 0.17803712215301101 0.18711146321258301 0 0.18699821765939811 0.20575379358823331 0 0.19943196450540629 0.19077826793543179 0 0.211417792929007 0.20448623071467029 0 0.19943196450540629 0.19077826793543179 0 0.22082680685780151 0.19444507265828059 0 0.19943196450540629 0.19077826793543179 0 0.22082680685780151 0.19444507265828059 0 0.211417792929007 0.20448623071467029 0 0.19996516513116139 0.20542151256053021 0 0.19943196450540629 0.19077826793543179 0 0.22082680685780151 0.19444507265828059 0 0.2418323282778008 0.1922485172988235 0 0.23200417938957321 0.20455559625434991 0 0.22082680685780151 0.19444507265828059 0 0.2418323282778008 0.1922485172988235 0 0.2298041727050075 0.1787595393801808 0 0.2418323282778008 0.1922485172988235 0 0.24124234801782149 0.21867626254200909 0 0.2418323282778008 0.1922485172988235 0 0.24124234801782149 0.21867626254200909 0 0.25471258750952741 0.20148162901819469 0 0.2418323282778008 0.1922485172988235 0 0.24124234801782149 0.21867626254200909 0 0.23200417938957321 0.20455559625434991 0 0.24124234801782149 0.21867626254200909 0 0.25357276657721323 0.21641202867955539 0 0.25471258750952741 0.20148162901819469 0 0.24124234801782149 0.21867626254200909 0 0.22411523440486891 0.2128525325182862 0 0.2303270751280653 0.22194856436908961 0 0.211417792929007 0.20448623071467029 0 0.22082680685780151 0.19444507265828059 0 0.22411523440486891 0.2128525325182862 0 0.22082680685780151 0.19444507265828059 0 0.23200417938957321 0.20455559625434991 0 0.22411523440486891 0.2128525325182862 0 0.24124234801782149 0.21867626254200909 0 0.23200417938957321 0.20455559625434991 0 0.22411523440486891 0.2128525325182862 0 0.22411523440486891 0.2128525325182862 0 0.22156171208109349 0.2232889965660497 0 0.2303270751280653 0.22194856436908961 0 0.22156171208109349 0.2232889965660497 0 0.2245441737887168 0.23093760545441711 0 0.2301452193877111 0.22885480910105491 0 0.21155197229915221 0.22775520817690251 0 0.22156171208109349 0.2232889965660497 0 0.2245441737887168 0.23093760545441711 0 0.2301452193877111 0.22885480910105491 0 0.23408043491912681 0.23335190051361199 0 0.23787356880598759 0.22384871304106421 0 0.2301452193877111 0.22885480910105491 0 0.23408043491912681 0.23335190051361199 0 0.2258394828391487 0.23585902185418811 0 0.2245441737887168 0.23093760545441711 0 0.2301452193877111 0.22885480910105491 0 0.2258394828391487 0.23585902185418811 0 0.2301452193877111 0.22885480910105491 0 0.2303270751280653 0.22194856436908961 0 0.23787356880598759 0.22384871304106421 0 0.22156171208109349 0.2232889965660497 0 0.2301452193877111 0.22885480910105491 0 0.2303270751280653 0.22194856436908961 0 0.24124234801782149 0.21867626254200909 0 0.2303270751280653 0.22194856436908961 0 0.23787356880598759 0.22384871304106421 0 0.24124234801782149 0.21867626254200909 0 0.23787356880598759 0.22384871304106421 0 0.25357276657721323 0.21641202867955539 0 0.23408043491912681 0.23335190051361199 0 0.24868260911088891 0.2303107595792985 0 0.25357276657721323 0.21641202867955539 0 0.23408043491912681 0.23335190051361199 0 0.23787356880598759 0.22384871304106421 0 0.25357276657721323 0.21641202867955539 0 0.23408043491912681 0.23335190051361199 0 0.25357276657721323 0.21641202867955539 0 0.24868260911088891 0.2303107595792985 0 0.2392512687495113 0.23539683186585869 0 0.2471090749199483 0.2357199094212839 0 0.23408043491912681 0.23335190051361199 0 0.24868260911088891 0.2303107595792985 0 0.2392512687495113 0.23539683186585869 0 0.23408043491912681 0.23335190051361199 0 0.2356673672060029 0.23553231024254659 0 0.23369101455560959 0.23545012385447089 0 0.2356673672060029 0.23553231024254659 0 0.23652425047500741 0.24096462129343871 0 0.23369101455560959 0.23545012385447089 0 0.23652425047500741 0.24096462129343871 0 0.2392512687495113 0.23539683186585869 0 0.24523436150048811 0.24199469982198529 0 0.2356673672060029 0.23553231024254659 0 0.23652425047500741 0.24096462129343871 0 0.2392512687495113 0.23539683186585869 0 0.23408043491912681 0.23335190051361199 0 0.2356673672060029 0.23553231024254659 0 0.2392512687495113 0.23539683186585869 0 0.24523436150048811 0.24199469982198529 0 0.2471090749199483 0.2357199094212839 0 0.25452501640087027 0.2374112721999547 0 0.2392512687495113 0.23539683186585869 0 0.24523436150048811 0.24199469982198529 0 0.2471090749199483 0.2357199094212839 0 0.24523436150048811 0.24199469982198529 0 0.23995652529561701 0.25039133628829258 0 0.25404003316197471 0.25208422786308371 0 0.23652425047500741 0.24096462129343871 0 0.24523436150048811 0.24199469982198529 0 0.23995652529561701 0.25039133628829258 0 0.23652425047500741 0.24096462129343871 0 0.23169913173193779 0.25404958449575432 0 0.23995652529561701 0.25039133628829258 0 0.23369101455560959 0.23545012385447089 0 0.2170338530129477 0.25958452376210089 0 0.21458810326103989 0.25029177234766842 0 0.23408043491912681 0.23335190051361199 0 0.23369101455560959 0.23545012385447089 0 0.21458810326103989 0.25029177234766842 0 0.23408043491912681 0.23335190051361199 0 0.21458810326103989 0.25029177234766842 0 0.2245441737887168 0.23093760545441711 0 0.21458810326103989 0.25029177234766842 0 0.23408043491912681 0.23335190051361199 0 0.2258394828391487 0.23585902185418811 0 0.21458810326103989 0.25029177234766842 0 0.23369101455560959 0.23545012385447089 0 0.2170338530129477 0.25958452376210089 0 0.23169913173193779 0.25404958449575432 0 0.23652425047500741 0.24096462129343871 0 0.23369101455560959 0.23545012385447089 0 0.23169913173193779 0.25404958449575432 0 0.23369101455560959 0.23545012385447089 0 0.2170338530129477 0.25958452376210089 0 0.2245441737887168 0.23093760545441711 0 0.2258394828391487 0.23585902185418811 0 0.21458810326103989 0.25029177234766842 0 0.2074718948020329 0.13931593166829101 0 0.2035930282546865 0.1573108976369578 0 0.22801201431925219 0.15227861461809999 0 0.2074718948020329 0.13931593166829101 0 0.22815060196587239 0.13250420183309389 0 0.2202182220460269 0.1181723145221887 0 0.2074718948020329 0.13931593166829101 0 0.2202182220460269 0.1181723145221887 0 0.19370351113240411 0.1202502215829211 0 0.18154761934540289 0.13534417850528041 0 0.2074718948020329 0.13931593166829101 0 0.19370351113240411 0.1202502215829211 0 0.1832181015668064 0.15465227861531949 0 0.2074718948020329 0.13931593166829101 0 0.1832181015668064 0.15465227861531949 0 0.18154761934540289 0.13534417850528041 0 0.2074718948020329 0.13931593166829101 0 0.1832181015668064 0.15465227861531949 0 0.2074718948020329 0.13931593166829101 0 0.2035930282546865 0.1573108976369578 0 0.1832181015668064 0.15465227861531949 0 0.1915320106228488 0.17262237876131631 0 0.2035930282546865 0.1573108976369578 0 0.1915320106228488 0.17262237876131631 0 0.21309098299550949 0.1707274381193544 0 0.2035930282546865 0.1573108976369578 0 0.19943196450540629 0.19077826793543179 0 0.1915320106228488 0.17262237876131631 0 0.21309098299550949 0.1707274381193544 0 0.17803712215301101 0.18711146321258301 0 0.19943196450540629 0.19077826793543179 0 0.1915320106228488 0.17262237876131631 0 0.19943196450540629 0.19077826793543179 0 0.22082680685780151 0.19444507265828059 0 0.21309098299550949 0.1707274381193544 0 0.21309098299550949 0.1707274381193544 0 0.2035930282546865 0.1573108976369578 0 0.22801201431925219 0.15227861461809999 0 0.2298041727050075 0.1787595393801808 0 0.2424223085377801 0.16582077205563811 0 0.22801201431925219 0.15227861461809999 0 0.21309098299550949 0.1707274381193544 0 0.2298041727050075 0.1787595393801808 0 0.22801201431925219 0.15227861461809999 0 0.22082680685780151 0.19444507265828059 0 0.21309098299550949 0.1707274381193544 0 0.2298041727050075 0.1787595393801808 0 0.2418323282778008 0.1922485172988235 0 0.2424223085377801 0.16582077205563811 0 0.2418323282778008 0.1922485172988235 0 0.2424223085377801 0.16582077205563811 0 0.26032431562704572 0.18342712708893841 0 0.2418323282778008 0.1922485172988235 0 0.2298041727050075 0.1787595393801808 0 0.2424223085377801 0.16582077205563811 0 0.2424223085377801 0.16582077205563811 0 0.24301228879775941 0.13939302681245261 0 0.2424223085377801 0.16582077205563811 0 0.24301228879775941 0.13939302681245261 0 0.25486404381895789 0.1523024957907583 0 0.22801201431925219 0.15227861461809999 0 0.23648687609860089 0.13476882232929049 0 0.24301228879775941 0.13939302681245261 0 0.2424223085377801 0.16582077205563811 0 0.22801201431925219 0.15227861461809999 0 0.24301228879775941 0.13939302681245261 0 0.2074718948020329 0.13931593166829101 0 0.22801201431925219 0.15227861461809999 0 0.22815060196587239 0.13250420183309389 0 0.22815060196587239 0.13250420183309389 0 0.24420216851797599 0.1292372680552665 0 0.2202182220460269 0.1181723145221887 0 0.22801201431925219 0.15227861461809999 0 0.22815060196587239 0.13250420183309389 0 0.23648687609860089 0.13476882232929049 0 0.22815060196587239 0.13250420183309389 0 0.23648687609860089 0.13476882232929049 0 0.24420216851797599 0.1292372680552665 0 0.23648687609860089 0.13476882232929049 0 0.24301228879775941 0.13939302681245261 0 0.24420216851797599 0.1292372680552665 0 0.24646482385440791 0.1109165710353929 0 0.23770217468454991 0.11680213067385049 0 0.255186127323073 0.11543194682551421 0 0.24420216851797599 0.1292372680552665 0 0.23770217468454991 0.11680213067385049 0 0.255186127323073 0.11543194682551421 0 0.23770217468454991 0.11680213067385049 0 0.255186127323073 0.11543194682551421 0 0.23770217468454991 0.11680213067385049 0 0.24055722746134861 0.1095612663226197 0 0.23538797832625211 0.10692464088038291 0 0.24646482385440791 0.1109165710353929 0 0.23770217468454991 0.11680213067385049 0 0.24055722746134861 0.1095612663226197 0 0.24174744587836799 0.1033548466348798 0 0.22816008327650389 0.097918375238235045 0 0.24736227196270541 0.090270970101712061 0 0.22816008327650389 0.097918375238235045 0 0.24736227196270541 0.090270970101712061 0 0.24174744587836799 0.1033548466348798 0 0.24736227196270541 0.090270970101712061 0 0.25459763100830068 0.096141582858552177 0 0.24174744587836799 0.1033548466348798 0 0.25459763100830068 0.096141582858552177 0 0.24646482385440791 0.1109165710353929 0 0.24174744587836799 0.1033548466348798 0 0.25655208948606423 0.10927836717886751 0 0.24174744587836799 0.1033548466348798 0 0.25655208948606423 0.10927836717886751 0 0.24646482385440791 0.1109165710353929 0 0.24055722746134861 0.1095612663226197 0 0.24174744587836799 0.1033548466348798 0 0.23538797832625211 0.10692464088038291 0 0.24174744587836799 0.1033548466348798 0 0.22816008327650389 0.097918375238235045 0 0.24055722746134861 0.1095612663226197 0 0.23538797832625211 0.10692464088038291 0 0.24174744587836799 0.1033548466348798 0 0.23538797832625211 0.10692464088038291 0 0.24174744587836799 0.1033548466348798 0 0.24174744587836799 0.1033548466348798 0 0.22816008327650389 0.097918375238235045 0 0.23538797832625211 0.10692464088038291 0 0.22816008327650389 0.097918375238235045 0 0.22436085098549791 0.1097634104313145 0 0.23770217468454991 0.11680213067385049 0 0.2202182220460269 0.1181723145221887 0 0.23770217468454991 0.11680213067385049 0 0.2202182220460269 0.1181723145221887 0 0.22436085098549791 0.1097634104313145 0 0.24420216851797599 0.1292372680552665 0 0.23770217468454991 0.11680213067385049 0 0.2202182220460269 0.1181723145221887 0 0.24420216851797599 0.1292372680552665 0 0.2202182220460269 0.1181723145221887 0 0.23770217468454991 0.11680213067385049 0 0.23538797832625211 0.10692464088038291 0 0.22436085098549791 0.1097634104313145 0 0.2202182220460269 0.1181723145221887 0 0.20033579659415629 0.10899959084191641 0 0.19370351113240411 0.1202502215829211 0 0.2202182220460269 0.1181723145221887 0 0.20033579659415629 0.10899959084191641 0 0.2202182220460269 0.1181723145221887 0 0.19370351113240411 0.1202502215829211 0 0.2202182220460269 0.1181723145221887 0 0.22436085098549791 0.1097634104313145 0 0.20033579659415629 0.10899959084191641 0 0.22816008327650389 0.097918375238235045 0 0.22436085098549791 0.1097634104313145 0 0.20033579659415629 0.10899959084191641 0 0.22816008327650389 0.097918375238235045 0 0.20033579659415629 0.10899959084191641 0 0.2016134769563831 0.087296750559026068 0 0.22816008327650389 0.097918375238235045 0 0.20033579659415629 0.10899959084191641 0 0.20033579659415629 0.10899959084191641 0 0.18422746814952201 0.1154148446289336 0 0.1860496622757298 0.1024087067025775 0 0.20033579659415629 0.10899959084191641 0 0.2016134769563831 0.087296750559026068 0 0.1860496622757298 0.1024087067025775 0 0.20033579659415629 0.10899959084191641 0 0.1860496622757298 0.1024087067025775 0 0.20033579659415629 0.10899959084191641 0 0.19370351113240411 0.1202502215829211 0 0.18422746814952201 0.1154148446289336 0 0.20033579659415629 0.10899959084191641 0 0.18422746814952201 0.1154148446289336 0 0.19220101611619109 0.069455466931817506 0 0.2016134769563831 0.087296750559026068 0 0.22553753830923129 0.072562856517635971 0 0.19220101611619109 0.069455466931817506 0 0.22553753830923129 0.072562856517635971 0 0.20371280465575431 0.054854742933563613 0 0.19220101611619109 0.069455466931817506 0 0.2016134769563831 0.087296750559026068 0 0.17506687063626211 0.076675125879817507 0 0.2016134769563831 0.087296750559026068 0 0.17506687063626211 0.076675125879817507 0 0.2016134769563831 0.087296750559026068 0 0.1860496622757298 0.1024087067025775 0 0.17954517331912459 0.085943521096986275 0 0.22816008327650389 0.097918375238235045 0 0.2016134769563831 0.087296750559026068 0 0.22553753830923129 0.072562856517635971 0 0.22816008327650389 0.097918375238235045 0 0.2016134769563831 0.087296750559026068 0 0.22553753830923129 0.072562856517635971 0 0.20371280465575431 0.054854742933563613 0 0.22816008327650389 0.097918375238235045 0 0.22553753830923129 0.072562856517635971 0 0.24736227196270541 0.090270970101712061 0 0.22553753830923129 0.072562856517635971 0 0.24736227196270541 0.090270970101712061 0 0.22553753830923129 0.072562856517635971 0 0.24736227196270541 0.090270970101712061 0 0.24874122334595 0.07170785510379532 0 0.22553753830923129 0.072562856517635971 0 0.24874122334595 0.07170785510379532 0 0.24629062771517271 0.052820950830226497 0 0.24629062771517271 0.052820950830226497 0 0.22540450977275331 0.044226989078737088 0 0.24629062771517271 0.052820950830226497 0 0.2492733855269578 0.041579555173777823 0 0.22540450977275331 0.044226989078737088 0 0.2492733855269578 0.041579555173777823 0 0.23050941707716249 0.025621187905106171 0 0.2492733855269578 0.041579555173777823 0 0.22540450977275331 0.044226989078737088 0 0.23050941707716249 0.025621187905106171 0 0.22540450977275331 0.044226989078737088 0 0.23050941707716249 0.025621187905106171 0 0.21805144048265651 0.031797176764528597 0 0.22553753830923129 0.072562856517635971 0 0.24629062771517271 0.052820950830226497 0 0.22540450977275331 0.044226989078737088 0 0.23790413247208811 0.0091049515404343275 0 0.25322369798355371 0.0032948183560677501 0 0.2464198669495459 -0.012097030270161889 0 0.23790413247208811 0.0091049515404343275 0 0.25442723867738032 0.016379625870619269 0 0.25322369798355371 0.0032948183560677501 0 0.2492733855269578 0.041579555173777823 0 0.24818833723327199 0.02644705719899533 0 0.23050941707716249 0.025621187905106171 0 0.23790413247208811 0.0091049515404343275 0 0.24818833723327199 0.02644705719899533 0 0.25442723867738032 0.016379625870619269 0 0.23790413247208811 0.0091049515404343275 0 0.24818833723327199 0.02644705719899533 0 0.23050941707716249 0.025621187905106171 0 0.23050941707716249 0.025621187905106171 0 0.2117734432503762 0.02170750274702346 0 0.21805144048265651 0.031797176764528597 0 0.23050941707716249 0.025621187905106171 0 0.21174544862736719 0.0096628206364345465 0 0.23050941707716249 0.025621187905106171 0 0.22518260227175371 0.0072623370788317187 0 0.21174544862736719 0.0096628206364345465 0 0.23790413247208811 0.0091049515404343275 0 0.22518260227175371 0.0072623370788317187 0 0.2300866381754704 -0.0072438550720441714 0 0.23790413247208811 0.0091049515404343275 0 0.23050941707716249 0.025621187905106171 0 0.22518260227175371 0.0072623370788317187 0 0.21174544862736719 0.0096628206364345465 0 0.2117734432503762 0.02170750274702346 0 0.20589386385567829 -0.0063134785331596111 0 0.2117734432503762 0.02170750274702346 0 0.19985428483697371 0.01027601627170664 0 0.20589386385567829 -0.0063134785331596111 0 0.2117734432503762 0.02170750274702346 0 0.20589386385567829 -0.0063134785331596111 0 0.22518260227175371 0.0072623370788317187 0 0.21174544862736719 0.0096628206364345465 0 0.2185782736923042 -0.0038367730406402641 0 0.23050941707716249 0.025621187905106171 0 0.21174544862736719 0.0096628206364345465 0 0.2117734432503762 0.02170750274702346 0 0.2117734432503762 0.02170750274702346 0 0.19994459845139961 0.023663902980434019 0 0.19985428483697371 0.01027601627170664 0 0.2117734432503762 0.02170750274702346 0 0.21805144048265651 0.031797176764528597 0 0.20451839183033399 0.035633027327247678 0 0.2117734432503762 0.02170750274702346 0 0.19994459845139961 0.023663902980434019 0 0.20451839183033399 0.035633027327247678 0 0.19994459845139961 0.023663902980434019 0 0.20451839183033399 0.035633027327247678 0 0.1836322738879155 0.027039065575756291 0 0.19994459845139961 0.023663902980434019 0 0.19985428483697371 0.01027601627170664 0 0.1836322738879155 0.027039065575756291 0 0.19985428483697371 0.01027601627170664 0 0.20589386385567829 -0.0063134785331596111 0 0.18863989258252481 -0.001979820774580698 0 0.19985428483697371 0.01027601627170664 0 0.1836322738879155 0.027039065575756291 0 0.18863989258252481 -0.001979820774580698 0 0.22553753830923129 0.072562856517635971 0 0.22540450977275331 0.044226989078737088 0 0.20371280465575431 0.054854742933563613 0 0.22540450977275331 0.044226989078737088 0 0.20451839183033399 0.035633027327247678 0 0.22540450977275331 0.044226989078737088 0 0.21805144048265651 0.031797176764528597 0 0.20451839183033399 0.035633027327247678 0 0.22540450977275331 0.044226989078737088 0 0.20371280465575431 0.054854742933563613 0 0.20451839183033399 0.035633027327247678 0 0.20451839183033399 0.035633027327247678 0 0.1818880710022803 0.03714662934948755 0 0.1836322738879155 0.027039065575756291 0 0.20371280465575431 0.054854742933563613 0 0.20451839183033399 0.035633027327247678 0 0.1818880710022803 0.03714662934948755 0 0.20371280465575431 0.054854742933563613 0 0.1818880710022803 0.03714662934948755 0 0.20451839183033399 0.035633027327247678 0 0.1836322738879155 0.027039065575756291 0 0.20371280465575431 0.054854742933563613 0 0.17847747081927551 0.05691087761465332 0 0.1818880710022803 0.03714662934948755 0 0.19220101611619109 0.069455466931817506 0 0.20371280465575431 0.054854742933563613 0 0.17847747081927551 0.05691087761465332 0 0.17847747081927551 0.05691087761465332 0 0.1818880710022803 0.03714662934948755 0 0.17847747081927551 0.05691087761465332 0 0.1818880710022803 0.03714662934948755 0 0.1636569447874848 0.036789081642687432 0 0.1818880710022803 0.03714662934948755 0 0.1836322738879155 0.027039065575756291 0 0.1818880710022803 0.03714662934948755 0 0.1636569447874848 0.036789081642687432 0 0.1620242678869008 0.02102957209859084 0 0.17847747081927551 0.05691087761465332 0 0.1636569447874848 0.036789081642687432 0 0.15962551614652079 0.053115759904931073 0 0.17847747081927551 0.05691087761465332 0 0.15962551614652079 0.053115759904931073 0 0.16641746421004469 0.065589342706300277 0 0.15962551614652079 0.053115759904931073 0 0.15045482833334159 0.067212260357143019 0 0.16641746421004469 0.065589342706300277 0 0.1716695151525548 0.011722155214289249 0 0.17506184651935949 -0.0021247232161890161 0 0.18863989258252481 -0.001979820774580698 0 0.1836322738879155 0.027039065575756291 0 0.18863989258252481 -0.001979820774580698 0 0.1836322738879155 0.027039065575756291 0 0.1716695151525548 0.011722155214289249 0 0.18863989258252481 -0.001979820774580698 0 0.1818880710022803 0.03714662934948755 0 0.1730573255808272 0.02268781650565178 0 0.1620242678869008 0.02102957209859084 0 0.1818880710022803 0.03714662934948755 0 0.1620242678869008 0.02102957209859084 0 0.1730573255808272 0.02268781650565178 0 0.1836322738879155 0.027039065575756291 0 0.1716695151525548 0.011722155214289249 0 0.1730573255808272 0.02268781650565178 0 0.1836322738879155 0.027039065575756291 0 0.1818880710022803 0.03714662934948755 0 0.1730573255808272 0.02268781650565178 0 0.1836322738879155 0.027039065575756291 0 0.1636569447874848 0.036789081642687432 0 0.1620242678869008 0.02102957209859084 0 0.15032019737810451 0.03113296745297477 0 0.1730573255808272 0.02268781650565178 0 0.1620242678869008 0.02102957209859084 0 0.1716695151525548 0.011722155214289249 0 0.1620242678869008 0.02102957209859084 0 0.1716695151525548 0.011722155214289249 0 0.15871689523486121 0.010399441389301141 0 0.1716695151525548 0.011722155214289249 0 0.15871689523486121 0.010399441389301141 0 0.1628037813635097 0.0015330777282007481 0 0.15871689523486121 0.010399441389301141 0 0.1628037813635097 0.0015330777282007481 0 0.15453230216132671 0.0032055715019124438 0 0.1716695151525548 0.011722155214289249 0 0.1628037813635097 0.0015330777282007481 0 0.17506184651935949 -0.0021247232161890161 0 0.1620242678869008 0.02102957209859084 0 0.14216046477152491 0.0049125148476896544 0 0.15871689523486121 0.010399441389301141 0 0.14216046477152491 0.0049125148476896544 0 0.15453230216132671 0.0032055715019124438 0 0.14216046477152491 0.0049125148476896544 0 0.15453230216132671 0.0032055715019124438 0 0.15849764294065671 -0.0060544572746906826 0 0.1620242678869008 0.02102957209859084 0 0.15871689523486121 0.010399441389301141 0 0.14216046477152491 0.0049125148476896544 0 0.1620242678869008 0.02102957209859084 0 0.14216046477152491 0.0049125148476896544 0 0.1432298655490542 0.02239521632663263 0 0.1620242678869008 0.02102957209859084 0 0.1432298655490542 0.02239521632663263 0 0.15032019737810451 0.03113296745297477 0 0.1432298655490542 0.02239521632663263 0 0.15032019737810451 0.03113296745297477 0 0.1366405524080008 0.032741533152345258 0 0.1432298655490542 0.02239521632663263 0 0.12659142849079691 0.028091664155532971 0 0.1366405524080008 0.032741533152345258 0 0.14216046477152491 0.0049125148476896544 0 0.1432298655490542 0.02239521632663263 0 0.12659142849079691 0.028091664155532971 0 0.14216046477152491 0.0049125148476896544 0 0.12659142849079691 0.028091664155532971 0 0.1323442420055404 0.014884056975098 0 0.14216046477152491 0.0049125148476896544 0 0.12659142849079691 0.028091664155532971 0 0.11882011836095251 0.0065886106746579649 0 0.12659142849079691 0.028091664155532971 0 0.1323442420055404 0.014884056975098 0 0.12659142849079691 0.028091664155532971 0 0.1366405524080008 0.032741533152345258 0 0.11882011836095251 0.0065886106746579649 0 0.1323442420055404 0.014884056975098 0 0.13735218555535891 0.001011181807127467 0 0.1323442420055404 0.014884056975098 0 0.13735218555535891 0.001011181807127467 0 0.14216046477152491 0.0049125148476896544 0 0.1323442420055404 0.014884056975098 0 0.13735218555535891 0.001011181807127467 0 0.14216046477152491 0.0049125148476896544 0 0.13735218555535891 0.001011181807127467 0 0.15962551614652079 0.053115759904931073 0 0.1452456698728295 0.044396077507560729 0 0.15045482833334159 0.067212260357143019 0 0.1452456698728295 0.044396077507560729 0 0.12683439495817461 0.052003073372435288 0 0.15045482833334159 0.067212260357143019 0 0.1636569447874848 0.036789081642687432 0 0.15032019737810451 0.03113296745297477 0 0.1452456698728295 0.044396077507560729 0 0.1636569447874848 0.036789081642687432 0 0.15962551614652079 0.053115759904931073 0 0.1452456698728295 0.044396077507560729 0 0.1636569447874848 0.036789081642687432 0 0.1452456698728295 0.044396077507560729 0 0.15032019737810451 0.03113296745297477 0 0.1452456698728295 0.044396077507560729 0 0.1366405524080008 0.032741533152345258 0 0.1452456698728295 0.044396077507560729 0 0.13015300311198849 0.040381385354086502 0 0.12683439495817461 0.052003073372435288 0 0.1452456698728295 0.044396077507560729 0 0.1366405524080008 0.032741533152345258 0 0.13015300311198849 0.040381385354086502 0 0.12659142849079691 0.028091664155532971 0 0.1366405524080008 0.032741533152345258 0 0.13015300311198849 0.040381385354086502 0 0.12683439495817461 0.052003073372435288 0 0.13134854049252651 0.064566646620811727 0 0.15045482833334159 0.067212260357143019 0 0.1452456698728295 0.044396077507560729 0 0.12683439495817461 0.052003073372435288 0 0.12683439495817461 0.052003073372435288 0 0.15045482833334159 0.067212260357143019 0 0.1213053233293625 0.063977455960140386 0 0.12683439495817461 0.052003073372435288 0 0.13134854049252651 0.064566646620811727 0 0.13134854049252651 0.064566646620811727 0 0.12679961534922851 0.075073796793526271 0 0.15045482833334159 0.067212260357143019 0 0.1213053233293625 0.063977455960140386 0 0.13134854049252651 0.064566646620811727 0 0.12679961534922851 0.075073796793526271 0 0.12679961534922851 0.075073796793526271 0 0.15045482833334159 0.067212260357143019 0 0.1492815716532653 0.085445809678383625 0 0.1185648575779607 0.095458187827811403 0 0.12679961534922851 0.075073796793526271 0 0.13332649773741079 0.089989738391902788 0 0.1492815716532653 0.085445809678383625 0 0.13332649773741079 0.089989738391902788 0 0.13865994636918871 0.10398115926788989 0 0.12679961534922851 0.075073796793526271 0 0.1492815716532653 0.085445809678383625 0 0.12679961534922851 0.075073796793526271 0 0.1492815716532653 0.085445809678383625 0 0.13332649773741079 0.089989738391902788 0 0.123281054128593 0.11724462113534739 0 0.1185648575779607 0.095458187827811403 0 0.13865994636918871 0.10398115926788989 0 0.1185648575779607 0.095458187827811403 0 0.13332649773741079 0.089989738391902788 0 0.13865994636918871 0.10398115926788989 0 0.123281054128593 0.11724462113534739 0 0.13865994636918871 0.10398115926788989 0 0.13947052033133081 0.1245003570974072 0 0.13947052033133081 0.1245003570974072 0 0.15026369300765779 0.1129544164764977 0 0.16718880021878149 0.12232812864365609 0 0.13947052033133081 0.1245003570974072 0 0.16718880021878149 0.12232812864365609 0 0.13865994636918871 0.10398115926788989 0 0.13947052033133081 0.1245003570974072 0 0.15026369300765779 0.1129544164764977 0 0.1492815716532653 0.085445809678383625 0 0.13865994636918871 0.10398115926788989 0 0.15573550511132991 0.1010080208970377 0 0.13865994636918871 0.10398115926788989 0 0.15026369300765779 0.1129544164764977 0 0.15573550511132991 0.1010080208970377 0 0.15573550511132991 0.1010080208970377 0 0.17176352795730221 0.095817822563241214 0 0.16718880021878149 0.12232812864365609 0 0.17176352795730221 0.095817822563241214 0 0.16718880021878149 0.12232812864365609 0 0.1492815716532653 0.085445809678383625 0 0.15573550511132991 0.1010080208970377 0 0.17176352795730221 0.095817822563241214 0 0.15026369300765779 0.1129544164764977 0 0.15573550511132991 0.1010080208970377 0 0.16718880021878149 0.12232812864365609 0 0.16718880021878149 0.12232812864365609 0 0.18422746814952201 0.1154148446289336 0 0.17176352795730221 0.095817822563241214 0 0.16718880021878149 0.12232812864365609 0 0.18422746814952201 0.1154148446289336 0 0.19370351113240411 0.1202502215829211 0 0.16718880021878149 0.12232812864365609 0 0.19370351113240411 0.1202502215829211 0 0.16718880021878149 0.12232812864365609 0 0.18422746814952201 0.1154148446289336 0 0.17176352795730221 0.095817822563241214 0 0.18422746814952201 0.1154148446289336 0 0.1860496622757298 0.1024087067025775 0 0.17176352795730221 0.095817822563241214 0 0.1860496622757298 0.1024087067025775 0 0.17954517331912459 0.085943521096986275 0 0.17176352795730221 0.095817822563241214 0 0.1860496622757298 0.1024087067025775 0 0.2016134769563831 0.087296750559026068 0 0.17954517331912459 0.085943521096986275 0 0.17506687063626211 0.076675125879817507 0 0.17176352795730221 0.095817822563241214 0 0.17407526170850959 0.082421447341849294 0 0.17176352795730221 0.095817822563241214 0 0.17954517331912459 0.085943521096986275 0 0.17407526170850959 0.082421447341849294 0 0.17954517331912459 0.085943521096986275 0 0.17407526170850959 0.082421447341849294 0 0.17506687063626211 0.076675125879817507 0 0.17407526170850959 0.082421447341849294 0 0.17506687063626211 0.076675125879817507 0 0.17954517331912459 0.085943521096986275 0 0.17407526170850959 0.082421447341849294 0 0.17847747081927551 0.05691087761465332 0 0.17506687063626211 0.076675125879817507 0 0.19220101611619109 0.069455466931817506 0 0.17847747081927551 0.05691087761465332 0 0.17506687063626211 0.076675125879817507 0 0.17847747081927551 0.05691087761465332 0 0.17506687063626211 0.076675125879817507 0 0.16641746421004469 0.065589342706300277 0 0.17407526170850959 0.082421447341849294 0 0.17506687063626211 0.076675125879817507 0 0.16846263511482451 0.074032689774956653 0 0.15045482833334159 0.067212260357143019 0 0.16846263511482451 0.074032689774956653 0 0.16641746421004469 0.065589342706300277 0 0.17506687063626211 0.076675125879817507 0 0.16846263511482451 0.074032689774956653 0 0.16641746421004469 0.065589342706300277 0 0.15045482833334159 0.067212260357143019 0 0.17407526170850959 0.082421447341849294 0 0.16846263511482451 0.074032689774956653 0 0.17506687063626211 0.076675125879817507 0 0.16846263511482451 0.074032689774956653 0 0.15045482833334159 0.067212260357143019 0 0.17407526170850959 0.082421447341849294 0 0.1492815716532653 0.085445809678383625 0 0.17176352795730221 0.095817822563241214 0 0.1492815716532653 0.085445809678383625 0 0.17176352795730221 0.095817822563241214 0 0.17407526170850959 0.082421447341849294 0 0.15045482833334159 0.067212260357143019 0 0.1492815716532653 0.085445809678383625 0 0.17407526170850959 0.082421447341849294 0 0.094789198081262169 0.47221984895451657 0 0.09870107108427445 0.5 0 0.1248616532684987 0.47476888169724352 0 0.09870107108427445 0.5 0 0.1248616532684987 0.47476888169724352 0 0.1287333349596296 0.50000000000000233 0 0.1248616532684987 0.47476888169724352 0 0.1154926134483955 0.45328817880533262 0 0.094789198081262169 0.47221984895451657 0 0.1248616532684987 0.47476888169724352 0 0.1154926134483955 0.45328817880533262 0 0.1248616532684987 0.47476888169724352 0 0.1205619018159948 0.44674810255646558 0 0.1248616532684987 0.47476888169724352 0 0.1154926134483955 0.45328817880533262 0 0.1205619018159948 0.44674810255646558 0 0.1154926134483955 0.45328817880533262 0 0.106123573628292 0.43180747591342172 0 0.1154926134483955 0.45328817880533262 0 0.1205619018159948 0.44674810255646558 0 0.106123573628292 0.43180747591342172 0 0.1154926134483955 0.45328817880533262 0 0.096722182691352548 0.44869154901932268 0 0.106123573628292 0.43180747591342172 0 0.094789198081262169 0.47221984895451657 0 0.1154926134483955 0.45328817880533262 0 0.096722182691352548 0.44869154901932268 0 0.094789198081262169 0.47221984895451657 0 0.077453222292990773 0.45016302493177879 0 0.067202034968243438 0.47028323083424428 0 0.094789198081262169 0.47221984895451657 0 0.096722182691352548 0.44869154901932268 0 0.077453222292990773 0.45016302493177879 0 0.096722182691352548 0.44869154901932268 0 0.077453222292990773 0.45016302493177879 0 0.085233479690329184 0.42595657570789891 0 0.077453222292990773 0.45016302493177879 0 0.085233479690329184 0.42595657570789891 0 0.077453222292990773 0.45016302493177879 0 0.055846149836862702 0.43889490050586683 0 0.065639666334966471 0.42409002317344818 0 0.077453222292990773 0.45016302493177879 0 0.067202034968243438 0.47028323083424428 0 0.051776939420019832 0.45519588853091181 0 0.094789198081262169 0.47221984895451657 0 0.067202034968243438 0.47028323083424428 0 0.068668807208919325 0.5 0 0.094789198081262169 0.47221984895451657 0 0.09870107108427445 0.5 0 0.068668807208919325 0.5 0 0.068668807208919325 0.5 0 0.043814234576468783 0.4752156274217324 0 0.038636543333564137 0.5 0 0.067202034968243438 0.47028323083424428 0 0.068668807208919325 0.5 0 0.043814234576468783 0.4752156274217324 0 0.038636543333564137 0.5 0 0.0095498935665802413 0.47810272379952351 0 0.0086042794582089632 0.5 0 0.043814234576468783 0.4752156274217324 0 0.038636543333564137 0.5 0 0.0095498935665802413 0.47810272379952351 0 0.043814234576468783 0.4752156274217324 0 0.0095498935665802413 0.47810272379952351 0 0.02936257191825143 0.45548825099001988 0 -0.0044763741368290672 0.43313315307665529 0 0.006403582431216831 0.45126676372832991 0 0.01131617767293759 0.43066417693356068 0 0.006403582431216831 0.45126676372832991 0 0.024585063983693121 0.43937755350337049 0 0.01131617767293759 0.43066417693356068 0 -0.0062093312902834459 0.46527566221073008 0 0.0095498935665802413 0.47810272379952351 0 0.006403582431216831 0.45126676372832991 0 0.0095498935665802413 0.47810272379952351 0 0.006403582431216831 0.45126676372832991 0 0.02936257191825143 0.45548825099001988 0 0.02936257191825143 0.45548825099001988 0 0.024585063983693121 0.43937755350337049 0 0.039439570502417587 0.44016889882154447 0 0.006403582431216831 0.45126676372832991 0 0.02936257191825143 0.45548825099001988 0 0.024585063983693121 0.43937755350337049 0 0.02936257191825143 0.45548825099001988 0 0.039439570502417587 0.44016889882154447 0 0.051776939420019832 0.45519588853091181 0 0.043814234576468783 0.4752156274217324 0 0.02936257191825143 0.45548825099001988 0 0.051776939420019832 0.45519588853091181 0 0.067202034968243438 0.47028323083424428 0 0.043814234576468783 0.4752156274217324 0 0.051776939420019832 0.45519588853091181 0 0.039439570502417587 0.44016889882154447 0 0.051776939420019832 0.45519588853091181 0 0.055846149836862702 0.43889490050586683 0 0.077453222292990773 0.45016302493177879 0 0.051776939420019832 0.45519588853091181 0 0.055846149836862702 0.43889490050586683 0 0.055846149836862702 0.43889490050586683 0 0.044352211855280779 0.42435697566478181 0 0.065639666334966471 0.42409002317344818 0 0.054179592762823331 0.4124556941646933 0 0.065774511826563423 0.40583773171119408 0 0.065639666334966471 0.42409002317344818 0 0.054179592762823331 0.4124556941646933 0 0.044352211855280779 0.42435697566478181 0 0.042551786202842029 0.40583695196884878 0 0.054179592762823331 0.4124556941646933 0 0.044352211855280779 0.42435697566478181 0 0.065639666334966471 0.42409002317344818 0 0.054179592762823331 0.4124556941646933 0 0.052579787594463898 0.40215678830519391 0 0.065774511826563423 0.40583773171119408 0 0.054179592762823331 0.4124556941646933 0 0.042551786202842029 0.40583695196884878 0 0.052579787594463898 0.40215678830519391 0 0.031615607723292562 0.41237007764590089 0 0.044352211855280779 0.42435697566478181 0 0.042551786202842029 0.40583695196884878 0 0.031615607723292562 0.41237007764590089 0 0.044352211855280779 0.42435697566478181 0 0.029348552931666359 0.42650056435783129 0 0.039439570502417587 0.44016889882154447 0 0.055846149836862702 0.43889490050586683 0 0.044352211855280779 0.42435697566478181 0 0.039439570502417587 0.44016889882154447 0 0.044352211855280779 0.42435697566478181 0 0.029348552931666359 0.42650056435783129 0 0.024585063983693121 0.43937755350337049 0 0.039439570502417587 0.44016889882154447 0 0.029348552931666359 0.42650056435783129 0 0.024585063983693121 0.43937755350337049 0 0.029348552931666359 0.42650056435783129 0 0.01131617767293759 0.43066417693356068 0 0.029348552931666359 0.42650056435783129 0 0.019479081626689841 0.41692126840220728 0 0.01131617767293759 0.43066417693356068 0 0.031615607723292562 0.41237007764590089 0 0.029348552931666359 0.42650056435783129 0 0.019479081626689841 0.41692126840220728 0 0.031615607723292562 0.41237007764590089 0 0.019479081626689841 0.41692126840220728 0 0.02210553341445062 0.40298972327242938 0 0.019479081626689841 0.41692126840220728 0 0.0046995574085186929 0.41194005205042061 0 0.02210553341445062 0.40298972327242938 0 0.019479081626689841 0.41692126840220728 0 0.0046995574085186929 0.41194005205042061 0 0.01131617767293759 0.43066417693356068 0 -0.0044763741368290672 0.43313315307665529 0 0.0046995574085186929 0.41194005205042061 0 0.01131617767293759 0.43066417693356068 0 -0.0068648610501423502 0.39382000907293813 0 0.0053185270157129726 0.37689571945341471 0 0.0079727676898529512 0.39395805239723503 0 0.0053185270157129726 0.37689571945341471 0 0.0079727676898529512 0.39395805239723503 0 0.017055050774382831 0.3783760363496293 0 0.0053185270157129726 0.37689571945341471 0 0.017055050774382831 0.3783760363496293 0 0.014905446519761849 0.37011919055753012 0 -0.0068648610501423502 0.39382000907293813 0 0.0046995574085186929 0.41194005205042061 0 0.0079727676898529512 0.39395805239723503 0 0.0046995574085186929 0.41194005205042061 0 0.0079727676898529512 0.39395805239723503 0 0.02210553341445062 0.40298972327242938 0 0.0079727676898529512 0.39395805239723503 0 0.02210553341445062 0.40298972327242938 0 0.02735486101880703 0.39232044610694311 0 0.031615607723292562 0.41237007764590089 0 0.02210553341445062 0.40298972327242938 0 0.03492587150599015 0.39714318271575322 0 0.02210553341445062 0.40298972327242938 0 0.02735486101880703 0.39232044610694311 0 0.03492587150599015 0.39714318271575322 0 0.0079727676898529512 0.39395805239723503 0 0.02735486101880703 0.39232044610694311 0 0.033420514628485373 0.38302977191180709 0 0.017055050774382831 0.3783760363496293 0 0.033420514628485373 0.38302977191180709 0 0.023779055828078009 0.37097747554075361 0 0.0079727676898529512 0.39395805239723503 0 0.017055050774382831 0.3783760363496293 0 0.033420514628485373 0.38302977191180709 0 0.0079727676898529512 0.39395805239723503 0 0.033420514628485373 0.38302977191180709 0 0.02735486101880703 0.39232044610694311 0 0.032859848824407727 0.38560668074253002 0 0.033420514628485373 0.38302977191180709 0 0.02735486101880703 0.39232044610694311 0 0.032859848824407727 0.38560668074253002 0 0.032844630049655758 0.3911952656019041 0 0.033420514628485373 0.38302977191180709 0 0.040531910439000007 0.38820627445006711 0 0.055078026168592691 0.37372917012189599 0 0.033420514628485373 0.38302977191180709 0 0.055078026168592691 0.37372917012189599 0 0.032859848824407727 0.38560668074253002 0 0.033420514628485373 0.38302977191180709 0 0.032859848824407727 0.38560668074253002 0 0.040531910439000007 0.38820627445006711 0 0.032844630049655758 0.3911952656019041 0 0.032859848824407727 0.38560668074253002 0 0.033420514628485373 0.38302977191180709 0 0.040531910439000007 0.38820627445006711 0 0.031615607723292562 0.41237007764590089 0 0.03492587150599015 0.39714318271575322 0 0.042551786202842029 0.40583695196884878 0 0.040531910439000007 0.38820627445006711 0 0.03492587150599015 0.39714318271575322 0 0.032844630049655758 0.3911952656019041 0 0.02735486101880703 0.39232044610694311 0 0.03492587150599015 0.39714318271575322 0 0.032844630049655758 0.3911952656019041 0 0.040531910439000007 0.38820627445006711 0 0.03492587150599015 0.39714318271575322 0 0.044409534997012647 0.39663533348309749 0 0.040531910439000007 0.38820627445006711 0 0.044409534997012647 0.39663533348309749 0 0.05145831924276717 0.38983346997562462 0 0.044409534997012647 0.39663533348309749 0 0.042551786202842029 0.40583695196884878 0 0.052579787594463898 0.40215678830519391 0 0.03492587150599015 0.39714318271575322 0 0.044409534997012647 0.39663533348309749 0 0.042551786202842029 0.40583695196884878 0 0.052579787594463898 0.40215678830519391 0 0.065929237187869999 0.38841376689227869 0 0.065774511826563423 0.40583773171119408 0 0.044409534997012647 0.39663533348309749 0 0.052579787594463898 0.40215678830519391 0 0.05145831924276717 0.38983346997562462 0 0.052579787594463898 0.40215678830519391 0 0.05145831924276717 0.38983346997562462 0 0.065929237187869999 0.38841376689227869 0 0.05145831924276717 0.38983346997562462 0 0.065929237187869999 0.38841376689227869 0 0.055078026168592691 0.37372917012189599 0 0.040531910439000007 0.38820627445006711 0 0.05145831924276717 0.38983346997562462 0 0.055078026168592691 0.37372917012189599 0 0.065929237187869999 0.38841376689227869 0 0.07065435961583541 0.37741521318853999 0 0.055078026168592691 0.37372917012189599 0 0.065929237187869999 0.38841376689227869 0 0.07065435961583541 0.37741521318853999 0 0.084874637398179506 0.3830893474080016 0 0.065929237187869999 0.38841376689227869 0 0.084874637398179506 0.3830893474080016 0 0.078183007061163587 0.39730645121706609 0 0.084874637398179506 0.3830893474080016 0 0.09301373708766289 0.40175012648401748 0 0.1017514530376761 0.37456476915266362 0 0.084874637398179506 0.3830893474080016 0 0.1017514530376761 0.37456476915266362 0 0.089894590955766338 0.37016501712229671 0 0.084874637398179506 0.3830893474080016 0 0.09301373708766289 0.40175012648401748 0 0.084874637398179506 0.3830893474080016 0 0.09301373708766289 0.40175012648401748 0 0.078183007061163587 0.39730645121706609 0 0.09301373708766289 0.40175012648401748 0 0.078183007061163587 0.39730645121706609 0 0.0779125114683729 0.4107996813321716 0 0.065929237187869999 0.38841376689227869 0 0.078183007061163587 0.39730645121706609 0 0.065774511826563423 0.40583773171119408 0 0.078183007061163587 0.39730645121706609 0 0.065774511826563423 0.40583773171119408 0 0.0779125114683729 0.4107996813321716 0 0.065774511826563423 0.40583773171119408 0 0.0779125114683729 0.4107996813321716 0 0.065639666334966471 0.42409002317344818 0 0.0779125114683729 0.4107996813321716 0 0.065639666334966471 0.42409002317344818 0 0.085233479690329184 0.42595657570789891 0 0.077453222292990773 0.45016302493177879 0 0.065639666334966471 0.42409002317344818 0 0.085233479690329184 0.42595657570789891 0 0.09301373708766289 0.40175012648401748 0 0.085233479690329184 0.42595657570789891 0 0.09301373708766289 0.40175012648401748 0 0.0779125114683729 0.4107996813321716 0 0.085233479690329184 0.42595657570789891 0 0.09301373708766289 0.40175012648401748 0 0.085233479690329184 0.42595657570789891 0 0.096641093798834857 0.4103746730739769 0 0.096641093798834857 0.4103746730739769 0 0.106123573628292 0.43180747591342172 0 0.096641093798834857 0.4103746730739769 0 0.1162621503634904 0.41872732341568758 0 0.11303311796937431 0.39768424579749467 0 0.096641093798834857 0.4103746730739769 0 0.106123573628292 0.43180747591342172 0 0.1162621503634904 0.41872732341568758 0 0.096641093798834857 0.4103746730739769 0 0.1162621503634904 0.41872732341568758 0 0.085233479690329184 0.42595657570789891 0 0.096641093798834857 0.4103746730739769 0 0.106123573628292 0.43180747591342172 0 0.096722182691352548 0.44869154901932268 0 0.085233479690329184 0.42595657570789891 0 0.106123573628292 0.43180747591342172 0 0.1205619018159948 0.44674810255646558 0 0.1162621503634904 0.41872732341568758 0 0.1205619018159948 0.44674810255646558 0 0.106123573628292 0.43180747591342172 0 0.1162621503634904 0.41872732341568758 0 0.1162621503634904 0.41872732341568758 0 0.11303311796937431 0.39768424579749467 0 0.11303311796937431 0.39768424579749467 0 0.1231373165426977 0.3806134049577457 0 0.1271742827044339 0.39597619803598749 0 0.1162621503634904 0.41872732341568758 0 0.11303311796937431 0.39768424579749467 0 0.1271742827044339 0.39597619803598749 0 0.11303311796937431 0.39768424579749467 0 0.1098040855752573 0.37664116817930182 0 0.11303311796937431 0.39768424579749467 0 0.1098040855752573 0.37664116817930182 0 0.1231373165426977 0.3806134049577457 0 0.09301373708766289 0.40175012648401748 0 0.10162794664532369 0.38287681265592 0 0.1017514530376761 0.37456476915266362 0 0.11303311796937431 0.39768424579749467 0 0.1098040855752573 0.37664116817930182 0 0.10162794664532369 0.38287681265592 0 0.09301373708766289 0.40175012648401748 0 0.1017514530376761 0.37456476915266362 0 0.09301373708766289 0.40175012648401748 0 0.096641093798834857 0.4103746730739769 0 0.10162794664532369 0.38287681265592 0 0.096641093798834857 0.4103746730739769 0 0.10162794664532369 0.38287681265592 0 0.096641093798834857 0.4103746730739769 0 0.11303311796937431 0.39768424579749467 0 0.10162794664532369 0.38287681265592 0 0.09301373708766289 0.40175012648401748 0 0.096641093798834857 0.4103746730739769 0 0.10657505318114149 0.3555980905611088 0 0.1040837309638282 0.33936254988137232 0 0.10657505318114149 0.3555980905611088 0 0.096269577202366938 0.34885221845001108 0 0.090674694454237537 0.35844253683721511 0 0.10657505318114149 0.3555980905611088 0 0.1081370103155585 0.34698533999968961 0 0.1040837309638282 0.33936254988137232 0 0.10657505318114149 0.3555980905611088 0 0.096269577202366938 0.34885221845001108 0 0.1040837309638282 0.33936254988137232 0 0.10657505318114149 0.3555980905611088 0 0.1081370103155585 0.34698533999968961 0 0.1081370103155585 0.34698533999968961 0 0.1105857944332822 0.35159063999376577 0 0.10657505318114149 0.3555980905611088 0 0.1081370103155585 0.34698533999968961 0 0.1105857944332822 0.35159063999376577 0 0.10657505318114149 0.3555980905611088 0 0.097223947907205094 0.36469260341832099 0 0.090674694454237537 0.35844253683721511 0 0.1098040855752573 0.37664116817930182 0 0.10657505318114149 0.3555980905611088 0 0.1098040855752573 0.37664116817930182 0 0.10162794664532369 0.38287681265592 0 0.10657505318114149 0.3555980905611088 0 0.10657505318114149 0.3555980905611088 0 0.097223947907205094 0.36469260341832099 0 0.1017514530376761 0.37456476915266362 0 0.10162794664532369 0.38287681265592 0 0.10657505318114149 0.3555980905611088 0 0.10162794664532369 0.38287681265592 0 0.10657505318114149 0.3555980905611088 0 0.1017514530376761 0.37456476915266362 0 0.097223947907205094 0.36469260341832099 0 0.1017514530376761 0.37456476915266362 0 0.089894590955766338 0.37016501712229671 0 0.1231373165426977 0.3806134049577457 0 0.1176766025370503 0.36283148293627721 0 0.13271547193899449 0.36524458735671972 0 0.1098040855752573 0.37664116817930182 0 0.10657505318114149 0.3555980905611088 0 0.1176766025370503 0.36283148293627721 0 0.1098040855752573 0.37664116817930182 0 0.1231373165426977 0.3806134049577457 0 0.1176766025370503 0.36283148293627721 0 0.1176766025370503 0.36283148293627721 0 0.1232256624926347 0.35239419723674059 0 0.13271547193899449 0.36524458735671972 0 0.10657505318114149 0.3555980905611088 0 0.1176766025370503 0.36283148293627721 0 0.1105857944332822 0.35159063999376577 0 0.1176766025370503 0.36283148293627721 0 0.1232256624926347 0.35239419723674059 0 0.1105857944332822 0.35159063999376577 0 0.1081370103155585 0.34698533999968961 0 0.1105857944332822 0.35159063999376577 0 0.1168368962248217 0.34531303274388031 0 0.1232256624926347 0.35239419723674059 0 0.1105857944332822 0.35159063999376577 0 0.1168368962248217 0.34531303274388031 0 0.1232256624926347 0.35239419723674059 0 0.1168368962248217 0.34531303274388031 0 0.1260676383484185 0.3399282146226113 0 0.1081370103155585 0.34698533999968961 0 0.1173014636805894 0.33730338313169689 0 0.1117137236550247 0.32726307032677399 0 0.1081370103155585 0.34698533999968961 0 0.1117137236550247 0.32726307032677399 0 0.1168368962248217 0.34531303274388031 0 0.1173014636805894 0.33730338313169689 0 0.1260676383484185 0.3399282146226113 0 0.1173014636805894 0.33730338313169689 0 0.12375204985912221 0.32702725796552912 0 0.1260676383484185 0.3399282146226113 0 0.1173014636805894 0.33730338313169689 0 0.12375204985912221 0.32702725796552912 0 0.1117137236550247 0.32726307032677399 0 0.1081370103155585 0.34698533999968961 0 0.1168368962248217 0.34531303274388031 0 0.1173014636805894 0.33730338313169689 0 0.1117137236550247 0.32726307032677399 0 0.11529043699448981 0.30754080065385803 0 0.1117137236550247 0.32726307032677399 0 0.1095765413243488 0.31862098055757049 0 0.11529043699448981 0.30754080065385803 0 0.1214195525311879 0.31440901896845502 0 0.1117137236550247 0.32726307032677399 0 0.11529043699448981 0.30754080065385803 0 0.1214195525311879 0.31440901896845502 0 0.12375204985912221 0.32702725796552912 0 0.12817088130983889 0.317450689473041 0 0.1214195525311879 0.31440901896845502 0 0.12375204985912221 0.32702725796552912 0 0.1117137236550247 0.32726307032677399 0 0.1040837309638282 0.33936254988137232 0 0.090103400857782137 0.31307047550514489 0 0.1040837309638282 0.33936254988137232 0 0.1025673515982234 0.32948055280164651 0 0.090103400857782137 0.31307047550514489 0 0.10278173829001019 0.3206216626476312 0 0.1025673515982234 0.32948055280164651 0 0.090103400857782137 0.31307047550514489 0 0.1095765413243488 0.31862098055757049 0 0.10278173829001019 0.3206216626476312 0 0.099947674014671917 0.31467323404701991 0 0.1095765413243488 0.31862098055757049 0 0.099947674014671917 0.31467323404701991 0 0.09732687347400408 0.30507295899279041 0 0.1117137236550247 0.32726307032677399 0 0.1095765413243488 0.31862098055757049 0 0.10278173829001019 0.3206216626476312 0 0.1117137236550247 0.32726307032677399 0 0.10278173829001019 0.3206216626476312 0 0.1025673515982234 0.32948055280164651 0 0.10278173829001019 0.3206216626476312 0 0.099947674014671917 0.31467323404701991 0 0.090103400857782137 0.31307047550514489 0 0.096269577202366938 0.34885221845001108 0 0.1040837309638282 0.33936254988137232 0 0.085896102217652828 0.34083244099607402 0 0.1081370103155585 0.34698533999968961 0 0.1117137236550247 0.32726307032677399 0 0.1040837309638282 0.33936254988137232 0 0.1081370103155585 0.34698533999968961 0 0.1040837309638282 0.33936254988137232 0 0.1117137236550247 0.32726307032677399 0 0.1040837309638282 0.33936254988137232 0 0.1025673515982234 0.32948055280164651 0 0.1040837309638282 0.33936254988137232 0 0.1025673515982234 0.32948055280164651 0 0.1040837309638282 0.33936254988137232 0 0.085896102217652828 0.34083244099607402 0 0.090103400857782137 0.31307047550514489 0 0.085896102217652828 0.34083244099607402 0 0.090103400857782137 0.31307047550514489 0 0.073944851781294785 0.32640562720437011 0 0.073944851781294785 0.32640562720437011 0 0.05926959110604698 0.32438382341666039 0 0.066452600317618793 0.30933520022964911 0 0.090103400857782137 0.31307047550514489 0 0.073944851781294785 0.32640562720437011 0 0.066452600317618793 0.30933520022964911 0 0.068002564407373206 0.3444061958743222 0 0.05926959110604698 0.32438382341666039 0 0.085896102217652828 0.34083244099607402 0 0.073944851781294785 0.32640562720437011 0 0.068002564407373206 0.3444061958743222 0 0.073944851781294785 0.32640562720437011 0 0.068002564407373206 0.3444061958743222 0 0.05926959110604698 0.32438382341666039 0 0.068002564407373206 0.3444061958743222 0 0.081709153938225559 0.35166937446406898 0 0.076735537708699481 0.364428568331984 0 0.068002564407373206 0.3444061958743222 0 0.076735537708699481 0.364428568331984 0 0.068002564407373206 0.3444061958743222 0 0.076735537708699481 0.364428568331984 0 0.058880509289504487 0.35752542115937253 0 0.085896102217652828 0.34083244099607402 0 0.068002564407373206 0.3444061958743222 0 0.081709153938225559 0.35166937446406898 0 0.081709153938225559 0.35166937446406898 0 0.090674694454237537 0.35844253683721511 0 0.076735537708699481 0.364428568331984 0 0.096269577202366938 0.34885221845001108 0 0.081709153938225559 0.35166937446406898 0 0.090674694454237537 0.35844253683721511 0 0.096269577202366938 0.34885221845001108 0 0.085896102217652828 0.34083244099607402 0 0.081709153938225559 0.35166937446406898 0 0.084874637398179506 0.3830893474080016 0 0.089894590955766338 0.37016501712229671 0 0.076735537708699481 0.364428568331984 0 0.084874637398179506 0.3830893474080016 0 0.076735537708699481 0.364428568331984 0 0.097223947907205094 0.36469260341832099 0 0.090674694454237537 0.35844253683721511 0 0.089894590955766338 0.37016501712229671 0 0.090674694454237537 0.35844253683721511 0 0.089894590955766338 0.37016501712229671 0 0.076735537708699481 0.364428568331984 0 0.090674694454237537 0.35844253683721511 0 0.076735537708699481 0.364428568331984 0 0.076735537708699481 0.364428568331984 0 0.055078026168592691 0.37372917012189599 0 0.058880509289504487 0.35752542115937253 0 0.07065435961583541 0.37741521318853999 0 0.084874637398179506 0.3830893474080016 0 0.076735537708699481 0.364428568331984 0 0.07065435961583541 0.37741521318853999 0 0.076735537708699481 0.364428568331984 0 0.055078026168592691 0.37372917012189599 0 0.076735537708699481 0.364428568331984 0 0.055078026168592691 0.37372917012189599 0 0.055078026168592691 0.37372917012189599 0 0.058880509289504487 0.35752542115937253 0 0.039125882353897343 0.35680699826087081 0 0.068002564407373206 0.3444061958743222 0 0.058880509289504487 0.35752542115937253 0 0.05148455776782021 0.34576385860545072 0 0.058880509289504487 0.35752542115937253 0 0.05148455776782021 0.34576385860545072 0 0.039125882353897343 0.35680699826087081 0 0.039125882353897343 0.35680699826087081 0 0.031548662582759998 0.36398682567210089 0 0.025752053585936779 0.33511492304397028 0 0.05148455776782021 0.34576385860545072 0 0.039125882353897343 0.35680699826087081 0 0.044831250079309708 0.3305842246099347 0 0.033420514628485373 0.38302977191180709 0 0.039125882353897343 0.35680699826087081 0 0.031548662582759998 0.36398682567210089 0 0.033420514628485373 0.38302977191180709 0 0.055078026168592691 0.37372917012189599 0 0.039125882353897343 0.35680699826087081 0 0.033420514628485373 0.38302977191180709 0 0.039125882353897343 0.35680699826087081 0 0.033420514628485373 0.38302977191180709 0 0.031548662582759998 0.36398682567210089 0 0.023779055828078009 0.37097747554075361 0 0.017055050774382831 0.3783760363496293 0 0.023779055828078009 0.37097747554075361 0 0.014905446519761849 0.37011919055753012 0 0.023779055828078009 0.37097747554075361 0 0.019349684376360511 0.36318206543595072 0 0.014905446519761849 0.37011919055753012 0 0.031548662582759998 0.36398682567210089 0 0.019349684376360511 0.36318206543595072 0 0.019690074755218789 0.35178644121934483 0 0.031548662582759998 0.36398682567210089 0 0.023779055828078009 0.37097747554075361 0 0.019349684376360511 0.36318206543595072 0 0.031548662582759998 0.36398682567210089 0 0.025752053585936779 0.33511492304397028 0 0.031548662582759998 0.36398682567210089 0 0.019690074755218789 0.35178644121934483 0 0.025752053585936779 0.33511492304397028 0 0.019349684376360511 0.36318206543595072 0 0.019690074755218789 0.35178644121934483 0 0.0119730942360182 0.35563939605115702 0 0.0119730942360182 0.35563939605115702 0 0.0038095970876644218 0.35606187191015221 0 0.0077169544749549623 0.36306791211952738 0 -0.0077202170519437719 0.34710906184019069 0 0.0082446038140756572 0.34376242611402219 0 0.0038095970876644218 0.35606187191015221 0 0.0119730942360182 0.35563939605115702 0 0.0082446038140756572 0.34376242611402219 0 0.0038095970876644218 0.35606187191015221 0 0.019690074755218789 0.35178644121934483 0 0.0119730942360182 0.35563939605115702 0 0.0082446038140756572 0.34376242611402219 0 -0.0045677851665312944 0.36532665559408428 0 0.0038095970876644218 0.35606187191015221 0 0.0077169544749549623 0.36306791211952738 0 -0.0087141207398781558 0.37710904293520409 0 0.0053185270157129726 0.37689571945341471 0 0.0077169544749549623 0.36306791211952738 0 0.0053185270157129726 0.37689571945341471 0 0.0077169544749549623 0.36306791211952738 0 0.014905446519761849 0.37011919055753012 0 0.019349684376360511 0.36318206543595072 0 0.0077169544749549623 0.36306791211952738 0 0.014905446519761849 0.37011919055753012 0 0.019349684376360511 0.36318206543595072 0 0.0119730942360182 0.35563939605115702 0 0.0077169544749549623 0.36306791211952738 0 -0.009249588209606344 0.30814111102660002 0 0.0094307060340404689 0.32376070079746733 0 0.01995544458911469 0.30624302041583928 0 -0.005758602284471958 0.33512988219008361 0 0.0082446038140756572 0.34376242611402219 0 0.0094307060340404689 0.32376070079746733 0 0.0082446038140756572 0.34376242611402219 0 0.0094307060340404689 0.32376070079746733 0 0.025752053585936779 0.33511492304397028 0 0.019690074755218789 0.35178644121934483 0 0.0082446038140756572 0.34376242611402219 0 0.025752053585936779 0.33511492304397028 0 0.025752053585936779 0.33511492304397028 0 0.01995544458911469 0.30624302041583928 0 0.025752053585936779 0.33511492304397028 0 0.034898059553693392 0.31581284699138767 0 0.01995544458911469 0.30624302041583928 0 0.0094307060340404689 0.32376070079746733 0 0.025752053585936779 0.33511492304397028 0 0.01995544458911469 0.30624302041583928 0 0.034898059553693392 0.31581284699138767 0 0.044831250079309708 0.3305842246099347 0 0.05053661780472133 0.30436145095899841 0 0.025752053585936779 0.33511492304397028 0 0.034898059553693392 0.31581284699138767 0 0.044831250079309708 0.3305842246099347 0 0.039125882353897343 0.35680699826087081 0 0.025752053585936779 0.33511492304397028 0 0.044831250079309708 0.3305842246099347 0 0.039125882353897343 0.35680699826087081 0 0.044831250079309708 0.3305842246099347 0 0.068002564407373206 0.3444061958743222 0 0.05148455776782021 0.34576385860545072 0 0.05926959110604698 0.32438382341666039 0 0.05148455776782021 0.34576385860545072 0 0.044831250079309708 0.3305842246099347 0 0.05926959110604698 0.32438382341666039 0 0.044831250079309708 0.3305842246099347 0 0.05053661780472133 0.30436145095899841 0 0.044831250079309708 0.3305842246099347 0 0.05926959110604698 0.32438382341666039 0 0.05053661780472133 0.30436145095899841 0 0.05926959110604698 0.32438382341666039 0 0.05053661780472133 0.30436145095899841 0 0.05926959110604698 0.32438382341666039 0 0.05053661780472133 0.30436145095899841 0 0.066452600317618793 0.30933520022964911 0 0.059204269303370749 0.30137448027593422 0 0.05053661780472133 0.30436145095899841 0 0.066452600317618793 0.30933520022964911 0 0.04765756321016474 0.29776054867416191 0 0.05053661780472133 0.30436145095899841 0 0.052561166870736087 0.29505630281458828 0 0.059204269303370749 0.30137448027593422 0 0.05053661780472133 0.30436145095899841 0 0.052561166870736087 0.29505630281458828 0 0.05053661780472133 0.30436145095899841 0 0.052561166870736087 0.29505630281458828 0 0.04765756321016474 0.29776054867416191 0 0.05053661780472133 0.30436145095899841 0 0.052561166870736087 0.29505630281458828 0 0.036977033779240318 0.28312664447104818 0 0.062988366650143207 0.29302398426469728 0 0.036977033779240318 0.28312664447104818 0 0.048149862160842181 0.27985089866820428 0 0.062988366650143207 0.29302398426469728 0 0.036977033779240318 0.28312664447104818 0 0.062988366650143207 0.29302398426469728 0 0.048149862160842181 0.27985089866820428 0 0.054778979573680928 0.27715841955607551 0 0.062988366650143207 0.29302398426469728 0 0.059204269303370749 0.30137448027593422 0 0.052561166870736087 0.29505630281458828 0 0.062988366650143207 0.29302398426469728 0 0.04765756321016474 0.29776054867416191 0 0.036186098738389023 0.29603891009636157 0 0.036977033779240318 0.28312664447104818 0 0.04765756321016474 0.29776054867416191 0 0.052561166870736087 0.29505630281458828 0 0.036977033779240318 0.28312664447104818 0 0.036186098738389023 0.29603891009636157 0 0.036977033779240318 0.28312664447104818 0 0.027757552790527541 0.29644954410470781 0 0.034898059553693392 0.31581284699138767 0 0.05053661780472133 0.30436145095899841 0 0.039754971674175903 0.30430037111620312 0 0.04765756321016474 0.29776054867416191 0 0.05053661780472133 0.30436145095899841 0 0.039754971674175903 0.30430037111620312 0 0.04765756321016474 0.29776054867416191 0 0.036186098738389023 0.29603891009636157 0 0.039754971674175903 0.30430037111620312 0 0.036186098738389023 0.29603891009636157 0 0.039754971674175903 0.30430037111620312 0 0.028740536311392211 0.30567206060121932 0 0.034898059553693392 0.31581284699138767 0 0.039754971674175903 0.30430037111620312 0 0.028740536311392211 0.30567206060121932 0 0.034898059553693392 0.31581284699138767 0 0.028740536311392211 0.30567206060121932 0 0.01995544458911469 0.30624302041583928 0 0.028740536311392211 0.30567206060121932 0 0.01995544458911469 0.30624302041583928 0 0.01995544458911469 0.30624302041583928 0 0.027757552790527541 0.29644954410470781 0 0.016928650534501429 0.29116708493907051 0 0.01995544458911469 0.30624302041583928 0 0.016928650534501429 0.29116708493907051 0 0.036186098738389023 0.29603891009636157 0 0.028740536311392211 0.30567206060121932 0 0.027757552790527541 0.29644954410470781 0 0.028740536311392211 0.30567206060121932 0 0.01995544458911469 0.30624302041583928 0 0.027757552790527541 0.29644954410470781 0 0.036977033779240318 0.28312664447104818 0 0.016928650534501429 0.29116708493907051 0 0.013901856479889301 0.2760911494623014 0 0.036977033779240318 0.28312664447104818 0 0.027757552790527541 0.29644954410470781 0 0.016928650534501429 0.29116708493907051 0 0.016928650534501429 0.29116708493907051 0 0.0075090435902615098 0.27971283806045072 0 0.013901856479889301 0.2760911494623014 0 0.016928650534501429 0.29116708493907051 0 0.013901856479889301 0.2760911494623014 0 0.016928650534501429 0.29116708493907051 0 0.002380999114604244 0.28599596302517022 0 0.0075090435902615098 0.27971283806045072 0 0.016928650534501429 0.29116708493907051 0 0.002380999114604244 0.28599596302517022 0 0.0038021096493471361 0.29689124930627131 0 0.01995544458911469 0.30624302041583928 0 0.016928650534501429 0.29116708493907051 0 0.0038021096493471361 0.29689124930627131 0 -0.009249588209606344 0.30814111102660002 0 0.01995544458911469 0.30624302041583928 0 -0.009249588209606344 0.30814111102660002 0 0.01995544458911469 0.30624302041583928 0 0.0038021096493471361 0.29689124930627131 0 0.012944211518790589 0.24639919126045251 0 0.001894876929373096 0.24743045501984201 0 0.027350481215018482 0.26092432701142793 0 0.001894876929373096 0.24743045501984201 0 0.01235577794179212 0.26160751525750708 0 0.027350481215018482 0.26092432701142793 0 0.001894876929373096 0.24743045501984201 0 0.027350481215018482 0.26092432701142793 0 0.01235577794179212 0.26160751525750708 0 0.0066431973405819862 0.26423936680728111 0 0.01332705073189009 0.26743114199411 0 0.001894876929373096 0.24743045501984201 0 0.01235577794179212 0.26160751525750708 0 0.0027594708259384838 0.25829047161104352 0 0.01235577794179212 0.26160751525750708 0 0.0027594708259384838 0.25829047161104352 0 0.0066431973405819862 0.26423936680728111 0 -0.00067809962666212902 0.26216505597133072 0 0.0027594708259384838 0.25829047161104352 0 0.0066431973405819862 0.26423936680728111 0 -0.00067809962666212902 0.26216505597133072 0 0.0066431973405819862 0.26423936680728111 0 0.010965700908337589 0.27322930467739909 0 -0.001267499687089951 0.2776013217203892 0 0.0075090435902615098 0.27971283806045072 0 0.010965700908337589 0.27322930467739909 0 -0.001267499687089951 0.2776013217203892 0 0.002380999114604244 0.28599596302517022 0 0.0075090435902615098 0.27971283806045072 0 0.0075090435902615098 0.27971283806045072 0 0.013901856479889301 0.2760911494623014 0 0.010965700908337589 0.27322930467739909 0 0.010965700908337589 0.27322930467739909 0 0.01332705073189009 0.26743114199411 0 0.022419763759722669 0.26962443384228668 0 0.0066431973405819862 0.26423936680728111 0 0.010965700908337589 0.27322930467739909 0 0.01332705073189009 0.26743114199411 0 0.036977033779240318 0.28312664447104818 0 0.010965700908337589 0.27322930467739909 0 0.022419763759722669 0.26962443384228668 0 0.01235577794179212 0.26160751525750708 0 0.01332705073189009 0.26743114199411 0 0.022419763759722669 0.26962443384228668 0 0.036977033779240318 0.28312664447104818 0 0.013901856479889301 0.2760911494623014 0 0.010965700908337589 0.27322930467739909 0 0.036977033779240318 0.28312664447104818 0 0.010965700908337589 0.27322930467739909 0 0.036977033779240318 0.28312664447104818 0 0.022419763759722669 0.26962443384228668 0 0.032397819765571212 0.27218151163944088 0 0.022419763759722669 0.26962443384228668 0 0.027350481215018482 0.26092432701142793 0 0.032397819765571212 0.27218151163944088 0 0.018629400856135309 0.24429501886194191 0 0.012944211518790589 0.24639919126045251 0 0.027350481215018482 0.26092432701142793 0 0.018629400856135309 0.24429501886194191 0 0.027350481215018482 0.26092432701142793 0 0.02692674034290404 0.25134916217479408 0 0.01235577794179212 0.26160751525750708 0 0.022419763759722669 0.26962443384228668 0 0.027350481215018482 0.26092432701142793 0 0.027350481215018482 0.26092432701142793 0 0.02692674034290404 0.25134916217479408 0 0.036501911092354018 0.25177276941539839 0 0.027350481215018482 0.26092432701142793 0 0.036501911092354018 0.25177276941539839 0 0.052806085500663583 0.27441819900301412 0 0.036501911092354018 0.25177276941539839 0 0.052806085500663583 0.27441819900301412 0 0.027350481215018482 0.26092432701142793 0 0.039536256484267153 0.27410031615862712 0 0.052806085500663583 0.27441819900301412 0 0.027350481215018482 0.26092432701142793 0 0.052806085500663583 0.27441819900301412 0 0.036977033779240318 0.28312664447104818 0 0.032397819765571212 0.27218151163944088 0 0.039536256484267153 0.27410031615862712 0 0.027350481215018482 0.26092432701142793 0 0.032397819765571212 0.27218151163944088 0 0.039536256484267153 0.27410031615862712 0 0.039536256484267153 0.27410031615862712 0 0.048149862160842181 0.27985089866820428 0 0.052806085500663583 0.27441819900301412 0 0.036977033779240318 0.28312664447104818 0 0.039536256484267153 0.27410031615862712 0 0.048149862160842181 0.27985089866820428 0 0.052806085500663583 0.27441819900301412 0 0.051790667069154861 0.2547103276228454 0 0.069466372585565969 0.27425949764399721 0 0.052806085500663583 0.27441819900301412 0 0.054778979573680928 0.27715841955607551 0 0.076123070751733898 0.28677840112891878 0 0.048149862160842181 0.27985089866820428 0 0.052806085500663583 0.27441819900301412 0 0.054778979573680928 0.27715841955607551 0 0.052806085500663583 0.27441819900301412 0 0.054778979573680928 0.27715841955607551 0 0.051790667069154861 0.2547103276228454 0 0.069466372585565969 0.27425949764399721 0 0.036501911092354018 0.25177276941539839 0 0.052806085500663583 0.27441819900301412 0 0.051790667069154861 0.2547103276228454 0 0.051790667069154861 0.2547103276228454 0 0.062472563593505302 0.26110660749064829 0 0.069466372585565969 0.27425949764399721 0 0.051790667069154861 0.2547103276228454 0 0.062472563593505302 0.26110660749064829 0 0.063392491700480919 0.2510828642249095 0 0.07090317009537217 0.25886987532900169 0 0.089645379702363526 0.25980927980688501 0 0.066829182329119829 0.26693814307945207 0 0.063392491700480919 0.2510828642249095 0 0.07090317009537217 0.25886987532900169 0 0.074261774750864804 0.25289133929391111 0 0.062472563593505302 0.26110660749064829 0 0.063392491700480919 0.2510828642249095 0 0.07090317009537217 0.25886987532900169 0 0.062472563593505302 0.26110660749064829 0 0.07090317009537217 0.25886987532900169 0 0.066829182329119829 0.26693814307945207 0 0.07090317009537217 0.25886987532900169 0 0.074261774750864804 0.25289133929391111 0 0.089645379702363526 0.25980927980688501 0 0.072073934872957782 0.23900016577853919 0 0.074261774750864804 0.25289133929391111 0 0.089645379702363526 0.25980927980688501 0 0.089645379702363526 0.25980927980688501 0 0.066829182329119829 0.26693814307945207 0 0.089645379702363526 0.25980927980688501 0 0.084738505220855201 0.27427167124983992 0 0.066829182329119829 0.26693814307945207 0 0.084738505220855201 0.27427167124983992 0 0.069466372585565969 0.27425949764399721 0 0.085077205623658711 0.29152493742801078 0 0.084738505220855201 0.27427167124983992 0 0.095910340366493346 0.28464594086445177 0 0.099818528257267281 0.27185690653089678 0 0.089645379702363526 0.25980927980688501 0 0.084738505220855201 0.27427167124983992 0 0.099818528257267281 0.27185690653089678 0 0.084738505220855201 0.27427167124983992 0 0.066829182329119829 0.26693814307945207 0 0.069466372585565969 0.27425949764399721 0 0.052806085500663583 0.27441819900301412 0 0.069466372585565969 0.27425949764399721 0 0.076123070751733898 0.28677840112891878 0 0.052806085500663583 0.27441819900301412 0 0.076123070751733898 0.28677840112891878 0 0.069466372585565969 0.27425949764399721 0 0.076123070751733898 0.28677840112891878 0 0.062472563593505302 0.26110660749064829 0 0.069466372585565969 0.27425949764399721 0 0.062472563593505302 0.26110660749064829 0 0.066829182329119829 0.26693814307945207 0 0.069466372585565969 0.27425949764399721 0 0.069466372585565969 0.27425949764399721 0 0.085077205623658711 0.29152493742801078 0 0.069466372585565969 0.27425949764399721 0 0.076123070751733898 0.28677840112891878 0 0.085077205623658711 0.29152493742801078 0 0.062988366650143207 0.29302398426469728 0 0.076123070751733898 0.28677840112891878 0 0.066452600317618793 0.30933520022964911 0 0.054778979573680928 0.27715841955607551 0 0.062988366650143207 0.29302398426469728 0 0.076123070751733898 0.28677840112891878 0 0.090103400857782137 0.31307047550514489 0 0.076123070751733898 0.28677840112891878 0 0.066452600317618793 0.30933520022964911 0 0.059204269303370749 0.30137448027593422 0 0.062988366650143207 0.29302398426469728 0 0.066452600317618793 0.30933520022964911 0 0.090103400857782137 0.31307047550514489 0 0.076123070751733898 0.28677840112891878 0 0.085077205623658711 0.29152493742801078 0 0.090103400857782137 0.31307047550514489 0 0.076123070751733898 0.28677840112891878 0 0.090103400857782137 0.31307047550514489 0 0.085077205623658711 0.29152493742801078 0 0.09732687347400408 0.30507295899279041 0 0.085077205623658711 0.29152493742801078 0 0.09732687347400408 0.30507295899279041 0 0.084738505220855201 0.27427167124983992 0 0.085077205623658711 0.29152493742801078 0 0.095910340366493346 0.28464594086445177 0 0.076123070751733898 0.28677840112891878 0 0.085077205623658711 0.29152493742801078 0 0.085077205623658711 0.29152493742801078 0 0.095910340366493346 0.28464594086445177 0 0.10018382130907411 0.29953286904093468 0 0.085077205623658711 0.29152493742801078 0 0.10018382130907411 0.29953286904093468 0 0.095910340366493346 0.28464594086445177 0 0.10809736708577181 0.28553666446189058 0 0.10018382130907411 0.29953286904093468 0 0.10809736708577181 0.28553666446189058 0 0.10018382130907411 0.29953286904093468 0 0.10959494141679089 0.29761357018739809 0 0.099947674014671917 0.31467323404701991 0 0.090103400857782137 0.31307047550514489 0 0.09732687347400408 0.30507295899279041 0 0.085077205623658711 0.29152493742801078 0 0.09732687347400408 0.30507295899279041 0 0.10018382130907411 0.29953286904093468 0 0.09732687347400408 0.30507295899279041 0 0.10018382130907411 0.29953286904093468 0 0.1055944182754792 0.3076919023112884 0 0.10018382130907411 0.29953286904093468 0 0.11529043699448981 0.30754080065385803 0 0.10959494141679089 0.29761357018739809 0 0.10018382130907411 0.29953286904093468 0 0.11529043699448981 0.30754080065385803 0 0.1095765413243488 0.31862098055757049 0 0.09732687347400408 0.30507295899279041 0 0.1055944182754792 0.3076919023112884 0 0.10018382130907411 0.29953286904093468 0 0.1055944182754792 0.3076919023112884 0 0.11529043699448981 0.30754080065385803 0 0.1095765413243488 0.31862098055757049 0 0.09732687347400408 0.30507295899279041 0 0.1095765413243488 0.31862098055757049 0 0.1055944182754792 0.3076919023112884 0 0.11529043699448981 0.30754080065385803 0 0.11529043699448981 0.30754080065385803 0 0.11637637905870279 0.30155283343175482 0 0.11810871752106521 0.30621928700195911 0 0.11529043699448981 0.30754080065385803 0 0.10959494141679089 0.29761357018739809 0 0.11637637905870279 0.30155283343175482 0 0.10959494141679089 0.29761357018739809 0 0.11637637905870279 0.30155283343175482 0 0.1164892219926046 0.29243334627748818 0 0.11529043699448981 0.30754080065385803 0 0.11637637905870279 0.30155283343175482 0 0.11637637905870279 0.30155283343175482 0 0.1222906650571363 0.2985709440566281 0 0.1164892219926046 0.29243334627748818 0 0.1222906650571363 0.2985709440566281 0 0.1206025954822835 0.30378795350269022 0 0.1243783730770044 0.30485679470236721 0 0.11637637905870279 0.30155283343175482 0 0.1222906650571363 0.2985709440566281 0 0.1206025954822835 0.30378795350269022 0 0.11637637905870279 0.30155283343175482 0 0.1206025954822835 0.30378795350269022 0 0.11810871752106521 0.30621928700195911 0 0.1206025954822835 0.30378795350269022 0 0.11810871752106521 0.30621928700195911 0 0.1213521300308707 0.30775440284793348 0 0.11529043699448981 0.30754080065385803 0 0.11810871752106521 0.30621928700195911 0 0.11930841490252821 0.30912172642276631 0 0.11810871752106521 0.30621928700195911 0 0.1213521300308707 0.30775440284793348 0 0.11930841490252821 0.30912172642276631 0 0.1243783730770044 0.30485679470236721 0 0.1213521300308707 0.30775440284793348 0 0.1244342991148414 0.30898461385241399 0 0.1206025954822835 0.30378795350269022 0 0.1243783730770044 0.30485679470236721 0 0.1213521300308707 0.30775440284793348 0 0.1214195525311879 0.31440901896845502 0 0.1244342991148414 0.30898461385241399 0 0.12900107104525951 0.30968741412501871 0 0.1214195525311879 0.31440901896845502 0 0.1213521300308707 0.30775440284793348 0 0.1244342991148414 0.30898461385241399 0 0.1214195525311879 0.31440901896845502 0 0.11529043699448981 0.30754080065385803 0 0.11930841490252821 0.30912172642276631 0 0.1214195525311879 0.31440901896845502 0 0.1213521300308707 0.30775440284793348 0 0.11930841490252821 0.30912172642276631 0 0.10809736708577181 0.28553666446189058 0 0.1164892219926046 0.29243334627748818 0 0.1210835213650209 0.28058702695229848 0 0.10809736708577181 0.28553666446189058 0 0.10959494141679089 0.29761357018739809 0 0.1164892219926046 0.29243334627748818 0 0.1222906650571363 0.2985709440566281 0 0.1164892219926046 0.29243334627748818 0 0.12596292383497329 0.28976449579057961 0 0.1164892219926046 0.29243334627748818 0 0.1210835213650209 0.28058702695229848 0 0.12596292383497329 0.28976449579057961 0 0.10809736708577181 0.28553666446189058 0 0.1210835213650209 0.28058702695229848 0 0.1147979612748997 0.2707881575742877 0 0.1210835213650209 0.28058702695229848 0 0.1147979612748997 0.2707881575742877 0 0.12791172371537049 0.26609555254785411 0 0.1147979612748997 0.2707881575742877 0 0.116065923487036 0.25155424759680489 0 0.099818528257267281 0.27185690653089678 0 0.1147979612748997 0.2707881575742877 0 0.116065923487036 0.25155424759680489 0 0.12791172371537049 0.26609555254785411 0 0.089645379702363526 0.25980927980688501 0 0.116065923487036 0.25155424759680489 0 0.089645379702363526 0.25980927980688501 0 0.116065923487036 0.25155424759680489 0 0.099818528257267281 0.27185690653089678 0 0.089645379702363526 0.25980927980688501 0 0.099818528257267281 0.27185690653089678 0 0.095910340366493346 0.28464594086445177 0 0.10809736708577181 0.28553666446189058 0 0.099818528257267281 0.27185690653089678 0 0.10809736708577181 0.28553666446189058 0 0.1147979612748997 0.2707881575742877 0 0.099818528257267281 0.27185690653089678 0 0.14627836463393121 0.26809473379089088 0 0.14256315404166739 0.2804585798755338 0 0.1332419302865058 0.27890394506169119 0 0.14627836463393121 0.26809473379089088 0 0.14256315404166739 0.2804585798755338 0 0.15383705453569649 0.27951082009548711 0 0.14627836463393121 0.26809473379089088 0 0.15383705453569649 0.27951082009548711 0 0.1609818760820641 0.2708255403471686 0 0.14248646727170791 0.24329921538672239 0 0.14627836463393121 0.26809473379089088 0 0.1631161995596529 0.25657386530356069 0 0.14248646727170791 0.24329921538672239 0 0.116065923487036 0.25155424759680489 0 0.12791172371537049 0.26609555254785411 0 0.14248646727170791 0.24329921538672239 0 0.14627836463393121 0.26809473379089088 0 0.12791172371537049 0.26609555254785411 0 0.14627836463393121 0.26809473379089088 0 0.12791172371537049 0.26609555254785411 0 0.1332419302865058 0.27890394506169119 0 0.1210835213650209 0.28058702695229848 0 0.12791172371537049 0.26609555254785411 0 0.1332419302865058 0.27890394506169119 0 0.1332419302865058 0.27890394506169119 0 0.12596292383497329 0.28976449579057961 0 0.13463915166403909 0.29011289163129678 0 0.1210835213650209 0.28058702695229848 0 0.1332419302865058 0.27890394506169119 0 0.12596292383497329 0.28976449579057961 0 0.1222906650571363 0.2985709440566281 0 0.12596292383497329 0.28976449579057961 0 0.12923992476061211 0.29615108028493942 0 0.12596292383497329 0.28976449579057961 0 0.12923992476061211 0.29615108028493942 0 0.13463915166403909 0.29011289163129678 0 0.13463915166403909 0.29011289163129678 0 0.13544399911061031 0.29845687749894129 0 0.1416447250157222 0.29544082675589128 0 0.12923992476061211 0.29615108028493942 0 0.13463915166403909 0.29011289163129678 0 0.13544399911061031 0.29845687749894129 0 0.14256315404166739 0.2804585798755338 0 0.1332419302865058 0.27890394506169119 0 0.13463915166403909 0.29011289163129678 0 0.1243783730770044 0.30485679470236721 0 0.1244342991148414 0.30898461385241399 0 0.12900107104525951 0.30968741412501871 0 0.1243783730770044 0.30485679470236721 0 0.12900107104525951 0.30968741412501871 0 0.1290658347258283 0.30205966601357243 0 0.12900107104525951 0.30968741412501871 0 0.1290658347258283 0.30205966601357243 0 0.1340409753043473 0.30463488541353972 0 0.1222906650571363 0.2985709440566281 0 0.1243783730770044 0.30485679470236721 0 0.1290658347258283 0.30205966601357243 0 0.1222906650571363 0.2985709440566281 0 0.12923992476061211 0.29615108028493942 0 0.1290658347258283 0.30205966601357243 0 0.12923992476061211 0.29615108028493942 0 0.1290658347258283 0.30205966601357243 0 0.13544399911061031 0.29845687749894129 0 0.13544399911061031 0.29845687749894129 0 0.14170706289926879 0.30357921339911909 0 0.1416447250157222 0.29544082675589128 0 0.13544399911061031 0.29845687749894129 0 0.1340409753043473 0.30463488541353972 0 0.14170706289926879 0.30357921339911909 0 0.1290658347258283 0.30205966601357243 0 0.13544399911061031 0.29845687749894129 0 0.1340409753043473 0.30463488541353972 0 0.13598458437900529 0.30983158877234418 0 0.14130712994747449 0.31140798331507108 0 0.14170706289926879 0.30357921339911909 0 0.12900107104525951 0.30968741412501871 0 0.1340409753043473 0.30463488541353972 0 0.13598458437900529 0.30983158877234418 0 0.1340409753043473 0.30463488541353972 0 0.13598458437900529 0.30983158877234418 0 0.14170706289926879 0.30357921339911909 0 0.13598458437900529 0.30983158877234418 0 0.14130712994747449 0.31140798331507108 0 0.13528824775885559 0.3155805734405937 0 0.12900107104525951 0.30968741412501871 0 0.13598458437900529 0.30983158877234418 0 0.13528824775885559 0.3155805734405937 0 0.1483486037307668 0.31106151759990119 0 0.14130712994747449 0.31140798331507108 0 0.14170706289926879 0.30357921339911909 0 0.1483486037307668 0.31106151759990119 0 0.14170706289926879 0.30357921339911909 0 0.1513591925520972 0.30423422291399321 0 0.14170706289926879 0.30357921339911909 0 0.14924189349128261 0.29698436464102829 0 0.1513591925520972 0.30423422291399321 0 0.14170706289926879 0.30357921339911909 0 0.14924189349128261 0.29698436464102829 0 0.1416447250157222 0.29544082675589128 0 0.1513591925520972 0.30423422291399321 0 0.15847128754916129 0.30901971199088751 0 0.1567398971697517 0.30020769771567818 0 0.14924189349128261 0.29698436464102829 0 0.1513591925520972 0.30423422291399321 0 0.1567398971697517 0.30020769771567818 0 0.1483486037307668 0.31106151759990119 0 0.1513591925520972 0.30423422291399321 0 0.15847128754916129 0.30901971199088751 0 0.1483486037307668 0.31106151759990119 0 0.15847128754916129 0.30901971199088751 0 0.1531779528472626 0.31690967251270458 0 0.14256315404166739 0.2804585798755338 0 0.15383705453569649 0.27951082009548711 0 0.14728728951424691 0.28871625735014939 0 0.14256315404166739 0.2804585798755338 0 0.13463915166403909 0.29011289163129678 0 0.14728728951424691 0.28871625735014939 0 0.14924189349128261 0.29698436464102829 0 0.14728728951424691 0.28871625735014939 0 0.1416447250157222 0.29544082675589128 0 0.13463915166403909 0.29011289163129678 0 0.14728728951424691 0.28871625735014939 0 0.1416447250157222 0.29544082675589128 0 0.14924189349128261 0.29698436464102829 0 0.1576814993112734 0.29111844862325259 0 0.1567398971697517 0.30020769771567818 0 0.14924189349128261 0.29698436464102829 0 0.14728728951424691 0.28871625735014939 0 0.1576814993112734 0.29111844862325259 0 0.15383705453569649 0.27951082009548711 0 0.14728728951424691 0.28871625735014939 0 0.1576814993112734 0.29111844862325259 0 0.15383705453569649 0.27951082009548711 0 0.1576814993112734 0.29111844862325259 0 0.16532030222413041 0.28061774918364429 0 0.1576814993112734 0.29111844862325259 0 0.1689979645595176 0.28949488405725932 0 0.16532030222413041 0.28061774918364429 0 0.1576814993112734 0.29111844862325259 0 0.1689979645595176 0.28949488405725932 0 0.16694561294494401 0.29968174040922901 0 0.1689979645595176 0.28949488405725932 0 0.16694561294494401 0.29968174040922901 0 0.17866142019044989 0.29199773726540068 0 0.1689979645595176 0.28949488405725932 0 0.17498255083596301 0.28300150235233201 0 0.16532030222413041 0.28061774918364429 0 0.1576814993112734 0.29111844862325259 0 0.1567398971697517 0.30020769771567818 0 0.16694561294494401 0.29968174040922901 0 0.15847128754916129 0.30901971199088751 0 0.1567398971697517 0.30020769771567818 0 0.16694561294494401 0.29968174040922901 0 0.16694561294494401 0.29968174040922901 0 0.17666858027807311 0.3015349886251833 0 0.1707678241303611 0.31259989648156872 0 0.15847128754916129 0.30901971199088751 0 0.16694561294494401 0.29968174040922901 0 0.1707678241303611 0.31259989648156872 0 0.17666858027807311 0.3015349886251833 0 0.18371952992762389 0.30785332357736089 0 0.1707678241303611 0.31259989648156872 0 0.16694561294494401 0.29968174040922901 0 0.17666858027807311 0.3015349886251833 0 0.17866142019044989 0.29199773726540068 0 0.17666858027807311 0.3015349886251833 0 0.18371952992762389 0.30785332357736089 0 0.1898902111984884 0.29891268329407239 0 0.18371952992762389 0.30785332357736089 0 0.1898902111984884 0.29891268329407239 0 0.17666858027807311 0.3015349886251833 0 0.17866142019044989 0.29199773726540068 0 0.1898902111984884 0.29891268329407239 0 0.17498255083596301 0.28300150235233201 0 0.17866142019044989 0.29199773726540068 0 0.1849298445554361 0.28099903695767547 0 0.1689979645595176 0.28949488405725932 0 0.17498255083596301 0.28300150235233201 0 0.17866142019044989 0.29199773726540068 0 0.17866142019044989 0.29199773726540068 0 0.18677859260729601 0.28760164196875848 0 0.1898902111984884 0.29891268329407239 0 0.17866142019044989 0.29199773726540068 0 0.18677859260729601 0.28760164196875848 0 0.1849298445554361 0.28099903695767547 0 0.1849298445554361 0.28099903695767547 0 0.17528279401001801 0.2714166079934146 0 0.19094745617081291 0.27038549871767581 0 0.17528279401001801 0.2714166079934146 0 0.18564289691528729 0.25868749876629671 0 0.19094745617081291 0.27038549871767581 0 0.17498255083596301 0.28300150235233201 0 0.1849298445554361 0.28099903695767547 0 0.17528279401001801 0.2714166079934146 0 0.17528279401001801 0.2714166079934146 0 0.16532030222413041 0.28061774918364429 0 0.1609818760820641 0.2708255403471686 0 0.17498255083596301 0.28300150235233201 0 0.17528279401001801 0.2714166079934146 0 0.16532030222413041 0.28061774918364429 0 0.17528279401001801 0.2714166079934146 0 0.1609818760820641 0.2708255403471686 0 0.1631161995596529 0.25657386530356069 0 0.15383705453569649 0.27951082009548711 0 0.16532030222413041 0.28061774918364429 0 0.1609818760820641 0.2708255403471686 0 0.14627836463393121 0.26809473379089088 0 0.1609818760820641 0.2708255403471686 0 0.1631161995596529 0.25657386530356069 0 0.16890701105638031 0.23504418317664161 0 0.1631161995596529 0.25657386530356069 0 0.18564289691528729 0.25868749876629671 0 0.17528279401001801 0.2714166079934146 0 0.1631161995596529 0.25657386530356069 0 0.18564289691528729 0.25868749876629671 0 0.1956251304139873 0.24830732682566101 0 0.18564289691528729 0.25868749876629671 0 0.20465537480646501 0.25892384109831479 0 0.18564289691528729 0.25868749876629671 0 0.19094745617081291 0.27038549871767581 0 0.20465537480646501 0.25892384109831479 0 0.2050239072751949 0.2492833193895482 0 0.1956251304139873 0.24830732682566101 0 0.20465537480646501 0.25892384109831479 0 0.19094745617081291 0.27038549871767581 0 0.20212350544635149 0.27452240688285762 0 0.1917381003592612 0.28136787577326228 0 0.1849298445554361 0.28099903695767547 0 0.19094745617081291 0.27038549871767581 0 0.1917381003592612 0.28136787577326228 0 0.19094745617081291 0.27038549871767581 0 0.20212350544635149 0.27452240688285762 0 0.20465537480646501 0.25892384109831479 0 0.21559138507808229 0.27635001083075639 0 0.2170338530129477 0.25958452376210089 0 0.2223889939606305 0.26849190584137572 0 0.20212350544635149 0.27452240688285762 0 0.2170338530129477 0.25958452376210089 0 0.20037669147028589 0.28371892366973078 0 0.2170338530129477 0.25958452376210089 0 0.20037669147028589 0.28371892366973078 0 0.21559138507808229 0.27635001083075639 0 0.2170338530129477 0.25958452376210089 0 0.20037669147028589 0.28371892366973078 0 0.20212350544635149 0.27452240688285762 0 0.20465537480646501 0.25892384109831479 0 0.21458810326103989 0.25029177234766842 0 0.20212350544635149 0.27452240688285762 0 0.2170338530129477 0.25958452376210089 0 0.21458810326103989 0.25029177234766842 0 0.20212350544635149 0.27452240688285762 0 0.21458810326103989 0.25029177234766842 0 0.2050239072751949 0.2492833193895482 0 0.20465537480646501 0.25892384109831479 0 0.21458810326103989 0.25029177234766842 0 0.20465537480646501 0.25892384109831479 0 0.21458810326103989 0.25029177234766842 0 0.23169913173193779 0.25404958449575432 0 0.22942687348362151 0.26728355318502178 0 0.24090080429007341 0.26281353644332878 0 0.23169913173193779 0.25404958449575432 0 0.2249153238939712 0.26221153605608138 0 0.22942687348362151 0.26728355318502178 0 0.2170338530129477 0.25958452376210089 0 0.2249153238939712 0.26221153605608138 0 0.2223889939606305 0.26849190584137572 0 0.2170338530129477 0.25958452376210089 0 0.23169913173193779 0.25404958449575432 0 0.2249153238939712 0.26221153605608138 0 0.2223889939606305 0.26849190584137572 0 0.2255322572178127 0.27738204478537232 0 0.22942687348362151 0.26728355318502178 0 0.2249153238939712 0.26221153605608138 0 0.2223889939606305 0.26849190584137572 0 0.22942687348362151 0.26728355318502178 0 0.21559138507808229 0.27635001083075639 0 0.2255322572178127 0.27738204478537232 0 0.21985426169801439 0.28935406669317137 0 0.21559138507808229 0.27635001083075639 0 0.2223889939606305 0.26849190584137572 0 0.2255322572178127 0.27738204478537232 0 0.2255322572178127 0.27738204478537232 0 0.23621117140834261 0.27732665952701641 0 0.23095623596381579 0.2876536505458 0 0.2255322572178127 0.27738204478537232 0 0.22942687348362151 0.26728355318502178 0 0.23621117140834261 0.27732665952701641 0 0.23621117140834261 0.27732665952701641 0 0.24818821145747599 0.27522177653690871 0 0.24090080429007341 0.26281353644332878 0 0.22942687348362151 0.26728355318502178 0 0.23621117140834261 0.27732665952701641 0 0.24090080429007341 0.26281353644332878 0 0.24818821145747599 0.27522177653690871 0 0.24090080429007341 0.26281353644332878 0 0.25530776412370298 0.26639583896058622 0 0.23995652529561701 0.25039133628829258 0 0.24090080429007341 0.26281353644332878 0 0.25404003316197471 0.25208422786308371 0 0.23169913173193779 0.25404958449575432 0 0.23995652529561701 0.25039133628829258 0 0.24090080429007341 0.26281353644332878 0 0.23765651747073049 0.31117848176507701 0 0.2454028482605469 0.29267792886045368 0 0.25114017462525878 0.31153615041935723 0 0.23765651747073049 0.31117848176507701 0 0.2454028482605469 0.29267792886045368 0 0.2283396740985745 0.30195705682751389 0 0.2454028482605469 0.29267792886045368 0 0.23095623596381579 0.2876536505458 0 0.2283396740985745 0.30195705682751389 0 0.23621117140834261 0.27732665952701641 0 0.24818821145747599 0.27522177653690871 0 0.2454028482605469 0.29267792886045368 0 0.23621117140834261 0.27732665952701641 0 0.2454028482605469 0.29267792886045368 0 0.23095623596381579 0.2876536505458 0 0.2255322572178127 0.27738204478537232 0 0.23095623596381579 0.2876536505458 0 0.21985426169801439 0.28935406669317137 0 0.23095623596381579 0.2876536505458 0 0.21985426169801439 0.28935406669317137 0 0.2283396740985745 0.30195705682751389 0 0.2283396740985745 0.30195705682751389 0 0.2184758680590754 0.31184724711422762 0 0.22801070301179061 0.32060690690137728 0 0.21985426169801439 0.28935406669317137 0 0.2283396740985745 0.30195705682751389 0 0.21670572119465931 0.30172893354768798 0 0.23765651747073049 0.31117848176507701 0 0.2283396740985745 0.30195705682751389 0 0.22801070301179061 0.32060690690137728 0 0.2283396740985745 0.30195705682751389 0 0.2184758680590754 0.31184724711422762 0 0.21670572119465931 0.30172893354768798 0 0.2184758680590754 0.31184724711422762 0 0.21670572119465931 0.30172893354768798 0 0.20632342479934371 0.30585855598863948 0 0.21670572119465931 0.30172893354768798 0 0.20632342479934371 0.30585855598863948 0 0.21141614329998781 0.29390938293380992 0 0.20632342479934371 0.30585855598863948 0 0.21141614329998781 0.29390938293380992 0 0.2042452804315445 0.29308429151921322 0 0.21559138507808229 0.27635001083075639 0 0.21985426169801439 0.28935406669317137 0 0.2104384150331686 0.28649738738125968 0 0.21985426169801439 0.28935406669317137 0 0.21141614329998781 0.29390938293380992 0 0.2104384150331686 0.28649738738125968 0 0.21985426169801439 0.28935406669317137 0 0.21670572119465931 0.30172893354768798 0 0.21141614329998781 0.29390938293380992 0 0.21141614329998781 0.29390938293380992 0 0.2042452804315445 0.29308429151921322 0 0.2104384150331686 0.28649738738125968 0 0.2042452804315445 0.29308429151921322 0 0.2104384150331686 0.28649738738125968 0 0.20037669147028589 0.28371892366973078 0 0.21559138507808229 0.27635001083075639 0 0.2104384150331686 0.28649738738125968 0 0.20037669147028589 0.28371892366973078 0 0.20212350544635149 0.27452240688285762 0 0.20037669147028589 0.28371892366973078 0 0.1898902111984884 0.29891268329407239 0 0.18677859260729601 0.28760164196875848 0 0.1917381003592612 0.28136787577326228 0 0.1898902111984884 0.29891268329407239 0 0.20037669147028589 0.28371892366973078 0 0.1976595376627992 0.29976589533378561 0 0.1898902111984884 0.29891268329407239 0 0.2042452804315445 0.29308429151921322 0 0.20037669147028589 0.28371892366973078 0 0.1976595376627992 0.29976589533378561 0 0.20212350544635149 0.27452240688285762 0 0.1898902111984884 0.29891268329407239 0 0.20212350544635149 0.27452240688285762 0 0.1917381003592612 0.28136787577326228 0 0.1898902111984884 0.29891268329407239 0 0.20037669147028589 0.28371892366973078 0 0.1898902111984884 0.29891268329407239 0 0.18677859260729601 0.28760164196875848 0 0.1849298445554361 0.28099903695767547 0 0.1917381003592612 0.28136787577326228 0 0.20632342479934371 0.30585855598863948 0 0.19412409721151189 0.30848045781950378 0 0.19635424873152091 0.31866253726922511 0 0.20632342479934371 0.30585855598863948 0 0.1976595376627992 0.29976589533378561 0 0.19412409721151189 0.30848045781950378 0 0.20632342479934371 0.30585855598863948 0 0.2042452804315445 0.29308429151921322 0 0.1976595376627992 0.29976589533378561 0 0.18371952992762389 0.30785332357736089 0 0.1976595376627992 0.29976589533378561 0 0.1898902111984884 0.29891268329407239 0 0.18371952992762389 0.30785332357736089 0 0.19412409721151189 0.30848045781950378 0 0.19635424873152091 0.31866253726922511 0 0.18371952992762389 0.30785332357736089 0 0.1976595376627992 0.29976589533378561 0 0.19412409721151189 0.30848045781950378 0 0.19635424873152091 0.31866253726922511 0 0.19329834396814641 0.33328399686629978 0 0.21150607161232149 0.3245036863190196 0 0.19635424873152091 0.31866253726922511 0 0.19329834396814641 0.33328399686629978 0 0.1818581672390053 0.32281790922797782 0 0.19329834396814641 0.33328399686629978 0 0.20841238186686439 0.34472105417207632 0 0.1876990638134575 0.35190483133425488 0 0.19329834396814641 0.33328399686629978 0 0.21150607161232149 0.3245036863190196 0 0.20841238186686439 0.34472105417207632 0 0.21150607161232149 0.3245036863190196 0 0.22736457019319431 0.33776348264759248 0 0.20841238186686439 0.34472105417207632 0 0.20632342479934371 0.30585855598863948 0 0.19635424873152091 0.31866253726922511 0 0.21150607161232149 0.3245036863190196 0 0.2184758680590754 0.31184724711422762 0 0.20632342479934371 0.30585855598863948 0 0.21150607161232149 0.3245036863190196 0 0.21150607161232149 0.3245036863190196 0 0.22801070301179061 0.32060690690137728 0 0.22736457019319431 0.33776348264759248 0 0.2184758680590754 0.31184724711422762 0 0.21150607161232149 0.3245036863190196 0 0.22801070301179061 0.32060690690137728 0 0.22801070301179061 0.32060690690137728 0 0.22736457019319431 0.33776348264759248 0 0.24490867605631639 0.32967072069511189 0 0.22736457019319431 0.33776348264759248 0 0.24490867605631639 0.32967072069511189 0 0.24521693247762111 0.35027114815259558 0 0.23765651747073049 0.31117848176507701 0 0.22801070301179061 0.32060690690137728 0 0.24490867605631639 0.32967072069511189 0 0.23765651747073049 0.31117848176507701 0 0.24490867605631639 0.32967072069511189 0 0.25114017462525878 0.31153615041935723 0 0.24305895760768401 0.36641304215893011 0 0.24521693247762111 0.35027114815259558 0 0.22613265613425179 0.35680737964537468 0 0.22736457019319431 0.33776348264759248 0 0.24521693247762111 0.35027114815259558 0 0.22613265613425179 0.35680737964537468 0 0.22736457019319431 0.33776348264759248 0 0.22613265613425179 0.35680737964537468 0 0.20841238186686439 0.34472105417207632 0 0.22613265613425179 0.35680737964537468 0 0.20200890290724041 0.36500873302905812 0 0.22860253219506471 0.37841014948266538 0 0.24305895760768401 0.36641304215893011 0 0.22613265613425179 0.35680737964537468 0 0.22860253219506471 0.37841014948266538 0 0.20200890290724041 0.36500873302905812 0 0.22860253219506471 0.37841014948266538 0 0.22613265613425179 0.35680737964537468 0 0.20841238186686439 0.34472105417207632 0 0.20200890290724041 0.36500873302905812 0 0.20841238186686439 0.34472105417207632 0 0.1876990638134575 0.35190483133425488 0 0.20200890290724041 0.36500873302905812 0 0.1876990638134575 0.35190483133425488 0 0.20200890290724041 0.36500873302905812 0 0.17637045729064621 0.37495278481954358 0 0.1876990638134575 0.35190483133425488 0 0.17637045729064621 0.37495278481954358 0 0.16909864488713719 0.35514267549568418 0 0.15975417249048229 0.36968310563447321 0 0.16909864488713719 0.35514267549568418 0 0.14990537096685039 0.36070173528474042 0 0.17637045729064621 0.37495278481954358 0 0.15975417249048229 0.36968310563447321 0 0.16909864488713719 0.35514267549568418 0 0.16909864488713719 0.35514267549568418 0 0.1770056519607103 0.33831974362286749 0 0.1619384281755652 0.34052596047808847 0 0.16909864488713719 0.35514267549568418 0 0.14990537096685039 0.36070173528474042 0 0.15416632756111201 0.34898696826244741 0 0.16909864488713719 0.35514267549568418 0 0.1619384281755652 0.34052596047808847 0 0.15416632756111201 0.34898696826244741 0 0.1876990638134575 0.35190483133425488 0 0.16909864488713719 0.35514267549568418 0 0.1770056519607103 0.33831974362286749 0 0.19329834396814641 0.33328399686629978 0 0.1770056519607103 0.33831974362286749 0 0.1818581672390053 0.32281790922797782 0 0.19329834396814641 0.33328399686629978 0 0.1876990638134575 0.35190483133425488 0 0.1770056519607103 0.33831974362286749 0 0.1770056519607103 0.33831974362286749 0 0.1818581672390053 0.32281790922797782 0 0.1657389141743941 0.32607447656151611 0 0.1818581672390053 0.32281790922797782 0 0.1707678241303611 0.31259989648156872 0 0.1657389141743941 0.32607447656151611 0 0.18371952992762389 0.30785332357736089 0 0.19635424873152091 0.31866253726922511 0 0.1818581672390053 0.32281790922797782 0 0.18371952992762389 0.30785332357736089 0 0.1818581672390053 0.32281790922797782 0 0.1707678241303611 0.31259989648156872 0 0.1707678241303611 0.31259989648156872 0 0.1657389141743941 0.32607447656151611 0 0.16084478468494731 0.31759224325908281 0 0.1657389141743941 0.32607447656151611 0 0.15632698434060879 0.32309477146443721 0 0.16084478468494731 0.31759224325908281 0 0.1657389141743941 0.32607447656151611 0 0.15632698434060879 0.32309477146443721 0 0.1534459738215358 0.33116830427909388 0 0.15847128754916129 0.30901971199088751 0 0.1707678241303611 0.31259989648156872 0 0.16084478468494731 0.31759224325908281 0 0.15847128754916129 0.30901971199088751 0 0.16084478468494731 0.31759224325908281 0 0.1531779528472626 0.31690967251270458 0 0.15632698434060879 0.32309477146443721 0 0.16084478468494731 0.31759224325908281 0 0.1531779528472626 0.31690967251270458 0 0.1770056519607103 0.33831974362286749 0 0.1657389141743941 0.32607447656151611 0 0.1619384281755652 0.34052596047808847 0 0.1657389141743941 0.32607447656151611 0 0.1619384281755652 0.34052596047808847 0 0.1534459738215358 0.33116830427909388 0 0.1619384281755652 0.34052596047808847 0 0.14537830609435001 0.34101383565047871 0 0.15416632756111201 0.34898696826244741 0 0.1619384281755652 0.34052596047808847 0 0.1534459738215358 0.33116830427909388 0 0.14537830609435001 0.34101383565047871 0 0.1534459738215358 0.33116830427909388 0 0.1427633336259623 0.33140140495610498 0 0.14842729617490411 0.32372916070978858 0 0.1534459738215358 0.33116830427909388 0 0.1427633336259623 0.33140140495610498 0 0.14537830609435001 0.34101383565047871 0 0.1427633336259623 0.33140140495610498 0 0.14537830609435001 0.34101383565047871 0 0.13654253772275141 0.33890423694427602 0 0.1483486037307668 0.31106151759990119 0 0.1531779528472626 0.31690967251270458 0 0.14487070829517959 0.31682928085866202 0 0.1531779528472626 0.31690967251270458 0 0.14842729617490411 0.32372916070978858 0 0.14487070829517959 0.31682928085866202 0 0.15632698434060879 0.32309477146443721 0 0.1534459738215358 0.33116830427909388 0 0.14842729617490411 0.32372916070978858 0 0.15632698434060879 0.32309477146443721 0 0.1531779528472626 0.31690967251270458 0 0.14842729617490411 0.32372916070978858 0 0.1427633336259623 0.33140140495610498 0 0.14842729617490411 0.32372916070978858 0 0.1402378637359267 0.32270884290342983 0 0.14842729617490411 0.32372916070978858 0 0.14487070829517959 0.31682928085866202 0 0.1402378637359267 0.32270884290342983 0 0.1483486037307668 0.31106151759990119 0 0.14130712994747449 0.31140798331507108 0 0.14487070829517959 0.31682928085866202 0 0.14130712994747449 0.31140798331507108 0 0.14487070829517959 0.31682928085866202 0 0.13528824775885559 0.3155805734405937 0 0.14487070829517959 0.31682928085866202 0 0.13528824775885559 0.3155805734405937 0 0.1402378637359267 0.32270884290342983 0 0.13528824775885559 0.3155805734405937 0 0.1330765722643745 0.32249408610517011 0 0.1402378637359267 0.32270884290342983 0 0.1330765722643745 0.32249408610517011 0 0.1402378637359267 0.32270884290342983 0 0.13309473665224339 0.33072661256584468 0 0.12375204985912221 0.32702725796552912 0 0.1330765722643745 0.32249408610517011 0 0.13309473665224339 0.33072661256584468 0 0.12375204985912221 0.32702725796552912 0 0.1330765722643745 0.32249408610517011 0 0.12817088130983889 0.317450689473041 0 0.13528824775885559 0.3155805734405937 0 0.1330765722643745 0.32249408610517011 0 0.12817088130983889 0.317450689473041 0 0.1214195525311879 0.31440901896845502 0 0.12900107104525951 0.30968741412501871 0 0.12817088130983889 0.317450689473041 0 0.12900107104525951 0.30968741412501871 0 0.13528824775885559 0.3155805734405937 0 0.12817088130983889 0.317450689473041 0 0.14537830609435001 0.34101383565047871 0 0.13654253772275141 0.33890423694427602 0 0.13685475473781181 0.34959577292381833 0 0.13654253772275141 0.33890423694427602 0 0.1260676383484185 0.3399282146226113 0 0.13685475473781181 0.34959577292381833 0 0.1427633336259623 0.33140140495610498 0 0.13654253772275141 0.33890423694427602 0 0.13309473665224339 0.33072661256584468 0 0.1427633336259623 0.33140140495610498 0 0.1402378637359267 0.32270884290342983 0 0.13309473665224339 0.33072661256584468 0 0.12375204985912221 0.32702725796552912 0 0.13309473665224339 0.33072661256584468 0 0.1260676383484185 0.3399282146226113 0 0.13654253772275141 0.33890423694427602 0 0.13309473665224339 0.33072661256584468 0 0.1260676383484185 0.3399282146226113 0 0.1232256624926347 0.35239419723674059 0 0.13685475473781181 0.34959577292381833 0 0.13271547193899449 0.36524458735671972 0 0.1232256624926347 0.35239419723674059 0 0.1260676383484185 0.3399282146226113 0 0.13685475473781181 0.34959577292381833 0 0.13685475473781181 0.34959577292381833 0 0.13271547193899449 0.36524458735671972 0 0.14990537096685039 0.36070173528474042 0 0.13271547193899449 0.36524458735671972 0 0.14727668153694909 0.37350977329143831 0 0.1384203385310763 0.3853027474406937 0 0.13271547193899449 0.36524458735671972 0 0.14727668153694909 0.37350977329143831 0 0.14990537096685039 0.36070173528474042 0 0.15975417249048229 0.36968310563447321 0 0.14727668153694909 0.37350977329143831 0 0.14990537096685039 0.36070173528474042 0 0.14537830609435001 0.34101383565047871 0 0.13685475473781181 0.34959577292381833 0 0.15416632756111201 0.34898696826244741 0 0.13685475473781181 0.34959577292381833 0 0.14990537096685039 0.36070173528474042 0 0.15416632756111201 0.34898696826244741 0 0.15196678808574959 0.39634912392256672 0 0.1402717845598023 0.40641241395674649 0 0.16129649351817349 0.40676751558544272 0 0.15196678808574959 0.39634912392256672 0 0.1384203385310763 0.3853027474406937 0 0.1402717845598023 0.40641241395674649 0 0.15196678808574959 0.39634912392256672 0 0.15611970777082879 0.38410855928095938 0 0.1384203385310763 0.3853027474406937 0 0.14727668153694909 0.37350977329143831 0 0.15611970777082879 0.38410855928095938 0 0.1384203385310763 0.3853027474406937 0 0.15975417249048229 0.36968310563447321 0 0.14727668153694909 0.37350977329143831 0 0.15611970777082879 0.38410855928095938 0 0.1231373165426977 0.3806134049577457 0 0.13271547193899449 0.36524458735671972 0 0.1384203385310763 0.3853027474406937 0 0.1231373165426977 0.3806134049577457 0 0.1384203385310763 0.3853027474406937 0 0.1271742827044339 0.39597619803598749 0 0.1384203385310763 0.3853027474406937 0 0.1271742827044339 0.39597619803598749 0 0.1402717845598023 0.40641241395674649 0 0.1162621503634904 0.41872732341568758 0 0.1271742827044339 0.39597619803598749 0 0.1402717845598023 0.40641241395674649 0 0.1162621503634904 0.41872732341568758 0 0.1402717845598023 0.40641241395674649 0 0.14380353536204241 0.43078456768362461 0 0.1162621503634904 0.41872732341568758 0 0.14380353536204241 0.43078456768362461 0 0.1205619018159948 0.44674810255646558 0 0.1162621503634904 0.41872732341568758 0 0.13914808732176639 0.43525501877606959 0 0.1162621503634904 0.41872732341568758 0 0.13914808732176639 0.43525501877606959 0 0.14380353536204241 0.43078456768362461 0 0.1402717845598023 0.40641241395674649 0 0.16129649351817349 0.40676751558544272 0 0.1583102357697074 0.42239552662274649 0 0.1402717845598023 0.40641241395674649 0 0.14380353536204241 0.43078456768362461 0 0.1583102357697074 0.42239552662274649 0 0.16129649351817349 0.40676751558544272 0 0.17483444504792359 0.42517132393635743 0 0.1767108048052333 0.40648620419478521 0 0.16129649351817349 0.40676751558544272 0 0.1583102357697074 0.42239552662274649 0 0.17483444504792359 0.42517132393635743 0 0.1583102357697074 0.42239552662274649 0 0.17483444504792359 0.42517132393635743 0 0.1713449203605947 0.44284181195156158 0 0.14380353536204241 0.43078456768362461 0 0.1713449203605947 0.44284181195156158 0 0.14380353536204241 0.43078456768362461 0 0.1583102357697074 0.42239552662274649 0 0.1713449203605947 0.44284181195156158 0 0.17483444504792359 0.42517132393635743 0 0.18216746451451801 0.43740730714955978 0 0.1713449203605947 0.44284181195156158 0 0.17483444504792359 0.42517132393635743 0 0.1713449203605947 0.44284181195156158 0 0.17483444504792359 0.42517132393635743 0 0.1894098998784805 0.41329321868770491 0 0.19020123220431809 0.42989189963497759 0 0.17483444504792359 0.42517132393635743 0 0.18216746451451801 0.43740730714955978 0 0.19020123220431809 0.42989189963497759 0 0.17483444504792359 0.42517132393635743 0 0.1767108048052333 0.40648620419478521 0 0.1894098998784805 0.41329321868770491 0 0.1767108048052333 0.40648620419478521 0 0.16971698500113649 0.39319336099264368 0 0.18829620058045249 0.39400560177177729 0 0.1767108048052333 0.40648620419478521 0 0.18829620058045249 0.39400560177177729 0 0.1894098998784805 0.41329321868770491 0 0.15196678808574959 0.39634912392256672 0 0.15611970777082879 0.38410855928095938 0 0.16971698500113649 0.39319336099264368 0 0.15196678808574959 0.39634912392256672 0 0.16129649351817349 0.40676751558544272 0 0.16971698500113649 0.39319336099264368 0 0.16129649351817349 0.40676751558544272 0 0.1767108048052333 0.40648620419478521 0 0.16971698500113649 0.39319336099264368 0 0.17637045729064621 0.37495278481954358 0 0.15975417249048229 0.36968310563447321 0 0.15611970777082879 0.38410855928095938 0 0.17637045729064621 0.37495278481954358 0 0.15611970777082879 0.38410855928095938 0 0.16971698500113649 0.39319336099264368 0 0.17637045729064621 0.37495278481954358 0 0.16971698500113649 0.39319336099264368 0 0.18829620058045249 0.39400560177177729 0 0.20200890290724041 0.36500873302905812 0 0.18829620058045249 0.39400560177177729 0 0.21022739730807871 0.38998636848418261 0 0.20200890290724041 0.36500873302905812 0 0.17637045729064621 0.37495278481954358 0 0.18829620058045249 0.39400560177177729 0 0.18829620058045249 0.39400560177177729 0 0.21022739730807871 0.38998636848418261 0 0.20498907662426999 0.40636669370009521 0 0.18829620058045249 0.39400560177177729 0 0.20498907662426999 0.40636669370009521 0 0.1894098998784805 0.41329321868770491 0 0.21022739730807871 0.38998636848418261 0 0.225418264115859 0.4045632601918206 0 0.20498907662426999 0.40636669370009521 0 0.20200890290724041 0.36500873302905812 0 0.21022739730807871 0.38998636848418261 0 0.22860253219506471 0.37841014948266538 0 0.21022739730807871 0.38998636848418261 0 0.22860253219506471 0.37841014948266538 0 0.225418264115859 0.4045632601918206 0 0.225418264115859 0.4045632601918206 0 0.2490748840761759 0.41447913741323361 0 0.25519616148288887 0.39181156593627298 0 0.22860253219506471 0.37841014948266538 0 0.225418264115859 0.4045632601918206 0 0.25519616148288887 0.39181156593627298 0 0.22860253219506471 0.37841014948266538 0 0.25519616148288887 0.39181156593627298 0 0.24305895760768401 0.36641304215893011 0 0.22860253219506471 0.37841014948266538 0 0.25519616148288887 0.39181156593627298 0 0.2490748840761759 0.41447913741323361 0 0.23040520055063371 0.42472223384156732 0 0.24517769652138269 0.43868647355565088 0 0.225418264115859 0.4045632601918206 0 0.2490748840761759 0.41447913741323361 0 0.23040520055063371 0.42472223384156732 0 0.225418264115859 0.4045632601918206 0 0.23040520055063371 0.42472223384156732 0 0.20794960100346549 0.42683021087399747 0 0.23040520055063371 0.42472223384156732 0 0.20794960100346549 0.42683021087399747 0 0.2229924843016429 0.43948176305630821 0 0.23040520055063371 0.42472223384156732 0 0.2229924843016429 0.43948176305630821 0 0.24517769652138269 0.43868647355565088 0 0.225418264115859 0.4045632601918206 0 0.20794960100346549 0.42683021087399747 0 0.20498907662426999 0.40636669370009521 0 0.20794960100346549 0.42683021087399747 0 0.20498907662426999 0.40636669370009521 0 0.1894098998784805 0.41329321868770491 0 0.20794960100346549 0.42683021087399747 0 0.19020123220431809 0.42989189963497759 0 0.19426067079655579 0.44330707928475449 0 0.20794960100346549 0.42683021087399747 0 0.1894098998784805 0.41329321868770491 0 0.19020123220431809 0.42989189963497759 0 0.18216746451451801 0.43740730714955978 0 0.19020123220431809 0.42989189963497759 0 0.19426067079655579 0.44330707928475449 0 0.19426067079655579 0.44330707928475449 0 0.1940681668251448 0.45640187690020761 0 0.18254949088188149 0.4477470207382499 0 0.19426067079655579 0.44330707928475449 0 0.1940681668251448 0.45640187690020761 0 0.20814429074563079 0.44944136850783811 0 0.1940681668251448 0.45640187690020761 0 0.20814429074563079 0.44944136850783811 0 0.2039949308663013 0.472197178379127 0 0.1940681668251448 0.45640187690020761 0 0.2039949308663013 0.472197178379127 0 0.18608081776579821 0.46867989557539208 0 0.1940681668251448 0.45640187690020761 0 0.18608081776579821 0.46867989557539208 0 0.18254949088188149 0.4477470207382499 0 0.20814429074563079 0.44944136850783811 0 0.22852149564367849 0.45772005811557609 0 0.2039949308663013 0.472197178379127 0 0.20794960100346549 0.42683021087399747 0 0.19426067079655579 0.44330707928475449 0 0.20814429074563079 0.44944136850783811 0 0.20794960100346549 0.42683021087399747 0 0.20814429074563079 0.44944136850783811 0 0.2229924843016429 0.43948176305630821 0 0.2229924843016429 0.43948176305630821 0 0.22852149564367849 0.45772005811557609 0 0.24517769652138269 0.43868647355565088 0 0.20814429074563079 0.44944136850783811 0 0.2229924843016429 0.43948176305630821 0 0.22852149564367849 0.45772005811557609 0 0.22852149564367849 0.45772005811557609 0 0.2480713074063006 0.45455858161591112 0 0.2508124586903176 0.47172026355836871 0 0.22852149564367849 0.45772005811557609 0 0.2480713074063006 0.45455858161591112 0 0.24517769652138269 0.43868647355565088 0 0.24658834009167641 0.5 0 0.2268462464291012 0.47913099520174052 0 0.2508124586903176 0.47172026355836871 0 0.22852149564367849 0.45772005811557609 0 0.2268462464291012 0.47913099520174052 0 0.2508124586903176 0.47172026355836871 0 0.22852149564367849 0.45772005811557609 0 0.2268462464291012 0.47913099520174052 0 0.2039949308663013 0.472197178379127 0 0.24658834009167641 0.5 0 0.2268462464291012 0.47913099520174052 0 0.21774471386125249 0.5 0 0.2039949308663013 0.472197178379127 0 0.18890108763082861 0.5 0 0.18608081776579821 0.46867989557539208 0 0.21774471386125249 0.5 0 0.2039949308663013 0.472197178379127 0 0.18890108763082861 0.5 0 0.2268462464291012 0.47913099520174052 0 0.21774471386125249 0.5 0 0.2039949308663013 0.472197178379127 0 0.18890108763082861 0.5 0 0.16570119088049859 0.47142090597577962 0 0.18608081776579821 0.46867989557539208 0 0.18890108763082861 0.5 0 0.1600574614004048 0.499999999999998 0 0.16570119088049859 0.47142090597577962 0 0.1600574614004048 0.499999999999998 0 0.16570119088049859 0.47142090597577962 0 0.1600574614004048 0.499999999999998 0 0.16570119088049859 0.47142090597577962 0 0.1473140710794911 0.47841155746419622 0 0.16570119088049859 0.47142090597577962 0 0.18608081776579821 0.46867989557539208 0 0.18254949088188149 0.4477470207382499 0 0.16570119088049859 0.47142090597577962 0 0.18254949088188149 0.4477470207382499 0 0.1713449203605947 0.44284181195156158 0 0.18216746451451801 0.43740730714955978 0 0.19426067079655579 0.44330707928475449 0 0.18254949088188149 0.4477470207382499 0 0.18254949088188149 0.4477470207382499 0 0.1713449203605947 0.44284181195156158 0 0.18216746451451801 0.43740730714955978 0 0.18254949088188149 0.4477470207382499 0 0.1713449203605947 0.44284181195156158 0 0.16570119088049859 0.47142090597577962 0 0.1713449203605947 0.44284181195156158 0 0.16570119088049859 0.47142090597577962 0 0.1713449203605947 0.44284181195156158 0 0.15076126992746861 0.45128164001408699 0 0.16570119088049859 0.47142090597577962 0 0.14979107830043681 0.4659705410046826 0 0.15076126992746861 0.45128164001408699 0 0.14979107830043681 0.4659705410046826 0 0.15076126992746861 0.45128164001408699 0 0.13538778131428869 0.46276806056466779 0 0.13914808732176639 0.43525501877606959 0 0.14380353536204241 0.43078456768362461 0 0.15076126992746861 0.45128164001408699 0 0.14380353536204241 0.43078456768362461 0 0.1713449203605947 0.44284181195156158 0 0.15076126992746861 0.45128164001408699 0 0.13914808732176639 0.43525501877606959 0 0.15076126992746861 0.45128164001408699 0 0.13538778131428869 0.46276806056466779 0 0.13914808732176639 0.43525501877606959 0 0.13538778131428869 0.46276806056466779 0 0.1205619018159948 0.44674810255646558 0 0.13914808732176639 0.43525501877606959 0 0.13538778131428869 0.46276806056466779 0 0.1248616532684987 0.47476888169724352 0 0.1205619018159948 0.44674810255646558 0 0.13538778131428869 0.46276806056466779 0 0.13538778131428869 0.46276806056466779 0 0.13162747530681079 0.49028110235326611 0 0.1248616532684987 0.47476888169724352 0 0.13538778131428869 0.46276806056466779 0 0.13162747530681079 0.49028110235326611 0 0.13538778131428869 0.46276806056466779 0 0.13162747530681079 0.49028110235326611 0 0.1473140710794911 0.47841155746419622 0 0.1248616532684987 0.47476888169724352 0 0.13162747530681079 0.49028110235326611 0 0.1248616532684987 0.47476888169724352 0 0.1287333349596296 0.50000000000000233 0 0.1248616532684987 0.47476888169724352 0 0.13162747530681079 0.49028110235326611 0 0.1287333349596296 0.50000000000000233 0 0.13162747530681079 0.49028110235326611 0 0.1302991587401483 0.50000000000000044 0 0.13162747530681079 0.49028110235326611 0 0.1302991587401483 0.50000000000000044 0 0.13586647714571501 0.50000000000000044 0 0.13162747530681079 0.49028110235326611 0 0.1287333349596296 0.50000000000000233 0 0.1302991587401483 0.50000000000000044 0 0.13162747530681079 0.49028110235326611 0 0.13586647714571501 0.50000000000000044 0 0.14406777576738011 0.49099847585001533 0 0.13162747530681079 0.49028110235326611 0 0.13586647714571501 0.50000000000000044 0 0.1600574614004048 0.499999999999998 0 0.13586647714571501 0.50000000000000044 0 0.14406777576738011 0.49099847585001533 0 0.1600574614004048 0.499999999999998 0 0.14406777576738011 0.49099847585001533 0 0.1473140710794911 0.47841155746419622 0 0.13162747530681079 0.49028110235326611 0 0.14406777576738011 0.49099847585001533 0 0.1473140710794911 0.47841155746419622 0 0.16570119088049859 0.47142090597577962 0 0.14979107830043681 0.4659705410046826 0 0.1473140710794911 0.47841155746419622 0 0.14979107830043681 0.4659705410046826 0 0.13538778131428869 0.46276806056466779 0 0.1473140710794911 0.47841155746419622 0 0.3484716028812469 0.46927922019571022 0 0.3639431844790027 0.47792576209206161 0 0.36215729707138089 0.45952194433731441 0 0.3484716028812469 0.46927922019571022 0 0.34825454286986979 0.4866410253547736 0 0.3639431844790027 0.47792576209206161 0 0.34825454286986979 0.4866410253547736 0 0.36196284501337178 0.5 0 0.3639431844790027 0.47792576209206161 0 0.34825454286986979 0.4866410253547736 0 0.36196284501337178 0.5 0 0.33311921878294798 0.5 0 0.36196284501337178 0.5 0 0.3639431844790027 0.47792576209206161 0 0.38120033573297152 0.48442634992442057 0 0.3639431844790027 0.47792576209206161 0 0.37844435483634198 0.4675903904274426 0 0.38120033573297152 0.48442634992442057 0 0.3639431844790027 0.47792576209206161 0 0.36215729707138089 0.45952194433731441 0 0.37844435483634198 0.4675903904274426 0 0.36215729707138089 0.45952194433731441 0 0.37809165231809289 0.44568724501072521 0 0.37844435483634198 0.4675903904274426 0 0.36215729707138089 0.45952194433731441 0 0.35494335133579169 0.44207750056399991 0 0.37809165231809289 0.44568724501072521 0 0.35494335133579169 0.44207750056399991 0 0.365542703577178 0.42914551292816783 0 0.37809165231809289 0.44568724501072521 0 0.35494335133579169 0.44207750056399991 0 0.33746945485668051 0.4332718215327816 0 0.35494335133579169 0.44207750056399991 0 0.33933393763431879 0.44574212964051668 0 0.33746945485668051 0.4332718215327816 0 0.36215729707138089 0.45952194433731441 0 0.35494335133579169 0.44207750056399991 0 0.34904963657780902 0.45457154773394731 0 0.35494335133579169 0.44207750056399991 0 0.34904963657780902 0.45457154773394731 0 0.33933393763431879 0.44574212964051668 0 0.3484716028812469 0.46927922019571022 0 0.36215729707138089 0.45952194433731441 0 0.34904963657780902 0.45457154773394731 0 0.3484716028812469 0.46927922019571022 0 0.34904963657780902 0.45457154773394731 0 0.33768006752307722 0.45817683321967928 0 0.33768006752307722 0.45817683321967928 0 0.32516604183334019 0.44948070643492349 0 0.3263791186886712 0.4718105620932988 0 0.3484716028812469 0.46927922019571022 0 0.33768006752307722 0.45817683321967928 0 0.3263791186886712 0.4718105620932988 0 0.33933393763431879 0.44574212964051668 0 0.32516604183334019 0.44948070643492349 0 0.33457771181584611 0.43369686048393857 0 0.32516604183334019 0.44948070643492349 0 0.33457771181584611 0.43369686048393857 0 0.33933393763431879 0.44574212964051668 0 0.33457771181584611 0.43369686048393857 0 0.33746945485668051 0.4332718215327816 0 0.34904963657780902 0.45457154773394731 0 0.33768006752307722 0.45817683321967928 0 0.33933393763431879 0.44574212964051668 0 0.33768006752307722 0.45817683321967928 0 0.33933393763431879 0.44574212964051668 0 0.32516604183334019 0.44948070643492349 0 0.32516604183334019 0.44948070643492349 0 0.30610823095482448 0.43788140873538328 0 0.33457771181584611 0.43369686048393857 0 0.32516604183334019 0.44948070643492349 0 0.30909376894118562 0.45443190325323968 0 0.30610823095482448 0.43788140873538328 0 0.32516604183334019 0.44948070643492349 0 0.3263791186886712 0.4718105620932988 0 0.30909376894118562 0.45443190325323968 0 0.3263791186886712 0.4718105620932988 0 0.30059931196992168 0.47005809262963882 0 0.31153103284441203 0.48323920778459489 0 0.3484716028812469 0.46927922019571022 0 0.34825454286986979 0.4866410253547736 0 0.3263791186886712 0.4718105620932988 0 0.34825454286986979 0.4866410253547736 0 0.3263791186886712 0.4718105620932988 0 0.33311921878294798 0.5 0 0.3263791186886712 0.4718105620932988 0 0.33311921878294798 0.5 0 0.31153103284441203 0.48323920778459489 0 0.33311921878294798 0.5 0 0.30427559255252412 0.5 0 0.31153103284441203 0.48323920778459489 0 0.30427559255252412 0.5 0 0.31153103284441203 0.48323920778459489 0 0.29110307967174748 0.48580921065493432 0 0.30059931196992168 0.47005809262963882 0 0.31153103284441203 0.48323920778459489 0 0.29110307967174748 0.48580921065493432 0 0.30059931196992168 0.47005809262963882 0 0.29110307967174748 0.48580921065493432 0 0.27585954767988607 0.47408041721782612 0 0.30427559255252412 0.5 0 0.29110307967174748 0.48580921065493432 0 0.27543196632210021 0.5 0 0.27543196632210021 0.5 0 0.27585954767988607 0.47408041721782612 0 0.26198527678341299 0.48673919500437729 0 0.29110307967174748 0.48580921065493432 0 0.27543196632210021 0.5 0 0.27585954767988607 0.47408041721782612 0 0.27585954767988607 0.47408041721782612 0 0.2508124586903176 0.47172026355836871 0 0.26198527678341299 0.48673919500437729 0 0.24658834009167641 0.5 0 0.2508124586903176 0.47172026355836871 0 0.26198527678341299 0.48673919500437729 0 0.24658834009167641 0.5 0 0.27543196632210021 0.5 0 0.26198527678341299 0.48673919500437729 0 0.2480713074063006 0.45455858161591112 0 0.24517769652138269 0.43868647355565088 0 0.26777357876982372 0.45010753123404867 0 0.24517769652138269 0.43868647355565088 0 0.26777357876982372 0.45010753123404867 0 0.26600993858745892 0.42808938636359573 0 0.2480713074063006 0.45455858161591112 0 0.2508124586903176 0.47172026355836871 0 0.26777357876982372 0.45010753123404867 0 0.27585954767988607 0.47408041721782612 0 0.2508124586903176 0.47172026355836871 0 0.26777357876982372 0.45010753123404867 0 0.27585954767988607 0.47408041721782612 0 0.26777357876982372 0.45010753123404867 0 0.28975077836376328 0.45156795454144122 0 0.26777357876982372 0.45010753123404867 0 0.28975077836376328 0.45156795454144122 0 0.28607917402868899 0.43188291486824332 0 0.28975077836376328 0.45156795454144122 0 0.30610823095482448 0.43788140873538328 0 0.28607917402868899 0.43188291486824332 0 0.30059931196992168 0.47005809262963882 0 0.27585954767988607 0.47408041721782612 0 0.28975077836376328 0.45156795454144122 0 0.3263791186886712 0.4718105620932988 0 0.30059931196992168 0.47005809262963882 0 0.30909376894118562 0.45443190325323968 0 0.30059931196992168 0.47005809262963882 0 0.28975077836376328 0.45156795454144122 0 0.30909376894118562 0.45443190325323968 0 0.28975077836376328 0.45156795454144122 0 0.30909376894118562 0.45443190325323968 0 0.30610823095482448 0.43788140873538328 0 0.30610823095482448 0.43788140873538328 0 0.30869255759955722 0.41877018355733042 0 0.28607917402868899 0.43188291486824332 0 0.3075810200549029 0.4073564129674252 0 0.30869255759955722 0.41877018355733042 0 0.30232024370737348 0.40459188745546998 0 0.31142364564813352 0.41093370315849659 0 0.3075810200549029 0.4073564129674252 0 0.31015955469665918 0.40201373970895371 0 0.31142364564813352 0.41093370315849659 0 0.3075810200549029 0.4073564129674252 0 0.30869255759955722 0.41877018355733042 0 0.30869255759955722 0.41877018355733042 0 0.29605666041485018 0.40551048050067168 0 0.30232024370737348 0.40459188745546998 0 0.30869255759955722 0.41877018355733042 0 0.2819443595412231 0.40529087474680159 0 0.30869255759955722 0.41877018355733042 0 0.2819443595412231 0.40529087474680159 0 0.29605666041485018 0.40551048050067168 0 0.30869255759955722 0.41877018355733042 0 0.28607917402868899 0.43188291486824332 0 0.2819443595412231 0.40529087474680159 0 0.2490748840761759 0.41447913741323361 0 0.26600993858745892 0.42808938636359573 0 0.2819443595412231 0.40529087474680159 0 0.26777357876982372 0.45010753123404867 0 0.28607917402868899 0.43188291486824332 0 0.26600993858745892 0.42808938636359573 0 0.28607917402868899 0.43188291486824332 0 0.26600993858745892 0.42808938636359573 0 0.2819443595412231 0.40529087474680159 0 0.2490748840761759 0.41447913741323361 0 0.24517769652138269 0.43868647355565088 0 0.26600993858745892 0.42808938636359573 0 0.2490748840761759 0.41447913741323361 0 0.25519616148288887 0.39181156593627298 0 0.2819443595412231 0.40529087474680159 0 0.25519616148288887 0.39181156593627298 0 0.2618259464583832 0.36726095095448358 0 0.25519616148288887 0.39181156593627298 0 0.27405714121884811 0.38409687161834088 0 0.2618259464583832 0.36726095095448358 0 0.24305895760768401 0.36641304215893011 0 0.25519616148288887 0.39181156593627298 0 0.2618259464583832 0.36726095095448358 0 0.2490748840761759 0.41447913741323361 0 0.25519616148288887 0.39181156593627298 0 0.27405714121884811 0.38409687161834088 0 0.2819443595412231 0.40529087474680159 0 0.28762179706039948 0.39125587461843808 0 0.25519616148288887 0.39181156593627298 0 0.2819443595412231 0.40529087474680159 0 0.25519616148288887 0.39181156593627298 0 0.27405714121884811 0.38409687161834088 0 0.2819443595412231 0.40529087474680159 0 0.27405714121884811 0.38409687161834088 0 0.28403056220722062 0.37531448917755911 0 0.2737626695690904 0.37327007608818358 0 0.27405714121884811 0.38409687161834088 0 0.28403056220722062 0.37531448917755911 0 0.28762179706039948 0.39125587461843808 0 0.29405085274881382 0.37834813740539031 0 0.28762179706039948 0.39125587461843808 0 0.30049862001061489 0.39881078008944609 0 0.28403056220722062 0.37531448917755911 0 0.29405085274881382 0.37834813740539031 0 0.28762179706039948 0.39125587461843808 0 0.2819443595412231 0.40529087474680159 0 0.28762179706039948 0.39125587461843808 0 0.29316512877403511 0.40022580951085568 0 0.28762179706039948 0.39125587461843808 0 0.29316512877403511 0.40022580951085568 0 0.30049862001061489 0.39881078008944609 0 0.2819443595412231 0.40529087474680159 0 0.29316512877403511 0.40022580951085568 0 0.29605666041485018 0.40551048050067168 0 0.29316512877403511 0.40022580951085568 0 0.29605666041485018 0.40551048050067168 0 0.30042223720462058 0.4004666581126537 0 0.29605666041485018 0.40551048050067168 0 0.30232024370737348 0.40459188745546998 0 0.30042223720462058 0.4004666581126537 0 0.29316512877403511 0.40022580951085568 0 0.30042223720462058 0.4004666581126537 0 0.30049862001061489 0.39881078008944609 0 0.30042223720462058 0.4004666581126537 0 0.30049862001061489 0.39881078008944609 0 0.30232024370737348 0.40459188745546998 0 0.30049862001061489 0.39881078008944609 0 0.30232024370737348 0.40459188745546998 0 0.30049862001061489 0.39881078008944609 0 0.30430913302558388 0.40020258685778032 0 0.30232024370737348 0.40459188745546998 0 0.30042223720462058 0.4004666581126537 0 0.30049862001061489 0.39881078008944609 0 0.30049862001061489 0.39881078008944609 0 0.30098622665836988 0.38824011406760628 0 0.30049862001061489 0.39881078008944609 0 0.30430913302558388 0.40020258685778032 0 0.30098622665836988 0.38824011406760628 0 0.30098622665836988 0.38824011406760628 0 0.30110064445947421 0.38575968774854158 0 0.31262554991773928 0.39787599139405988 0 0.31015955469665918 0.40201373970895371 0 0.30098622665836988 0.38824011406760628 0 0.30110064445947421 0.38575968774854158 0 0.31262554991773928 0.39787599139405988 0 0.30430913302558388 0.40020258685778032 0 0.31015955469665918 0.40201373970895371 0 0.30098622665836988 0.38824011406760628 0 0.31015955469665918 0.40201373970895371 0 0.30098622665836988 0.38824011406760628 0 0.31262554991773928 0.39787599139405988 0 0.3075810200549029 0.4073564129674252 0 0.30232024370737348 0.40459188745546998 0 0.30430913302558388 0.40020258685778032 0 0.3075810200549029 0.4073564129674252 0 0.30430913302558388 0.40020258685778032 0 0.31015955469665918 0.40201373970895371 0 0.29405085274881382 0.37834813740539031 0 0.30049862001061489 0.39881078008944609 0 0.29405085274881382 0.37834813740539031 0 0.30049862001061489 0.39881078008944609 0 0.30098622665836988 0.38824011406760628 0 0.30110064445947421 0.38575968774854158 0 0.30177514978199971 0.3711373061071076 0 0.30110064445947421 0.38575968774854158 0 0.3104817065657739 0.3858680532317833 0 0.30177514978199971 0.3711373061071076 0 0.29405085274881382 0.37834813740539031 0 0.30110064445947421 0.38575968774854158 0 0.30177514978199971 0.3711373061071076 0 0.29405085274881382 0.37834813740539031 0 0.30110064445947421 0.38575968774854158 0 0.29405085274881382 0.37834813740539031 0 0.30098622665836988 0.38824011406760628 0 0.30110064445947421 0.38575968774854158 0 0.29405085274881382 0.37834813740539031 0 0.30098622665836988 0.38824011406760628 0 0.30098622665836988 0.38824011406760628 0 0.30110064445947421 0.38575968774854158 0 0.30110064445947421 0.38575968774854158 0 0.3104817065657739 0.3858680532317833 0 0.31262554991773928 0.39787599139405988 0 0.3104817065657739 0.3858680532317833 0 0.30177514978199971 0.3711373061071076 0 0.3104817065657739 0.3858680532317833 0 0.31717345926189522 0.3709258031848055 0 0.30177514978199971 0.3711373061071076 0 0.3104817065657739 0.3858680532317833 0 0.3376156911696272 0.37620073599141618 0 0.3104817065657739 0.3858680532317833 0 0.3376156911696272 0.37620073599141618 0 0.31717345926189522 0.3709258031848055 0 0.3104817065657739 0.3858680532317833 0 0.3376156911696272 0.37620073599141618 0 0.3351802944883514 0.39738750443412002 0 0.3376156911696272 0.37620073599141618 0 0.3351802944883514 0.39738750443412002 0 0.34879159400795012 0.38769315231290841 0 0.3351802944883514 0.39738750443412002 0 0.33658962428999861 0.41133204962483783 0 0.34988972217452752 0.40801784569160632 0 0.3351802944883514 0.39738750443412002 0 0.32415045537600512 0.40999229503957763 0 0.33658962428999861 0.41133204962483783 0 0.3351802944883514 0.39738750443412002 0 0.31909953512109351 0.40044867980609039 0 0.32415045537600512 0.40999229503957763 0 0.3104817065657739 0.3858680532317833 0 0.3351802944883514 0.39738750443412002 0 0.31909953512109351 0.40044867980609039 0 0.3104817065657739 0.3858680532317833 0 0.31909953512109351 0.40044867980609039 0 0.3104817065657739 0.3858680532317833 0 0.31262554991773928 0.39787599139405988 0 0.31909953512109351 0.40044867980609039 0 0.31262554991773928 0.39787599139405988 0 0.32415045537600512 0.40999229503957763 0 0.31015955469665918 0.40201373970895371 0 0.31262554991773928 0.39787599139405988 0 0.32415045537600512 0.40999229503957763 0 0.31262554991773928 0.39787599139405988 0 0.31909953512109351 0.40044867980609039 0 0.32415045537600512 0.40999229503957763 0 0.31015955469665918 0.40201373970895371 0 0.31933288273494848 0.41578736535030097 0 0.32415045537600512 0.40999229503957763 0 0.31142364564813352 0.41093370315849659 0 0.31015955469665918 0.40201373970895371 0 0.31933288273494848 0.41578736535030097 0 0.30869255759955722 0.41877018355733042 0 0.31933288273494848 0.41578736535030097 0 0.32906281765607392 0.42006619542527468 0 0.31015955469665918 0.40201373970895371 0 0.31933288273494848 0.41578736535030097 0 0.31142364564813352 0.41093370315849659 0 0.30869255759955722 0.41877018355733042 0 0.31933288273494848 0.41578736535030097 0 0.31933288273494848 0.41578736535030097 0 0.32415045537600512 0.40999229503957763 0 0.32906281765607392 0.42006619542527468 0 0.30869255759955722 0.41877018355733042 0 0.33457771181584611 0.43369686048393857 0 0.33544075565789128 0.43224949236785898 0 0.30869255759955722 0.41877018355733042 0 0.33544075565789128 0.43224949236785898 0 0.30610823095482448 0.43788140873538328 0 0.30869255759955722 0.41877018355733042 0 0.33457771181584611 0.43369686048393857 0 0.30869255759955722 0.41877018355733042 0 0.33544075565789128 0.43224949236785898 0 0.32906281765607392 0.42006619542527468 0 0.30610823095482448 0.43788140873538328 0 0.33457771181584611 0.43369686048393857 0 0.33457771181584611 0.43369686048393857 0 0.33544075565789128 0.43224949236785898 0 0.33746945485668051 0.4332718215327816 0 0.33457771181584611 0.43369686048393857 0 0.33544075565789128 0.43224949236785898 0 0.33544075565789128 0.43224949236785898 0 0.33746945485668051 0.4332718215327816 0 0.35001853239939229 0.42365555934674631 0 0.33544075565789128 0.43224949236785898 0 0.33746945485668051 0.4332718215327816 0 0.33457771181584611 0.43369686048393857 0 0.33746945485668051 0.4332718215327816 0 0.33544075565789128 0.43224949236785898 0 0.33658962428999861 0.41133204962483783 0 0.34988972217452752 0.40801784569160632 0 0.33544075565789128 0.43224949236785898 0 0.32906281765607392 0.42006619542527468 0 0.33658962428999861 0.41133204962483783 0 0.33544075565789128 0.43224949236785898 0 0.34988972217452752 0.40801784569160632 0 0.32415045537600512 0.40999229503957763 0 0.32906281765607392 0.42006619542527468 0 0.33658962428999861 0.41133204962483783 0 0.33544075565789128 0.43224949236785898 0 0.34988972217452752 0.40801784569160632 0 0.35001853239939229 0.42365555934674631 0 0.34988972217452752 0.40801784569160632 0 0.36165970526353591 0.41519797525725338 0 0.36412400085156282 0.39702719229323191 0 0.34988972217452752 0.40801784569160632 0 0.35001853239939229 0.42365555934674631 0 0.36165970526353591 0.41519797525725338 0 0.35494335133579169 0.44207750056399991 0 0.33746945485668051 0.4332718215327816 0 0.365542703577178 0.42914551292816783 0 0.33746945485668051 0.4332718215327816 0 0.35001853239939229 0.42365555934674631 0 0.365542703577178 0.42914551292816783 0 0.33746945485668051 0.4332718215327816 0 0.365542703577178 0.42914551292816783 0 0.35001853239939229 0.42365555934674631 0 0.365542703577178 0.42914551292816783 0 0.36165970526353591 0.41519797525725338 0 0.365542703577178 0.42914551292816783 0 0.36165970526353591 0.41519797525725338 0 0.37744029411777058 0.41252948965876268 0 0.36165970526353591 0.41519797525725338 0 0.36412400085156282 0.39702719229323191 0 0.37744029411777058 0.41252948965876268 0 0.36412400085156282 0.39702719229323191 0 0.38026367080056678 0.39066664182047522 0 0.37744029411777058 0.41252948965876268 0 0.34988972217452752 0.40801784569160632 0 0.36412400085156282 0.39702719229323191 0 0.36433868869116592 0.38378619901535488 0 0.36433868869116592 0.38378619901535488 0 0.3773824667175657 0.37546563606013739 0 0.38026367080056678 0.39066664182047522 0 0.36433868869116592 0.38378619901535488 0 0.36474967577348072 0.36653341875104961 0 0.3773824667175657 0.37546563606013739 0 0.36412400085156282 0.39702719229323191 0 0.36433868869116592 0.38378619901535488 0 0.38026367080056678 0.39066664182047522 0 0.36433868869116592 0.38378619901535488 0 0.36474967577348072 0.36653341875104961 0 0.36412400085156282 0.39702719229323191 0 0.36433868869116592 0.38378619901535488 0 0.3376156911696272 0.37620073599141618 0 0.34879159400795012 0.38769315231290841 0 0.36474967577348072 0.36653341875104961 0 0.36433868869116592 0.38378619901535488 0 0.34879159400795012 0.38769315231290841 0 0.36474967577348072 0.36653341875104961 0 0.3351802944883514 0.39738750443412002 0 0.34988972217452752 0.40801784569160632 0 0.34879159400795012 0.38769315231290841 0 0.34988972217452752 0.40801784569160632 0 0.36433868869116592 0.38378619901535488 0 0.34988972217452752 0.40801784569160632 0 0.36433868869116592 0.38378619901535488 0 0.34879159400795012 0.38769315231290841 0 0.34699100967064078 0.35539672769273539 0 0.36474967577348072 0.36653341875104961 0 0.36518945593320651 0.34509967395937191 0 0.34699100967064078 0.35539672769273539 0 0.36518945593320651 0.34509967395937191 0 0.348137396692076 0.34077307725183559 0 0.3376156911696272 0.37620073599141618 0 0.34699100967064078 0.35539672769273539 0 0.36474967577348072 0.36653341875104961 0 0.3376156911696272 0.37620073599141618 0 0.36474967577348072 0.36653341875104961 0 0.36474967577348072 0.36653341875104961 0 0.36518945593320651 0.34509967395937191 0 0.36474967577348072 0.36653341875104961 0 0.36518945593320651 0.34509967395937191 0 0.3855881021147175 0.35910908792858098 0 0.36518945593320651 0.34509967395937191 0 0.36562923609293069 0.32366592916769399 0 0.36518945593320651 0.34509967395937191 0 0.36562923609293069 0.32366592916769399 0 0.348137396692076 0.34077307725183559 0 0.36518945593320651 0.34509967395937191 0 0.36562923609293069 0.32366592916769399 0 0.38128435600444488 0.32837669887387311 0 0.36562923609293069 0.32366592916769399 0 0.36606901625265492 0.30223218437601618 0 0.38242981621443428 0.31397380775534678 0 0.36562923609293069 0.32366592916769399 0 0.36606901625265492 0.30223218437601618 0 0.36562923609293069 0.32366592916769399 0 0.34238706329751362 0.32476320095938682 0 0.35183379698966949 0.31056891257481539 0 0.36562923609293069 0.32366592916769399 0 0.348137396692076 0.34077307725183559 0 0.34238706329751362 0.32476320095938682 0 0.348137396692076 0.34077307725183559 0 0.33072504187423118 0.34237289876026822 0 0.34238706329751362 0.32476320095938682 0 0.33072504187423118 0.34237289876026822 0 0.34238706329751362 0.32476320095938682 0 0.32122702449841589 0.32177081607522939 0 0.34238706329751362 0.32476320095938682 0 0.33644502425256478 0.30910566618648461 0 0.35183379698966949 0.31056891257481539 0 0.34238706329751362 0.32476320095938682 0 0.32122702449841589 0.32177081607522939 0 0.33644502425256478 0.30910566618648461 0 0.32122702449841589 0.32177081607522939 0 0.31445651652981632 0.33878768779705848 0 0.30372390616191358 0.32889084998335888 0 0.33072504187423118 0.34237289876026822 0 0.32122702449841589 0.32177081607522939 0 0.31445651652981632 0.33878768779705848 0 0.33072504187423118 0.34237289876026822 0 0.31445651652981632 0.33878768779705848 0 0.31594857135045817 0.35062531106266931 0 0.33072504187423118 0.34237289876026822 0 0.31594857135045817 0.35062531106266931 0 0.32442852787466708 0.36030442639367111 0 0.31594857135045817 0.35062531106266931 0 0.32442852787466708 0.36030442639367111 0 0.31156622091740832 0.36111849420004938 0 0.34699100967064078 0.35539672769273539 0 0.348137396692076 0.34077307725183559 0 0.33072504187423118 0.34237289876026822 0 0.34699100967064078 0.35539672769273539 0 0.33072504187423118 0.34237289876026822 0 0.32442852787466708 0.36030442639367111 0 0.3376156911696272 0.37620073599141618 0 0.34699100967064078 0.35539672769273539 0 0.32442852787466708 0.36030442639367111 0 0.3376156911696272 0.37620073599141618 0 0.32442852787466708 0.36030442639367111 0 0.31717345926189522 0.3709258031848055 0 0.32442852787466708 0.36030442639367111 0 0.31717345926189522 0.3709258031848055 0 0.31156622091740832 0.36111849420004938 0 0.30177514978199971 0.3711373061071076 0 0.30274952797195698 0.35001407804523332 0 0.31717345926189522 0.3709258031848055 0 0.31156622091740832 0.36111849420004938 0 0.30177514978199971 0.3711373061071076 0 0.31156622091740832 0.36111849420004938 0 0.30177514978199971 0.3711373061071076 0 0.30274952797195698 0.35001407804523332 0 0.30177514978199971 0.3711373061071076 0 0.30274952797195698 0.35001407804523332 0 0.29106955940472562 0.3530243656434488 0 0.31445651652981632 0.33878768779705848 0 0.31594857135045817 0.35062531106266931 0 0.30274952797195698 0.35001407804523332 0 0.31594857135045817 0.35062531106266931 0 0.31156622091740832 0.36111849420004938 0 0.30274952797195698 0.35001407804523332 0 0.29106955940472562 0.3530243656434488 0 0.28705150305193838 0.35613499197806497 0 0.28036396902745148 0.33491142517978989 0 0.28705150305193838 0.35613499197806497 0 0.28036396902745148 0.33491142517978989 0 0.28705150305193838 0.35613499197806497 0 0.27644360280618341 0.34191623842927221 0 0.28036396902745148 0.33491142517978989 0 0.29106955940472562 0.3530243656434488 0 0.28036396902745148 0.33491142517978989 0 0.30274952797195698 0.35001407804523332 0 0.29106955940472562 0.3530243656434488 0 0.29374099595638509 0.3392252011883215 0 0.28705150305193838 0.35613499197806497 0 0.28458867991473008 0.36361942358965982 0 0.27543832275303448 0.34988028840297991 0 0.29405085274881382 0.37834813740539031 0 0.28705150305193838 0.35613499197806497 0 0.28458867991473008 0.36361942358965982 0 0.29405085274881382 0.37834813740539031 0 0.28705150305193838 0.35613499197806497 0 0.30177514978199971 0.3711373061071076 0 0.29106955940472562 0.3530243656434488 0 0.29405085274881382 0.37834813740539031 0 0.30177514978199971 0.3711373061071076 0 0.28705150305193838 0.35613499197806497 0 0.30177514978199971 0.3711373061071076 0 0.29106955940472562 0.3530243656434488 0 0.28705150305193838 0.35613499197806497 0 0.29405085274881382 0.37834813740539031 0 0.28458867991473008 0.36361942358965982 0 0.28403056220722062 0.37531448917755911 0 0.2815017213106239 0.3651550498314205 0 0.27898286169525299 0.37041503512408969 0 0.29405085274881382 0.37834813740539031 0 0.2815017213106239 0.3651550498314205 0 0.28403056220722062 0.37531448917755911 0 0.29405085274881382 0.37834813740539031 0 0.2815017213106239 0.3651550498314205 0 0.29405085274881382 0.37834813740539031 0 0.28458867991473008 0.36361942358965982 0 0.2815017213106239 0.3651550498314205 0 0.28403056220722062 0.37531448917755911 0 0.27898286169525299 0.37041503512408969 0 0.2737626695690904 0.37327007608818358 0 0.27663649369407689 0.36792052539919551 0 0.2737626695690904 0.37327007608818358 0 0.27125000512352843 0.36234153133647429 0 0.27405714121884811 0.38409687161834088 0 0.2737626695690904 0.37327007608818358 0 0.2618259464583832 0.36726095095448358 0 0.2815017213106239 0.3651550498314205 0 0.27898286169525299 0.37041503512408969 0 0.27663649369407689 0.36792052539919551 0 0.27898286169525299 0.37041503512408969 0 0.27663649369407689 0.36792052539919551 0 0.2737626695690904 0.37327007608818358 0 0.2737626695690904 0.37327007608818358 0 0.27125000512352843 0.36234153133647429 0 0.2618259464583832 0.36726095095448358 0 0.27125000512352843 0.36234153133647429 0 0.26895258987243392 0.3519619622574508 0 0.2618259464583832 0.36726095095448358 0 0.2815017213106239 0.3651550498314205 0 0.27125000512352843 0.36234153133647429 0 0.26895258987243392 0.3519619622574508 0 0.2815017213106239 0.3651550498314205 0 0.27663649369407689 0.36792052539919551 0 0.27125000512352843 0.36234153133647429 0 0.28458867991473008 0.36361942358965982 0 0.2815017213106239 0.3651550498314205 0 0.27543832275303448 0.34988028840297991 0 0.2815017213106239 0.3651550498314205 0 0.26895258987243392 0.3519619622574508 0 0.28458867991473008 0.36361942358965982 0 0.27543832275303448 0.34988028840297991 0 0.26895258987243392 0.3519619622574508 0 0.2618259464583832 0.36726095095448358 0 0.2684557314338783 0.34271033597269462 0 0.2815017213106239 0.3651550498314205 0 0.27543832275303448 0.34988028840297991 0 0.26895258987243392 0.3519619622574508 0 0.28705150305193838 0.35613499197806497 0 0.27543832275303448 0.34988028840297991 0 0.27644360280618341 0.34191623842927221 0 0.27543832275303448 0.34988028840297991 0 0.2684557314338783 0.34271033597269462 0 0.27644360280618341 0.34191623842927221 0 0.27543832275303448 0.34988028840297991 0 0.26895258987243392 0.3519619622574508 0 0.2684557314338783 0.34271033597269462 0 0.2618259464583832 0.36726095095448358 0 0.2684557314338783 0.34271033597269462 0 0.24521693247762111 0.35027114815259558 0 0.2618259464583832 0.36726095095448358 0 0.2684557314338783 0.34271033597269462 0 0.24305895760768401 0.36641304215893011 0 0.24521693247762111 0.35027114815259558 0 0.2618259464583832 0.36726095095448358 0 0.24490867605631639 0.32967072069511189 0 0.26050839607327853 0.32387463406168998 0 0.25114017462525878 0.31153615041935723 0 0.26050839607327853 0.32387463406168998 0 0.25114017462525878 0.31153615041935723 0 0.26342424027676908 0.31148804944983333 0 0.24490867605631639 0.32967072069511189 0 0.26050839607327853 0.32387463406168998 0 0.2684557314338783 0.34271033597269462 0 0.24490867605631639 0.32967072069511189 0 0.24521693247762111 0.35027114815259558 0 0.2684557314338783 0.34271033597269462 0 0.26050839607327853 0.32387463406168998 0 0.2684557314338783 0.34271033597269462 0 0.27508551640937329 0.31815972099090539 0 0.2684557314338783 0.34271033597269462 0 0.27508551640937329 0.31815972099090539 0 0.2684557314338783 0.34271033597269462 0 0.27787730485363338 0.33070420273373929 0 0.27508551640937329 0.31815972099090539 0 0.2684557314338783 0.34271033597269462 0 0.27644360280618341 0.34191623842927221 0 0.27787730485363338 0.33070420273373929 0 0.27644360280618341 0.34191623842927221 0 0.28036396902745148 0.33491142517978989 0 0.27787730485363338 0.33070420273373929 0 0.28036396902745148 0.33491142517978989 0 0.27787730485363338 0.33070420273373929 0 0.28036396902745148 0.33491142517978989 0 0.27787730485363338 0.33070420273373929 0 0.27508551640937329 0.31815972099090539 0 0.28036396902745148 0.33491142517978989 0 0.27508551640937329 0.31815972099090539 0 0.26050839607327853 0.32387463406168998 0 0.27508551640937329 0.31815972099090539 0 0.26342424027676908 0.31148804944983333 0 0.27584787744150779 0.31533663815394608 0 0.27508551640937329 0.31815972099090539 0 0.2839587577339367 0.31315639516335231 0 0.27584787744150779 0.31533663815394608 0 0.27508551640937329 0.31815972099090539 0 0.28036396902745148 0.33491142517978989 0 0.27508551640937329 0.31815972099090539 0 0.28884331716543121 0.32432796479040632 0 0.27508551640937329 0.31815972099090539 0 0.2839587577339367 0.31315639516335231 0 0.28884331716543121 0.32432796479040632 0 0.2839587577339367 0.31315639516335231 0 0.28884331716543121 0.32432796479040632 0 0.29436859405188742 0.31561290386725788 0 0.28884331716543121 0.32432796479040632 0 0.29436859405188742 0.31561290386725788 0 0.30372390616191358 0.32889084998335888 0 0.29106955940472562 0.3530243656434488 0 0.28036396902745148 0.33491142517978989 0 0.29374099595638509 0.3392252011883215 0 0.28036396902745148 0.33491142517978989 0 0.28884331716543121 0.32432796479040632 0 0.29374099595638509 0.3392252011883215 0 0.28884331716543121 0.32432796479040632 0 0.29374099595638509 0.3392252011883215 0 0.30372390616191358 0.32889084998335888 0 0.30274952797195698 0.35001407804523332 0 0.29374099595638509 0.3392252011883215 0 0.30372390616191358 0.32889084998335888 0 0.31445651652981632 0.33878768779705848 0 0.30274952797195698 0.35001407804523332 0 0.30372390616191358 0.32889084998335888 0 0.30274952797195698 0.35001407804523332 0 0.30372390616191358 0.32889084998335888 0 0.29436859405188742 0.31561290386725788 0 0.30372390616191358 0.32889084998335888 0 0.30469828435187041 0.30776762192148471 0 0.32122702449841589 0.32177081607522939 0 0.30372390616191358 0.32889084998335888 0 0.30469828435187041 0.30776762192148471 0 0.30372390616191358 0.32889084998335888 0 0.30469828435187041 0.30776762192148471 0 0.30469828435187041 0.30776762192148471 0 0.29887142377560671 0.29447355700322281 0 0.31975384086217118 0.29390073052843008 0 0.30469828435187041 0.30776762192148471 0 0.29887142377560671 0.29447355700322281 0 0.29061870484628499 0.30392168747768772 0 0.29887142377560671 0.29447355700322281 0 0.29803417524575498 0.27809430922643119 0 0.31975384086217118 0.29390073052843008 0 0.29887142377560671 0.29447355700322281 0 0.28125211357195179 0.28868343586208051 0 0.29803417524575498 0.27809430922643119 0 0.29887142377560671 0.29447355700322281 0 0.28125211357195179 0.28868343586208051 0 0.29061870484628499 0.30392168747768772 0 0.29436859405188742 0.31561290386725788 0 0.30469828435187041 0.30776762192148471 0 0.29061870484628499 0.30392168747768772 0 0.2839587577339367 0.31315639516335231 0 0.29436859405188742 0.31561290386725788 0 0.29061870484628499 0.30392168747768772 0 0.28125211357195179 0.28868343586208051 0 0.29061870484628499 0.30392168747768772 0 0.27979091010679558 0.3031930520058399 0 0.2839587577339367 0.31315639516335231 0 0.29061870484628499 0.30392168747768772 0 0.27979091010679558 0.3031930520058399 0 0.27584787744150779 0.31533663815394608 0 0.2839587577339367 0.31315639516335231 0 0.27979091010679558 0.3031930520058399 0 0.27584787744150779 0.31533663815394608 0 0.27979091010679558 0.3031930520058399 0 0.26696287399916629 0.2923816923273807 0 0.27508551640937329 0.31815972099090539 0 0.26696287399916629 0.2923816923273807 0 0.27508551640937329 0.31815972099090539 0 0.26696287399916629 0.2923816923273807 0 0.26342424027676908 0.31148804944983333 0 0.27584787744150779 0.31533663815394608 0 0.27508551640937329 0.31815972099090539 0 0.26696287399916629 0.2923816923273807 0 0.28125211357195179 0.28868343586208051 0 0.26696287399916629 0.2923816923273807 0 0.26185531842249993 0.2787869231154117 0 0.28125211357195179 0.28868343586208051 0 0.27979091010679558 0.3031930520058399 0 0.26696287399916629 0.2923816923273807 0 0.2454028482605469 0.29267792886045368 0 0.26696287399916629 0.2923816923273807 0 0.26185531842249993 0.2787869231154117 0 0.24818821145747599 0.27522177653690871 0 0.2454028482605469 0.29267792886045368 0 0.26185531842249993 0.2787869231154117 0 0.26696287399916629 0.2923816923273807 0 0.25114017462525878 0.31153615041935723 0 0.26342424027676908 0.31148804944983333 0 0.2454028482605469 0.29267792886045368 0 0.26696287399916629 0.2923816923273807 0 0.25114017462525878 0.31153615041935723 0 0.25404003316197471 0.25208422786308371 0 0.25530776412370298 0.26639583896058622 0 0.27103688063193948 0.26427270241964718 0 0.24090080429007341 0.26281353644332878 0 0.25404003316197471 0.25208422786308371 0 0.25530776412370298 0.26639583896058622 0 0.25530776412370298 0.26639583896058622 0 0.26185531842249993 0.2787869231154117 0 0.27103688063193948 0.26427270241964718 0 0.24818821145747599 0.27522177653690871 0 0.25530776412370298 0.26639583896058622 0 0.26185531842249993 0.2787869231154117 0 0.28125211357195179 0.28868343586208051 0 0.26185531842249993 0.2787869231154117 0 0.27103688063193948 0.26427270241964718 0 0.25404003316197471 0.25208422786308371 0 0.27103688063193948 0.26427270241964718 0 0.27355486584907379 0.24364475180805101 0 0.27103688063193948 0.26427270241964718 0 0.29692855903906679 0.25537037528416417 0 0.27355486584907379 0.24364475180805101 0 0.27103688063193948 0.26427270241964718 0 0.29803417524575498 0.27809430922643119 0 0.29692855903906679 0.25537037528416417 0 0.28125211357195179 0.28868343586208051 0 0.27103688063193948 0.26427270241964718 0 0.29803417524575498 0.27809430922643119 0 0.29803417524575498 0.27809430922643119 0 0.29692855903906679 0.25537037528416417 0 0.32239972953691409 0.26902358330948362 0 0.29692855903906679 0.25537037528416417 0 0.32239972953691409 0.26902358330948362 0 0.32448256229391081 0.244023600812113 0 0.34859232732963041 0.2656914204712259 0 0.32448256229391081 0.244023600812113 0 0.35052125483258301 0.2434514759103418 0 0.32239972953691409 0.26902358330948362 0 0.34859232732963041 0.2656914204712259 0 0.32448256229391081 0.244023600812113 0 0.32239972953691409 0.26902358330948362 0 0.34580587121379802 0.29027056413174801 0 0.34859232732963041 0.2656914204712259 0 0.32239972953691409 0.26902358330948362 0 0.34859232732963041 0.2656914204712259 0 0.29803417524575498 0.27809430922643119 0 0.32239972953691409 0.26902358330948362 0 0.31975384086217118 0.29390073052843008 0 0.32122702449841589 0.32177081607522939 0 0.30469828435187041 0.30776762192148471 0 0.31975384086217118 0.29390073052843008 0 0.32122702449841589 0.32177081607522939 0 0.31975384086217118 0.29390073052843008 0 0.33644502425256478 0.30910566618648461 0 0.31975384086217118 0.29390073052843008 0 0.33644502425256478 0.30910566618648461 0 0.34580587121379802 0.29027056413174801 0 0.32239972953691409 0.26902358330948362 0 0.31975384086217118 0.29390073052843008 0 0.34580587121379802 0.29027056413174801 0 0.34580587121379802 0.29027056413174801 0 0.35183379698966949 0.31056891257481539 0 0.36606901625265492 0.30223218437601618 0 0.33644502425256478 0.30910566618648461 0 0.34580587121379802 0.29027056413174801 0 0.35183379698966949 0.31056891257481539 0 0.36562923609293069 0.32366592916769399 0 0.35183379698966949 0.31056891257481539 0 0.36606901625265492 0.30223218437601618 0 0.36606901625265492 0.30223218437601618 0 0.37288852905391068 0.28307277276217568 0 0.38313639778678782 0.29894980138166888 0 0.34580587121379802 0.29027056413174801 0 0.36606901625265492 0.30223218437601618 0 0.37288852905391068 0.28307277276217568 0 0.37288852905391068 0.28307277276217568 0 0.37478492512234668 0.26235925763296819 0 0.34859232732963041 0.2656914204712259 0 0.37478492512234668 0.26235925763296819 0 0.34859232732963041 0.2656914204712259 0 0.37478492512234668 0.26235925763296819 0 0.34859232732963041 0.2656914204712259 0 0.35052125483258301 0.2434514759103418 0 0.34580587121379802 0.29027056413174801 0 0.37288852905391068 0.28307277276217568 0 0.34859232732963041 0.2656914204712259 0 0.40237095019481112 0.27711100542787093 0 0.40097752291506289 0.25902709479471048 0 0.38795285511664351 0.27501277358291848 0 0.40237095019481112 0.27711100542787093 0 0.38795285511664351 0.27501277358291848 0 0.39245341439736259 0.28869000139839213 0 0.37478492512234668 0.26235925763296819 0 0.40097752291506289 0.25902709479471048 0 0.37478492512234668 0.26235925763296819 0 0.40097752291506289 0.25902709479471048 0 0.38795285511664351 0.27501277358291848 0 0.37478492512234668 0.26235925763296819 0 0.40097752291506289 0.25902709479471048 0 0.39333580902427501 0.24081282939082621 0 0.37288852905391068 0.28307277276217568 0 0.37478492512234668 0.26235925763296819 0 0.38795285511664351 0.27501277358291848 0 0.37288852905391068 0.28307277276217568 0 0.38795285511664351 0.27501277358291848 0 0.39245341439736259 0.28869000139839213 0 0.37288852905391068 0.28307277276217568 0 0.38313639778678782 0.29894980138166888 0 0.39245341439736259 0.28869000139839213 0 0.38313639778678782 0.29894980138166888 0 0.40184121301557668 0.30678024061641418 0 0.38242981621443428 0.31397380775534678 0 0.36606901625265492 0.30223218437601618 0 0.38313639778678782 0.29894980138166888 0 0.38242981621443428 0.31397380775534678 0 0.38313639778678782 0.29894980138166888 0 0.40184121301557668 0.30678024061641418 0 0.39245341439736259 0.28869000139839213 0 0.40184121301557668 0.30678024061641418 0 0.39245341439736259 0.28869000139839213 0 0.4080647950624654 0.29173952990842672 0 0.40237095019481112 0.27711100542787093 0 0.39245341439736259 0.28869000139839213 0 0.4080647950624654 0.29173952990842672 0 0.4080647950624654 0.29173952990842672 0 0.42111158276914429 0.29961990628964941 0 0.41801819212357011 0.2740782959756311 0 0.42111158276914429 0.29961990628964941 0 0.41801819212357011 0.2740782959756311 0 0.42111158276914429 0.29961990628964941 0 0.41431845905081632 0.31211616404088999 0 0.42420497341471841 0.32516151660366771 0 0.40184121301557668 0.30678024061641418 0 0.41169384258873692 0.3030193229363472 0 0.41431845905081632 0.31211616404088999 0 0.4080647950624654 0.29173952990842672 0 0.41169384258873692 0.3030193229363472 0 0.42111158276914429 0.29961990628964941 0 0.40184121301557668 0.30678024061641418 0 0.4080647950624654 0.29173952990842672 0 0.41169384258873692 0.3030193229363472 0 0.41169384258873692 0.3030193229363472 0 0.42111158276914429 0.29961990628964941 0 0.41431845905081632 0.31211616404088999 0 0.42111158276914429 0.29961990628964941 0 0.42420497341471841 0.32516151660366771 0 0.42111158276914429 0.29961990628964941 0 0.42968026012840121 0.30115694743242971 0 0.43130474666914309 0.31304161877190062 0 0.42968026012840121 0.30115694743242971 0 0.44258646999382029 0.30990113159980692 0 0.42968026012840121 0.30115694743242971 0 0.44258646999382029 0.30990113159980692 0 0.43130474666914309 0.31304161877190062 0 0.42111158276914429 0.29961990628964941 0 0.42800801910193731 0.28582653817902792 0 0.41801819212357011 0.2740782959756311 0 0.42968026012840121 0.30115694743242971 0 0.42800801910193731 0.28582653817902792 0 0.44797459424715858 0.28113195035900113 0 0.42111158276914429 0.29961990628964941 0 0.42968026012840121 0.30115694743242971 0 0.42800801910193731 0.28582653817902792 0 0.4349067289361882 0.26981889711766149 0 0.41801819212357011 0.2740782959756311 0 0.42717012070777932 0.25569493195645271 0 0.42800801910193731 0.28582653817902792 0 0.4349067289361882 0.26981889711766149 0 0.44797459424715858 0.28113195035900113 0 0.42800801910193731 0.28582653817902792 0 0.4349067289361882 0.26981889711766149 0 0.41801819212357011 0.2740782959756311 0 0.40237095019481112 0.27711100542787093 0 0.4080647950624654 0.29173952990842672 0 0.41801819212357011 0.2740782959756311 0 0.40237095019481112 0.27711100542787093 0 0.40097752291506289 0.25902709479471048 0 0.41801819212357011 0.2740782959756311 0 0.40097752291506289 0.25902709479471048 0 0.42717012070777932 0.25569493195645271 0 0.40097752291506289 0.25902709479471048 0 0.41801819212357011 0.2740782959756311 0 0.42717012070777932 0.25569493195645271 0 0.40097752291506289 0.25902709479471048 0 0.42717012070777932 0.25569493195645271 0 0.41286841049430861 0.24788583003777651 0 0.42717012070777932 0.25569493195645271 0 0.45336271850049548 0.25236276911819511 0 0.42717012070777932 0.25569493195645271 0 0.45336271850049548 0.25236276911819511 0 0.44134696414428898 0.24814556957704689 0 0.4349067289361882 0.26981889711766149 0 0.42717012070777932 0.25569493195645271 0 0.45336271850049548 0.25236276911819511 0 0.44797459424715858 0.28113195035900113 0 0.45336271850049548 0.25236276911819511 0 0.4349067289361882 0.26981889711766149 0 0.44797459424715858 0.28113195035900113 0 0.45336271850049548 0.25236276911819511 0 0.44797459424715858 0.28113195035900113 0 0.46860043072286323 0.26090172283992602 0 0.47518926652314969 0.27560515809727743 0 0.44797459424715858 0.28113195035900113 0 0.45336271850049548 0.25236276911819511 0 0.46860043072286323 0.26090172283992602 0 0.45336271850049548 0.25236276911819511 0 0.46860043072286323 0.26090172283992602 0 0.48180965237011408 0.2487438147612096 0 0.45336271850049548 0.25236276911819511 0 0.48180965237011408 0.2487438147612096 0 0.46860043072286323 0.26090172283992602 0 0.48241006781490819 0.26268970127635521 0 0.48180965237011408 0.2487438147612096 0 0.46860043072286323 0.26090172283992602 0 0.48241006781490819 0.26268970127635521 0 0.47518926652314969 0.27560515809727743 0 0.48241006781490819 0.26268970127635521 0 0.47518926652314969 0.27560515809727743 0 0.48864569132575902 0.27555399191102209 0 0.48864569132575902 0.27555399191102209 0 0.5 0.25788891558126559 0 0.5 0.28784398070901179 0 0.48241006781490819 0.26268970127635521 0 0.5 0.25788891558126559 0 0.48180965237011408 0.2487438147612096 0 0.48241006781490819 0.26268970127635521 0 0.48864569132575902 0.27555399191102209 0 0.5 0.25788891558126559 0 0.49687855588093471 0.30562269631142192 0 0.5 0.28784398070901179 0 0.5 0.31779904583675789 0 0.48491490847636098 0.30901068293115042 0 0.49687855588093471 0.30562269631142192 0 0.48562912229073679 0.29374220389120048 0 0.48491490847636098 0.30901068293115042 0 0.49687855588093471 0.30562269631142192 0 0.48893996521802741 0.32077530068026477 0 0.48864569132575902 0.27555399191102209 0 0.5 0.28784398070901179 0 0.48562912229073679 0.29374220389120048 0 0.49687855588093471 0.30562269631142192 0 0.5 0.28784398070901179 0 0.48562912229073679 0.29374220389120048 0 0.47518926652314969 0.27560515809727743 0 0.48864569132575902 0.27555399191102209 0 0.48562912229073679 0.29374220389120048 0 0.47518926652314969 0.27560515809727743 0 0.48562912229073679 0.29374220389120048 0 0.46816558308298489 0.29083511245767268 0 0.48562912229073679 0.29374220389120048 0 0.47222103054853309 0.30536857664361422 0 0.46816558308298489 0.29083511245767268 0 0.48491490847636098 0.30901068293115042 0 0.48562912229073679 0.29374220389120048 0 0.47222103054853309 0.30536857664361422 0 0.48491490847636098 0.30901068293115042 0 0.47222103054853309 0.30536857664361422 0 0.47648252662976798 0.31886183994020412 0 0.47222103054853309 0.30536857664361422 0 0.45866337291811637 0.30169365927876157 0 0.46179392227446953 0.32291451832445861 0 0.45866337291811637 0.30169365927876157 0 0.44258646999382029 0.30990113159980692 0 0.46179392227446953 0.32291451832445861 0 0.47222103054853309 0.30536857664361422 0 0.45866337291811637 0.30169365927876157 0 0.46816558308298489 0.29083511245767268 0 0.44797459424715858 0.28113195035900113 0 0.45866337291811637 0.30169365927876157 0 0.46816558308298489 0.29083511245767268 0 0.44797459424715858 0.28113195035900113 0 0.47518926652314969 0.27560515809727743 0 0.46816558308298489 0.29083511245767268 0 0.44797459424715858 0.28113195035900113 0 0.44258646999382029 0.30990113159980692 0 0.42968026012840121 0.30115694743242971 0 0.44797459424715858 0.28113195035900113 0 0.44258646999382029 0.30990113159980692 0 0.44797459424715858 0.28113195035900113 0 0.45866337291811637 0.30169365927876157 0 0.44258646999382029 0.30990113159980692 0 0.44258646999382029 0.30990113159980692 0 0.46179392227446953 0.32291451832445861 0 0.44258646999382029 0.30990113159980692 0 0.43894044703962998 0.32936859193394902 0 0.46179392227446953 0.32291451832445861 0 0.44258646999382029 0.30990113159980692 0 0.43894044703962998 0.32936859193394902 0 0.44258646999382029 0.30990113159980692 0 0.43894044703962998 0.32936859193394902 0 0.43130474666914309 0.31304161877190062 0 0.43894044703962998 0.32936859193394902 0 0.45181909328986353 0.33594590439129729 0 0.43529442408543872 0.34883605226809089 0 0.43894044703962998 0.32936859193394902 0 0.45181909328986353 0.33594590439129729 0 0.46179392227446953 0.32291451832445861 0 0.45181909328986353 0.33594590439129729 0 0.46495921083649527 0.33796731498031379 0 0.45493863887308472 0.34850758154427958 0 0.45181909328986353 0.33594590439129729 0 0.46495921083649527 0.33796731498031379 0 0.46179392227446953 0.32291451832445861 0 0.47648252662976798 0.31886183994020412 0 0.48100137455512032 0.33592790504910791 0 0.48893996521802741 0.32077530068026477 0 0.46179392227446953 0.32291451832445861 0 0.47648252662976798 0.31886183994020412 0 0.48100137455512032 0.33592790504910791 0 0.47222103054853309 0.30536857664361422 0 0.46179392227446953 0.32291451832445861 0 0.47648252662976798 0.31886183994020412 0 0.48491490847636098 0.30901068293115042 0 0.47648252662976798 0.31886183994020412 0 0.48893996521802741 0.32077530068026477 0 0.46179392227446953 0.32291451832445861 0 0.48100137455512032 0.33592790504910791 0 0.46495921083649527 0.33796731498031379 0 0.48100137455512032 0.33592790504910791 0 0.47458285366073072 0.34817911082046721 0 0.46495921083649527 0.33796731498031379 0 0.46179392227446953 0.32291451832445861 0 0.48100137455512032 0.33592790504910791 0 0.48100137455512032 0.33592790504910791 0 0.47458285366073072 0.34817911082046721 0 0.48100137455512032 0.33592790504910791 0 0.48893996521802741 0.32077530068026477 0 0.48100137455512032 0.33592790504910791 0 0.4984937498586452 0.34777929695842291 0 0.5 0.31779904583675789 0 0.48893996521802741 0.32077530068026477 0 0.4984937498586452 0.34777929695842291 0 0.5 0.31779904583675789 0 0.4984937498586452 0.34777929695842291 0 0.50000000000000433 0.34775411096450393 0 0.48100137455512032 0.33592790504910791 0 0.48893996521802741 0.32077530068026477 0 0.4984937498586452 0.34777929695842291 0 0.49687855588093471 0.30562269631142192 0 0.48893996521802741 0.32077530068026477 0 0.49687855588093471 0.30562269631142192 0 0.5 0.31779904583675789 0 0.48893996521802741 0.32077530068026477 0 0.5 0.37175840028027313 0 0.48688174284785979 0.35971936811564431 0 0.50000000000000433 0.34775411096450393 0 0.5 0.37175840028027313 0 0.48688174284785979 0.35971936811564431 0 0.48177296974371542 0.3780796821533936 0 0.48100137455512032 0.33592790504910791 0 0.4984937498586452 0.34777929695842291 0 0.47458285366073072 0.34817911082046721 0 0.48688174284785979 0.35971936811564431 0 0.4984937498586452 0.34777929695842291 0 0.47458285366073072 0.34817911082046721 0 0.48688174284785979 0.35971936811564431 0 0.4984937498586452 0.34777929695842291 0 0.50000000000000433 0.34775411096450393 0 0.4984937498586452 0.34777929695842291 0 0.47458285366073072 0.34817911082046721 0 0.4984937498586452 0.34777929695842291 0 0.50000000000000433 0.34775411096450393 0 0.48688174284785979 0.35971936811564431 0 0.47458285366073072 0.34817911082046721 0 0.46644088382406917 0.36371991056145853 0 0.47458285366073072 0.34817911082046721 0 0.46644088382406917 0.36371991056145853 0 0.46644088382406917 0.36371991056145853 0 0.45829891398740957 0.37926071030245079 0 0.48177296974371542 0.3780796821533936 0 0.48688174284785979 0.35971936811564431 0 0.46644088382406917 0.36371991056145853 0 0.48177296974371542 0.3780796821533936 0 0.46644088382406917 0.36371991056145853 0 0.45829891398740957 0.37926071030245079 0 0.46644088382406917 0.36371991056145853 0 0.45450488254489102 0.36219879314378839 0 0.45829891398740957 0.37926071030245079 0 0.46495921083649527 0.33796731498031379 0 0.47458285366073072 0.34817911082046721 0 0.45493863887308472 0.34850758154427958 0 0.47458285366073072 0.34817911082046721 0 0.45493863887308472 0.34850758154427958 0 0.47458285366073072 0.34817911082046721 0 0.46644088382406917 0.36371991056145853 0 0.45493863887308472 0.34850758154427958 0 0.46644088382406917 0.36371991056145853 0 0.45450488254489102 0.36219879314378839 0 0.45493863887308472 0.34850758154427958 0 0.45181909328986353 0.33594590439129729 0 0.45493863887308472 0.34850758154427958 0 0.43529442408543872 0.34883605226809089 0 0.45493863887308472 0.34850758154427958 0 0.44448268479035308 0.35511800724889642 0 0.43529442408543872 0.34883605226809089 0 0.45493863887308472 0.34850758154427958 0 0.43529442408543872 0.34883605226809089 0 0.45450488254489102 0.36219879314378839 0 0.45493863887308472 0.34850758154427958 0 0.44448268479035308 0.35511800724889642 0 0.44448268479035308 0.35511800724889642 0 0.44279863902385319 0.36498191861006751 0 0.43487683942449812 0.35106569067825599 0 0.44448268479035308 0.35511800724889642 0 0.43529442408543872 0.34883605226809089 0 0.43487683942449812 0.35106569067825599 0 0.45450488254489102 0.36219879314378839 0 0.44279863902385319 0.36498191861006751 0 0.45829891398740957 0.37926071030245079 0 0.44279863902385319 0.36498191861006751 0 0.45829891398740957 0.37926071030245079 0 0.45450488254489102 0.36219879314378839 0 0.44448268479035308 0.35511800724889642 0 0.44279863902385319 0.36498191861006751 0 0.42892444364691579 0.3641293946929936 0 0.42225433889660879 0.37545697575276449 0 0.43605286711449009 0.38080977408974359 0 0.44279863902385319 0.36498191861006751 0 0.42892444364691579 0.3641293946929936 0 0.43605286711449009 0.38080977408974359 0 0.44279863902385319 0.36498191861006751 0 0.42892444364691579 0.3641293946929936 0 0.42729836406029548 0.35070312691768563 0 0.42892444364691579 0.3641293946929936 0 0.41660844069210962 0.35988002802349189 0 0.42225433889660879 0.37545697575276449 0 0.41660844069210962 0.35988002802349189 0 0.40918213701441342 0.3736144609854074 0 0.42225433889660879 0.37545697575276449 0 0.41660844069210962 0.35988002802349189 0 0.40918213701441342 0.3736144609854074 0 0.40205795884979889 0.36380219258680641 0 0.40642652845595439 0.35168475710611302 0 0.41593005466970517 0.35003896004439389 0 0.41338688547046137 0.33788792813028518 0 0.41660844069210962 0.35988002802349189 0 0.40642652845595439 0.35168475710611302 0 0.40205795884979889 0.36380219258680641 0 0.41660844069210962 0.35988002802349189 0 0.40642652845595439 0.35168475710611302 0 0.41593005466970517 0.35003896004439389 0 0.41660844069210962 0.35988002802349189 0 0.41593005466970517 0.35003896004439389 0 0.42729836406029548 0.35070312691768563 0 0.42729836406029548 0.35070312691768563 0 0.41338688547046137 0.33788792813028518 0 0.41593005466970517 0.35003896004439389 0 0.42729836406029548 0.35070312691768563 0 0.41338688547046137 0.33788792813028518 0 0.42892444364691579 0.3641293946929936 0 0.41660844069210962 0.35988002802349189 0 0.42729836406029548 0.35070312691768563 0 0.42892444364691579 0.3641293946929936 0 0.42729836406029548 0.35070312691768563 0 0.44279863902385319 0.36498191861006751 0 0.42729836406029548 0.35070312691768563 0 0.43487683942449812 0.35106569067825599 0 0.44279863902385319 0.36498191861006751 0 0.42729836406029548 0.35070312691768563 0 0.43109136567724748 0.3489063315667284 0 0.43529442408543872 0.34883605226809089 0 0.42729836406029548 0.35070312691768563 0 0.43109136567724748 0.3489063315667284 0 0.43487683942449812 0.35106569067825599 0 0.43109136567724748 0.3489063315667284 0 0.43529442408543872 0.34883605226809089 0 0.43487683942449812 0.35106569067825599 0 0.43529442408543872 0.34883605226809089 0 0.43487683942449812 0.35106569067825599 0 0.42729836406029548 0.35070312691768563 0 0.42420497341471841 0.32516151660366771 0 0.43894044703962998 0.32936859193394902 0 0.43529442408543872 0.34883605226809089 0 0.43894044703962998 0.32936859193394902 0 0.43109136567724748 0.3489063315667284 0 0.43529442408543872 0.34883605226809089 0 0.42729836406029548 0.35070312691768563 0 0.43109136567724748 0.3489063315667284 0 0.42420497341471841 0.32516151660366771 0 0.43894044703962998 0.32936859193394902 0 0.43109136567724748 0.3489063315667284 0 0.42420497341471841 0.32516151660366771 0 0.43894044703962998 0.32936859193394902 0 0.43130474666914309 0.31304161877190062 0 0.42420497341471841 0.32516151660366771 0 0.42111158276914429 0.29961990628964941 0 0.43130474666914309 0.31304161877190062 0 0.42420497341471841 0.32516151660366771 0 0.40184121301557668 0.30678024061641418 0 0.41431845905081632 0.31211616404088999 0 0.41140534993910638 0.32360132811636988 0 0.41431845905081632 0.31211616404088999 0 0.42420497341471841 0.32516151660366771 0 0.41140534993910638 0.32360132811636988 0 0.42729836406029548 0.35070312691768563 0 0.42420497341471841 0.32516151660366771 0 0.41338688547046137 0.33788792813028518 0 0.42420497341471841 0.32516151660366771 0 0.41140534993910638 0.32360132811636988 0 0.41338688547046137 0.33788792813028518 0 0.41140534993910638 0.32360132811636988 0 0.41338688547046137 0.33788792813028518 0 0.39947540688062583 0.32507272934288628 0 0.41338688547046137 0.33788792813028518 0 0.39947540688062583 0.32507272934288628 0 0.40642652845595439 0.35168475710611302 0 0.41338688547046137 0.33788792813028518 0 0.39105145014164849 0.3414869239971704 0 0.41338688547046137 0.33788792813028518 0 0.39105145014164849 0.3414869239971704 0 0.39947540688062583 0.32507272934288628 0 0.40184121301557668 0.30678024061641418 0 0.41140534993910638 0.32360132811636988 0 0.39947540688062583 0.32507272934288628 0 0.40184121301557668 0.30678024061641418 0 0.39947540688062583 0.32507272934288628 0 0.38242981621443428 0.31397380775534678 0 0.36562923609293069 0.32366592916769399 0 0.38242981621443428 0.31397380775534678 0 0.38128435600444488 0.32837669887387311 0 0.39947540688062583 0.32507272934288628 0 0.38242981621443428 0.31397380775534678 0 0.38128435600444488 0.32837669887387311 0 0.39105145014164849 0.3414869239971704 0 0.39947540688062583 0.32507272934288628 0 0.38128435600444488 0.32837669887387311 0 0.36518945593320651 0.34509967395937191 0 0.39105145014164849 0.3414869239971704 0 0.38128435600444488 0.32837669887387311 0 0.36518945593320651 0.34509967395937191 0 0.39105145014164849 0.3414869239971704 0 0.3855881021147175 0.35910908792858098 0 0.36474967577348072 0.36653341875104961 0 0.3855881021147175 0.35910908792858098 0 0.3855881021147175 0.35910908792858098 0 0.39248458597179969 0.37472262889043839 0 0.3773824667175657 0.37546563606013739 0 0.36474967577348072 0.36653341875104961 0 0.3855881021147175 0.35910908792858098 0 0.3773824667175657 0.37546563606013739 0 0.40918213701441342 0.3736144609854074 0 0.39248458597179969 0.37472262889043839 0 0.40205795884979889 0.36380219258680641 0 0.3855881021147175 0.35910908792858098 0 0.39248458597179969 0.37472262889043839 0 0.40205795884979889 0.36380219258680641 0 0.40642652845595439 0.35168475710611302 0 0.39105145014164849 0.3414869239971704 0 0.3855881021147175 0.35910908792858098 0 0.40642652845595439 0.35168475710611302 0 0.3855881021147175 0.35910908792858098 0 0.40642652845595439 0.35168475710611302 0 0.3855881021147175 0.35910908792858098 0 0.40205795884979889 0.36380219258680641 0 0.39221066862400811 0.40518894945558848 0 0.39940032860097008 0.38986983405391068 0 0.41033309730305728 0.40785957742124029 0 0.40918213701441342 0.3736144609854074 0 0.39248458597179969 0.37472262889043839 0 0.39940032860097008 0.38986983405391068 0 0.39248458597179969 0.37472262889043839 0 0.39940032860097008 0.38986983405391068 0 0.38026367080056678 0.39066664182047522 0 0.39248458597179969 0.37472262889043839 0 0.3773824667175657 0.37546563606013739 0 0.38026367080056678 0.39066664182047522 0 0.39221066862400811 0.40518894945558848 0 0.39940032860097008 0.38986983405391068 0 0.38026367080056678 0.39066664182047522 0 0.39221066862400811 0.40518894945558848 0 0.38026367080056678 0.39066664182047522 0 0.37744029411777058 0.41252948965876268 0 0.39221066862400811 0.40518894945558848 0 0.37744029411777058 0.41252948965876268 0 0.39361595229767549 0.42501920432355378 0 0.365542703577178 0.42914551292816783 0 0.39361595229767549 0.42501920432355378 0 0.37809165231809289 0.44568724501072521 0 0.365542703577178 0.42914551292816783 0 0.37744029411777058 0.41252948965876268 0 0.39361595229767549 0.42501920432355378 0 0.365542703577178 0.42914551292816783 0 0.39361595229767549 0.42501920432355378 0 0.39361595229767549 0.42501920432355378 0 0.41035062152962531 0.4256058815429955 0 0.40092741287151468 0.44093224530230651 0 0.39361595229767549 0.42501920432355378 0 0.40092741287151468 0.44093224530230651 0 0.37809165231809289 0.44568724501072521 0 0.39361595229767549 0.42501920432355378 0 0.41033309730305728 0.40785957742124029 0 0.41035062152962531 0.4256058815429955 0 0.39221066862400811 0.40518894945558848 0 0.39361595229767549 0.42501920432355378 0 0.41033309730305728 0.40785957742124029 0 0.41033309730305728 0.40785957742124029 0 0.41035062152962531 0.4256058815429955 0 0.42646345733135449 0.42088686527347441 0 0.41035062152962531 0.4256058815429955 0 0.4216403136361262 0.43569606407888728 0 0.42646345733135449 0.42088686527347441 0 0.41035062152962531 0.4256058815429955 0 0.4216403136361262 0.43569606407888728 0 0.40092741287151468 0.44093224530230651 0 0.43504649219903713 0.43385430946487219 0 0.42646345733135449 0.42088686527347441 0 0.44292677264660579 0.42392515796168401 0 0.4216403136361262 0.43569606407888728 0 0.43504649219903713 0.43385430946487219 0 0.42646345733135449 0.42088686527347441 0 0.4216403136361262 0.43569606407888728 0 0.43504649219903713 0.43385430946487219 0 0.4309855774719657 0.44262377444488737 0 0.41033309730305728 0.40785957742124029 0 0.42646345733135449 0.42088686527347441 0 0.43473852811684172 0.40482082561786309 0 0.42646345733135449 0.42088686527347441 0 0.43473852811684172 0.40482082561786309 0 0.44292677264660579 0.42392515796168401 0 0.43473852811684172 0.40482082561786309 0 0.42003555557297712 0.38799376876492359 0 0.43605286711449009 0.38080977408974359 0 0.41033309730305728 0.40785957742124029 0 0.43473852811684172 0.40482082561786309 0 0.42003555557297712 0.38799376876492359 0 0.39940032860097008 0.38986983405391068 0 0.41033309730305728 0.40785957742124029 0 0.42003555557297712 0.38799376876492359 0 0.40918213701441342 0.3736144609854074 0 0.39940032860097008 0.38986983405391068 0 0.42003555557297712 0.38799376876492359 0 0.40918213701441342 0.3736144609854074 0 0.42003555557297712 0.38799376876492359 0 0.42225433889660879 0.37545697575276449 0 0.42003555557297712 0.38799376876492359 0 0.42225433889660879 0.37545697575276449 0 0.43605286711449009 0.38080977408974359 0 0.44279863902385319 0.36498191861006751 0 0.43605286711449009 0.38080977408974359 0 0.45829891398740957 0.37926071030245079 0 0.43605286711449009 0.38080977408974359 0 0.44916269767969552 0.39669925538146661 0 0.45829891398740957 0.37926071030245079 0 0.43473852811684172 0.40482082561786309 0 0.43605286711449009 0.38080977408974359 0 0.44916269767969552 0.39669925538146661 0 0.43473852811684172 0.40482082561786309 0 0.44916269767969552 0.39669925538146661 0 0.45819524916971172 0.41557138043250991 0 0.44916269767969552 0.39669925538146661 0 0.47914945699370431 0.3984681476517854 0 0.45819524916971172 0.41557138043250991 0 0.44916269767969552 0.39669925538146661 0 0.45829891398740957 0.37926071030245079 0 0.47914945699370431 0.3984681476517854 0 0.45829891398740957 0.37926071030245079 0 0.47914945699370431 0.3984681476517854 0 0.44916269767969552 0.39669925538146661 0 0.45829891398740957 0.37926071030245079 0 0.45829891398740957 0.37926071030245079 0 0.48177296974371542 0.3780796821533936 0 0.47914945699370431 0.3984681476517854 0 0.47914945699370431 0.3984681476517854 0 0.5 0.39471699264069632 0 0.49999999999999928 0.41767558500111929 0 0.48177296974371542 0.3780796821533936 0 0.47914945699370431 0.3984681476517854 0 0.5 0.39471699264069632 0 0.5 0.37175840028027313 0 0.48177296974371542 0.3780796821533936 0 0.5 0.39471699264069632 0 0.48950419912568011 0.43203648207583117 0 0.49999999999999928 0.41767558500111929 0 0.47941257652712138 0.42859526255965119 0 0.48950419912568011 0.43203648207583117 0 0.49999999999999928 0.41767558500111929 0 0.50000000000000022 0.44212157098762489 0 0.49999999999999928 0.41767558500111929 0 0.47638758820359789 0.4177788365799131 0 0.47941257652712138 0.42859526255965119 0 0.47914945699370431 0.3984681476517854 0 0.49999999999999928 0.41767558500111929 0 0.47638758820359789 0.4177788365799131 0 0.47914945699370431 0.3984681476517854 0 0.49999999999999928 0.41767558500111929 0 0.47914945699370431 0.3984681476517854 0 0.47638758820359789 0.4177788365799131 0 0.45819524916971172 0.41557138043250991 0 0.47638758820359789 0.4177788365799131 0 0.46959145424244531 0.42892785421681912 0 0.47941257652712138 0.42859526255965119 0 0.48950419912568011 0.43203648207583117 0 0.47941257652712138 0.42859526255965119 0 0.47860421997559988 0.43975350975492877 0 0.46959145424244531 0.42892785421681912 0 0.47941257652712138 0.42859526255965119 0 0.47860421997559988 0.43975350975492877 0 0.46959145424244531 0.42892785421681912 0 0.45720843995119947 0.43738544852223271 0 0.45819524916971172 0.41557138043250991 0 0.46959145424244531 0.42892785421681912 0 0.45720843995119947 0.43738544852223271 0 0.47860421997559988 0.43975350975492877 0 0.47638758820359789 0.4177788365799131 0 0.46959145424244531 0.42892785421681912 0 0.45819524916971172 0.41557138043250991 0 0.43473852811684172 0.40482082561786309 0 0.45819524916971172 0.41557138043250991 0 0.44292677264660579 0.42392515796168401 0 0.45720843995119947 0.43738544852223271 0 0.45819524916971172 0.41557138043250991 0 0.44292677264660579 0.42392515796168401 0 0.45720843995119947 0.43738544852223271 0 0.44292677264660579 0.42392515796168401 0 0.44501475256406542 0.43710487641451851 0 0.43504649219903713 0.43385430946487219 0 0.44292677264660579 0.42392515796168401 0 0.44501475256406542 0.43710487641451851 0 0.44501475256406542 0.43710487641451851 0 0.44086930591740259 0.443703986550611 0 0.44426520485267701 0.44828521544284999 0 0.43504649219903713 0.43385430946487219 0 0.44501475256406542 0.43710487641451851 0 0.44086930591740259 0.443703986550611 0 0.44576605402647751 0.45131382091928901 0 0.43097115028835131 0.45382894378787952 0 0.4371491165808723 0.44919465112914592 0 0.44086930591740259 0.443703986550611 0 0.44106718496795649 0.44783878756079798 0 0.4371491165808723 0.44919465112914592 0 0.44106718496795649 0.44783878756079798 0 0.44576605402647751 0.45131382091928901 0 0.4371491165808723 0.44919465112914592 0 0.44086930591740259 0.443703986550611 0 0.44426520485267701 0.44828521544284999 0 0.44106718496795649 0.44783878756079798 0 0.44426520485267701 0.44828521544284999 0 0.44576605402647751 0.45131382091928901 0 0.44086930591740259 0.443703986550611 0 0.44106718496795649 0.44783878756079798 0 0.44426520485267701 0.44828521544284999 0 0.45720843995119947 0.43738544852223271 0 0.44501475256406542 0.43710487641451851 0 0.44426520485267701 0.44828521544284999 0 0.44576605402647751 0.45131382091928901 0 0.44334270512280699 0.46695283516179431 0 0.45751300038554987 0.46615712058798953 0 0.44426520485267701 0.44828521544284999 0 0.45751300038554987 0.46615712058798953 0 0.44576605402647751 0.45131382091928901 0 0.44334270512280699 0.46695283516179431 0 0.42744619309891668 0.4675425472795256 0 0.44426520485267701 0.44828521544284999 0 0.44576605402647751 0.45131382091928901 0 0.45751300038554987 0.46615712058798953 0 0.44426520485267701 0.44828521544284999 0 0.45751300038554987 0.46615712058798953 0 0.47213260242633898 0.44992772785007767 0 0.44426520485267701 0.44828521544284999 0 0.47213260242633898 0.44992772785007767 0 0.45720843995119947 0.43738544852223271 0 0.47860421997559988 0.43975350975492877 0 0.45720843995119947 0.43738544852223271 0 0.44426520485267701 0.44828521544284999 0 0.47213260242633898 0.44992772785007767 0 0.47213260242633898 0.44992772785007767 0 0.47860421997559988 0.43975350975492877 0 0.50000000000000067 0.45157024025730719 0 0.45720843995119947 0.43738544852223271 0 0.47213260242633898 0.44992772785007767 0 0.47860421997559988 0.43975350975492877 0 0.47213260242633898 0.44992772785007767 0 0.48064266697128027 0.4673483066551633 0 0.50000000000000067 0.45157024025730719 0 0.45751300038554987 0.46615712058798953 0 0.47213260242633898 0.44992772785007767 0 0.48064266697128027 0.4673483066551633 0 0.48064266697128027 0.4673483066551633 0 0.5 0.46843982966384828 0 0.50000000000000067 0.45157024025730719 0 0.47860421997559988 0.43975350975492877 0 0.50000000000000022 0.44212157098762489 0 0.47860421997559988 0.43975350975492877 0 0.50000000000000067 0.45157024025730719 0 0.50000000000000022 0.44212157098762489 0 0.47213260242633898 0.44992772785007767 0 0.50000000000000067 0.45157024025730719 0 0.48950419912568011 0.43203648207583117 0 0.47860421997559988 0.43975350975492877 0 0.50000000000000022 0.44212157098762489 0 0.48834007405180069 0.49233461120087918 0 0.50000000000000222 0.48530941907038949 0 0.47076079591842229 0.48402902573312923 0 0.48834007405180069 0.49233461120087918 0 0.5 0.5 0 0.48259950028877657 0.49999999999999922 0 0.50000000000000222 0.48530941907038949 0 0.47076079591842229 0.48402902573312923 0 0.48834007405180069 0.49233461120087918 0 0.5 0.5 0 0.50000000000000222 0.48530941907038949 0 0.50000000000000222 0.48530941907038949 0 0.48785086572242647 0.47628164528063233 0 0.47076079591842229 0.48402902573312923 0 0.48064266697128027 0.4673483066551633 0 0.5 0.46843982966384828 0 0.48785086572242647 0.47628164528063233 0 0.5 0.46843982966384828 0 0.50000000000000222 0.48530941907038949 0 0.48785086572242647 0.47628164528063233 0 0.45751300038554987 0.46615712058798953 0 0.48064266697128027 0.4673483066551633 0 0.47076079591842229 0.48402902573312923 0 0.48064266697128027 0.4673483066551633 0 0.48785086572242647 0.47628164528063233 0 0.47076079591842229 0.48402902573312923 0 0.47076079591842229 0.48402902573312923 0 0.48259950028877657 0.49999999999999922 0 0.45965124302753141 0.5 0 0.48834007405180069 0.49233461120087918 0 0.47076079591842229 0.48402902573312923 0 0.48259950028877657 0.49999999999999922 0 0.47076079591842229 0.48402902573312923 0 0.48259950028877657 0.49999999999999922 0 0.47076079591842229 0.48402902573312923 0 0.45965124302753141 0.5 0 0.44264557298028417 0.48279785186037327 0 0.45751300038554987 0.46615712058798953 0 0.47076079591842229 0.48402902573312923 0 0.47076079591842229 0.48402902573312923 0 0.44264557298028417 0.48279785186037327 0 0.45751300038554987 0.46615712058798953 0 0.47076079591842229 0.48402902573312923 0 0.44264557298028417 0.48279785186037327 0 0.44334270512280699 0.46695283516179431 0 0.44264557298028417 0.48279785186037327 0 0.42744619309891668 0.4675425472795256 0 0.44334270512280699 0.46695283516179431 0 0.45751300038554987 0.46615712058798953 0 0.44264557298028417 0.48279785186037327 0 0.45965124302753141 0.5 0 0.44264557298028417 0.48279785186037327 0 0.43670298576628619 0.5 0 0.44264557298028417 0.48279785186037327 0 0.42814010978677508 0.48883471415535268 0 0.41453035004214622 0.48156667798761449 0 0.43670298576628619 0.5 0 0.42814010978677508 0.48883471415535268 0 0.41868153035838401 0.49097432677342312 0 0.44264557298028417 0.48279785186037327 0 0.43670298576628619 0.5 0 0.42814010978677508 0.48883471415535268 0 0.43670298576628619 0.5 0 0.41375472850504103 0.5 0 0.41868153035838401 0.49097432677342312 0 0.41375472850504103 0.5 0 0.41868153035838401 0.49097432677342312 0 0.40912633217135602 0.48377127363976219 0 0.42814010978677508 0.48883471415535268 0 0.41868153035838401 0.49097432677342312 0 0.41453035004214622 0.48156667798761449 0 0.41868153035838401 0.49097432677342312 0 0.40912633217135602 0.48377127363976219 0 0.41453035004214622 0.48156667798761449 0 0.40882198151684829 0.470458307354371 0 0.40912633217135602 0.48377127363976219 0 0.42744619309891668 0.4675425472795256 0 0.40912633217135602 0.48377127363976219 0 0.42744619309891668 0.4675425472795256 0 0.40912633217135602 0.48377127363976219 0 0.41453035004214622 0.48156667798761449 0 0.42744619309891668 0.4675425472795256 0 0.40882198151684829 0.470458307354371 0 0.40912633217135602 0.48377127363976219 0 0.40257181831080802 0.47789339995616598 0 0.44264557298028417 0.48279785186037327 0 0.41453035004214622 0.48156667798761449 0 0.44264557298028417 0.48279785186037327 0 0.41453035004214622 0.48156667798761449 0 0.42744619309891668 0.4675425472795256 0 0.44576605402647751 0.45131382091928901 0 0.42744619309891668 0.4675425472795256 0 0.44576605402647751 0.45131382091928901 0 0.43097115028835131 0.45382894378787952 0 0.42744619309891668 0.4675425472795256 0 0.43097115028835131 0.45382894378787952 0 0.42744619309891668 0.4675425472795256 0 0.41709851720120961 0.46055572465752248 0 0.44086930591740259 0.443703986550611 0 0.4309855774719657 0.44262377444488737 0 0.4371491165808723 0.44919465112914592 0 0.43504649219903713 0.43385430946487219 0 0.44086930591740259 0.443703986550611 0 0.4309855774719657 0.44262377444488737 0 0.43097115028835131 0.45382894378787952 0 0.4309855774719657 0.44262377444488737 0 0.4371491165808723 0.44919465112914592 0 0.43097115028835131 0.45382894378787952 0 0.4309855774719657 0.44262377444488737 0 0.41665312800777271 0.44940921386284588 0 0.4216403136361262 0.43569606407888728 0 0.4309855774719657 0.44262377444488737 0 0.41665312800777271 0.44940921386284588 0 0.41665312800777271 0.44940921386284588 0 0.4029362549212489 0.45832899449672349 0 0.40092741287151468 0.44093224530230651 0 0.4216403136361262 0.43569606407888728 0 0.41665312800777271 0.44940921386284588 0 0.40092741287151468 0.44093224530230651 0 0.40882198151684829 0.470458307354371 0 0.42744619309891668 0.4675425472795256 0 0.41709851720120961 0.46055572465752248 0 0.43097115028835131 0.45382894378787952 0 0.41665312800777271 0.44940921386284588 0 0.41709851720120961 0.46055572465752248 0 0.41665312800777271 0.44940921386284588 0 0.41709851720120961 0.46055572465752248 0 0.4029362549212489 0.45832899449672349 0 0.40882198151684829 0.470458307354371 0 0.41709851720120961 0.46055572465752248 0 0.4029362549212489 0.45832899449672349 0 0.40882198151684829 0.470458307354371 0 0.4029362549212489 0.45832899449672349 0 0.3944208343110962 0.47305259584339332 0 0.4029362549212489 0.45832899449672349 0 0.38943508825963058 0.45629052964312111 0 0.3944208343110962 0.47305259584339332 0 0.4029362549212489 0.45832899449672349 0 0.40092741287151468 0.44093224530230651 0 0.38943508825963058 0.45629052964312111 0 0.40092741287151468 0.44093224530230651 0 0.37809165231809289 0.44568724501072521 0 0.38943508825963058 0.45629052964312111 0 0.37809165231809289 0.44568724501072521 0 0.38943508825963058 0.45629052964312111 0 0.37844435483634198 0.4675903904274426 0 0.38943508825963058 0.45629052964312111 0 0.37844435483634198 0.4675903904274426 0 0.3944208343110962 0.47305259584339332 0 0.37844435483634198 0.4675903904274426 0 0.38120033573297152 0.48442634992442057 0 0.3944208343110962 0.47305259584339332 0 0.38120033573297152 0.48442634992442057 0 0.3944208343110962 0.47305259584339332 0 0.39562515835400552 0.48382872387274839 0 0.36196284501337178 0.5 0 0.38120033573297152 0.48442634992442057 0 0.39080647124379558 0.49999999999999922 0 0.38120033573297152 0.48442634992442057 0 0.39080647124379558 0.49999999999999922 0 0.39562515835400552 0.48382872387274839 0 0.40912633217135602 0.48377127363976219 0 0.39080647124379558 0.49999999999999922 0 0.40912633217135602 0.48377127363976219 0 0.39080647124379558 0.49999999999999922 0 0.39562515835400552 0.48382872387274839 0 0.41375472850504103 0.5 0 0.40912633217135602 0.48377127363976219 0 0.39080647124379558 0.49999999999999922 0 0.40912633217135602 0.48377127363976219 0 0.40257181831080802 0.47789339995616598 0 0.39562515835400552 0.48382872387274839 0 0.40882198151684829 0.470458307354371 0 0.40257181831080802 0.47789339995616598 0 0.3944208343110962 0.47305259584339332 0 0.40257181831080802 0.47789339995616598 0 0.3944208343110962 0.47305259584339332 0 0.39562515835400552 0.48382872387274839 0 0.34137977846588119 0.091947059702449957 0 0.3184977734976509 0.082531855017860187 0 0.34137977846588119 0.091947059702449957 0 0.33853514524224232 0.092154422351098803 0 0.3184977734976509 0.082531855017860187 0 0.33853514524224232 0.092154422351098803 0 0.3184977734976509 0.082531855017860187 0 0.3305269393921435 0.093893314460775035 0 0.34137977846588119 0.091947059702449957 0 0.33488127772135701 0.070909675734900868 0 0.3184977734976509 0.082531855017860187 0 0.33488127772135701 0.070909675734900868 0 0.35624300874513559 0.071190975121652081 0 0.33828509493208109 0.051113002016081502 0 0.3184977734976509 0.082531855017860187 0 0.31750720709783492 0.060828210965220328 0 0.30506359630307739 0.067813250175554993 0 0.33488127772135701 0.070909675734900868 0 0.32846421329825382 0.059059627678852658 0 0.31750720709783492 0.060828210965220328 0 0.33488127772135701 0.070909675734900868 0 0.3184977734976509 0.082531855017860187 0 0.31750720709783492 0.060828210965220328 0 0.3184977734976509 0.082531855017860187 0 0.3254096333834442 0.096971455496547829 0 0.3305269393921435 0.093893314460775035 0 0.3184977734976509 0.082531855017860187 0 0.3254096333834442 0.096971455496547829 0 0.31111548734401751 0.094174984339189319 0 0.3254096333834442 0.096971455496547829 0 0.33219394353324039 0.1121017755840282 0 0.31111548734401751 0.094174984339189319 0 0.33219394353324039 0.1121017755840282 0 0.31111548734401751 0.094174984339189319 0 0.33219394353324039 0.1121017755840282 0 0.31151194808720201 0.1150643222194616 0 0.31111548734401751 0.094174984339189319 0 0.33219394353324039 0.1121017755840282 0 0.31151194808720201 0.1150643222194616 0 0.32387679174541939 0.1297141718462434 0 0.33219394353324039 0.1121017755840282 0 0.32387679174541939 0.1297141718462434 0 0.35327239972246333 0.1300285668288671 0 0.33219394353324039 0.1121017755840282 0 0.35327239972246333 0.1300285668288671 0 0.33219394353324039 0.1121017755840282 0 0.34279585490336462 0.1026082003979065 0 0.35159211237321392 0.11222190062690381 0 0.33853514524224232 0.092154422351098803 0 0.3305269393921435 0.093893314460775035 0 0.33650548478629722 0.09727411407467923 0 0.3254096333834442 0.096971455496547829 0 0.33351858274250701 0.1005678965871936 0 0.3305269393921435 0.093893314460775035 0 0.33351858274250701 0.1005678965871936 0 0.3305269393921435 0.093893314460775035 0 0.33650548478629722 0.09727411407467923 0 0.3254096333834442 0.096971455496547829 0 0.33219394353324039 0.1121017755840282 0 0.33351858274250701 0.1005678965871936 0 0.33219394353324039 0.1121017755840282 0 0.33351858274250701 0.1005678965871936 0 0.34279585490336462 0.1026082003979065 0 0.33351858274250701 0.1005678965871936 0 0.34279585490336462 0.1026082003979065 0 0.33650548478629722 0.09727411407467923 0 0.33853514524224232 0.092154422351098803 0 0.34279585490336462 0.1026082003979065 0 0.33650548478629722 0.09727411407467923 0 0.34279585490336462 0.1026082003979065 0 0.35159211237321392 0.11222190062690381 0 0.36426178343411147 0.1013622643870397 0 0.33853514524224232 0.092154422351098803 0 0.34279585490336462 0.1026082003979065 0 0.36426178343411147 0.1013622643870397 0 0.34137977846588119 0.091947059702449957 0 0.33853514524224232 0.092154422351098803 0 0.36426178343411147 0.1013622643870397 0 0.33853514524224232 0.092154422351098803 0 0.36426178343411147 0.1013622643870397 0 0.34137977846588119 0.091947059702449957 0 0.36426178343411147 0.1013622643870397 0 0.33219394353324039 0.1121017755840282 0 0.35159211237321392 0.11222190062690381 0 0.35327239972246333 0.1300285668288671 0 0.35159211237321392 0.11222190062690381 0 0.36649271172908648 0.1176987398754743 0 0.35327239972246333 0.1300285668288671 0 0.35159211237321392 0.11222190062690381 0 0.36649271172908648 0.1176987398754743 0 0.36426178343411147 0.1013622643870397 0 0.36649271172908648 0.1176987398754743 0 0.36938385952287339 0.13266757129752671 0 0.38138511069115272 0.12353481432135879 0 0.36649271172908648 0.1176987398754743 0 0.36426178343411147 0.1013622643870397 0 0.3795225325030368 0.1068242515199407 0 0.36426178343411147 0.1013622643870397 0 0.3795225325030368 0.1068242515199407 0 0.36426178343411147 0.1013622643870397 0 0.3742009225581896 0.091268948227223284 0 0.3795225325030368 0.1068242515199407 0 0.3742009225581896 0.091268948227223284 0 0.35754778501084228 0.087847667021068221 0 0.35624300874513559 0.071190975121652081 0 0.36426178343411147 0.1013622643870397 0 0.3742009225581896 0.091268948227223284 0 0.35754778501084228 0.087847667021068221 0 0.3742009225581896 0.091268948227223284 0 0.35624300874513559 0.071190975121652081 0 0.34137977846588119 0.091947059702449957 0 0.35754778501084228 0.087847667021068221 0 0.35624300874513559 0.071190975121652081 0 0.34137977846588119 0.091947059702449957 0 0.36426178343411147 0.1013622643870397 0 0.35754778501084228 0.087847667021068221 0 0.34137977846588119 0.091947059702449957 0 0.33488127772135701 0.070909675734900868 0 0.35624300874513559 0.071190975121652081 0 0.3742009225581896 0.091268948227223284 0 0.35624300874513559 0.071190975121652081 0 0.37575225644292037 0.071709270247263784 0 0.35624300874513559 0.071190975121652081 0 0.36737709041569239 0.056764699852256018 0 0.37575225644292037 0.071709270247263784 0 0.36737709041569239 0.056764699852256018 0 0.36443667806580698 0.054513224756226962 0 0.39058826119953283 0.057913447496371839 0 0.36443667806580698 0.054513224756226962 0 0.36984281421283938 0.03924660656396721 0 0.37608467898805159 0.048096788967416412 0 0.36984281421283938 0.03924660656396721 0 0.35576481933353549 0.041718099984820838 0 0.3798040161112804 0.028996110171619349 0 0.35576481933353549 0.041718099984820838 0 0.36136411866671431 0.026161729739540451 0 0.37786156531075732 0.02725125369877367 0 0.35576481933353549 0.041718099984820838 0 0.3798040161112804 0.028996110171619349 0 0.37786156531075732 0.02725125369877367 0 0.35576481933353549 0.041718099984820838 0 0.3798040161112804 0.028996110171619349 0 0.36984281421283938 0.03924660656396721 0 0.37726993283737248 0.041439113600633092 0 0.37608467898805159 0.048096788967416412 0 0.36984281421283938 0.03924660656396721 0 0.37675727284589372 0.036323400775862158 0 0.37726993283737248 0.041439113600633092 0 0.36443667806580698 0.054513224756226962 0 0.36984281421283938 0.03924660656396721 0 0.35576481933353549 0.041718099984820838 0 0.35576481933353549 0.041718099984820838 0 0.36136411866671431 0.026161729739540451 0 0.34099279295720591 0.031691385536231111 0 0.35576481933353549 0.041718099984820838 0 0.34539840685914608 0.044617690611648012 0 0.34099279295720591 0.031691385536231111 0 0.35624300874513559 0.071190975121652081 0 0.34416591963185211 0.055615952208139578 0 0.33828509493208109 0.051113002016081502 0 0.36443667806580698 0.054513224756226962 0 0.34416591963185211 0.055615952208139578 0 0.33828509493208109 0.051113002016081502 0 0.36737709041569239 0.056764699852256018 0 0.34416591963185211 0.055615952208139578 0 0.35624300874513559 0.071190975121652081 0 0.33828509493208109 0.051113002016081502 0 0.35624300874513559 0.071190975121652081 0 0.36737709041569239 0.056764699852256018 0 0.34416591963185211 0.055615952208139578 0 0.36443667806580698 0.054513224756226962 0 0.33828509493208109 0.051113002016081502 0 0.36443667806580698 0.054513224756226962 0 0.34539840685914608 0.044617690611648012 0 0.33828509493208109 0.051113002016081502 0 0.36443667806580698 0.054513224756226962 0 0.35576481933353549 0.041718099984820838 0 0.34539840685914608 0.044617690611648012 0 0.36737709041569239 0.056764699852256018 0 0.36443667806580698 0.054513224756226962 0 0.34416591963185211 0.055615952208139578 0 0.35686418876597309 0.010252504770385159 0 0.37537418671591988 0.012891754799621079 0 0.3700201466167648 -0.002195575246397889 0 0.35686418876597309 0.010252504770385159 0 0.37786156531075732 0.02725125369877367 0 0.36136411866671431 0.026161729739540451 0 0.35686418876597309 0.010252504770385159 0 0.37786156531075732 0.02725125369877367 0 0.35686418876597309 0.010252504770385159 0 0.37537418671591988 0.012891754799621079 0 0.37786156531075732 0.02725125369877367 0 0.36136411866671431 0.026161729739540451 0 0.35686418876597309 0.010252504770385159 0 0.34167945108238768 0.015605415956853899 0 0.36136411866671431 0.026161729739540451 0 0.34167945108238768 0.015605415956853899 0 0.34099279295720591 0.031691385536231111 0 0.35686418876597309 0.010252504770385159 0 0.34167945108238768 0.015605415956853899 0 0.33586681222118892 -0.0067462441580033658 0 0.35686418876597309 0.010252504770385159 0 0.33586681222118892 -0.0067462441580033658 0 0.34167945108238768 0.015605415956853899 0 0.32490055802469708 0.021190940670656921 0 0.33586681222118892 -0.0067462441580033658 0 0.34167945108238768 0.015605415956853899 0 0.32490055802469708 0.021190940670656921 0 0.34099279295720591 0.031691385536231111 0 0.32490055802469708 0.021190940670656921 0 0.34099279295720591 0.031691385536231111 0 0.32801258046435111 0.036170166979635328 0 0.32490055802469708 0.021190940670656921 0 0.31497710433926901 0.036033128519756527 0 0.30595588987094691 0.026092456194660541 0 0.32490055802469708 0.021190940670656921 0 0.31046320235639918 0.0067575729804437252 0 0.30595588987094691 0.026092456194660541 0 0.32490055802469708 0.021190940670656921 0 0.32801258046435111 0.036170166979635328 0 0.31497710433926901 0.036033128519756527 0 0.32490055802469708 0.021190940670656921 0 0.31046320235639918 0.0067575729804437252 0 0.33586681222118892 -0.0067462441580033658 0 0.33488127772135701 0.070909675734900868 0 0.32846421329825382 0.059059627678852658 0 0.33828509493208109 0.051113002016081502 0 0.33828509493208109 0.051113002016081502 0 0.33632782521092219 0.048924662700562782 0 0.31456469921871788 0.048028881697348168 0 0.34539840685914608 0.044617690611648012 0 0.33828509493208109 0.051113002016081502 0 0.33632782521092219 0.048924662700562782 0 0.33828509493208109 0.051113002016081502 0 0.33632782521092219 0.048924662700562782 0 0.34539840685914608 0.044617690611648012 0 0.33609782728063148 0.04111054955314445 0 0.34099279295720591 0.031691385536231111 0 0.34539840685914608 0.044617690611648012 0 0.33632782521092219 0.048924662700562782 0 0.33609782728063148 0.04111054955314445 0 0.33609782728063148 0.04111054955314445 0 0.34099279295720591 0.031691385536231111 0 0.32801258046435111 0.036170166979635328 0 0.33632782521092219 0.048924662700562782 0 0.33609782728063148 0.04111054955314445 0 0.33051084790212298 0.042529329228536181 0 0.33632782521092219 0.048924662700562782 0 0.33051084790212298 0.042529329228536181 0 0.32327528761916352 0.043108517346294839 0 0.33609782728063148 0.04111054955314445 0 0.33051084790212298 0.042529329228536181 0 0.32801258046435111 0.036170166979635328 0 0.33632782521092219 0.048924662700562782 0 0.32327528761916352 0.043108517346294839 0 0.31456469921871788 0.048028881697348168 0 0.33051084790212298 0.042529329228536181 0 0.32327528761916352 0.043108517346294839 0 0.32801258046435111 0.036170166979635328 0 0.32327528761916352 0.043108517346294839 0 0.32801258046435111 0.036170166979635328 0 0.31497710433926901 0.036033128519756527 0 0.32327528761916352 0.043108517346294839 0 0.31497710433926901 0.036033128519756527 0 0.31456469921871788 0.048028881697348168 0 0.33828509493208109 0.051113002016081502 0 0.31456469921871788 0.048028881697348168 0 0.32846421329825382 0.059059627678852658 0 0.33828509493208109 0.051113002016081502 0 0.31456469921871788 0.048028881697348168 0 0.32846421329825382 0.059059627678852658 0 0.31456469921871788 0.048028881697348168 0 0.31750720709783492 0.060828210965220328 0 0.31456469921871788 0.048028881697348168 0 0.31750720709783492 0.060828210965220328 0 0.30386903740065402 0.05697431224277244 0 0.31750720709783492 0.060828210965220328 0 0.30386903740065402 0.05697431224277244 0 0.30506359630307739 0.067813250175554993 0 0.31456469921871788 0.048028881697348168 0 0.30386903740065402 0.05697431224277244 0 0.29084430350535467 0.044944761378613682 0 0.30386903740065402 0.05697431224277244 0 0.29325963230024937 0.057606978803657879 0 0.29690158384745241 0.06457818982176422 0 0.31456469921871788 0.048028881697348168 0 0.30257644158749403 0.037675663858353942 0 0.29084430350535467 0.044944761378613682 0 0.31456469921871788 0.048028881697348168 0 0.29084430350535467 0.044944761378613682 0 0.30257644158749403 0.037675663858353942 0 0.28728110375769011 0.032980092644635972 0 0.30595588987094691 0.026092456194660541 0 0.31497710433926901 0.036033128519756527 0 0.31456469921871788 0.048028881697348168 0 0.30257644158749403 0.037675663858353942 0 0.31497710433926901 0.036033128519756527 0 0.30257644158749403 0.037675663858353942 0 0.30595588987094691 0.026092456194660541 0 0.28728110375769011 0.032980092644635972 0 0.28354425329012439 0.021068516806879451 0 0.27754771987688809 0.040797440569893019 0 0.30257644158749403 0.037675663858353942 0 0.29084430350535467 0.044944761378613682 0 0.28728110375769011 0.032980092644635972 0 0.28728110375769011 0.032980092644635972 0 0.2844924432277231 0.043204628682168907 0 0.27754771987688809 0.040797440569893019 0 0.29084430350535467 0.044944761378613682 0 0.28728110375769011 0.032980092644635972 0 0.2844924432277231 0.043204628682168907 0 0.2844924432277231 0.043204628682168907 0 0.28229664577095948 0.054096220135532967 0 0.27754771987688809 0.040797440569893019 0 0.29084430350535467 0.044944761378613682 0 0.2844924432277231 0.043204628682168907 0 0.28229664577095948 0.054096220135532967 0 0.29084430350535467 0.044944761378613682 0 0.28229664577095948 0.054096220135532967 0 0.29325963230024937 0.057606978803657879 0 0.28229664577095948 0.054096220135532967 0 0.28695696052130792 0.062426000594819037 0 0.29325963230024937 0.057606978803657879 0 0.28229664577095948 0.054096220135532967 0 0.28695696052130792 0.062426000594819037 0 0.27961998430175328 0.060695812266760227 0 0.28695696052130792 0.062426000594819037 0 0.29325963230024937 0.057606978803657879 0 0.29690158384745241 0.06457818982176422 0 0.30386903740065402 0.05697431224277244 0 0.29084430350535467 0.044944761378613682 0 0.29325963230024937 0.057606978803657879 0 0.31046320235639918 0.0067575729804437252 0 0.29633736445586178 0.016145334388179639 0 0.2895407867033607 0.0013395930438658619 0 0.31046320235639918 0.0067575729804437252 0 0.30595588987094691 0.026092456194660541 0 0.29633736445586178 0.016145334388179639 0 0.28728110375769011 0.032980092644635972 0 0.29633736445586178 0.016145334388179639 0 0.28354425329012439 0.021068516806879451 0 0.28728110375769011 0.032980092644635972 0 0.30595588987094691 0.026092456194660541 0 0.29633736445586178 0.016145334388179639 0 0.29633736445586178 0.016145334388179639 0 0.28354425329012439 0.021068516806879451 0 0.2895407867033607 0.0013395930438658619 0 0.28354425329012439 0.021068516806879451 0 0.2895407867033607 0.0013395930438658619 0 0.27605408581287011 0.0090157940159830471 0 0.28354425329012439 0.021068516806879451 0 0.2895407867033607 0.0013395930438658619 0 0.2895407867033607 0.0013395930438658619 0 0.27605408581287011 0.0090157940159830471 0 0.26778398551549509 -0.0036893303100333872 0 0.27605408581287011 0.0090157940159830471 0 0.26417056773795178 0.0090152440179189393 0 0.26778398551549509 -0.0036893303100333872 0 0.27605408581287011 0.0090157940159830471 0 0.26936383070045983 0.02007531215695801 0 0.26417056773795178 0.0090152440179189393 0 0.28354425329012439 0.021068516806879451 0 0.27754771987688809 0.040797440569893019 0 0.28354425329012439 0.021068516806879451 0 0.27605408581287011 0.0090157940159830471 0 0.26936383070045983 0.02007531215695801 0 0.28354425329012439 0.021068516806879451 0 0.26936383070045983 0.02007531215695801 0 0.27332262009486957 0.033728107725222278 0 0.26936383070045983 0.02007531215695801 0 0.26667678125960848 0.028969541142501901 0 0.27332262009486957 0.033728107725222278 0 0.26936383070045983 0.02007531215695801 0 0.26667678125960848 0.028969541142501901 0 0.25978705670837199 0.02772172808684556 0 0.26667678125960848 0.028969541142501901 0 0.25978705670837199 0.02772172808684556 0 0.26423361753473251 0.034353016600981737 0 0.24818833723327199 0.02644705719899533 0 0.25978705670837199 0.02772172808684556 0 0.25442723867738032 0.016379625870619269 0 0.24818833723327199 0.02644705719899533 0 0.25978705670837199 0.02772172808684556 0 0.25704478259505842 0.035809011079610743 0 0.26936383070045983 0.02007531215695801 0 0.25978705670837199 0.02772172808684556 0 0.25442723867738032 0.016379625870619269 0 0.26936383070045983 0.02007531215695801 0 0.25442723867738032 0.016379625870619269 0 0.26417056773795178 0.0090152440179189393 0 0.25442723867738032 0.016379625870619269 0 0.26417056773795178 0.0090152440179189393 0 0.25322369798355371 0.0032948183560677501 0 0.26417056773795178 0.0090152440179189393 0 0.25322369798355371 0.0032948183560677501 0 0.26778398551549509 -0.0036893303100333872 0 0.28229664577095948 0.054096220135532967 0 0.27155118646365262 0.060526364332906778 0 0.27754771987688809 0.040797440569893019 0 0.26803735397675288 0.057537922442449492 0 0.27155118646365262 0.060526364332906778 0 0.27754771987688809 0.040797440569893019 0 0.27155118646365262 0.060526364332906778 0 0.27754771987688809 0.040797440569893019 0 0.26803735397675288 0.057537922442449492 0 0.26717674565759131 0.061414912581717808 0 0.27155118646365262 0.060526364332906778 0 0.26803735397675288 0.057537922442449492 0 0.26717674565759131 0.061414912581717808 0 0.26717674565759131 0.061414912581717808 0 0.27082486665434358 0.062915996334918609 0 0.26717674565759131 0.061414912581717808 0 0.27155118646365262 0.060526364332906778 0 0.27082486665434358 0.062915996334918609 0 0.27155118646365262 0.060526364332906778 0 0.27082486665434358 0.062915996334918609 0 0.26803735397675288 0.057537922442449492 0 0.27155118646365262 0.060526364332906778 0 0.27155118646365262 0.060526364332906778 0 0.27961998430175328 0.060695812266760227 0 0.27767514445109232 0.065734664003783444 0 0.28229664577095948 0.054096220135532967 0 0.27155118646365262 0.060526364332906778 0 0.27961998430175328 0.060695812266760227 0 0.28354425329012439 0.021068516806879451 0 0.27754771987688809 0.040797440569893019 0 0.27332262009486957 0.033728107725222278 0 0.26803735397675288 0.057537922442449492 0 0.27754771987688809 0.040797440569893019 0 0.27332262009486957 0.033728107725222278 0 0.26803735397675288 0.057537922442449492 0 0.27332262009486957 0.033728107725222278 0 0.26337349528673171 0.044011131262296957 0 0.26803735397675288 0.057537922442449492 0 0.27332262009486957 0.033728107725222278 0 0.26667678125960848 0.028969541142501901 0 0.27332262009486957 0.033728107725222278 0 0.26423361753473251 0.034353016600981737 0 0.27332262009486957 0.033728107725222278 0 0.26337349528673171 0.044011131262296957 0 0.26423361753473251 0.034353016600981737 0 0.25978705670837199 0.02772172808684556 0 0.26423361753473251 0.034353016600981737 0 0.25704478259505842 0.035809011079610743 0 0.26337349528673171 0.044011131262296957 0 0.26423361753473251 0.034353016600981737 0 0.25704478259505842 0.035809011079610743 0 0.2492733855269578 0.041579555173777823 0 0.24818833723327199 0.02644705719899533 0 0.25704478259505842 0.035809011079610743 0 0.2492733855269578 0.041579555173777823 0 0.26337349528673171 0.044011131262296957 0 0.25704478259505842 0.035809011079610743 0 0.2492733855269578 0.041579555173777823 0 0.26803735397675288 0.057537922442449492 0 0.26337349528673171 0.044011131262296957 0 0.2492733855269578 0.041579555173777823 0 0.26803735397675288 0.057537922442449492 0 0.24629062771517271 0.052820950830226497 0 0.2492733855269578 0.041579555173777823 0 0.26803735397675288 0.057537922442449492 0 0.24874122334595 0.07170785510379532 0 0.24629062771517271 0.052820950830226497 0 0.26717674565759131 0.061414912581717808 0 0.24629062771517271 0.052820950830226497 0 0.26717674565759131 0.061414912581717808 0 0.24629062771517271 0.052820950830226497 0 0.26803735397675288 0.057537922442449492 0 0.26717674565759131 0.061414912581717808 0 0.24874122334595 0.07170785510379532 0 0.26717674565759131 0.061414912581717808 0 0.26207170159221099 0.084412837492877896 0 0.26717674565759131 0.061414912581717808 0 0.26207170159221099 0.084412837492877896 0 0.26717674565759131 0.061414912581717808 0 0.26459661937193729 0.083407271434054076 0 0.26207170159221099 0.084412837492877896 0 0.24736227196270541 0.090270970101712061 0 0.24874122334595 0.07170785510379532 0 0.26207170159221099 0.084412837492877896 0 0.24736227196270541 0.090270970101712061 0 0.26207170159221099 0.084412837492877896 0 0.24736227196270541 0.090270970101712061 0 0.26016144869860108 0.09301841504440217 0 0.25459763100830068 0.096141582858552177 0 0.24736227196270541 0.090270970101712061 0 0.26207170159221099 0.084412837492877896 0 0.26016144869860108 0.09301841504440217 0 0.24736227196270541 0.090270970101712061 0 0.25459763100830068 0.096141582858552177 0 0.26459661937193729 0.083407271434054076 0 0.26207170159221099 0.084412837492877896 0 0.26207170159221099 0.084412837492877896 0 0.26016144869860108 0.09301841504440217 0 0.26459661937193729 0.083407271434054076 0 0.2619867778419176 0.09199379318438361 0 0.26207170159221099 0.084412837492877896 0 0.2619867778419176 0.09199379318438361 0 0.26016144869860108 0.09301841504440217 0 0.26459661937193729 0.083407271434054076 0 0.26207170159221099 0.084412837492877896 0 0.2619867778419176 0.09199379318438361 0 0.2619867778419176 0.09199379318438361 0 0.26016144869860108 0.09301841504440217 0 0.26459661937193729 0.083407271434054076 0 0.28765643041333783 0.074223541376674432 0 0.26459661937193729 0.083407271434054076 0 0.27601190449835611 0.084120993139366301 0 0.28765643041333783 0.074223541376674432 0 0.2619867778419176 0.09199379318438361 0 0.27601190449835611 0.084120993139366301 0 0.27597760534302263 0.093816081557894046 0 0.2619867778419176 0.09199379318438361 0 0.27601190449835611 0.084120993139366301 0 0.26459661937193729 0.083407271434054076 0 0.2619867778419176 0.09199379318438361 0 0.27601190449835611 0.084120993139366301 0 0.27601190449835611 0.084120993139366301 0 0.28527214605629803 0.093542631019163408 0 0.27597760534302263 0.093816081557894046 0 0.26459661937193729 0.083407271434054076 0 0.27082486665434358 0.062915996334918609 0 0.26717674565759131 0.061414912581717808 0 0.26459661937193729 0.083407271434054076 0 0.27082486665434358 0.062915996334918609 0 0.26459661937193729 0.083407271434054076 0 0.27082486665434358 0.062915996334918609 0 0.27767514445109232 0.065734664003783444 0 0.26459661937193729 0.083407271434054076 0 0.27767514445109232 0.065734664003783444 0 0.28765643041333783 0.074223541376674432 0 0.27155118646365262 0.060526364332906778 0 0.27082486665434358 0.062915996334918609 0 0.27767514445109232 0.065734664003783444 0 0.27082486665434358 0.062915996334918609 0 0.27767514445109232 0.065734664003783444 0 0.27155118646365262 0.060526364332906778 0 0.27767514445109232 0.065734664003783444 0 0.27767514445109232 0.065734664003783444 0 0.28765643041333783 0.074223541376674432 0 0.27767514445109232 0.065734664003783444 0 0.29306802488508721 0.072068336257275281 0 0.28695696052130792 0.062426000594819037 0 0.27961998430175328 0.060695812266760227 0 0.27767514445109232 0.065734664003783444 0 0.28695696052130792 0.062426000594819037 0 0.27767514445109232 0.065734664003783444 0 0.29306802488508721 0.072068336257275281 0 0.28695696052130792 0.062426000594819037 0 0.29306802488508721 0.072068336257275281 0 0.29690158384745241 0.06457818982176422 0 0.29561576852942001 0.073116650333272012 0 0.29306802488508721 0.072068336257275281 0 0.29561576852942001 0.073116650333272012 0 0.29306802488508721 0.072068336257275281 0 0.29003703115479512 0.076248193094349867 0 0.29306802488508721 0.072068336257275281 0 0.28765643041333783 0.074223541376674432 0 0.29306802488508721 0.072068336257275281 0 0.29003703115479512 0.076248193094349867 0 0.28765643041333783 0.074223541376674432 0 0.29561576852942001 0.073116650333272012 0 0.29003703115479512 0.076248193094349867 0 0.27767514445109232 0.065734664003783444 0 0.29306802488508721 0.072068336257275281 0 0.28765643041333783 0.074223541376674432 0 0.29003703115479512 0.076248193094349867 0 0.28765643041333783 0.074223541376674432 0 0.27601190449835611 0.084120993139366301 0 0.29003703115479512 0.076248193094349867 0 0.27601190449835611 0.084120993139366301 0 0.29003703115479512 0.076248193094349867 0 0.28765643041333783 0.074223541376674432 0 0.27601190449835611 0.084120993139366301 0 0.29003703115479512 0.076248193094349867 0 0.28870857493654689 0.086239244916881869 0 0.27601190449835611 0.084120993139366301 0 0.28870857493654689 0.086239244916881869 0 0.28527214605629803 0.093542631019163408 0 0.28870857493654689 0.086239244916881869 0 0.28527214605629803 0.093542631019163408 0 0.29246213629446111 0.095768124011444758 0 0.28870857493654689 0.086239244916881869 0 0.29698271976236568 0.089899813846382556 0 0.29246213629446111 0.095768124011444758 0 0.29003703115479512 0.076248193094349867 0 0.28870857493654689 0.086239244916881869 0 0.29698271976236568 0.089899813846382556 0 0.29561576852942001 0.073116650333272012 0 0.29003703115479512 0.076248193094349867 0 0.31111548734401751 0.094174984339189319 0 0.29003703115479512 0.076248193094349867 0 0.31111548734401751 0.094174984339189319 0 0.29003703115479512 0.076248193094349867 0 0.29698271976236568 0.089899813846382556 0 0.31111548734401751 0.094174984339189319 0 0.3184977734976509 0.082531855017860187 0 0.29561576852942001 0.073116650333272012 0 0.31111548734401751 0.094174984339189319 0 0.3184977734976509 0.082531855017860187 0 0.29561576852942001 0.073116650333272012 0 0.3184977734976509 0.082531855017860187 0 0.29561576852942001 0.073116650333272012 0 0.30506359630307739 0.067813250175554993 0 0.31750720709783492 0.060828210965220328 0 0.30506359630307739 0.067813250175554993 0 0.29306802488508721 0.072068336257275281 0 0.30506359630307739 0.067813250175554993 0 0.29690158384745241 0.06457818982176422 0 0.30386903740065402 0.05697431224277244 0 0.30506359630307739 0.067813250175554993 0 0.29690158384745241 0.06457818982176422 0 0.29306802488508721 0.072068336257275281 0 0.30506359630307739 0.067813250175554993 0 0.29561576852942001 0.073116650333272012 0 0.30506359630307739 0.067813250175554993 0 0.29561576852942001 0.073116650333272012 0 0.29306802488508721 0.072068336257275281 0 0.30506359630307739 0.067813250175554993 0 0.31151194808720201 0.1150643222194616 0 0.30247500772594699 0.1071381656543656 0 0.29129275041579278 0.1172303442398579 0 0.31151194808720201 0.1150643222194616 0 0.29622008012258699 0.12991313160987961 0 0.32387679174541939 0.1297141718462434 0 0.31151194808720201 0.1150643222194616 0 0.29129275041579278 0.1172303442398579 0 0.29622008012258699 0.12991313160987961 0 0.31151194808720201 0.1150643222194616 0 0.31111548734401751 0.094174984339189319 0 0.30247500772594699 0.1071381656543656 0 0.31111548734401751 0.094174984339189319 0 0.30128354362195031 0.098124169066782854 0 0.30247500772594699 0.1071381656543656 0 0.29698271976236568 0.089899813846382556 0 0.30128354362195031 0.098124169066782854 0 0.29246213629446111 0.095768124011444758 0 0.29698271976236568 0.089899813846382556 0 0.31111548734401751 0.094174984339189319 0 0.30128354362195031 0.098124169066782854 0 0.30128354362195031 0.098124169066782854 0 0.30247500772594699 0.1071381656543656 0 0.29260899031297011 0.10538418601464609 0 0.29260899031297011 0.10538418601464609 0 0.29246213629446111 0.095768124011444758 0 0.28702757351663483 0.1001100210532227 0 0.30128354362195031 0.098124169066782854 0 0.29260899031297011 0.10538418601464609 0 0.29246213629446111 0.095768124011444758 0 0.28527214605629803 0.093542631019163408 0 0.29246213629446111 0.095768124011444758 0 0.28702757351663483 0.1001100210532227 0 0.28527214605629803 0.093542631019163408 0 0.28702757351663483 0.1001100210532227 0 0.28108272677848523 0.099874609951530163 0 0.29260899031297011 0.10538418601464609 0 0.28356239405763972 0.106033323917978 0 0.28664880997705461 0.11131452551203889 0 0.29260899031297011 0.10538418601464609 0 0.28702757351663483 0.1001100210532227 0 0.28356239405763972 0.106033323917978 0 0.28702757351663483 0.1001100210532227 0 0.28356239405763972 0.106033323917978 0 0.28108272677848523 0.099874609951530163 0 0.28356239405763972 0.106033323917978 0 0.2814598539497668 0.10990299155730229 0 0.28664880997705461 0.11131452551203889 0 0.27786688771157569 0.1150217509861922 0 0.29622008012258699 0.12991313160987961 0 0.28664880997705461 0.11131452551203889 0 0.29129275041579278 0.1172303442398579 0 0.27786688771157569 0.1150217509861922 0 0.27786688771157569 0.1150217509861922 0 0.27913813953766042 0.12972245958528131 0 0.29622008012258699 0.12991313160987961 0 0.29129275041579278 0.1172303442398579 0 0.27786688771157569 0.1150217509861922 0 0.29622008012258699 0.12991313160987961 0 0.2814598539497668 0.10990299155730229 0 0.28664880997705461 0.11131452551203889 0 0.27786688771157569 0.1150217509861922 0 0.30247500772594699 0.1071381656543656 0 0.29260899031297011 0.10538418601464609 0 0.29129275041579278 0.1172303442398579 0 0.29260899031297011 0.10538418601464609 0 0.28664880997705461 0.11131452551203889 0 0.29129275041579278 0.1172303442398579 0 0.27418517611644572 0.1163335826691398 0 0.26638390190257438 0.1102685147937751 0 0.25655208948606423 0.10927836717886751 0 0.27786688771157569 0.1150217509861922 0 0.27418517611644572 0.1163335826691398 0 0.27913813953766042 0.12972245958528131 0 0.27418517611644572 0.1163335826691398 0 0.27248198541775659 0.12784311929978001 0 0.27913813953766042 0.12972245958528131 0 0.2814598539497668 0.10990299155730229 0 0.27786688771157569 0.1150217509861922 0 0.27702128122739278 0.10689832557857171 0 0.27786688771157569 0.1150217509861922 0 0.27418517611644572 0.1163335826691398 0 0.26638390190257438 0.1102685147937751 0 0.27418517611644572 0.1163335826691398 0 0.26888095198589312 0.11979825388229511 0 0.26487973471170051 0.1148861259760711 0 0.27418517611644572 0.1163335826691398 0 0.26888095198589312 0.11979825388229511 0 0.27248198541775659 0.12784311929978001 0 0.26888095198589312 0.11979825388229511 0 0.26519442307348812 0.1188177922564181 0 0.26487973471170051 0.1148861259760711 0 0.26888095198589312 0.11979825388229511 0 0.26562400985315288 0.1251654340079911 0 0.27248198541775659 0.12784311929978001 0 0.26888095198589312 0.11979825388229511 0 0.26519442307348812 0.1188177922564181 0 0.26562400985315288 0.1251654340079911 0 0.27786688771157569 0.1150217509861922 0 0.26638390190257438 0.1102685147937751 0 0.25872482925013801 0.09949030162923457 0 0.27786688771157569 0.1150217509861922 0 0.25872482925013801 0.09949030162923457 0 0.27786688771157569 0.1150217509861922 0 0.27150352658480642 0.1040925172930806 0 0.25872482925013801 0.09949030162923457 0 0.28527214605629803 0.093542631019163408 0 0.27597760534302263 0.093816081557894046 0 0.28108272677848523 0.099874609951530163 0 0.27597760534302263 0.093816081557894046 0 0.28108272677848523 0.099874609951530163 0 0.27461357126647679 0.10027579108255071 0 0.27786688771157569 0.1150217509861922 0 0.27702128122739278 0.10689832557857171 0 0.27150352658480642 0.1040925172930806 0 0.27461357126647679 0.10027579108255071 0 0.27702128122739278 0.10689832557857171 0 0.27150352658480642 0.1040925172930806 0 0.28356239405763972 0.106033323917978 0 0.28108272677848523 0.099874609951530163 0 0.27702128122739278 0.10689832557857171 0 0.28108272677848523 0.099874609951530163 0 0.27461357126647679 0.10027579108255071 0 0.27702128122739278 0.10689832557857171 0 0.28356239405763972 0.106033323917978 0 0.2814598539497668 0.10990299155730229 0 0.27702128122739278 0.10689832557857171 0 0.2619867778419176 0.09199379318438361 0 0.27597760534302263 0.093816081557894046 0 0.26850219741802223 0.0981363484555835 0 0.27150352658480642 0.1040925172930806 0 0.26850219741802223 0.0981363484555835 0 0.25872482925013801 0.09949030162923457 0 0.27461357126647679 0.10027579108255071 0 0.27150352658480642 0.1040925172930806 0 0.26850219741802223 0.0981363484555835 0 0.27597760534302263 0.093816081557894046 0 0.27461357126647679 0.10027579108255071 0 0.26850219741802223 0.0981363484555835 0 0.2619867778419176 0.09199379318438361 0 0.26850219741802223 0.0981363484555835 0 0.25872482925013801 0.09949030162923457 0 0.2619867778419176 0.09199379318438361 0 0.26016144869860108 0.09301841504440217 0 0.25872482925013801 0.09949030162923457 0 0.2619867778419176 0.09199379318438361 0 0.25872482925013801 0.09949030162923457 0 0.26016144869860108 0.09301841504440217 0 0.25872482925013801 0.09949030162923457 0 0.26016144869860108 0.09301841504440217 0 0.25872482925013801 0.09949030162923457 0 0.25459763100830068 0.096141582858552177 0 0.26638390190257438 0.1102685147937751 0 0.25872482925013801 0.09949030162923457 0 0.26054083413963042 0.1068609537315081 0 0.26638390190257438 0.1102685147937751 0 0.26054083413963042 0.1068609537315081 0 0.25655208948606423 0.10927836717886751 0 0.25872482925013801 0.09949030162923457 0 0.258042440935632 0.10497087790269199 0 0.26054083413963042 0.1068609537315081 0 0.25872482925013801 0.09949030162923457 0 0.258042440935632 0.10497087790269199 0 0.258042440935632 0.10497087790269199 0 0.26054083413963042 0.1068609537315081 0 0.25655208948606423 0.10927836717886751 0 0.25872482925013801 0.09949030162923457 0 0.25655208948606423 0.10927836717886751 0 0.25872482925013801 0.09949030162923457 0 0.25655208948606423 0.10927836717886751 0 0.25459763100830068 0.096141582858552177 0 0.24174744587836799 0.1033548466348798 0 0.25655208948606423 0.10927836717886751 0 0.25459763100830068 0.096141582858552177 0 0.25872482925013801 0.09949030162923457 0 0.258042440935632 0.10497087790269199 0 0.25655208948606423 0.10927836717886751 0 0.25872482925013801 0.09949030162923457 0 0.25459763100830068 0.096141582858552177 0 0.26016144869860108 0.09301841504440217 0 0.25459763100830068 0.096141582858552177 0 0.27418517611644572 0.1163335826691398 0 0.25655208948606423 0.10927836717886751 0 0.26487973471170051 0.1148861259760711 0 0.27418517611644572 0.1163335826691398 0 0.25655208948606423 0.10927836717886751 0 0.2613903323121034 0.11972876860365821 0 0.25824300399834771 0.11754386918627879 0 0.25813574029091341 0.12532111527980791 0 0.2613903323121034 0.11972876860365821 0 0.25824300399834771 0.11754386918627879 0 0.26064106818342869 0.11649387083006101 0 0.2613903323121034 0.11972876860365821 0 0.26303182906276251 0.1167652494283456 0 0.26064106818342869 0.11649387083006101 0 0.2613903323121034 0.11972876860365821 0 0.25813574029091341 0.12532111527980791 0 0.26562400985315288 0.1251654340079911 0 0.2613903323121034 0.11972876860365821 0 0.26519442307348812 0.1188177922564181 0 0.26562400985315288 0.1251654340079911 0 0.2613903323121034 0.11972876860365821 0 0.26519442307348812 0.1188177922564181 0 0.26303182906276251 0.1167652494283456 0 0.26487973471170051 0.1148861259760711 0 0.2618287337373767 0.1148464313763837 0 0.2589676606418963 0.1122376160430168 0 0.25655208948606423 0.10927836717886751 0 0.26487973471170051 0.1148861259760711 0 0.2589676606418963 0.1122376160430168 0 0.26519442307348812 0.1188177922564181 0 0.26487973471170051 0.1148861259760711 0 0.26303182906276251 0.1167652494283456 0 0.26487973471170051 0.1148861259760711 0 0.2618287337373767 0.1148464313763837 0 0.26303182906276251 0.1167652494283456 0 0.2618287337373767 0.1148464313763837 0 0.26303182906276251 0.1167652494283456 0 0.26064106818342869 0.11649387083006101 0 0.2618287337373767 0.1148464313763837 0 0.26064106818342869 0.11649387083006101 0 0.26015078570541528 0.1146524558252945 0 0.2618287337373767 0.1148464313763837 0 0.2589676606418963 0.1122376160430168 0 0.26015078570541528 0.1146524558252945 0 0.2589676606418963 0.1122376160430168 0 0.26015078570541528 0.1146524558252945 0 0.25777400528710798 0.1147846643059361 0 0.25824300399834771 0.11754386918627879 0 0.26015078570541528 0.1146524558252945 0 0.25777400528710798 0.1147846643059361 0 0.25824300399834771 0.11754386918627879 0 0.26064106818342869 0.11649387083006101 0 0.26015078570541528 0.1146524558252945 0 0.24646482385440791 0.1109165710353929 0 0.25655208948606423 0.10927836717886751 0 0.255186127323073 0.11543194682551421 0 0.25824300399834771 0.11754386918627879 0 0.25777400528710798 0.1147846643059361 0 0.255186127323073 0.11543194682551421 0 0.2589676606418963 0.1122376160430168 0 0.25777400528710798 0.1147846643059361 0 0.255186127323073 0.11543194682551421 0 0.25655208948606423 0.10927836717886751 0 0.255186127323073 0.11543194682551421 0 0.25655208948606423 0.10927836717886751 0 0.2589676606418963 0.1122376160430168 0 0.255186127323073 0.11543194682551421 0 0.255186127323073 0.11543194682551421 0 0.25238596385504641 0.12804651946228041 0 0.24420216851797599 0.1292372680552665 0 0.255186127323073 0.11543194682551421 0 0.25238596385504641 0.12804651946228041 0 0.255186127323073 0.11543194682551421 0 0.25238596385504641 0.12804651946228041 0 0.25813574029091341 0.12532111527980791 0 0.25824300399834771 0.11754386918627879 0 0.255186127323073 0.11543194682551421 0 0.25813574029091341 0.12532111527980791 0 0.25238596385504641 0.12804651946228041 0 0.25813574029091341 0.12532111527980791 0 0.26818611498992623 0.1403022215883418 0 0.24420216851797599 0.1292372680552665 0 0.26818611498992623 0.1403022215883418 0 0.24301228879775941 0.13939302681245261 0 0.24420216851797599 0.1292372680552665 0 0.26818611498992623 0.1403022215883418 0 0.24420216851797599 0.1292372680552665 0 0.25238596385504641 0.12804651946228041 0 0.26818611498992623 0.1403022215883418 0 0.25813574029091341 0.12532111527980791 0 0.26562400985315288 0.1251654340079911 0 0.26818611498992623 0.1403022215883418 0 0.27248198541775659 0.12784311929978001 0 0.26818611498992623 0.1403022215883418 0 0.27913813953766042 0.12972245958528131 0 0.26562400985315288 0.1251654340079911 0 0.27248198541775659 0.12784311929978001 0 0.26818611498992623 0.1403022215883418 0 0.26818611498992623 0.1403022215883418 0 0.27913813953766042 0.12972245958528131 0 0.28414721419066807 0.1482284927670183 0 0.26818611498992623 0.1403022215883418 0 0.26583546295036609 0.16369396270660089 0 0.28414721419066807 0.1482284927670183 0 0.26818611498992623 0.1403022215883418 0 0.25486404381895789 0.1523024957907583 0 0.26583546295036609 0.16369396270660089 0 0.24301228879775941 0.13939302681245261 0 0.26818611498992623 0.1403022215883418 0 0.25486404381895789 0.1523024957907583 0 0.2424223085377801 0.16582077205563811 0 0.25486404381895789 0.1523024957907583 0 0.26583546295036609 0.16369396270660089 0 0.2424223085377801 0.16582077205563811 0 0.26032431562704572 0.18342712708893841 0 0.26583546295036609 0.16369396270660089 0 0.26032431562704572 0.18342712708893841 0 0.27712404590978218 0.18082877805207789 0 0.26583546295036609 0.16369396270660089 0 0.27712404590978218 0.18082877805207789 0 0.26583546295036609 0.16369396270660089 0 0.28977860037431658 0.16805367250728201 0 0.26583546295036609 0.16369396270660089 0 0.28977860037431658 0.16805367250728201 0 0.28414721419066807 0.1482284927670183 0 0.27712404590978218 0.18082877805207789 0 0.28977860037431658 0.16805367250728201 0 0.29478084704188562 0.18627619782702401 0 0.28977860037431658 0.16805367250728201 0 0.29478084704188562 0.18627619782702401 0 0.31259037162619269 0.16725562300018509 0 0.29478084704188562 0.18627619782702401 0 0.31732062797233113 0.1926592597090995 0 0.31259037162619269 0.16725562300018509 0 0.28977860037431658 0.16805367250728201 0 0.29946190776947251 0.15165108642358641 0 0.31259037162619269 0.16725562300018509 0 0.29946190776947251 0.15165108642358641 0 0.31457327253359829 0.14480451223356691 0 0.31259037162619269 0.16725562300018509 0 0.29946190776947251 0.15165108642358641 0 0.29622008012258699 0.12991313160987961 0 0.31457327253359829 0.14480451223356691 0 0.29622008012258699 0.12991313160987961 0 0.31457327253359829 0.14480451223356691 0 0.29622008012258699 0.12991313160987961 0 0.32387679174541939 0.1297141718462434 0 0.31457327253359829 0.14480451223356691 0 0.27913813953766042 0.12972245958528131 0 0.29622008012258699 0.12991313160987961 0 0.28414721419066807 0.1482284927670183 0 0.29946190776947251 0.15165108642358641 0 0.29622008012258699 0.12991313160987961 0 0.28414721419066807 0.1482284927670183 0 0.28977860037431658 0.16805367250728201 0 0.29946190776947251 0.15165108642358641 0 0.28414721419066807 0.1482284927670183 0 0.27355486584907379 0.24364475180805101 0 0.25452501640087027 0.2374112721999547 0 0.26408278890255732 0.22479217687295791 0 0.25404003316197471 0.25208422786308371 0 0.27355486584907379 0.24364475180805101 0 0.25452501640087027 0.2374112721999547 0 0.24523436150048811 0.24199469982198529 0 0.25404003316197471 0.25208422786308371 0 0.25452501640087027 0.2374112721999547 0 0.24868260911088891 0.2303107595792985 0 0.2471090749199483 0.2357199094212839 0 0.25452501640087027 0.2374112721999547 0 0.24868260911088891 0.2303107595792985 0 0.25452501640087027 0.2374112721999547 0 0.26408278890255732 0.22479217687295791 0 0.24868260911088891 0.2303107595792985 0 0.26408278890255732 0.22479217687295791 0 0.25357276657721323 0.21641202867955539 0 0.27355486584907379 0.24364475180805101 0 0.26408278890255732 0.22479217687295791 0 0.28109637724199782 0.22150209212538899 0 0.26408278890255732 0.22479217687295791 0 0.28109637724199782 0.22150209212538899 0 0.27306509823529962 0.19947215684549871 0 0.26408278890255732 0.22479217687295791 0 0.25357276657721323 0.21641202867955539 0 0.27306509823529962 0.19947215684549871 0 0.25357276657721323 0.21641202867955539 0 0.25471258750952741 0.20148162901819469 0 0.27306509823529962 0.19947215684549871 0 0.25357276657721323 0.21641202867955539 0 0.27306509823529962 0.19947215684549871 0 0.2418323282778008 0.1922485172988235 0 0.26032431562704572 0.18342712708893841 0 0.25471258750952741 0.20148162901819469 0 0.26032431562704572 0.18342712708893841 0 0.25471258750952741 0.20148162901819469 0 0.27306509823529962 0.19947215684549871 0 0.26032431562704572 0.18342712708893841 0 0.27712404590978218 0.18082877805207789 0 0.27306509823529962 0.19947215684549871 0 0.29478084704188562 0.18627619782702401 0 0.27306509823529962 0.19947215684549871 0 0.29788838547339219 0.20777731020547871 0 0.27712404590978218 0.18082877805207789 0 0.29478084704188562 0.18627619782702401 0 0.27306509823529962 0.19947215684549871 0 0.29478084704188562 0.18627619782702401 0 0.29788838547339219 0.20777731020547871 0 0.31732062797233113 0.1926592597090995 0 0.29788838547339219 0.20777731020547871 0 0.31916040529159301 0.2166328624030785 0 0.31732062797233113 0.1926592597090995 0 0.28109637724199782 0.22150209212538899 0 0.27306509823529962 0.19947215684549871 0 0.29788838547339219 0.20777731020547871 0 0.28109637724199782 0.22150209212538899 0 0.29788838547339219 0.20777731020547871 0 0.29668368374297521 0.23238313674276659 0 0.27355486584907379 0.24364475180805101 0 0.28109637724199782 0.22150209212538899 0 0.29668368374297521 0.23238313674276659 0 0.29788838547339219 0.20777731020547871 0 0.29668368374297521 0.23238313674276659 0 0.31916040529159301 0.2166328624030785 0 0.29692855903906679 0.25537037528416417 0 0.29668368374297521 0.23238313674276659 0 0.32448256229391081 0.244023600812113 0 0.29692855903906679 0.25537037528416417 0 0.27355486584907379 0.24364475180805101 0 0.29668368374297521 0.23238313674276659 0 0.32448256229391081 0.244023600812113 0 0.33724611662768478 0.226971671205 0 0.35052125483258301 0.2434514759103418 0 0.32448256229391081 0.244023600812113 0 0.33724611662768478 0.226971671205 0 0.31916040529159301 0.2166328624030785 0 0.29668368374297521 0.23238313674276659 0 0.32448256229391081 0.244023600812113 0 0.31916040529159301 0.2166328624030785 0 0.33724611662768478 0.226971671205 0 0.31916040529159301 0.2166328624030785 0 0.34036716376080012 0.20191553243135291 0 0.31916040529159301 0.2166328624030785 0 0.31732062797233113 0.1926592597090995 0 0.34036716376080012 0.20191553243135291 0 0.31732062797233113 0.1926592597090995 0 0.34036716376080012 0.20191553243135291 0 0.33327910971122948 0.1769249887409369 0 0.34036716376080012 0.20191553243135291 0 0.33327910971122948 0.1769249887409369 0 0.35363051640006049 0.1838751638919715 0 0.34036716376080012 0.20191553243135291 0 0.36940151407566268 0.20038014978660379 0 0.35363051640006049 0.1838751638919715 0 0.36940151407566268 0.20038014978660379 0 0.35418005050780299 0.2186338278764331 0 0.36970064025412291 0.2313836502337521 0 0.34036716376080012 0.20191553243135291 0 0.36940151407566268 0.20038014978660379 0 0.35418005050780299 0.2186338278764331 0 0.33724611662768478 0.226971671205 0 0.34036716376080012 0.20191553243135291 0 0.35418005050780299 0.2186338278764331 0 0.33724611662768478 0.226971671205 0 0.35418005050780299 0.2186338278764331 0 0.35052125483258301 0.2434514759103418 0 0.35418005050780299 0.2186338278764331 0 0.36970064025412291 0.2313836502337521 0 0.35052125483258301 0.2434514759103418 0 0.37478492512234668 0.26235925763296819 0 0.36970064025412291 0.2313836502337521 0 0.35052125483258301 0.2434514759103418 0 0.33497932682518311 0.1519205034936916 0 0.32387679174541939 0.1297141718462434 0 0.35327239972246333 0.1300285668288671 0 0.33497932682518311 0.1519205034936916 0 0.31457327253359829 0.14480451223356691 0 0.31259037162619269 0.16725562300018509 0 0.33497932682518311 0.1519205034936916 0 0.32387679174541939 0.1297141718462434 0 0.31457327253359829 0.14480451223356691 0 0.33497932682518311 0.1519205034936916 0 0.31259037162619269 0.16725562300018509 0 0.33327910971122948 0.1769249887409369 0 0.31732062797233113 0.1926592597090995 0 0.31259037162619269 0.16725562300018509 0 0.33327910971122948 0.1769249887409369 0 0.33497932682518311 0.1519205034936916 0 0.33327910971122948 0.1769249887409369 0 0.34907151432127381 0.16521020144779211 0 0.34907151432127381 0.16521020144779211 0 0.35363051640006049 0.1838751638919715 0 0.37277469716236061 0.17385369407461371 0 0.33327910971122948 0.1769249887409369 0 0.34907151432127381 0.16521020144779211 0 0.35363051640006049 0.1838751638919715 0 0.36940151407566268 0.20038014978660379 0 0.35363051640006049 0.1838751638919715 0 0.37277469716236061 0.17385369407461371 0 0.37277469716236061 0.17385369407461371 0 0.36285879787080821 0.15032831482926681 0 0.3843829660287168 0.1587008111838667 0 0.34907151432127381 0.16521020144779211 0 0.37277469716236061 0.17385369407461371 0 0.36285879787080821 0.15032831482926681 0 0.36285879787080821 0.15032831482926681 0 0.36938385952287339 0.13266757129752671 0 0.38232915319187621 0.14145147187989651 0 0.33497932682518311 0.1519205034936916 0 0.36285879787080821 0.15032831482926681 0 0.35327239972246333 0.1300285668288671 0 0.33497932682518311 0.1519205034936916 0 0.34907151432127381 0.16521020144779211 0 0.36285879787080821 0.15032831482926681 0 0.36649271172908648 0.1176987398754743 0 0.35327239972246333 0.1300285668288671 0 0.36938385952287339 0.13266757129752671 0 0.36285879787080821 0.15032831482926681 0 0.35327239972246333 0.1300285668288671 0 0.36938385952287339 0.13266757129752671 0 0.39421974672685411 0.13240309148155921 0 0.38232915319187621 0.14145147187989651 0 0.38138511069115272 0.12353481432135879 0 0.36938385952287339 0.13266757129752671 0 0.38232915319187621 0.14145147187989651 0 0.38138511069115272 0.12353481432135879 0 0.39421974672685411 0.13240309148155921 0 0.41199731756477831 0.13352747615702071 0 0.3942733283070321 0.11371104406223111 0 0.39421974672685411 0.13240309148155921 0 0.40120830104283178 0.15077536395034899 0 0.41199731756477831 0.13352747615702071 0 0.39421974672685411 0.13240309148155921 0 0.40120830104283178 0.15077536395034899 0 0.38232915319187621 0.14145147187989651 0 0.36285879787080821 0.15032831482926681 0 0.38232915319187621 0.14145147187989651 0 0.3843829660287168 0.1587008111838667 0 0.40120830104283178 0.15077536395034899 0 0.38232915319187621 0.14145147187989651 0 0.3843829660287168 0.1587008111838667 0 0.37277469716236061 0.17385369407461371 0 0.3843829660287168 0.1587008111838667 0 0.39936082591505218 0.176604797209717 0 0.37277469716236061 0.17385369407461371 0 0.39936082591505218 0.176604797209717 0 0.38992891259608609 0.19548318162929729 0 0.40120830104283178 0.15077536395034899 0 0.39936082591505218 0.176604797209717 0 0.41410660213767347 0.1652382216241598 0 0.40120830104283178 0.15077536395034899 0 0.3843829660287168 0.1587008111838667 0 0.39936082591505218 0.176604797209717 0 0.40120830104283178 0.15077536395034899 0 0.41410660213767347 0.1652382216241598 0 0.42972130682252457 0.1533439082518103 0 0.39936082591505218 0.176604797209717 0 0.41410660213767347 0.1652382216241598 0 0.42626679864566441 0.18172907206941921 0 0.42626679864566441 0.18172907206941921 0 0.42972130682252457 0.1533439082518103 0 0.45055708181009879 0.1690731760043504 0 0.41410660213767347 0.1652382216241598 0 0.42626679864566441 0.18172907206941921 0 0.42972130682252457 0.1533439082518103 0 0.42972130682252457 0.1533439082518103 0 0.43054248402473921 0.1250848439374013 0 0.44904083753606949 0.1441389705362057 0 0.42972130682252457 0.1533439082518103 0 0.43054248402473921 0.1250848439374013 0 0.41199731756477831 0.13352747615702071 0 0.43054248402473921 0.1250848439374013 0 0.41199731756477831 0.13352747615702071 0 0.41135066019799099 0.1182158826350982 0 0.40120830104283178 0.15077536395034899 0 0.42972130682252457 0.1533439082518103 0 0.41199731756477831 0.13352747615702071 0 0.42972130682252457 0.1533439082518103 0 0.41199731756477831 0.13352747615702071 0 0.40097752291506289 0.25902709479471048 0 0.39333580902427501 0.24081282939082621 0 0.41286841049430861 0.24788583003777651 0 0.37478492512234668 0.26235925763296819 0 0.36970064025412291 0.2313836502337521 0 0.39333580902427501 0.24081282939082621 0 0.36970064025412291 0.2313836502337521 0 0.39333580902427501 0.24081282939082621 0 0.39338333076520482 0.2163019563834182 0 0.39338333076520482 0.2163019563834182 0 0.41736514745474701 0.23222376298023259 0 0.39333580902427501 0.24081282939082621 0 0.39338333076520482 0.2163019563834182 0 0.41736514745474701 0.23222376298023259 0 0.39338333076520482 0.2163019563834182 0 0.38992891259608609 0.19548318162929729 0 0.41508715600771068 0.20488700545500521 0 0.36940151407566268 0.20038014978660379 0 0.39338333076520482 0.2163019563834182 0 0.36940151407566268 0.20038014978660379 0 0.39338333076520482 0.2163019563834182 0 0.38992891259608609 0.19548318162929729 0 0.36940151407566268 0.20038014978660379 0 0.36970064025412291 0.2313836502337521 0 0.39338333076520482 0.2163019563834182 0 0.36940151407566268 0.20038014978660379 0 0.37277469716236061 0.17385369407461371 0 0.38992891259608609 0.19548318162929729 0 0.39936082591505218 0.176604797209717 0 0.38992891259608609 0.19548318162929729 0 0.41508715600771068 0.20488700545500521 0 0.39936082591505218 0.176604797209717 0 0.42626679864566441 0.18172907206941921 0 0.41508715600771068 0.20488700545500521 0 0.42626679864566441 0.18172907206941921 0 0.44140000057487638 0.20455834627575151 0 0.44473765559285833 0.18692520255949671 0 0.42626679864566441 0.18172907206941921 0 0.41508715600771068 0.20488700545500521 0 0.44140000057487638 0.20455834627575151 0 0.41508715600771068 0.20488700545500521 0 0.43790507610234408 0.2273079216372012 0 0.44140000057487638 0.20455834627575151 0 0.39338333076520482 0.2163019563834182 0 0.41508715600771068 0.20488700545500521 0 0.41736514745474701 0.23222376298023259 0 0.41508715600771068 0.20488700545500521 0 0.41736514745474701 0.23222376298023259 0 0.43790507610234408 0.2273079216372012 0 0.42717012070777932 0.25569493195645271 0 0.41736514745474701 0.23222376298023259 0 0.44134696414428898 0.24814556957704689 0 0.41736514745474701 0.23222376298023259 0 0.44134696414428898 0.24814556957704689 0 0.41736514745474701 0.23222376298023259 0 0.44134696414428898 0.24814556957704689 0 0.43790507610234408 0.2273079216372012 0 0.39333580902427501 0.24081282939082621 0 0.41736514745474701 0.23222376298023259 0 0.41286841049430861 0.24788583003777651 0 0.42717012070777932 0.25569493195645271 0 0.41736514745474701 0.23222376298023259 0 0.41286841049430861 0.24788583003777651 0 0.45336271850049548 0.25236276911819511 0 0.45602225988021539 0.23816249748875179 0 0.48180965237011408 0.2487438147612096 0 0.45336271850049548 0.25236276911819511 0 0.45602225988021539 0.23816249748875179 0 0.44134696414428898 0.24814556957704689 0 0.44600400848591359 0.23698591979390529 0 0.43790507610234408 0.2273079216372012 0 0.45336271850049548 0.25236276911819511 0 0.44134696414428898 0.24814556957704689 0 0.44600400848591359 0.23698591979390529 0 0.45336271850049548 0.25236276911819511 0 0.45602225988021539 0.23816249748875179 0 0.44600400848591359 0.23698591979390529 0 0.45602225988021539 0.23816249748875179 0 0.44600400848591359 0.23698591979390529 0 0.45492939023952461 0.2194397610932603 0 0.44600400848591359 0.23698591979390529 0 0.43790507610234408 0.2273079216372012 0 0.45492939023952461 0.2194397610932603 0 0.45602225988021539 0.23816249748875179 0 0.45492939023952461 0.2194397610932603 0 0.47419086539053962 0.2296972043723752 0 0.45492939023952461 0.2194397610932603 0 0.46072674134079361 0.19234021588846559 0 0.47847088324409548 0.2092058758105422 0 0.45492939023952461 0.2194397610932603 0 0.44140000057487638 0.20455834627575151 0 0.46072674134079361 0.19234021588846559 0 0.43790507610234408 0.2273079216372012 0 0.45492939023952461 0.2194397610932603 0 0.44140000057487638 0.20455834627575151 0 0.44140000057487638 0.20455834627575151 0 0.46072674134079361 0.19234021588846559 0 0.44473765559285833 0.18692520255949671 0 0.46072674134079361 0.19234021588846559 0 0.4812983336831132 0.1885899983914231 0 0.47847088324409548 0.2092058758105422 0 0.4812983336831132 0.1885899983914231 0 0.5 0.19797878532577309 0 0.47847088324409548 0.2092058758105422 0 0.5 0.19797878532577309 0 0.47847088324409548 0.2092058758105422 0 0.5 0.22793385045351919 0 0.47847088324409548 0.2092058758105422 0 0.47419086539053962 0.2296972043723752 0 0.5 0.22793385045351919 0 0.45492939023952461 0.2194397610932603 0 0.47847088324409548 0.2092058758105422 0 0.47419086539053962 0.2296972043723752 0 0.5 0.25788891558126559 0 0.5 0.22793385045351919 0 0.48180965237011408 0.2487438147612096 0 0.47419086539053962 0.2296972043723752 0 0.5 0.22793385045351919 0 0.48180965237011408 0.2487438147612096 0 0.45602225988021539 0.23816249748875179 0 0.47419086539053962 0.2296972043723752 0 0.48180965237011408 0.2487438147612096 0 0.46287167922105149 0.15545842773829099 0 0.44904083753606949 0.1441389705362057 0 0.45055708181009879 0.1690731760043504 0 0.46287167922105149 0.15545842773829099 0 0.46355845200513762 0.13850516077978961 0 0.47909635670674228 0.14767892477560191 0 0.46287167922105149 0.15545842773829099 0 0.46355845200513762 0.13850516077978961 0 0.44904083753606949 0.1441389705362057 0 0.46355845200513762 0.13850516077978961 0 0.47795750643906171 0.12649365297180731 0 0.4559740449914913 0.1245921335342187 0 0.46355845200513762 0.13850516077978961 0 0.44904083753606949 0.1441389705362057 0 0.4559740449914913 0.1245921335342187 0 0.43054248402473921 0.1250848439374013 0 0.44904083753606949 0.1441389705362057 0 0.4559740449914913 0.1245921335342187 0 0.42972130682252457 0.1533439082518103 0 0.44904083753606949 0.1441389705362057 0 0.45055708181009879 0.1690731760043504 0 0.42626679864566441 0.18172907206941921 0 0.45055708181009879 0.1690731760043504 0 0.44473765559285833 0.18692520255949671 0 0.46072674134079361 0.19234021588846559 0 0.45055708181009879 0.1690731760043504 0 0.44473765559285833 0.18692520255949671 0 0.46072674134079361 0.19234021588846559 0 0.45055708181009879 0.1690731760043504 0 0.4752785409050499 0.1685484481011886 0 0.46287167922105149 0.15545842773829099 0 0.45055708181009879 0.1690731760043504 0 0.4752785409050499 0.1685484481011886 0 0.45055708181009879 0.1690731760043504 0 0.4752785409050499 0.1685484481011886 0 0.46287167922105149 0.15545842773829099 0 0.4752785409050499 0.1685484481011886 0 0.47909635670674228 0.14767892477560191 0 0.46072674134079361 0.19234021588846559 0 0.4812983336831132 0.1885899983914231 0 0.4752785409050499 0.1685484481011886 0 0.4812983336831132 0.1885899983914231 0 0.4752785409050499 0.1685484481011886 0 0.50000000000000111 0.1680237201980268 0 0.4812983336831132 0.1885899983914231 0 0.5 0.19797878532577309 0 0.50000000000000111 0.1680237201980268 0 0.4752785409050499 0.1685484481011886 0 0.50000000000000111 0.1680237201980268 0 0.4752785409050499 0.1685484481011886 0 0.50000000000000111 0.1680237201980268 0 0.47909635670674228 0.14767892477560191 0 0.50000000000000111 0.1680237201980268 0 0.5 0.14405257421324749 0 0.47909635670674228 0.14767892477560191 0 0.46355845200513762 0.13850516077978961 0 0.47909635670674228 0.14767892477560191 0 0.47795750643906171 0.12649365297180731 0 0.5 0.14405257421324749 0 0.47795750643906171 0.12649365297180731 0 0.5 0.12008142822846821 0 0.5 0.14405257421324749 0 0.47909635670674228 0.14767892477560191 0 0.47795750643906171 0.12649365297180731 0 0.47795750643906171 0.12649365297180731 0 0.5 0.12008142822846821 0 0.48437617198066579 0.1083096126220475 0 0.48437617198066579 0.1083096126220475 0 0.5 0.096110282243688894 0 0.4787628640296252 0.09057766153942011 0 0.5 0.12008142822846821 0 0.48437617198066579 0.1083096126220475 0 0.5 0.096110282243688894 0 0.48437617198066579 0.1083096126220475 0 0.4787628640296252 0.09057766153942011 0 0.46516048943464161 0.10828503812685281 0 0.47795750643906171 0.12649365297180731 0 0.48437617198066579 0.1083096126220475 0 0.46516048943464161 0.10828503812685281 0 0.49999999999999389 0.072139136258909636 0 0.47264706529987838 0.068582714068275596 0 0.5 0.096110282243688894 0 0.49999999999999389 0.072139136258909636 0 0.4787628640296252 0.09057766153942011 0 0.49999999999999389 0.072139136258909636 0 0.4787628640296252 0.09057766153942011 0 0.47264706529987838 0.068582714068275596 0 0.47264706529987838 0.068582714068275596 0 0.44529413059976319 0.065026291877640793 0 0.47264706529987838 0.068582714068275596 0 0.45009241250792742 0.089848104882156193 0 0.44529413059976319 0.065026291877640793 0 0.4787628640296252 0.09057766153942011 0 0.47264706529987838 0.068582714068275596 0 0.45009241250792742 0.089848104882156193 0 0.45009241250792742 0.089848104882156193 0 0.44529413059976319 0.065026291877640793 0 0.42710943965072512 0.080764761008918995 0 0.4559740449914913 0.1245921335342187 0 0.46516048943464161 0.10828503812685281 0 0.44660059903698529 0.1095612823054605 0 0.47795750643906171 0.12649365297180731 0 0.4559740449914913 0.1245921335342187 0 0.46516048943464161 0.10828503812685281 0 0.45009241250792742 0.089848104882156193 0 0.46516048943464161 0.10828503812685281 0 0.44660059903698529 0.1095612823054605 0 0.4787628640296252 0.09057766153942011 0 0.45009241250792742 0.089848104882156193 0 0.46516048943464161 0.10828503812685281 0 0.45009241250792742 0.089848104882156193 0 0.44660059903698529 0.1095612823054605 0 0.42999027194599682 0.1018780191517587 0 0.43054248402473921 0.1250848439374013 0 0.4559740449914913 0.1245921335342187 0 0.44660059903698529 0.1095612823054605 0 0.43054248402473921 0.1250848439374013 0 0.44660059903698529 0.1095612823054605 0 0.42999027194599682 0.1018780191517587 0 0.43054248402473921 0.1250848439374013 0 0.41661501870526302 0.10782610780512 0 0.42999027194599682 0.1018780191517587 0 0.43054248402473921 0.1250848439374013 0 0.41135066019799099 0.1182158826350982 0 0.41661501870526302 0.10782610780512 0 0.43054248402473921 0.1250848439374013 0 0.41135066019799099 0.1182158826350982 0 0.41135066019799099 0.1182158826350982 0 0.41661501870526302 0.10782610780512 0 0.40605193543095291 0.1101899923625959 0 0.41199731756477831 0.13352747615702071 0 0.40856435551682457 0.1195913393650266 0 0.41135066019799099 0.1182158826350982 0 0.41661501870526302 0.10782610780512 0 0.42999027194599682 0.1018780191517587 0 0.41050144950628809 0.092342992232264526 0 0.41661501870526302 0.10782610780512 0 0.41050144950628809 0.092342992232264526 0 0.40408322644931421 0.10337105767737099 0 0.41661501870526302 0.10782610780512 0 0.40605193543095291 0.1101899923625959 0 0.40408322644931421 0.10337105767737099 0 0.45009241250792742 0.089848104882156193 0 0.42999027194599682 0.1018780191517587 0 0.42710943965072512 0.080764761008918995 0 0.42999027194599682 0.1018780191517587 0 0.42710943965072512 0.080764761008918995 0 0.41050144950628809 0.092342992232264526 0 0.44529413059976319 0.065026291877640793 0 0.42710943965072512 0.080764761008918995 0 0.41794119589964812 0.061469869687005997 0 0.44529413059976319 0.065026291877640793 0 0.41794119589964812 0.061469869687005997 0 0.42710943965072512 0.080764761008918995 0 0.40780427562880051 0.074340584248736047 0 0.41794119589964812 0.061469869687005997 0 0.42710943965072512 0.080764761008918995 0 0.40780427562880051 0.074340584248736047 0 0.41050144950628809 0.092342992232264526 0 0.41050144950628809 0.092342992232264526 0 0.39288103188780799 0.079211850819119467 0 0.39173805803946632 0.094638931286680023 0 0.40780427562880051 0.074340584248736047 0 0.41050144950628809 0.092342992232264526 0 0.39288103188780799 0.079211850819119467 0 0.40780427562880051 0.074340584248736047 0 0.39058826119953283 0.057913447496371839 0 0.41794119589964812 0.061469869687005997 0 0.40780427562880051 0.074340584248736047 0 0.39288103188780799 0.079211850819119467 0 0.39058826119953283 0.057913447496371839 0 0.39288103188780799 0.079211850819119467 0 0.37575225644292037 0.071709270247263784 0 0.39058826119953283 0.057913447496371839 0 0.3742009225581896 0.091268948227223284 0 0.39288103188780799 0.079211850819119467 0 0.39173805803946632 0.094638931286680023 0 0.3742009225581896 0.091268948227223284 0 0.39288103188780799 0.079211850819119467 0 0.37575225644292037 0.071709270247263784 0 0.3742009225581896 0.091268948227223284 0 0.39215883637124299 0.11134692133279479 0 0.39173805803946632 0.094638931286680023 0 0.3742009225581896 0.091268948227223284 0 0.39215883637124299 0.11134692133279479 0 0.3742009225581896 0.091268948227223284 0 0.3795225325030368 0.1068242515199407 0 0.39215883637124299 0.11134692133279479 0 0.3795225325030368 0.1068242515199407 0 0.39215883637124299 0.11134692133279479 0 0.3795225325030368 0.1068242515199407 0 0.38138511069115272 0.12353481432135879 0 0.3942733283070321 0.11371104406223111 0 0.36649271172908648 0.1176987398754743 0 0.3795225325030368 0.1068242515199407 0 0.38138511069115272 0.12353481432135879 0 0.39421974672685411 0.13240309148155921 0 0.38138511069115272 0.12353481432135879 0 0.3942733283070321 0.11371104406223111 0 0.3795225325030368 0.1068242515199407 0 0.3942733283070321 0.11371104406223111 0 0.3795225325030368 0.1068242515199407 0 0.39215883637124299 0.11134692133279479 0 0.3942733283070321 0.11371104406223111 0 0.41135066019799099 0.1182158826350982 0 0.39215883637124299 0.11134692133279479 0 0.40605193543095291 0.1101899923625959 0 0.41135066019799099 0.1182158826350982 0 0.39215883637124299 0.11134692133279479 0 0.3942733283070321 0.11371104406223111 0 0.41135066019799099 0.1182158826350982 0 0.39215883637124299 0.11134692133279479 0 0.41199731756477831 0.13352747615702071 0 0.40856435551682457 0.1195913393650266 0 0.3942733283070321 0.11371104406223111 0 0.41199731756477831 0.13352747615702071 0 0.3942733283070321 0.11371104406223111 0 0.40856435551682457 0.1195913393650266 0 0.41135066019799099 0.1182158826350982 0 0.3942733283070321 0.11371104406223111 0 0.39215883637124299 0.11134692133279479 0 0.3942733283070321 0.11371104406223111 0 0.40856435551682457 0.1195913393650266 0 0.3942733283070321 0.11371104406223111 0 0.39215883637124299 0.11134692133279479 0 0.40408322644931421 0.10337105767737099 0 0.39173805803946632 0.094638931286680023 0 0.39215883637124299 0.11134692133279479 0 0.40605193543095291 0.1101899923625959 0 0.40408322644931421 0.10337105767737099 0 0.41050144950628809 0.092342992232264526 0 0.40408322644931421 0.10337105767737099 0 0.39173805803946632 0.094638931286680023 0 0.4038432128890253 0.016274120358417851 0 0.39452024459155199 0.029629145094844 0 0.3798040161112804 0.028996110171619349 0 0.4038432128890253 0.016274120358417851 0 0.39452024459155199 0.029629145094844 0 0.40714332068978548 0.032011032787191827 0 0.4038432128890253 0.016274120358417851 0 0.3798040161112804 0.028996110171619349 0 0.4038432128890253 0.016274120358417851 0 0.39390920682105918 0.0040204267233196643 0 0.38813729234829519 0.016219836643301819 0 0.4038432128890253 0.016274120358417851 0 0.39390920682105918 0.0040204267233196643 0 0.40369857438468087 -0.0060371637805465179 0 0.39390920682105918 0.0040204267233196643 0 0.38212023564171321 0.001094655884648786 0 0.38813729234829519 0.016219836643301819 0 0.38212023564171321 0.001094655884648786 0 0.37537418671591988 0.012891754799621079 0 0.3700201466167648 -0.002195575246397889 0 0.38212023564171321 0.001094655884648786 0 0.37537418671591988 0.012891754799621079 0 0.38813729234829519 0.016219836643301819 0 0.38029426512156322 0.021339738828328979 0 0.38813729234829519 0.016219836643301819 0 0.3798040161112804 0.028996110171619349 0 0.4038432128890253 0.016274120358417851 0 0.38813729234829519 0.016219836643301819 0 0.3798040161112804 0.028996110171619349 0 0.37537418671591988 0.012891754799621079 0 0.38029426512156322 0.021339738828328979 0 0.37786156531075732 0.02725125369877367 0 0.37537418671591988 0.012891754799621079 0 0.38029426512156322 0.021339738828328979 0 0.38813729234829519 0.016219836643301819 0 0.39452024459155199 0.029629145094844 0 0.3798040161112804 0.028996110171619349 0 0.384792923869274 0.033192425096464057 0 0.38029426512156322 0.021339738828328979 0 0.3798040161112804 0.028996110171619349 0 0.37786156531075732 0.02725125369877367 0 0.36984281421283938 0.03924660656396721 0 0.3798040161112804 0.028996110171619349 0 0.37675727284589372 0.036323400775862158 0 0.3798040161112804 0.028996110171619349 0 0.38012370578730592 0.033949837724153123 0 0.37675727284589372 0.036323400775862158 0 0.3798040161112804 0.028996110171619349 0 0.38012370578730592 0.033949837724153123 0 0.384792923869274 0.033192425096464057 0 0.38012370578730592 0.033949837724153123 0 0.38115894465086869 0.037510150111343843 0 0.384792923869274 0.033192425096464057 0 0.38012370578730592 0.033949837724153123 0 0.38115894465086869 0.037510150111343843 0 0.37675727284589372 0.036323400775862158 0 0.38115894465086869 0.037510150111343843 0 0.37675727284589372 0.036323400775862158 0 0.37726993283737248 0.041439113600633092 0 0.37726993283737248 0.041439113600633092 0 0.38325871491723518 0.0441773091346798 0 0.37608467898805159 0.048096788967416412 0 0.38115894465086869 0.037510150111343843 0 0.37726993283737248 0.041439113600633092 0 0.38325871491723518 0.0441773091346798 0 0.38115894465086869 0.037510150111343843 0 0.38325871491723518 0.0441773091346798 0 0.38884635116990662 0.036871995634108659 0 0.38325871491723518 0.0441773091346798 0 0.38884635116990662 0.036871995634108659 0 0.39118926401298038 0.043344116461786472 0 0.39452024459155199 0.029629145094844 0 0.38884635116990662 0.036871995634108659 0 0.384792923869274 0.033192425096464057 0 0.38115894465086869 0.037510150111343843 0 0.38884635116990662 0.036871995634108659 0 0.384792923869274 0.033192425096464057 0 0.36737709041569239 0.056764699852256018 0 0.39058826119953283 0.057913447496371839 0 0.36443667806580698 0.054513224756226962 0 0.37608467898805159 0.048096788967416412 0 0.39058826119953283 0.057913447496371839 0 0.36737709041569239 0.056764699852256018 0 0.37575225644292037 0.071709270247263784 0 0.39058826119953283 0.057913447496371839 0 0.36443667806580698 0.054513224756226962 0 0.39058826119953283 0.057913447496371839 0 0.38325871491723518 0.0441773091346798 0 0.37608467898805159 0.048096788967416412 0 0.39058826119953283 0.057913447496371839 0 0.38325871491723518 0.0441773091346798 0 0.39058826119953283 0.057913447496371839 0 0.39118926401298038 0.043344116461786472 0 0.39058826119953283 0.057913447496371839 0 0.39917917489280202 0.048669550515315511 0 0.40824027372044169 0.058787065978875973 0 0.39058826119953283 0.057913447496371839 0 0.40824027372044169 0.058787065978875973 0 0.39058826119953283 0.057913447496371839 0 0.41794119589964812 0.061469869687005997 0 0.40824027372044169 0.058787065978875973 0 0.39058826119953283 0.057913447496371839 0 0.41794119589964812 0.061469869687005997 0 0.39058826119953283 0.057913447496371839 0 0.39917917489280202 0.048669550515315511 0 0.39118926401298038 0.043344116461786472 0 0.39917917489280202 0.048669550515315511 0 0.40803146459590139 0.044566129264659721 0 0.40824027372044169 0.058787065978875973 0 0.39452024459155199 0.029629145094844 0 0.38884635116990662 0.036871995634108659 0 0.39784661093515339 0.038736993374884177 0 0.39917917489280202 0.048669550515315511 0 0.39784661093515339 0.038736993374884177 0 0.39118926401298038 0.043344116461786472 0 0.38884635116990662 0.036871995634108659 0 0.39784661093515339 0.038736993374884177 0 0.39118926401298038 0.043344116461786472 0 0.39917917489280202 0.048669550515315511 0 0.39784661093515339 0.038736993374884177 0 0.40803146459590139 0.044566129264659721 0 0.39452024459155199 0.029629145094844 0 0.39784661093515339 0.038736993374884177 0 0.40714332068978548 0.032011032787191827 0 0.39784661093515339 0.038736993374884177 0 0.40714332068978548 0.032011032787191827 0 0.40803146459590139 0.044566129264659721 0 0.40714332068978548 0.032011032787191827 0 0.40803146459590139 0.044566129264659721 0 0.41964440497126981 0.040250358009145122 0 0.40803146459590139 0.044566129264659721 0 0.41964440497126981 0.040250358009145122 0 0.41733432138732551 0.050785193364838402 0 0.40714332068978548 0.032011032787191827 0 0.41964440497126981 0.040250358009145122 0 0.41891932927970088 0.026081136014491389 0 0.40824027372044169 0.058787065978875973 0 0.41733432138732551 0.050785193364838402 0 0.42589228624135061 0.059660684461379461 0 0.40824027372044169 0.058787065978875973 0 0.42589228624135061 0.059660684461379461 0 0.41794119589964812 0.061469869687005997 0 0.40824027372044169 0.058787065978875973 0 0.42589228624135061 0.059660684461379461 0 0.40803146459590139 0.044566129264659721 0 0.40824027372044169 0.058787065978875973 0 0.41733432138732551 0.050785193364838402 0 0.41964440497126981 0.040250358009145122 0 0.41733432138732551 0.050785193364838402 0 0.42647272639553008 0.050672874727357403 0 0.44529413059976319 0.065026291877640793 0 0.42589228624135061 0.059660684461379461 0 0.43583307009461808 0.053135938561971199 0 0.44529413059976319 0.065026291877640793 0 0.41794119589964812 0.061469869687005997 0 0.42589228624135061 0.059660684461379461 0 0.42589228624135061 0.059660684461379461 0 0.42647272639553008 0.050672874727357403 0 0.43583307009461808 0.053135938561971199 0 0.41733432138732551 0.050785193364838402 0 0.42589228624135061 0.059660684461379461 0 0.42647272639553008 0.050672874727357403 0 0.42647272639553008 0.050672874727357403 0 0.43583307009461808 0.053135938561971199 0 0.4340740022190257 0.043822740937536728 0 0.41964440497126981 0.040250358009145122 0 0.42987588244635011 0.033334548906864728 0 0.41891932927970088 0.026081136014491389 0 0.41964440497126981 0.040250358009145122 0 0.4340740022190257 0.043822740937536728 0 0.42987588244635011 0.033334548906864728 0 0.41964440497126981 0.040250358009145122 0 0.42647272639553008 0.050672874727357403 0 0.4340740022190257 0.043822740937536728 0 0.4340740022190257 0.043822740937536728 0 0.42987588244635011 0.033334548906864728 0 0.44528176508543132 0.032905620831071007 0 0.42987588244635011 0.033334548906864728 0 0.43184963590009789 0.021236349906575389 0 0.44528176508543132 0.032905620831071007 0 0.43184963590009789 0.021236349906575389 0 0.42259879527057942 0.015927249454054739 0 0.43188165484739188 0.01287087804949661 0 0.43184963590009789 0.021236349906575389 0 0.42259879527057942 0.015927249454054739 0 0.41891932927970088 0.026081136014491389 0 0.42987588244635011 0.033334548906864728 0 0.43184963590009789 0.021236349906575389 0 0.41891932927970088 0.026081136014491389 0 0.4038432128890253 0.016274120358417851 0 0.42259879527057942 0.015927249454054739 0 0.41891932927970088 0.026081136014491389 0 0.4038432128890253 0.016274120358417851 0 0.40714332068978548 0.032011032787191827 0 0.41891932927970088 0.026081136014491389 0 0.4038432128890253 0.016274120358417851 0 0.41402040698134779 -0.0025911497673051101 0 0.40369857438468087 -0.0060371637805465179 0 0.4038432128890253 0.016274120358417851 0 0.42788240966677021 0.003552130545216341 0 0.4038432128890253 0.016274120358417851 0 0.42101935538117791 0.0050386314779034547 0 0.41402040698134779 -0.0025911497673051101 0 0.4038432128890253 0.016274120358417851 0 0.42259879527057942 0.015927249454054739 0 0.42788240966677021 0.003552130545216341 0 0.4038432128890253 0.016274120358417851 0 0.42101935538117791 0.0050386314779034547 0 0.42788240966677021 0.003552130545216341 0 0.42788240966677021 0.003552130545216341 0 0.43188165484739188 0.01287087804949661 0 0.44740740452026229 0.01137317045841814 0 0.42259879527057942 0.015927249454054739 0 0.42788240966677021 0.003552130545216341 0 0.43188165484739188 0.01287087804949661 0 0.43184963590009789 0.021236349906575389 0 0.43188165484739188 0.01287087804949661 0 0.44740740452026229 0.01137317045841814 0 0.42788240966677021 0.003552130545216341 0 0.44740740452026229 0.01137317045841814 0 0.45192160644451512 -0.0091698592679851504 0 0.43184963590009789 0.021236349906575389 0 0.44740740452026229 0.01137317045841814 0 0.44528176508543132 0.032905620831071007 0 0.44740740452026229 0.01137317045841814 0 0.44528176508543132 0.032905620831071007 0 0.46875558315454652 0.02621282055229885 0 0.44740740452026229 0.01137317045841814 0 0.4740075662235973 0.0028935560396234419 0 0.46875558315454652 0.02621282055229885 0 0.44740740452026229 0.01137317045841814 0 0.4740075662235973 0.0028935560396234419 0 0.45192160644451512 -0.0091698592679851504 0 0.44529413059976319 0.065026291877640793 0 0.44587589901867808 0.047550444472131762 0 0.4614262583005877 0.04791767975015173 0 0.44529413059976319 0.065026291877640793 0 0.43583307009461808 0.053135938561971199 0 0.44587589901867808 0.047550444472131762 0 0.43583307009461808 0.053135938561971199 0 0.4340740022190257 0.043822740937536728 0 0.44587589901867808 0.047550444472131762 0 0.44587589901867808 0.047550444472131762 0 0.44528176508543132 0.032905620831071007 0 0.4614262583005877 0.04791767975015173 0 0.4340740022190257 0.043822740937536728 0 0.44587589901867808 0.047550444472131762 0 0.44528176508543132 0.032905620831071007 0 0.44528176508543132 0.032905620831071007 0 0.4614262583005877 0.04791767975015173 0 0.46875558315454652 0.02621282055229885 0 0.47264706529987838 0.068582714068275596 0 0.44529413059976319 0.065026291877640793 0 0.4614262583005877 0.04791767975015173 0 0.47264706529987838 0.068582714068275596 0 0.4614262583005877 0.04791767975015173 0 0.48053199367993171 0.043851827509569327 0 0.4614262583005877 0.04791767975015173 0 0.48053199367993171 0.043851827509569327 0 0.46875558315454652 0.02621282055229885 0 0.48053199367993171 0.043851827509569327 0 0.5 0.04545089247058498 0 0.5 0.018762648682260189 0 0.49999999999999389 0.072139136258909636 0 0.47264706529987838 0.068582714068275596 0 0.48053199367993171 0.043851827509569327 0 0.49999999999999389 0.072139136258909636 0 0.48053199367993171 0.043851827509569327 0 0.5 0.04545089247058498 0 0.48053199367993171 0.043851827509569327 0 0.46875558315454652 0.02621282055229885 0 0.5 0.018762648682260189 0 0.4740075662235973 0.0028935560396234419 0 0.46875558315454652 0.02621282055229885 0 0.5 0.018762648682260189 0 0.4740075662235973 0.0028935560396234419 0 0.5 0.018762648682260189 0 0.5 -0.0079255951060647756 0 0.4740075662235973 0.0028935560396234419 0 0.5 -0.0079255951060647756 0 0.47596080322225992 -0.02189184908118659 0 0.47596080322225992 -0.02189184908118659 0 0.50000000000000377 -0.034613838894389633 0 0.5 -0.0079255951060647756 0 0.47596080322225992 -0.02189184908118659 0 0.50000000000000377 -0.034613838894389633 0 0.47596080322225992 -0.02189184908118659 0 0.50000000000000377 -0.034613838894389633 0 0.48339532061042467 -0.042675677639817791 0 0.50000000000000377 -0.034613838894389633 0 0.5 -0.052291970509826757 0 0.48339532061042467 -0.042675677639817791 0 0.5 -0.052291970509826757 0 0.48378938215607542 -0.060491629721736481 0 0.49999999999999678 -0.069970102125263903 0 0.5 -0.052291970509826757 0 0.48378938215607542 -0.060491629721736481 0 0.48339532061042467 -0.042675677639817791 0 0.48378938215607542 -0.060491629721736481 0 0.47035919737641452 -0.05083356829212015 0 0.48339532061042467 -0.042675677639817791 0 0.48378938215607542 -0.060491629721736481 0 0.47035919737641452 -0.05083356829212015 0 0.46263532094350251 -0.0655193079319734 0 0.47596080322225992 -0.02189184908118659 0 0.48339532061042467 -0.042675677639817791 0 0.46122373864745198 -0.034064038759572521 0 0.47035919737641452 -0.05083356829212015 0 0.48339532061042467 -0.042675677639817791 0 0.46122373864745198 -0.034064038759572521 0 0.46122373864745198 -0.034064038759572521 0 0.45641225836005789 -0.05051217933658872 0 0.44483042593949818 -0.041063070916932051 0 0.47035919737641452 -0.05083356829212015 0 0.46122373864745198 -0.034064038759572521 0 0.45641225836005789 -0.05051217933658872 0 0.45641225836005789 -0.05051217933658872 0 0.44526353314296241 -0.062107813217869068 0 0.46263532094350251 -0.0655193079319734 0 0.47035919737641452 -0.05083356829212015 0 0.45641225836005789 -0.05051217933658872 0 0.46263532094350251 -0.0655193079319734 0 0.45641225836005789 -0.05051217933658872 0 0.44526353314296241 -0.062107813217869068 0 0.44483042593949818 -0.041063070916932051 0 0.44526353314296241 -0.062107813217869068 0 0.44483042593949818 -0.041063070916932051 0 0.42768193525564641 -0.052738548234870043 0 0.46122373864745198 -0.034064038759572521 0 0.44483042593949818 -0.041063070916932051 0 0.44260817666721519 -0.025216613737701819 0 0.44483042593949818 -0.041063070916932051 0 0.44260817666721519 -0.025216613737701819 0 0.43454865465473302 -0.032105158367880783 0 0.46122373864745198 -0.034064038759572521 0 0.44260817666721519 -0.025216613737701819 0 0.45192160644451512 -0.0091698592679851504 0 0.42788240966677021 0.003552130545216341 0 0.45192160644451512 -0.0091698592679851504 0 0.44260817666721519 -0.025216613737701819 0 0.45192160644451512 -0.0091698592679851504 0 0.43543049063324413 -0.012350052332502739 0 0.42788240966677021 0.003552130545216341 0 0.45192160644451512 -0.0091698592679851504 0 0.43543049063324413 -0.012350052332502739 0 0.4740075662235973 0.0028935560396234419 0 0.47596080322225992 -0.02189184908118659 0 0.45192160644451512 -0.0091698592679851504 0 0.47596080322225992 -0.02189184908118659 0 0.45192160644451512 -0.0091698592679851504 0 0.47596080322225992 -0.02189184908118659 0 0.46122373864745198 -0.034064038759572521 0 0.45192160644451512 -0.0091698592679851504 0 0.47621403880257929 -0.099362679963144546 0 0.45825176112352212 -0.1171944005084963 0 0.47461064769812122 -0.12772964805397971 0 0.50000000000000433 -0.1143432737178363 0 0.47621403880257929 -0.099362679963144546 0 0.47461064769812122 -0.12772964805397971 0 0.50000000000000433 -0.1143432737178363 0 0.47461064769812122 -0.12772964805397971 0 0.49999999999998102 -0.1000967699598443 0 0.47621403880257929 -0.099362679963144546 0 0.49999999999998102 -0.1000967699598443 0 0.47621403880257929 -0.099362679963144546 0 0.48785951469139027 -0.086657123706384981 0 0.50000000000000433 -0.1143432737178363 0 0.49999999999998102 -0.1000967699598443 0 0.47621403880257929 -0.099362679963144546 0 0.47621403880257929 -0.099362679963144546 0 0.48785951469139027 -0.086657123706384981 0 0.47522401996300467 -0.077198942777287505 0 0.47621403880257929 -0.099362679963144546 0 0.47522401996300467 -0.077198942777287505 0 0.46460819440086443 -0.0896918568577834 0 0.49999999999998102 -0.1000967699598443 0 0.48785951469139027 -0.086657123706384981 0 0.49999999999999678 -0.069970102125263903 0 0.49999999999999678 -0.069970102125263903 0 0.47522401996300467 -0.077198942777287505 0 0.48785951469139027 -0.086657123706384981 0 0.49999999999999678 -0.069970102125263903 0 0.47522401996300467 -0.077198942777287505 0 0.48378938215607542 -0.060491629721736481 0 0.49999999999999678 -0.069970102125263903 0 0.47522401996300467 -0.077198942777287505 0 0.48378938215607542 -0.060491629721736481 0 0.47522401996300467 -0.077198942777287505 0 0.46263532094350251 -0.0655193079319734 0 0.47522401996300467 -0.077198942777287505 0 0.46263532094350251 -0.0655193079319734 0 0.4504480399260129 -0.084427783429311939 0 0.44526353314296241 -0.062107813217869068 0 0.46263532094350251 -0.0655193079319734 0 0.4504480399260129 -0.084427783429311939 0 0.44526353314296241 -0.062107813217869068 0 0.4504480399260129 -0.084427783429311939 0 0.43069868055782679 -0.078899440675300136 0 0.4504480399260129 -0.084427783429311939 0 0.45242807760517778 -0.098628589966444233 0 0.42864211640777627 -0.097894499969741214 0 0.4504480399260129 -0.084427783429311939 0 0.42567205988902129 -0.091656624081337568 0 0.47522401996300467 -0.077198942777287505 0 0.4504480399260129 -0.084427783429311939 0 0.47522401996300467 -0.077198942777287505 0 0.4504480399260129 -0.084427783429311939 0 0.46460819440086443 -0.0896918568577834 0 0.4504480399260129 -0.084427783429311939 0 0.46460819440086443 -0.0896918568577834 0 0.45242807760517778 -0.098628589966444233 0 0.47621403880257929 -0.099362679963144546 0 0.45242807760517778 -0.098628589966444233 0 0.45825176112352212 -0.1171944005084963 0 0.47621403880257929 -0.099362679963144546 0 0.45242807760517778 -0.098628589966444233 0 0.47621403880257929 -0.099362679963144546 0 0.46460819440086443 -0.0896918568577834 0 0.45242807760517778 -0.098628589966444233 0 0.45242807760517778 -0.098628589966444233 0 0.42864211640777627 -0.097894499969741214 0 0.45242807760517778 -0.098628589966444233 0 0.43893170590200609 -0.1195052611799315 0 0.42864211640777627 -0.097894499969741214 0 0.45242807760517778 -0.098628589966444233 0 0.43893170590200609 -0.1195052611799315 0 0.45825176112352212 -0.1171944005084963 0 0.42080162445294911 -0.1170697999396166 0 0.40604313277712428 -0.1171380761358455 0 0.41368108829086198 -0.13554811058748131 0 0.42080162445294911 -0.1170697999396166 0 0.40662173914453831 -0.097214899993173481 0 0.40604313277712428 -0.1171380761358455 0 0.43893170590200609 -0.1195052611799315 0 0.42080162445294911 -0.1170697999396166 0 0.430889964195386 -0.135117951771525 0 0.43893170590200609 -0.1195052611799315 0 0.42080162445294911 -0.1170697999396166 0 0.42864211640777627 -0.097894499969741214 0 0.43893170590200609 -0.1195052611799315 0 0.42864211640777627 -0.097894499969741214 0 0.42864211640777627 -0.097894499969741214 0 0.42567205988902129 -0.091656624081337568 0 0.42864211640777627 -0.097894499969741214 0 0.40662173914453831 -0.097214899993173481 0 0.42567205988902129 -0.091656624081337568 0 0.42080162445294911 -0.1170697999396166 0 0.42864211640777627 -0.097894499969741214 0 0.40662173914453831 -0.097214899993173481 0 0.42864211640777627 -0.097894499969741214 0 0.40662173914453831 -0.097214899993173481 0 0.40662173914453831 -0.097214899993173481 0 0.42567205988902129 -0.091656624081337568 0 0.40662173914453831 -0.097214899993173481 0 0.41829766411352998 -0.087706900461061957 0 0.42567205988902129 -0.091656624081337568 0 0.40662173914453831 -0.097214899993173481 0 0.41020628866808312 -0.08357079425946129 0 0.41829766411352998 -0.087706900461061957 0 0.41020628866808312 -0.08357079425946129 0 0.42012861486432151 -0.07981881462850364 0 0.41094109939792961 -0.074512111623280808 0 0.41020628866808312 -0.08357079425946129 0 0.41094109939792961 -0.074512111623280808 0 0.40556094342569721 -0.078918860306745137 0 0.41020628866808312 -0.08357079425946129 0 0.42012861486432151 -0.07981881462850364 0 0.41829766411352998 -0.087706900461061957 0 0.42012861486432151 -0.07981881462850364 0 0.41829766411352998 -0.087706900461061957 0 0.42254342745458301 -0.084546146485576762 0 0.41829766411352998 -0.087706900461061957 0 0.42461385466063262 -0.08943412331831832 0 0.42254342745458301 -0.084546146485576762 0 0.42567205988902129 -0.091656624081337568 0 0.42461385466063262 -0.08943412331831832 0 0.43069868055782679 -0.078899440675300136 0 0.4504480399260129 -0.084427783429311939 0 0.42567205988902129 -0.091656624081337568 0 0.43069868055782679 -0.078899440675300136 0 0.4504480399260129 -0.084427783429311939 0 0.42864211640777627 -0.097894499969741214 0 0.42567205988902129 -0.091656624081337568 0 0.42567205988902129 -0.091656624081337568 0 0.42461385466063262 -0.08943412331831832 0 0.41829766411352998 -0.087706900461061957 0 0.42567205988902129 -0.091656624081337568 0 0.42461385466063262 -0.08943412331831832 0 0.42012861486432151 -0.07981881462850364 0 0.43069868055782679 -0.078899440675300136 0 0.42254342745458301 -0.084546146485576762 0 0.42461385466063262 -0.08943412331831832 0 0.43069868055782679 -0.078899440675300136 0 0.42254342745458301 -0.084546146485576762 0 0.43069868055782679 -0.078899440675300136 0 0.42085386234523608 -0.065266903626460593 0 0.41911482919747139 -0.073234494934215744 0 0.43069868055782679 -0.078899440675300136 0 0.42085386234523608 -0.065266903626460593 0 0.42768193525564641 -0.052738548234870043 0 0.44526353314296241 -0.062107813217869068 0 0.43069868055782679 -0.078899440675300136 0 0.42768193525564641 -0.052738548234870043 0 0.43069868055782679 -0.078899440675300136 0 0.42768193525564641 -0.052738548234870043 0 0.42012861486432151 -0.07981881462850364 0 0.43069868055782679 -0.078899440675300136 0 0.41911482919747139 -0.073234494934215744 0 0.42085386234523608 -0.065266903626460593 0 0.41911482919747139 -0.073234494934215744 0 0.41247118756252621 -0.068972059658544485 0 0.41911482919747139 -0.073234494934215744 0 0.41094109939792961 -0.074512111623280808 0 0.41247118756252621 -0.068972059658544485 0 0.42012861486432151 -0.07981881462850364 0 0.41911482919747139 -0.073234494934215744 0 0.41094109939792961 -0.074512111623280808 0 0.41094109939792961 -0.074512111623280808 0 0.41247118756252621 -0.068972059658544485 0 0.40519344017519737 -0.069697512887539489 0 0.42085386234523608 -0.065266903626460593 0 0.41247118756252621 -0.068972059658544485 0 0.40625270669679608 -0.06214927522122575 0 0.41247118756252621 -0.068972059658544485 0 0.40519344017519737 -0.069697512887539489 0 0.40625270669679608 -0.06214927522122575 0 0.40519344017519737 -0.069697512887539489 0 0.3909339432522656 -0.07145852807871525 0 0.40625270669679608 -0.06214927522122575 0 0.41094109939792961 -0.074512111623280808 0 0.40094221169150912 -0.074554002884685597 0 0.40556094342569721 -0.078918860306745137 0 0.40519344017519737 -0.069697512887539489 0 0.40094221169150912 -0.074554002884685597 0 0.3909339432522656 -0.07145852807871525 0 0.41094109939792961 -0.074512111623280808 0 0.40519344017519737 -0.069697512887539489 0 0.40094221169150912 -0.074554002884685597 0 0.40094221169150912 -0.074554002884685597 0 0.3909339432522656 -0.07145852807871525 0 0.39616481607021642 -0.077435810443283751 0 0.3909339432522656 -0.07145852807871525 0 0.39616481607021642 -0.077435810443283751 0 0.39262893539182381 -0.080692178350181262 0 0.39181446083091098 -0.066763706552935329 0 0.38421934743036401 -0.068446750892908373 0 0.38398729378694407 -0.058429379279077209 0 0.38421934743036401 -0.068446750892908373 0 0.37813424473731178 -0.068262582352726586 0 0.38398729378694407 -0.058429379279077209 0 0.37813424473731178 -0.068262582352726586 0 0.38294139036628899 -0.080331335386894381 0 0.37353404377441052 -0.075370636612477671 0 0.38421934743036401 -0.068446750892908373 0 0.37813424473731178 -0.068262582352726586 0 0.38294139036628899 -0.080331335386894381 0 0.39181446083091098 -0.066763706552935329 0 0.38294139036628899 -0.080331335386894381 0 0.39181446083091098 -0.066763706552935329 0 0.38421934743036401 -0.068446750892908373 0 0.38294139036628899 -0.080331335386894381 0 0.3909339432522656 -0.07145852807871525 0 0.39181446083091098 -0.066763706552935329 0 0.38294139036628899 -0.080331335386894381 0 0.38598565568847482 -0.085166122563822014 0 0.39289996883908601 -0.089154852807517448 0 0.39262893539182381 -0.080692178350181262 0 0.3909339432522656 -0.07145852807871525 0 0.38598565568847482 -0.085166122563822014 0 0.39262893539182381 -0.080692178350181262 0 0.3909339432522656 -0.07145852807871525 0 0.37406831990166722 -0.093898964220853504 0 0.3909339432522656 -0.07145852807871525 0 0.38598565568847482 -0.085166122563822014 0 0.37406831990166722 -0.093898964220853504 0 0.3909339432522656 -0.07145852807871525 0 0.38294139036628899 -0.080331335386894381 0 0.37406831990166722 -0.093898964220853504 0 0.38294139036628899 -0.080331335386894381 0 0.37406831990166722 -0.093898964220853504 0 0.38598565568847482 -0.085166122563822014 0 0.38240509603332101 -0.092127683864182172 0 0.37406831990166722 -0.093898964220853504 0 0.38240509603332101 -0.092127683864182172 0 0.39289996883908601 -0.089154852807517448 0 0.38960421283109031 -0.096689699614190994 0 0.38598565568847482 -0.085166122563822014 0 0.38240509603332101 -0.092127683864182172 0 0.39289996883908601 -0.089154852807517448 0 0.39289996883908601 -0.089154852807517448 0 0.39262893539182381 -0.080692178350181262 0 0.40015417394526698 -0.083038532459552866 0 0.39616481607021642 -0.077435810443283751 0 0.39262893539182381 -0.080692178350181262 0 0.40015417394526698 -0.083038532459552866 0 0.40094221169150912 -0.074554002884685597 0 0.40556094342569721 -0.078918860306745137 0 0.40015417394526698 -0.083038532459552866 0 0.40094221169150912 -0.074554002884685597 0 0.39616481607021642 -0.077435810443283751 0 0.40015417394526698 -0.083038532459552866 0 0.41020628866808312 -0.08357079425946129 0 0.40556094342569721 -0.078918860306745137 0 0.40015417394526698 -0.083038532459552866 0 0.40662173914453831 -0.097214899993173481 0 0.39289996883908601 -0.089154852807517448 0 0.40015417394526698 -0.083038532459552866 0 0.40662173914453831 -0.097214899993173481 0 0.41020628866808312 -0.08357079425946129 0 0.40015417394526698 -0.083038532459552866 0 0.40662173914453831 -0.097214899993173481 0 0.3851668720105898 -0.10347474583943909 0 0.38960421283109031 -0.096689699614190994 0 0.40662173914453831 -0.097214899993173481 0 0.3851668720105898 -0.10347474583943909 0 0.40662173914453831 -0.097214899993173481 0 0.39289996883908601 -0.089154852807517448 0 0.38960421283109031 -0.096689699614190994 0 0.40662173914453831 -0.097214899993173481 0 0.38960421283109031 -0.096689699614190994 0 0.40662173914453831 -0.097214899993173481 0 0.3851668720105898 -0.10347474583943909 0 0.39374350655696688 -0.1137959578468639 0 0.38960421283109031 -0.096689699614190994 0 0.37237061700676077 -0.09615783082836224 0 0.3851668720105898 -0.10347474583943909 0 0.38960421283109031 -0.096689699614190994 0 0.37237061700676077 -0.09615783082836224 0 0.38240509603332101 -0.092127683864182172 0 0.38960421283109031 -0.096689699614190994 0 0.37237061700676077 -0.09615783082836224 0 0.38240509603332101 -0.092127683864182172 0 0.37406831990166722 -0.093898964220853504 0 0.37237061700676077 -0.09615783082836224 0 0.3785150876385216 -0.1195111518185689 0 0.39374350655696688 -0.1137959578468639 0 0.39237070121405998 -0.13164091544729051 0 0.3851668720105898 -0.10347474583943909 0 0.3785150876385216 -0.1195111518185689 0 0.36371200487664068 -0.10973459168570281 0 0.3851668720105898 -0.10347474583943909 0 0.3785150876385216 -0.1195111518185689 0 0.39374350655696688 -0.1137959578468639 0 0.40662173914453831 -0.097214899993173481 0 0.39374350655696688 -0.1137959578468639 0 0.40604313277712428 -0.1171380761358455 0 0.39374350655696688 -0.1137959578468639 0 0.40604313277712428 -0.1171380761358455 0 0.39237070121405998 -0.13164091544729051 0 0.41728163952739061 -0.019334187549187701 0 0.42284227266732188 -0.010769512158268201 0 0.42466518995346408 -0.026577655794440151 0 0.41728163952739061 -0.019334187549187701 0 0.41227128108974659 -0.029924501558089681 0 0.42466518995346408 -0.026577655794440151 0 0.41227128108974659 -0.029924501558089681 0 0.40863720631140932 -0.019892986955346081 0 0.40014031603924488 -0.033106741091830219 0 0.41728163952739061 -0.019334187549187701 0 0.41227128108974659 -0.029924501558089681 0 0.40863720631140932 -0.019892986955346081 0 0.41728163952739061 -0.019334187549187701 0 0.40863720631140932 -0.019892986955346081 0 0.41436166681859882 -0.01226683791037885 0 0.40863720631140932 -0.019892986955346081 0 0.41436166681859882 -0.01226683791037885 0 0.40369857438468087 -0.0060371637805465179 0 0.42101935538117791 0.0050386314779034547 0 0.41402040698134779 -0.0025911497673051101 0 0.42284227266732188 -0.010769512158268201 0 0.41402040698134779 -0.0025911497673051101 0 0.41436166681859882 -0.01226683791037885 0 0.40369857438468087 -0.0060371637805465179 0 0.41402040698134779 -0.0025911497673051101 0 0.41436166681859882 -0.01226683791037885 0 0.42284227266732188 -0.010769512158268201 0 0.41728163952739061 -0.019334187549187701 0 0.41436166681859882 -0.01226683791037885 0 0.42284227266732188 -0.010769512158268201 0 0.42284227266732188 -0.010769512158268201 0 0.43543049063324413 -0.012350052332502739 0 0.42769414368384923 -0.02254750278133769 0 0.42101935538117791 0.0050386314779034547 0 0.42284227266732188 -0.010769512158268201 0 0.42101935538117791 0.0050386314779034547 0 0.42788240966677021 0.003552130545216341 0 0.42284227266732188 -0.010769512158268201 0 0.42788240966677021 0.003552130545216341 0 0.42284227266732188 -0.010769512158268201 0 0.43543049063324413 -0.012350052332502739 0 0.42284227266732188 -0.010769512158268201 0 0.42466518995346408 -0.026577655794440151 0 0.42284227266732188 -0.010769512158268201 0 0.42769414368384923 -0.02254750278133769 0 0.42466518995346408 -0.026577655794440151 0 0.44260817666721519 -0.025216613737701819 0 0.43543049063324413 -0.012350052332502739 0 0.42769414368384923 -0.02254750278133769 0 0.42769414368384923 -0.02254750278133769 0 0.42466518995346408 -0.026577655794440151 0 0.43454865465473302 -0.032105158367880783 0 0.42769414368384923 -0.02254750278133769 0 0.42466518995346408 -0.026577655794440151 0 0.44260817666721519 -0.025216613737701819 0 0.42769414368384923 -0.02254750278133769 0 0.43454865465473302 -0.032105158367880783 0 0.42466518995346408 -0.026577655794440151 0 0.43454865465473302 -0.032105158367880783 0 0.42768193525564641 -0.052738548234870043 0 0.42466518995346408 -0.026577655794440151 0 0.42768193525564641 -0.052738548234870043 0 0.44483042593949818 -0.041063070916932051 0 0.43454865465473302 -0.032105158367880783 0 0.42768193525564641 -0.052738548234870043 0 0.42085386234523608 -0.065266903626460593 0 0.42768193525564641 -0.052738548234870043 0 0.40779956660286398 -0.049018091936576927 0 0.42085386234523608 -0.065266903626460593 0 0.40779956660286398 -0.049018091936576927 0 0.40625270669679608 -0.06214927522122575 0 0.42466518995346408 -0.026577655794440151 0 0.42768193525564641 -0.052738548234870043 0 0.40779956660286398 -0.049018091936576927 0 0.42466518995346408 -0.026577655794440151 0 0.40779956660286398 -0.049018091936576927 0 0.41227128108974659 -0.029924501558089681 0 0.42466518995346408 -0.026577655794440151 0 0.40779956660286398 -0.049018091936576927 0 0.41227128108974659 -0.029924501558089681 0 0.40779956660286398 -0.049018091936576927 0 0.40014031603924488 -0.033106741091830219 0 0.40779956660286398 -0.049018091936576927 0 0.40014031603924488 -0.033106741091830219 0 0.3912967176308087 -0.04756724484766426 0 0.40014031603924488 -0.033106741091830219 0 0.3912967176308087 -0.04756724484766426 0 0.38547037370043469 -0.032308846426106139 0 0.3909339432522656 -0.07145852807871525 0 0.40779956660286398 -0.049018091936576927 0 0.40625270669679608 -0.06214927522122575 0 0.3909339432522656 -0.07145852807871525 0 0.39181446083091098 -0.066763706552935329 0 0.40779956660286398 -0.049018091936576927 0 0.39181446083091098 -0.066763706552935329 0 0.40779956660286398 -0.049018091936576927 0 0.3912967176308087 -0.04756724484766426 0 0.3909339432522656 -0.07145852807871525 0 0.40779956660286398 -0.049018091936576927 0 0.3912967176308087 -0.04756724484766426 0 0.38398729378694407 -0.058429379279077209 0 0.37514153202862571 -0.045861082966856079 0 0.39181446083091098 -0.066763706552935329 0 0.3912967176308087 -0.04756724484766426 0 0.38398729378694407 -0.058429379279077209 0 0.38398729378694407 -0.058429379279077209 0 0.37514153202862571 -0.045861082966856079 0 0.37192531576168952 -0.05914395824800911 0 0.37813424473731178 -0.068262582352726586 0 0.38398729378694407 -0.058429379279077209 0 0.37192531576168952 -0.05914395824800911 0 0.3912967176308087 -0.04756724484766426 0 0.38547037370043469 -0.032308846426106139 0 0.37514153202862571 -0.045861082966856079 0 0.38547037370043469 -0.032308846426106139 0 0.37514153202862571 -0.045861082966856079 0 0.36877413775607049 -0.02995327657106206 0 0.38547037370043469 -0.032308846426106139 0 0.37927030083329177 -0.015743113788958679 0 0.36877413775607049 -0.02995327657106206 0 0.38547037370043469 -0.032308846426106139 0 0.37927030083329177 -0.015743113788958679 0 0.39536675090020662 -0.019928774827198261 0 0.40014031603924488 -0.033106741091830219 0 0.38547037370043469 -0.032308846426106139 0 0.39536675090020662 -0.019928774827198261 0 0.40863720631140932 -0.019892986955346081 0 0.40014031603924488 -0.033106741091830219 0 0.39536675090020662 -0.019928774827198261 0 0.40863720631140932 -0.019892986955346081 0 0.39536675090020662 -0.019928774827198261 0 0.40369857438468087 -0.0060371637805465179 0 0.39536675090020662 -0.019928774827198261 0 0.40369857438468087 -0.0060371637805465179 0 0.39174671884158141 -0.0074493154892236006 0 0.39390920682105918 0.0040204267233196643 0 0.40369857438468087 -0.0060371637805465179 0 0.39174671884158141 -0.0074493154892236006 0 0.38212023564171321 0.001094655884648786 0 0.37927030083329177 -0.015743113788958679 0 0.39174671884158141 -0.0074493154892236006 0 0.38212023564171321 0.001094655884648786 0 0.37927030083329177 -0.015743113788958679 0 0.3700201466167648 -0.002195575246397889 0 0.37927030083329177 -0.015743113788958679 0 0.39536675090020662 -0.019928774827198261 0 0.39174671884158141 -0.0074493154892236006 0 0.39390920682105918 0.0040204267233196643 0 0.38212023564171321 0.001094655884648786 0 0.39174671884158141 -0.0074493154892236006 0 0.35686418876597309 0.010252504770385159 0 0.3700201466167648 -0.002195575246397889 0 0.35727920934793722 -0.0129667368589869 0 0.37927030083329177 -0.015743113788958679 0 0.3700201466167648 -0.002195575246397889 0 0.35727920934793722 -0.0129667368589869 0 0.36877413775607049 -0.02995327657106206 0 0.35727920934793722 -0.0129667368589869 0 0.35227314840285812 -0.03152257084722427 0 0.37927030083329177 -0.015743113788958679 0 0.36877413775607049 -0.02995327657106206 0 0.35727920934793722 -0.0129667368589869 0 0.35727920934793722 -0.0129667368589869 0 0.33875503928457851 -0.02222753562310531 0 0.35227314840285812 -0.03152257084722427 0 0.35727920934793722 -0.0129667368589869 0 0.33586681222118892 -0.0067462441580033658 0 0.33875503928457851 -0.02222753562310531 0 0.35686418876597309 0.010252504770385159 0 0.35727920934793722 -0.0129667368589869 0 0.33586681222118892 -0.0067462441580033658 0 0.33586681222118892 -0.0067462441580033658 0 0.33875503928457851 -0.02222753562310531 0 0.31486943567640469 -0.023744993086391868 0 0.33875503928457851 -0.02222753562310531 0 0.31486943567640469 -0.023744993086391868 0 0.33348659077450338 -0.036157133164920148 0 0.33875503928457851 -0.02222753562310531 0 0.33348659077450338 -0.036157133164920148 0 0.35227314840285812 -0.03152257084722427 0 0.31046320235639918 0.0067575729804437252 0 0.33586681222118892 -0.0067462441580033658 0 0.3153830815233527 -0.0087530987426132929 0 0.33586681222118892 -0.0067462441580033658 0 0.31486943567640469 -0.023744993086391868 0 0.3153830815233527 -0.0087530987426132929 0 0.33586681222118892 -0.0067462441580033658 0 0.31486943567640469 -0.023744993086391868 0 0.32115491610998381 -0.052976688016941227 0 0.32092150739102382 -0.073097043805500014 0 0.30601744289912669 -0.055409131432484229 0 0.32115491610998381 -0.052976688016941227 0 0.31197137499350902 -0.041008225260955711 0 0.30601744289912669 -0.055409131432484229 0 0.31486943567640469 -0.023744993086391868 0 0.33348659077450338 -0.036157133164920148 0 0.31197137499350902 -0.041008225260955711 0 0.32115491610998381 -0.052976688016941227 0 0.33348659077450338 -0.036157133164920148 0 0.31197137499350902 -0.041008225260955711 0 0.33348659077450338 -0.036157133164920148 0 0.3363568723602065 -0.050864743298462772 0 0.35116628403686417 -0.048621598638038131 0 0.32115491610998381 -0.052976688016941227 0 0.33348659077450338 -0.036157133164920148 0 0.3363568723602065 -0.050864743298462772 0 0.32115491610998381 -0.052976688016941227 0 0.3363568723602065 -0.050864743298462772 0 0.33388625794764348 -0.064812423232177271 0 0.3363568723602065 -0.050864743298462772 0 0.34794047334546518 -0.063974584280765273 0 0.33388625794764348 -0.064812423232177271 0 0.3363568723602065 -0.050864743298462772 0 0.35116628403686417 -0.048621598638038131 0 0.34794047334546518 -0.063974584280765273 0 0.35116628403686417 -0.048621598638038131 0 0.35914505774559541 -0.060409417065886872 0 0.36392372675137458 -0.051574144679805103 0 0.35116628403686417 -0.048621598638038131 0 0.36240463436463582 -0.041692596330413237 0 0.36392372675137458 -0.051574144679805103 0 0.35116628403686417 -0.048621598638038131 0 0.35914505774559541 -0.060409417065886872 0 0.34794047334546518 -0.063974584280765273 0 0.35116628403686417 -0.048621598638038131 0 0.35227314840285812 -0.03152257084722427 0 0.36240463436463582 -0.041692596330413237 0 0.33348659077450338 -0.036157133164920148 0 0.35116628403686417 -0.048621598638038131 0 0.35227314840285812 -0.03152257084722427 0 0.37514153202862571 -0.045861082966856079 0 0.36877413775607049 -0.02995327657106206 0 0.36240463436463582 -0.041692596330413237 0 0.36877413775607049 -0.02995327657106206 0 0.35227314840285812 -0.03152257084722427 0 0.36240463436463582 -0.041692596330413237 0 0.37514153202862571 -0.045861082966856079 0 0.36240463436463582 -0.041692596330413237 0 0.36392372675137458 -0.051574144679805103 0 0.35914505774559541 -0.060409417065886872 0 0.36392372675137458 -0.051574144679805103 0 0.37192531576168952 -0.05914395824800911 0 0.37514153202862571 -0.045861082966856079 0 0.36392372675137458 -0.051574144679805103 0 0.37192531576168952 -0.05914395824800911 0 0.37813424473731178 -0.068262582352726586 0 0.37192531576168952 -0.05914395824800911 0 0.3680772617285144 -0.06977757947088653 0 0.35914505774559541 -0.060409417065886872 0 0.37192531576168952 -0.05914395824800911 0 0.3680772617285144 -0.06977757947088653 0 0.35914505774559541 -0.060409417065886872 0 0.3680772617285144 -0.06977757947088653 0 0.35837286676988928 -0.071968688592424085 0 0.3680772617285144 -0.06977757947088653 0 0.36498327826552668 -0.083111049239403226 0 0.35837286676988928 -0.071968688592424085 0 0.3680772617285144 -0.06977757947088653 0 0.37353404377441052 -0.075370636612477671 0 0.36498327826552668 -0.083111049239403226 0 0.37813424473731178 -0.068262582352726586 0 0.3680772617285144 -0.06977757947088653 0 0.37353404377441052 -0.075370636612477671 0 0.38294139036628899 -0.080331335386894381 0 0.37353404377441052 -0.075370636612477671 0 0.36498327826552668 -0.083111049239403226 0 0.36498327826552668 -0.083111049239403226 0 0.37237061700676077 -0.09615783082836224 0 0.34241852099989789 -0.095233439592861846 0 0.38294139036628899 -0.080331335386894381 0 0.36498327826552668 -0.083111049239403226 0 0.37406831990166722 -0.093898964220853504 0 0.36498327826552668 -0.083111049239403226 0 0.37406831990166722 -0.093898964220853504 0 0.37237061700676077 -0.09615783082836224 0 0.36498327826552668 -0.083111049239403226 0 0.3449175019875389 -0.076917716904771144 0 0.34241852099989789 -0.095233439592861846 0 0.36498327826552668 -0.083111049239403226 0 0.3449175019875389 -0.076917716904771144 0 0.35837286676988928 -0.071968688592424085 0 0.3449175019875389 -0.076917716904771144 0 0.34794047334546518 -0.063974584280765273 0 0.35837286676988928 -0.071968688592424085 0 0.35914505774559541 -0.060409417065886872 0 0.34794047334546518 -0.063974584280765273 0 0.35837286676988928 -0.071968688592424085 0 0.36371200487664068 -0.10973459168570281 0 0.35664352332635268 -0.13060513793896061 0 0.36779594019891898 -0.12729788290040461 0 0.3785150876385216 -0.1195111518185689 0 0.36371200487664068 -0.10973459168570281 0 0.36779594019891898 -0.12729788290040461 0 0.36371200487664068 -0.10973459168570281 0 0.37237061700676077 -0.09615783082836224 0 0.34241852099989789 -0.095233439592861846 0 0.3851668720105898 -0.10347474583943909 0 0.36371200487664068 -0.10973459168570281 0 0.37237061700676077 -0.09615783082836224 0 0.3851668720105898 -0.10347474583943909 0 0.36371200487664068 -0.10973459168570281 0 0.36371200487664068 -0.10973459168570281 0 0.37237061700676077 -0.09615783082836224 0 0.37406831990166722 -0.093898964220853504 0 0.37237061700676077 -0.09615783082836224 0 0.36371200487664068 -0.10973459168570281 0 0.34332012240242971 -0.1020930362129598 0 0.34241852099989789 -0.095233439592861846 0 0.36371200487664068 -0.10973459168570281 0 0.35002252173753962 -0.112446561286345 0 0.34332012240242971 -0.1020930362129598 0 0.37237061700676077 -0.09615783082836224 0 0.34241852099989789 -0.095233439592861846 0 0.35002252173753962 -0.112446561286345 0 0.34025414842832208 -0.11782241666052221 0 0.34332012240242971 -0.1020930362129598 0 0.36371200487664068 -0.10973459168570281 0 0.35355367174401742 -0.1211945845718113 0 0.34779048707731292 -0.1340798558009649 0 0.36371200487664068 -0.10973459168570281 0 0.35664352332635268 -0.13060513793896061 0 0.34779048707731292 -0.1340798558009649 0 0.36371200487664068 -0.10973459168570281 0 0.34779048707731292 -0.1340798558009649 0 0.36371200487664068 -0.10973459168570281 0 0.35002252173753962 -0.112446561286345 0 0.35355367174401742 -0.1211945845718113 0 0.36371200487664068 -0.10973459168570281 0 0.35355367174401742 -0.1211945845718113 0 0.35002252173753962 -0.112446561286345 0 0.35355367174401742 -0.1211945845718113 0 0.34025414842832208 -0.11782241666052221 0 0.35355367174401742 -0.1211945845718113 0 0.34025414842832208 -0.11782241666052221 0 0.34381162934489939 -0.12854128697128539 0 0.33094534805706732 -0.1177437606496905 0 0.31854024801571379 -0.1183964408803808 0 0.33718817445421712 -0.13355179710808501 0 0.34025414842832208 -0.11782241666052221 0 0.33378984816934337 -0.1086297847084315 0 0.34332012240242971 -0.1020930362129598 0 0.33094534805706732 -0.1177437606496905 0 0.34025414842832208 -0.11782241666052221 0 0.33718817445421712 -0.13355179710808501 0 0.34025414842832208 -0.11782241666052221 0 0.34332012240242971 -0.1020930362129598 0 0.33094534805706732 -0.1177437606496905 0 0.33378984816934337 -0.1086297847084315 0 0.32495432121773932 -0.110318363891034 0 0.33094534805706732 -0.1177437606496905 0 0.34025414842832208 -0.11782241666052221 0 0.33378984816934337 -0.1086297847084315 0 0.33378984816934337 -0.1086297847084315 0 0.32725903490077729 -0.10071499943534749 0 0.32495432121773932 -0.110318363891034 0 0.33378984816934337 -0.1086297847084315 0 0.33669688161811212 -0.1016678149874002 0 0.32725903490077729 -0.10071499943534749 0 0.33378984816934337 -0.1086297847084315 0 0.34332012240242971 -0.1020930362129598 0 0.33669688161811212 -0.1016678149874002 0 0.34332012240242971 -0.1020930362129598 0 0.33669688161811212 -0.1016678149874002 0 0.34241852099989789 -0.095233439592861846 0 0.33669688161811212 -0.1016678149874002 0 0.34241852099989789 -0.095233439592861846 0 0.32725903490077729 -0.10071499943534749 0 0.34241852099989789 -0.095233439592861846 0 0.31246642499303512 -0.0943090483573608 0 0.34241852099989789 -0.095233439592861846 0 0.32725903490077729 -0.10071499943534749 0 0.31246642499303512 -0.0943090483573608 0 0.32725903490077729 -0.10071499943534749 0 0.31716114910448651 -0.10565591717263 0 0.31246642499303512 -0.0943090483573608 0 0.32725903490077729 -0.10071499943534749 0 0.31716114910448651 -0.10565591717263 0 0.32495432121773932 -0.110318363891034 0 0.33094534805706732 -0.1177437606496905 0 0.32495432121773932 -0.110318363891034 0 0.31854024801571379 -0.1183964408803808 0 0.31716114910448651 -0.10565591717263 0 0.32495432121773932 -0.110318363891034 0 0.31854024801571379 -0.1183964408803808 0 0.31716114910448651 -0.10565591717263 0 0.31854024801571379 -0.1183964408803808 0 0.30531265091832138 -0.10738965970164049 0 0.3449175019875389 -0.076917716904771144 0 0.33388625794764348 -0.064812423232177271 0 0.32092150739102382 -0.073097043805500014 0 0.3449175019875389 -0.076917716904771144 0 0.34794047334546518 -0.063974584280765273 0 0.33388625794764348 -0.064812423232177271 0 0.3449175019875389 -0.076917716904771144 0 0.34241852099989789 -0.095233439592861846 0 0.32092150739102382 -0.073097043805500014 0 0.34241852099989789 -0.095233439592861846 0 0.32092150739102382 -0.073097043805500014 0 0.31246642499303512 -0.0943090483573608 0 0.32115491610998381 -0.052976688016941227 0 0.33388625794764348 -0.064812423232177271 0 0.32092150739102382 -0.073097043805500014 0 0.32092150739102382 -0.073097043805500014 0 0.28819319405889499 -0.06706419956831737 0 0.31246642499303512 -0.0943090483573608 0 0.32092150739102382 -0.073097043805500014 0 0.28819319405889499 -0.06706419956831737 0 0.30601744289912669 -0.055409131432484229 0 0.28251432898617262 -0.093384657121855619 0 0.28819319405889499 -0.06706419956831737 0 0.31246642499303512 -0.0943090483573608 0 0.28251432898617262 -0.093384657121855619 0 0.28819319405889499 -0.06706419956831737 0 0.28251432898617262 -0.093384657121855619 0 0.28819319405889499 -0.06706419956831737 0 0.2788070763813692 -0.075616481315712358 0 0.30531265091832138 -0.10738965970164049 0 0.29209333803684512 -0.1204183792118467 0 0.30316218715013699 -0.13585617877411299 0 0.31854024801571379 -0.1183964408803808 0 0.30531265091832138 -0.10738965970164049 0 0.30316218715013699 -0.13585617877411299 0 0.30531265091832138 -0.10738965970164049 0 0.30316218715013699 -0.13585617877411299 0 0.30531265091832138 -0.10738965970164049 0 0.31246642499303512 -0.0943090483573608 0 0.2913954051317153 -0.1063448066268642 0 0.28251432898617262 -0.093384657121855619 0 0.31246642499303512 -0.0943090483573608 0 0.31716114910448651 -0.10565591717263 0 0.30531265091832138 -0.10738965970164049 0 0.31246642499303512 -0.0943090483573608 0 0.28251432898617262 -0.093384657121855619 0 0.31246642499303512 -0.0943090483573608 0 0.2913954051317153 -0.1063448066268642 0 0.28251432898617262 -0.093384657121855619 0 0.2913954051317153 -0.1063448066268642 0 0.27794998204403759 -0.11453953550188679 0 0.30531265091832138 -0.10738965970164049 0 0.2913954051317153 -0.1063448066268642 0 0.29209333803684512 -0.1204183792118467 0 0.2913954051317153 -0.1063448066268642 0 0.29209333803684512 -0.1204183792118467 0 0.27794998204403759 -0.11453953550188679 0 0.27794998204403759 -0.11453953550188679 0 0.25915390151091949 -0.11811210275817149 0 0.27338563510190422 -0.1356944138819183 0 0.29209333803684512 -0.1204183792118467 0 0.27794998204403759 -0.11453953550188679 0 0.27338563510190422 -0.1356944138819183 0 0.28251432898617262 -0.093384657121855619 0 0.27794998204403759 -0.11453953550188679 0 0.25666672159796139 -0.092586939936295867 0 0.28251432898617262 -0.093384657121855619 0 0.27794998204403759 -0.11453953550188679 0 0.25915390151091949 -0.11811210275817149 0 0.25666672159796139 -0.092586939936295867 0 0.23839025179526999 -0.1151992729885977 0 0.27794998204403759 -0.11453953550188679 0 0.25915390151091949 -0.11811210275817149 0 0.25666672159796139 -0.092586939936295867 0 0.28819319405889499 -0.06706419956831737 0 0.27512965144911827 -0.070681904186227995 0 0.27783686619476677 -0.05372527893061739 0 0.26897876163713708 -0.070467118147906876 0 0.27512965144911827 -0.070681904186227995 0 0.27783686619476677 -0.05372527893061739 0 0.26897876163713708 -0.070467118147906876 0 0.26180167325791431 -0.066706815846455908 0 0.27783686619476677 -0.05372527893061739 0 0.27067132333055188 -0.076788874412469815 0 0.26897876163713708 -0.070467118147906876 0 0.26145119023330071 -0.079000043976386408 0 0.27067132333055188 -0.076788874412469815 0 0.26897876163713708 -0.070467118147906876 0 0.2788070763813692 -0.075616481315712358 0 0.26897876163713708 -0.070467118147906876 0 0.27512965144911827 -0.070681904186227995 0 0.28819319405889499 -0.06706419956831737 0 0.2788070763813692 -0.075616481315712358 0 0.27512965144911827 -0.070681904186227995 0 0.26897876163713708 -0.070467118147906876 0 0.2788070763813692 -0.075616481315712358 0 0.26897876163713708 -0.070467118147906876 0 0.2788070763813692 -0.075616481315712358 0 0.27512965144911827 -0.070681904186227995 0 0.28251432898617262 -0.093384657121855619 0 0.25666672159796139 -0.092586939936295867 0 0.28251432898617262 -0.093384657121855619 0 0.27051227275229911 -0.08315566172012806 0 0.25666672159796139 -0.092586939936295867 0 0.28251432898617262 -0.093384657121855619 0 0.2788070763813692 -0.075616481315712358 0 0.27051227275229911 -0.08315566172012806 0 0.27067132333055188 -0.076788874412469815 0 0.27051227275229911 -0.08315566172012806 0 0.26145119023330071 -0.079000043976386408 0 0.27067132333055188 -0.076788874412469815 0 0.2788070763813692 -0.075616481315712358 0 0.27051227275229911 -0.08315566172012806 0 0.26145119023330071 -0.079000043976386408 0 0.25666672159796139 -0.092586939936295867 0 0.24423239209720191 -0.080930297464084477 0 0.27051227275229911 -0.08315566172012806 0 0.26145119023330071 -0.079000043976386408 0 0.25666672159796139 -0.092586939936295867 0 0.26180167325791431 -0.066706815846455908 0 0.25764566998465072 -0.070071372177431313 0 0.24120587699226881 -0.055916030502087773 0 0.26145119023330071 -0.079000043976386408 0 0.25764566998465072 -0.070071372177431313 0 0.24423239209720191 -0.080930297464084477 0 0.25764566998465072 -0.070071372177431313 0 0.24423239209720191 -0.080930297464084477 0 0.26897876163713708 -0.070467118147906876 0 0.26145119023330071 -0.079000043976386408 0 0.25764566998465072 -0.070071372177431313 0 0.26897876163713708 -0.070467118147906876 0 0.26180167325791431 -0.066706815846455908 0 0.25764566998465072 -0.070071372177431313 0 0.26897876163713708 -0.070467118147906876 0 0.25764566998465072 -0.070071372177431313 0 0.26897876163713708 -0.070467118147906876 0 0.26180167325791431 -0.066706815846455908 0 0.26180167325791431 -0.066706815846455908 0 0.25764566998465072 -0.070071372177431313 0 0.26180167325791431 -0.066706815846455908 0 0.26029261894245981 -0.048826031507571623 0 0.24120587699226881 -0.055916030502087773 0 0.26180167325791431 -0.066706815846455908 0 0.24120587699226881 -0.055916030502087773 0 0.26180167325791431 -0.066706815846455908 0 0.26029261894245981 -0.048826031507571623 0 0.27783686619476677 -0.05372527893061739 0 0.26180167325791431 -0.066706815846455908 0 0.27783686619476677 -0.05372527893061739 0 0.26029261894245981 -0.048826031507571623 0 0.27783686619476677 -0.05372527893061739 0 0.27031708646619812 -0.033638605470610219 0 0.27783686619476677 -0.05372527893061739 0 0.27031708646619812 -0.033638605470610219 0 0.28437966209514692 -0.033534114227583768 0 0.26029261894245981 -0.048826031507571623 0 0.27031708646619812 -0.033638605470610219 0 0.25030159180115191 -0.034143426788088307 0 0.26029261894245981 -0.048826031507571623 0 0.25030159180115191 -0.034143426788088307 0 0.24120587699226881 -0.055916030502087773 0 0.25030159180115191 -0.034143426788088307 0 0.26299580833271302 -0.019789195105520681 0 0.2464198669495459 -0.012097030270161889 0 0.27031708646619812 -0.033638605470610219 0 0.25030159180115191 -0.034143426788088307 0 0.26299580833271302 -0.019789195105520681 0 0.25322369798355371 0.0032948183560677501 0 0.26778398551549509 -0.0036893303100333872 0 0.2464198669495459 -0.012097030270161889 0 0.26299580833271302 -0.019789195105520681 0 0.26778398551549509 -0.0036893303100333872 0 0.2464198669495459 -0.012097030270161889 0 0.26299580833271302 -0.019789195105520681 0 0.26778398551549509 -0.0036893303100333872 0 0.28231604015163769 -0.018351258625531171 0 0.2895407867033607 0.0013395930438658619 0 0.26778398551549509 -0.0036893303100333872 0 0.28231604015163769 -0.018351258625531171 0 0.27031708646619812 -0.033638605470610219 0 0.26299580833271302 -0.019789195105520681 0 0.28231604015163769 -0.018351258625531171 0 0.27031708646619812 -0.033638605470610219 0 0.28231604015163769 -0.018351258625531171 0 0.28437966209514692 -0.033534114227583768 0 0.28231604015163769 -0.018351258625531171 0 0.29600028882747859 -0.03087980289019443 0 0.28437966209514692 -0.033534114227583768 0 0.28231604015163769 -0.018351258625531171 0 0.29600028882747859 -0.03087980289019443 0 0.30132541624728598 -0.01217829343577128 0 0.2895407867033607 0.0013395930438658619 0 0.28231604015163769 -0.018351258625531171 0 0.30132541624728598 -0.01217829343577128 0 0.31046320235639918 0.0067575729804437252 0 0.2895407867033607 0.0013395930438658619 0 0.30132541624728598 -0.01217829343577128 0 0.31046320235639918 0.0067575729804437252 0 0.3153830815233527 -0.0087530987426132929 0 0.30132541624728598 -0.01217829343577128 0 0.31486943567640469 -0.023744993086391868 0 0.3153830815233527 -0.0087530987426132929 0 0.30132541624728598 -0.01217829343577128 0 0.31486943567640469 -0.023744993086391868 0 0.29600028882747859 -0.03087980289019443 0 0.30132541624728598 -0.01217829343577128 0 0.31486943567640469 -0.023744993086391868 0 0.31197137499350902 -0.041008225260955711 0 0.29387205913161968 -0.04074374201477949 0 0.31486943567640469 -0.023744993086391868 0 0.29600028882747859 -0.03087980289019443 0 0.29387205913161968 -0.04074374201477949 0 0.31486943567640469 -0.023744993086391868 0 0.29387205913161968 -0.04074374201477949 0 0.31197137499350902 -0.041008225260955711 0 0.30601744289912669 -0.055409131432484229 0 0.29387205913161968 -0.04074374201477949 0 0.28819319405889499 -0.06706419956831737 0 0.27783686619476677 -0.05372527893061739 0 0.29387205913161968 -0.04074374201477949 0 0.28819319405889499 -0.06706419956831737 0 0.29387205913161968 -0.04074374201477949 0 0.27783686619476677 -0.05372527893061739 0 0.29387205913161968 -0.04074374201477949 0 0.28819319405889499 -0.06706419956831737 0 0.30601744289912669 -0.055409131432484229 0 0.29387205913161968 -0.04074374201477949 0 0.27783686619476677 -0.05372527893061739 0 0.28437966209514692 -0.033534114227583768 0 0.29387205913161968 -0.04074374201477949 0 0.29600028882747859 -0.03087980289019443 0 0.28437966209514692 -0.033534114227583768 0 0.29387205913161968 -0.04074374201477949 0 0.29600028882747859 -0.03087980289019443 0 0.29387205913161968 -0.04074374201477949 0 0.28925369461552242 -0.21547475378801551 0 0.29798535605087828 -0.20438389051808681 0 0.27851755886665591 -0.20371457102860641 0 0.28925369461552242 -0.21547475378801551 0 0.28465086540799672 -0.2254021489655588 0 0.27851755886665591 -0.20371457102860641 0 0.28925369461552242 -0.21547475378801551 0 0.29798535605087828 -0.20438389051808681 0 0.29625974568445868 -0.22722646109941139 0 0.28994099481116897 -0.19128490440727269 0 0.29798535605087828 -0.20438389051808681 0 0.29971096641729777 -0.18154131993676231 0 0.28994099481116897 -0.19128490440727269 0 0.27851755886665591 -0.20371457102860641 0 0.28355009790984409 -0.17549983614563519 0 0.28994099481116897 -0.19128490440727269 0 0.29798535605087828 -0.20438389051808681 0 0.27851755886665591 -0.20371457102860641 0 0.30866677822314281 -0.19370433905286669 0 0.29798535605087828 -0.20438389051808681 0 0.29971096641729777 -0.18154131993676231 0 0.29798535605087828 -0.20438389051808681 0 0.29971096641729777 -0.18154131993676231 0 0.30866677822314281 -0.19370433905286669 0 0.30817512199612251 -0.208018461664154 0 0.29798535605087828 -0.20438389051808681 0 0.29798535605087828 -0.20438389051808681 0 0.29625974568445868 -0.22722646109941139 0 0.30367267472900389 -0.2178556058656746 0 0.31200739898088131 -0.22851072207886541 0 0.31883562653249692 -0.20986103607638071 0 0.29798535605087828 -0.20438389051808681 0 0.30367267472900389 -0.2178556058656746 0 0.29625974568445868 -0.22722646109941139 0 0.30817512199612251 -0.208018461664154 0 0.29798535605087828 -0.20438389051808681 0 0.30367267472900389 -0.2178556058656746 0 0.30817512199612251 -0.208018461664154 0 0.30367267472900389 -0.2178556058656746 0 0.31883562653249692 -0.20986103607638071 0 0.30367267472900389 -0.2178556058656746 0 0.31883562653249692 -0.20986103607638071 0 0.31200739898088131 -0.22851072207886541 0 0.30517917142926537 -0.24716040808135001 0 0.29625974568445868 -0.22722646109941139 0 0.30367267472900389 -0.2178556058656746 0 0.31200739898088131 -0.22851072207886541 0 0.29625974568445868 -0.22722646109941139 0 0.31200739898088131 -0.22851072207886541 0 0.30517917142926537 -0.24716040808135001 0 0.30517917142926537 -0.24716040808135001 0 0.28765229627979871 -0.24304032400626949 0 0.29625974568445868 -0.22722646109941139 0 0.28765229627979871 -0.24304032400626949 0 0.29625974568445868 -0.22722646109941139 0 0.28465086540799672 -0.2254021489655588 0 0.28765229627979871 -0.24304032400626949 0 0.28465086540799672 -0.2254021489655588 0 0.27348501982346762 -0.23192930591157759 0 0.28925369461552242 -0.21547475378801551 0 0.29625974568445868 -0.22722646109941139 0 0.28465086540799672 -0.2254021489655588 0 0.28465086540799672 -0.2254021489655588 0 0.27348501982346762 -0.23192930591157759 0 0.27851755886665591 -0.20371457102860641 0 0.27348501982346762 -0.23192930591157759 0 0.25787859859726192 -0.24372773219337371 0 0.26845248078028039 -0.26014404079454911 0 0.28765229627979871 -0.24304032400626949 0 0.27348501982346762 -0.23192930591157759 0 0.26845248078028039 -0.26014404079454911 0 0.27348501982346762 -0.23192930591157759 0 0.26845248078028039 -0.26014404079454911 0 0.27348501982346762 -0.23192930591157759 0 0.25787859859726192 -0.24372773219337371 0 0.2485278721491469 -0.22983386195931649 0 0.27348501982346762 -0.23192930591157759 0 0.25806059678156651 -0.21160485628964759 0 0.2485278721491469 -0.22983386195931649 0 0.27348501982346762 -0.23192930591157759 0 0.27851755886665591 -0.20371457102860641 0 0.27348501982346762 -0.23192930591157759 0 0.25806059678156651 -0.21160485628964759 0 0.27851755886665591 -0.20371457102860641 0 0.27851755886665591 -0.20371457102860641 0 0.26140201073716351 -0.19316186481753209 0 0.27335445324682811 -0.1824409541049711 0 0.25806059678156651 -0.21160485628964759 0 0.27851755886665591 -0.20371457102860641 0 0.26140201073716351 -0.19316186481753209 0 0.27851755886665591 -0.20371457102860641 0 0.28355009790984409 -0.17549983614563519 0 0.25806059678156651 -0.21160485628964759 0 0.26140201073716351 -0.19316186481753209 0 0.24624710011957149 -0.19756578472926509 0 0.26140201073716351 -0.19316186481753209 0 0.25030889548151403 -0.1837077448593728 0 0.24624710011957149 -0.19756578472926509 0 0.25969225384889538 -0.18295045636353721 0 0.2550208565069661 -0.17514012483034949 0 0.27335445324682811 -0.1824409541049711 0 0.26140201073716351 -0.19316186481753209 0 0.25030889548151403 -0.1837077448593728 0 0.25969225384889538 -0.18295045636353721 0 0.25030889548151403 -0.1837077448593728 0 0.25969225384889538 -0.18295045636353721 0 0.2550208565069661 -0.17514012483034949 0 0.2550208565069661 -0.17514012483034949 0 0.2530488896403309 -0.16079061319898569 0 0.27335445324682811 -0.1824409541049711 0 0.26140201073716351 -0.19316186481753209 0 0.25969225384889538 -0.18295045636353721 0 0.27335445324682811 -0.1824409541049711 0 0.2530488896403309 -0.16079061319898569 0 0.272260185211738 -0.168331689764908 0 0.26878477807763418 -0.16016356734556891 0 0.2530488896403309 -0.16079061319898569 0 0.26878477807763418 -0.16016356734556891 0 0.26293682869207591 -0.15391070786642169 0 0.2530488896403309 -0.16079061319898569 0 0.27335445324682811 -0.1824409541049711 0 0.272260185211738 -0.168331689764908 0 0.27899515764395177 -0.15443660918041571 0 0.28355009790984409 -0.17549983614563519 0 0.2530488896403309 -0.16079061319898569 0 0.272260185211738 -0.168331689764908 0 0.27335445324682811 -0.1824409541049711 0 0.272260185211738 -0.168331689764908 0 0.26878477807763418 -0.16016356734556891 0 0.27899515764395177 -0.15443660918041571 0 0.272260185211738 -0.168331689764908 0 0.27335445324682811 -0.1824409541049711 0 0.28355009790984409 -0.17549983614563519 0 0.27851755886665591 -0.20371457102860641 0 0.27335445324682811 -0.1824409541049711 0 0.28355009790984409 -0.17549983614563519 0 0.25915390151091949 -0.11811210275817149 0 0.25133622254172122 -0.13557462765415079 0 0.27338563510190422 -0.1356944138819183 0 0.25133622254172122 -0.13557462765415079 0 0.27338563510190422 -0.1356944138819183 0 0.25133622254172122 -0.13557462765415079 0 0.25208407187516418 -0.1419613505697605 0 0.27338563510190422 -0.1356944138819183 0 0.26557247671991108 -0.14774187414890411 0 0.25208407187516418 -0.1419613505697605 0 0.27142481771649529 -0.14478242884651979 0 0.25208407187516418 -0.1419613505697605 0 0.27142481771649529 -0.14478242884651979 0 0.2530488896403309 -0.16079061319898569 0 0.25208407187516418 -0.1419613505697605 0 0.26293682869207591 -0.15391070786642169 0 0.26557247671991108 -0.14774187414890411 0 0.25208407187516418 -0.1419613505697605 0 0.26293682869207591 -0.15391070786642169 0 0.27899515764395177 -0.15443660918041571 0 0.27142481771649529 -0.14478242884651979 0 0.28858263695303038 -0.1472851012626637 0 0.25208407187516418 -0.1419613505697605 0 0.27142481771649529 -0.14478242884651979 0 0.27338563510190422 -0.1356944138819183 0 0.27142481771649529 -0.14478242884651979 0 0.28858263695303038 -0.1472851012626637 0 0.27142481771649529 -0.14478242884651979 0 0.27338563510190422 -0.1356944138819183 0 0.28952553314766588 -0.14199879033185039 0 0.26878477807763418 -0.16016356734556891 0 0.27009527632936597 -0.15279308215900331 0 0.27899515764395177 -0.15443660918041571 0 0.26557247671991108 -0.14774187414890411 0 0.27009527632936597 -0.15279308215900331 0 0.27142481771649529 -0.14478242884651979 0 0.26878477807763418 -0.16016356734556891 0 0.26293682869207591 -0.15391070786642169 0 0.27009527632936597 -0.15279308215900331 0 0.26557247671991108 -0.14774187414890411 0 0.26293682869207591 -0.15391070786642169 0 0.27009527632936597 -0.15279308215900331 0 0.27009527632936597 -0.15279308215900331 0 0.27899515764395177 -0.15443660918041571 0 0.27142481771649529 -0.14478242884651979 0 0.27794998204403759 -0.11453953550188679 0 0.27338563510190422 -0.1356944138819183 0 0.27142481771649529 -0.14478242884651979 0 0.27338563510190422 -0.1356944138819183 0 0.27338563510190422 -0.1356944138819183 0 0.30316218715013699 -0.13585617877411299 0 0.29209333803684512 -0.1204183792118467 0 0.27338563510190422 -0.1356944138819183 0 0.30316218715013699 -0.13585617877411299 0 0.27338563510190422 -0.1356944138819183 0 0.28952553314766588 -0.14199879033185039 0 0.30316218715013699 -0.13585617877411299 0 0.27142481771649529 -0.14478242884651979 0 0.28952553314766588 -0.14199879033185039 0 0.28858263695303038 -0.1472851012626637 0 0.28858263695303038 -0.1472851012626637 0 0.30013596324633868 -0.14897029159077979 0 0.28952553314766588 -0.14199879033185039 0 0.28858263695303038 -0.1472851012626637 0 0.30013596324633868 -0.14897029159077979 0 0.28952553314766588 -0.14199879033185039 0 0.28858263695303038 -0.1472851012626637 0 0.28858263695303038 -0.1472851012626637 0 0.30013596324633868 -0.14897029159077979 0 0.29372711844303928 -0.1600295372122347 0 0.30316218715013699 -0.13585617877411299 0 0.30143657678371732 -0.15869874935543771 0 0.30013596324633868 -0.14897029159077979 0 0.30316218715013699 -0.13585617877411299 0 0.30143657678371732 -0.15869874935543771 0 0.30316218715013699 -0.13585617877411299 0 0.30143657678371732 -0.15869874935543771 0 0.31253980123811259 -0.14771969478669131 0 0.30013596324633868 -0.14897029159077979 0 0.29372711844303928 -0.1600295372122347 0 0.30143657678371732 -0.15869874935543771 0 0.30143657678371732 -0.15869874935543771 0 0.31557079919726838 -0.1590044961535387 0 0.31253980123811259 -0.14771969478669131 0 0.28952553314766588 -0.14199879033185039 0 0.30013596324633868 -0.14897029159077979 0 0.30316218715013699 -0.13585617877411299 0 0.30316218715013699 -0.13585617877411299 0 0.31993283661344418 -0.13594728745244961 0 0.31253980123811259 -0.14771969478669131 0 0.30316218715013699 -0.13585617877411299 0 0.31993283661344418 -0.13594728745244961 0 0.28994099481116897 -0.19128490440727269 0 0.28355009790984409 -0.17549983614563519 0 0.29971096641729777 -0.18154131993676231 0 0.28355009790984409 -0.17549983614563519 0 0.29493031732226571 -0.16969370770665679 0 0.29971096641729777 -0.18154131993676231 0 0.27899515764395177 -0.15443660918041571 0 0.28858263695303038 -0.1472851012626637 0 0.28355009790984409 -0.17549983614563519 0 0.28858263695303038 -0.1472851012626637 0 0.28355009790984409 -0.17549983614563519 0 0.28858263695303038 -0.1472851012626637 0 0.28355009790984409 -0.17549983614563519 0 0.29372711844303928 -0.1600295372122347 0 0.29372711844303928 -0.1600295372122347 0 0.29493031732226571 -0.16969370770665679 0 0.30143657678371732 -0.15869874935543771 0 0.28355009790984409 -0.17549983614563519 0 0.29372711844303928 -0.1600295372122347 0 0.29493031732226571 -0.16969370770665679 0 0.30143657678371732 -0.15869874935543771 0 0.29971096641729777 -0.18154131993676231 0 0.30143657678371732 -0.15869874935543771 0 0.30809610970482848 -0.16795036279156811 0 0.29971096641729777 -0.18154131993676231 0 0.29493031732226571 -0.16969370770665679 0 0.30143657678371732 -0.15869874935543771 0 0.29971096641729777 -0.18154131993676231 0 0.30143657678371732 -0.15869874935543771 0 0.30809610970482848 -0.16795036279156811 0 0.31557079919726838 -0.1590044961535387 0 0.29971096641729777 -0.18154131993676231 0 0.31498869866721663 -0.1848028620899877 0 0.3156660964210305 -0.17255688572053399 0 0.30809610970482848 -0.16795036279156811 0 0.29971096641729777 -0.18154131993676231 0 0.3156660964210305 -0.17255688572053399 0 0.30866677822314281 -0.19370433905286669 0 0.29971096641729777 -0.18154131993676231 0 0.31498869866721663 -0.1848028620899877 0 0.32729102930978993 -0.18432716657830939 0 0.3156660964210305 -0.17255688572053399 0 0.33199725769327038 -0.160182781354547 0 0.31498869866721663 -0.1848028620899877 0 0.32729102930978993 -0.18432716657830939 0 0.3156660964210305 -0.17255688572053399 0 0.3156660964210305 -0.17255688572053399 0 0.31557079919726838 -0.1590044961535387 0 0.33199725769327038 -0.160182781354547 0 0.30809610970482848 -0.16795036279156811 0 0.3156660964210305 -0.17255688572053399 0 0.31557079919726838 -0.1590044961535387 0 0.32729102930978993 -0.18432716657830939 0 0.34572674800851178 -0.17666980330527179 0 0.34152908302092871 -0.19789605564194099 0 0.32729102930978993 -0.18432716657830939 0 0.33199725769327038 -0.160182781354547 0 0.34572674800851178 -0.17666980330527179 0 0.32729102930978993 -0.18432716657830939 0 0.33199725769327038 -0.160182781354547 0 0.31854024801571379 -0.1183964408803808 0 0.30316218715013699 -0.13585617877411299 0 0.31993283661344418 -0.13594728745244961 0 0.31993283661344418 -0.13594728745244961 0 0.32334883616376942 -0.1477785311756023 0 0.33670348607675138 -0.13603839613078461 0 0.31854024801571379 -0.1183964408803808 0 0.31993283661344418 -0.13594728745244961 0 0.33718817445421712 -0.13355179710808501 0 0.31854024801571379 -0.1183964408803808 0 0.33718817445421712 -0.13355179710808501 0 0.31557079919726838 -0.1590044961535387 0 0.33199725769327038 -0.160182781354547 0 0.32334883616376942 -0.1477785311756023 0 0.31993283661344418 -0.13594728745244961 0 0.32334883616376942 -0.1477785311756023 0 0.31253980123811259 -0.14771969478669131 0 0.31557079919726838 -0.1590044961535387 0 0.32334883616376942 -0.1477785311756023 0 0.31253980123811259 -0.14771969478669131 0 0.33199725769327038 -0.160182781354547 0 0.34027166502062639 -0.13605778071504529 0 0.33670348607675138 -0.13603839613078461 0 0.33199725769327038 -0.160182781354547 0 0.32334883616376942 -0.1477785311756023 0 0.33670348607675138 -0.13603839613078461 0 0.33199725769327038 -0.160182781354547 0 0.33670348607675138 -0.13603839613078461 0 0.31993283661344418 -0.13594728745244961 0 0.33670348607675138 -0.13603839613078461 0 0.31993283661344418 -0.13594728745244961 0 0.33670348607675138 -0.13603839613078461 0 0.33718817445421712 -0.13355179710808501 0 0.34025414842832208 -0.11782241666052221 0 0.33718817445421712 -0.13355179710808501 0 0.34381162934489939 -0.12854128697128539 0 0.34025414842832208 -0.11782241666052221 0 0.33718817445421712 -0.13355179710808501 0 0.34027166502062639 -0.13605778071504529 0 0.33670348607675138 -0.13603839613078461 0 0.33718817445421712 -0.13355179710808501 0 0.34027166502062639 -0.13605778071504529 0 0.33718817445421712 -0.13355179710808501 0 0.34027166502062639 -0.13605778071504529 0 0.33670348607675138 -0.13603839613078461 0 0.33670348607675138 -0.13603839613078461 0 0.33718817445421712 -0.13355179710808501 0 0.34027166502062639 -0.13605778071504529 0 0.33718817445421712 -0.13355179710808501 0 0.34381162934489939 -0.12854128697128539 0 0.33199725769327038 -0.160182781354547 0 0.34027166502062639 -0.13605778071504529 0 0.36359383050920879 -0.15501193774405861 0 0.35355367174401742 -0.1211945845718113 0 0.34381162934489939 -0.12854128697128539 0 0.34779048707731292 -0.1340798558009649 0 0.34027166502062639 -0.13605778071504529 0 0.34884821061351562 -0.13610437388577321 0 0.35664352332635268 -0.13060513793896061 0 0.34779048707731292 -0.1340798558009649 0 0.34884821061351562 -0.13610437388577321 0 0.34027166502062639 -0.13605778071504529 0 0.34779048707731292 -0.1340798558009649 0 0.34884821061351562 -0.13610437388577321 0 0.34027166502062639 -0.13605778071504529 0 0.34381162934489939 -0.12854128697128539 0 0.34779048707731292 -0.1340798558009649 0 0.35664352332635268 -0.13060513793896061 0 0.34884821061351562 -0.13610437388577321 0 0.36374720336072303 -0.13810563056468389 0 0.34884821061351562 -0.13610437388577321 0 0.36359383050920879 -0.15501193774405861 0 0.36374720336072303 -0.13810563056468389 0 0.34027166502062639 -0.13605778071504529 0 0.36359383050920879 -0.15501193774405861 0 0.34027166502062639 -0.13605778071504529 0 0.34884821061351562 -0.13610437388577321 0 0.36359383050920879 -0.15501193774405861 0 0.36359383050920879 -0.15501193774405861 0 0.36374720336072303 -0.13810563056468389 0 0.37656812491251679 -0.13846106794218549 0 0.3785150876385216 -0.1195111518185689 0 0.36779594019891898 -0.12729788290040461 0 0.37656812491251679 -0.13846106794218549 0 0.36374720336072303 -0.13810563056468389 0 0.36779594019891898 -0.12729788290040461 0 0.37656812491251679 -0.13846106794218549 0 0.35664352332635268 -0.13060513793896061 0 0.36374720336072303 -0.13810563056468389 0 0.36779594019891898 -0.12729788290040461 0 0.33199725769327038 -0.160182781354547 0 0.36359383050920879 -0.15501193774405861 0 0.34572674800851178 -0.17666980330527179 0 0.34572674800851178 -0.17666980330527179 0 0.36422253950936112 -0.1859310752075029 0 0.34152908302092871 -0.19789605564194099 0 0.36359383050920879 -0.15501193774405861 0 0.34572674800851178 -0.17666980330527179 0 0.36422253950936112 -0.1859310752075029 0 0.36359383050920879 -0.15501193774405861 0 0.36422253950936112 -0.1859310752075029 0 0.38691599599779503 -0.1739660947730671 0 0.36422253950936112 -0.1859310752075029 0 0.37220629557919183 -0.19612338441269381 0 0.37910290544765168 -0.18685571494790659 0 0.36422253950936112 -0.1859310752075029 0 0.37220629557919183 -0.19612338441269381 0 0.35685044422528578 -0.20027094664828951 0 0.37220629557919183 -0.19612338441269381 0 0.3556522221671049 -0.2162457527497984 0 0.35685044422528578 -0.20027094664828951 0 0.37220629557919183 -0.19612338441269381 0 0.3556522221671049 -0.2162457527497984 0 0.37273333868611941 -0.2093978965492076 0 0.3556522221671049 -0.2162457527497984 0 0.3731990688381891 -0.2228302363117915 0 0.37220629557919183 -0.19612338441269381 0 0.37273333868611941 -0.2093978965492076 0 0.3556522221671049 -0.2162457527497984 0 0.34913249600123192 -0.20719712371303781 0 0.34152908302092871 -0.19789605564194099 0 0.34144894007629428 -0.2139395960038605 0 0.3556522221671049 -0.2162457527497984 0 0.34913249600123192 -0.20719712371303781 0 0.35685044422528578 -0.20027094664828951 0 0.3556522221671049 -0.2162457527497984 0 0.34913249600123192 -0.20719712371303781 0 0.34144894007629428 -0.2139395960038605 0 0.36422253950936112 -0.1859310752075029 0 0.35685044422528578 -0.20027094664828951 0 0.34152908302092871 -0.19789605564194099 0 0.36422253950936112 -0.1859310752075029 0 0.34152908302092871 -0.19789605564194099 0 0.34913249600123192 -0.20719712371303781 0 0.35685044422528578 -0.20027094664828951 0 0.34152908302092871 -0.19789605564194099 0 0.32729102930978993 -0.18432716657830939 0 0.34152908302092871 -0.19789605564194099 0 0.32289957828838461 -0.19876131457419149 0 0.34152908302092871 -0.19789605564194099 0 0.31883562653249692 -0.20986103607638071 0 0.34152908302092871 -0.19789605564194099 0 0.34144894007629428 -0.2139395960038605 0 0.31883562653249692 -0.20986103607638071 0 0.34144894007629428 -0.2139395960038605 0 0.31883562653249692 -0.20986103607638071 0 0.32331405575278033 -0.23055000204260581 0 0.31883562653249692 -0.20986103607638071 0 0.32289957828838461 -0.19876131457419149 0 0.30817512199612251 -0.208018461664154 0 0.31883562653249692 -0.20986103607638071 0 0.32289957828838461 -0.19876131457419149 0 0.30866677822314281 -0.19370433905286669 0 0.30817512199612251 -0.208018461664154 0 0.32289957828838461 -0.19876131457419149 0 0.34152908302092871 -0.19789605564194099 0 0.31883562653249692 -0.20986103607638071 0 0.32289957828838461 -0.19876131457419149 0 0.30866677822314281 -0.19370433905286669 0 0.31498869866721663 -0.1848028620899877 0 0.32289957828838461 -0.19876131457419149 0 0.31498869866721663 -0.1848028620899877 0 0.32729102930978993 -0.18432716657830939 0 0.32289957828838461 -0.19876131457419149 0 0.30517917142926537 -0.24716040808135001 0 0.32331405575278033 -0.23055000204260581 0 0.30517917142926537 -0.24716040808135001 0 0.32331405575278033 -0.23055000204260581 0 0.322544075342931 -0.25649048942400782 0 0.31200739898088131 -0.22851072207886541 0 0.30517917142926537 -0.24716040808135001 0 0.32331405575278033 -0.23055000204260581 0 0.31200739898088131 -0.22851072207886541 0 0.31883562653249692 -0.20986103607638071 0 0.31200739898088131 -0.22851072207886541 0 0.31883562653249692 -0.20986103607638071 0 0.32331405575278033 -0.23055000204260581 0 0.34144894007629428 -0.2139395960038605 0 0.32331405575278033 -0.23055000204260581 0 0.34144894007629428 -0.2139395960038605 0 0.32331405575278033 -0.23055000204260581 0 0.33909814875501798 -0.23636812108690311 0 0.33909814875501798 -0.23636812108690311 0 0.322544075342931 -0.25649048942400782 0 0.32331405575278033 -0.23055000204260581 0 0.33909814875501798 -0.23636812108690311 0 0.322544075342931 -0.25649048942400782 0 0.33909814875501798 -0.23636812108690311 0 0.35007299243335749 -0.24785688602667111 0 0.33700232267718733 -0.25494009872172468 0 0.33909814875501798 -0.23636812108690311 0 0.322544075342931 -0.25649048942400782 0 0.33700232267718733 -0.25494009872172468 0 0.33909814875501798 -0.23636812108690311 0 0.35007299243335749 -0.24785688602667111 0 0.35471840821638012 -0.232162972911199 0 0.35007299243335749 -0.24785688602667111 0 0.35471840821638012 -0.232162972911199 0 0.36225179838031341 -0.2439392928582107 0 0.35007299243335749 -0.24785688602667111 0 0.36225179838031341 -0.2439392928582107 0 0.36124693131331159 -0.25807728632712912 0 0.3556522221671049 -0.2162457527497984 0 0.33909814875501798 -0.23636812108690311 0 0.3556522221671049 -0.2162457527497984 0 0.33909814875501798 -0.23636812108690311 0 0.35471840821638012 -0.232162972911199 0 0.3556522221671049 -0.2162457527497984 0 0.34144894007629428 -0.2139395960038605 0 0.33909814875501798 -0.23636812108690311 0 0.35471840821638012 -0.232162972911199 0 0.3731990688381891 -0.2228302363117915 0 0.36225179838031341 -0.2439392928582107 0 0.3556522221671049 -0.2162457527497984 0 0.35471840821638012 -0.232162972911199 0 0.3731990688381891 -0.2228302363117915 0 0.3731990688381891 -0.2228302363117915 0 0.36225179838031341 -0.2439392928582107 0 0.3731990688381891 -0.2228302363117915 0 0.36225179838031341 -0.2439392928582107 0 0.38186963046980549 -0.2367879359972051 0 0.36225179838031341 -0.2439392928582107 0 0.38186963046980549 -0.2367879359972051 0 0.37510228513818711 -0.25237727586059511 0 0.38186963046980549 -0.2367879359972051 0 0.39206528024080278 -0.24921397013056479 0 0.37510228513818711 -0.25237727586059511 0 0.39206528024080278 -0.24921397013056479 0 0.40137725565661481 -0.22692044649349019 0 0.4148006158986044 -0.24103970595398019 0 0.39206528024080278 -0.24921397013056479 0 0.4148006158986044 -0.24103970595398019 0 0.40884184876520419 -0.25890250189124958 0 0.38186963046980549 -0.2367879359972051 0 0.39206528024080278 -0.24921397013056479 0 0.40137725565661481 -0.22692044649349019 0 0.40137725565661481 -0.22692044649349019 0 0.39915185452682361 -0.21610044156742811 0 0.41396763236883027 -0.21470461273584779 0 0.40137725565661481 -0.22692044649349019 0 0.38700545273377529 -0.2233412248148075 0 0.39915185452682361 -0.21610044156742811 0 0.38186963046980549 -0.2367879359972051 0 0.40137725565661481 -0.22692044649349019 0 0.38700545273377529 -0.2233412248148075 0 0.3731990688381891 -0.2228302363117915 0 0.38186963046980549 -0.2367879359972051 0 0.38700545273377529 -0.2233412248148075 0 0.3731990688381891 -0.2228302363117915 0 0.38414633929606479 -0.2017211797653724 0 0.37273333868611941 -0.2093978965492076 0 0.3731990688381891 -0.2228302363117915 0 0.38414633929606479 -0.2017211797653724 0 0.3731990688381891 -0.2228302363117915 0 0.38675328488958288 -0.2095276895359276 0 0.38414633929606479 -0.2017211797653724 0 0.3731990688381891 -0.2228302363117915 0 0.38700545273377529 -0.2233412248148075 0 0.38675328488958288 -0.2095276895359276 0 0.38675328488958288 -0.2095276895359276 0 0.38414633929606479 -0.2017211797653724 0 0.39287005569986072 -0.20314648074516001 0 0.38414633929606479 -0.2017211797653724 0 0.38373621375160438 -0.1885238144486111 0 0.39509360975394031 -0.18061212321895309 0 0.38414633929606479 -0.2017211797653724 0 0.39509360975394031 -0.18061212321895309 0 0.37999921147615667 -0.19503406661491049 0 0.38373621375160438 -0.1885238144486111 0 0.37910290544765168 -0.18685571494790659 0 0.37999921147615667 -0.19503406661491049 0 0.38414633929606479 -0.2017211797653724 0 0.38373621375160438 -0.1885238144486111 0 0.37220629557919183 -0.19612338441269381 0 0.37999921147615667 -0.19503406661491049 0 0.37910290544765168 -0.18685571494790659 0 0.37220629557919183 -0.19612338441269381 0 0.37273333868611941 -0.2093978965492076 0 0.38414633929606479 -0.2017211797653724 0 0.37220629557919183 -0.19612338441269381 0 0.37999921147615667 -0.19503406661491049 0 0.38414633929606479 -0.2017211797653724 0 0.38414633929606479 -0.2017211797653724 0 0.39694758591794982 -0.18886739411602391 0 0.39509360975394031 -0.18061212321895309 0 0.39694758591794982 -0.18886739411602391 0 0.3969424320709618 -0.1972324897541754 0 0.40101572763622523 -0.19231380306325679 0 0.38414633929606479 -0.2017211797653724 0 0.39694758591794982 -0.18886739411602391 0 0.3969424320709618 -0.1972324897541754 0 0.38414633929606479 -0.2017211797653724 0 0.3969424320709618 -0.1972324897541754 0 0.39287005569986072 -0.20314648074516001 0 0.3969424320709618 -0.1972324897541754 0 0.400612395600416 -0.20053006859666331 0 0.39287005569986072 -0.20314648074516001 0 0.3969424320709618 -0.1972324897541754 0 0.4059814476455269 -0.19573306963025069 0 0.400612395600416 -0.20053006859666331 0 0.4059814476455269 -0.19573306963025069 0 0.400612395600416 -0.20053006859666331 0 0.40665564698531481 -0.2060082342570673 0 0.3969424320709618 -0.1972324897541754 0 0.4059814476455269 -0.19573306963025069 0 0.40101572763622523 -0.19231380306325679 0 0.4059814476455269 -0.19573306963025069 0 0.40101572763622523 -0.19231380306325679 0 0.40419144491046238 -0.1874222587525772 0 0.39694758591794982 -0.18886739411602391 0 0.40101572763622523 -0.19231380306325679 0 0.40419144491046238 -0.1874222587525772 0 0.38675328488958288 -0.2095276895359276 0 0.40665564698531481 -0.2060082342570673 0 0.38675328488958288 -0.2095276895359276 0 0.39915185452682361 -0.21610044156742811 0 0.40665564698531481 -0.2060082342570673 0 0.38675328488958288 -0.2095276895359276 0 0.39287005569986072 -0.20314648074516001 0 0.40665564698531481 -0.2060082342570673 0 0.38700545273377529 -0.2233412248148075 0 0.38675328488958288 -0.2095276895359276 0 0.39915185452682361 -0.21610044156742811 0 0.400612395600416 -0.20053006859666331 0 0.39287005569986072 -0.20314648074516001 0 0.40665564698531481 -0.2060082342570673 0 0.41396763236883027 -0.21470461273584779 0 0.40665564698531481 -0.2060082342570673 0 0.42655800908104652 -0.20248877897820619 0 0.40665564698531481 -0.2060082342570673 0 0.42655800908104652 -0.20248877897820619 0 0.39915185452682361 -0.21610044156742811 0 0.41396763236883027 -0.21470461273584779 0 0.40665564698531481 -0.2060082342570673 0 0.41396763236883027 -0.21470461273584779 0 0.42655800908104652 -0.20248877897820619 0 0.40665564698531481 -0.2060082342570673 0 0.41640017291144837 -0.19588579121564459 0 0.42655800908104652 -0.20248877897820619 0 0.4059814476455269 -0.19573306963025069 0 0.41640017291144837 -0.19588579121564459 0 0.41453364601533049 -0.1862870086825022 0 0.4059814476455269 -0.19573306963025069 0 0.40419144491046238 -0.1874222587525772 0 0.41453364601533049 -0.1862870086825022 0 0.4059814476455269 -0.19573306963025069 0 0.40665564698531481 -0.2060082342570673 0 0.41640017291144837 -0.19588579121564459 0 0.41640017291144837 -0.19588579121564459 0 0.42581299264578848 -0.18832250896932939 0 0.41453364601533049 -0.1862870086825022 0 0.42655800908104652 -0.20248877897820619 0 0.444302871767289 -0.18527179670816579 0 0.42581299264578848 -0.18832250896932939 0 0.42655800908104652 -0.20248877897820619 0 0.444302871767289 -0.18527179670816579 0 0.41640017291144837 -0.19588579121564459 0 0.42581299264578848 -0.18832250896932939 0 0.42655800908104652 -0.20248877897820619 0 0.42655800908104652 -0.20248877897820619 0 0.43237997939727391 -0.21969514264188619 0 0.44995934289594253 -0.19835057932979169 0 0.41396763236883027 -0.21470461273584779 0 0.42655800908104652 -0.20248877897820619 0 0.43237997939727391 -0.21969514264188619 0 0.43237997939727391 -0.21969514264188619 0 0.43199948472716282 -0.23703470349933331 0 0.4148006158986044 -0.24103970595398019 0 0.43237997939727391 -0.21969514264188619 0 0.4148006158986044 -0.24103970595398019 0 0.43199948472716282 -0.23703470349933331 0 0.4148006158986044 -0.24103970595398019 0 0.42892204251950339 -0.2594807324876427 0 0.43199948472716282 -0.23703470349933331 0 0.44338493428344739 -0.24574379201886831 0 0.42892204251950339 -0.2594807324876427 0 0.43237997939727391 -0.21969514264188619 0 0.4148006158986044 -0.24103970595398019 0 0.41563137083033092 -0.22558997695630109 0 0.41396763236883027 -0.21470461273584779 0 0.43237997939727391 -0.21969514264188619 0 0.41563137083033092 -0.22558997695630109 0 0.40137725565661481 -0.22692044649349019 0 0.4148006158986044 -0.24103970595398019 0 0.41563137083033092 -0.22558997695630109 0 0.40137725565661481 -0.22692044649349019 0 0.41396763236883027 -0.21470461273584779 0 0.40137725565661481 -0.22692044649349019 0 0.41396763236883027 -0.21470461273584779 0 0.41563137083033092 -0.22558997695630109 0 0.39237070121405998 -0.13164091544729051 0 0.39988799210863701 -0.14408364481314989 0 0.41368108829086198 -0.13554811058748131 0 0.40604313277712428 -0.1171380761358455 0 0.39237070121405998 -0.13164091544729051 0 0.41368108829086198 -0.13554811058748131 0 0.39237070121405998 -0.13164091544729051 0 0.37656812491251679 -0.13846106794218549 0 0.38605620033535121 -0.1499684147877679 0 0.3785150876385216 -0.1195111518185689 0 0.39237070121405998 -0.13164091544729051 0 0.37656812491251679 -0.13846106794218549 0 0.36359383050920879 -0.15501193774405861 0 0.37656812491251679 -0.13846106794218549 0 0.38605620033535121 -0.1499684147877679 0 0.39237070121405998 -0.13164091544729051 0 0.38605620033535121 -0.1499684147877679 0 0.39988799210863701 -0.14408364481314989 0 0.38605620033535121 -0.1499684147877679 0 0.39988799210863701 -0.14408364481314989 0 0.39700055726989097 -0.15664682800685811 0 0.39988799210863701 -0.14408364481314989 0 0.39700055726989097 -0.15664682800685811 0 0.40766935758353628 -0.1563629578155839 0 0.40291487034120532 -0.16553079014728059 0 0.39700055726989097 -0.15664682800685811 0 0.38691599599779503 -0.1739660947730671 0 0.40291487034120532 -0.16553079014728059 0 0.38691599599779503 -0.1739660947730671 0 0.40291487034120532 -0.16553079014728059 0 0.39700055726989097 -0.15664682800685811 0 0.40766935758353628 -0.1563629578155839 0 0.40291487034120532 -0.16553079014728059 0 0.40766935758353628 -0.1563629578155839 0 0.38605620033535121 -0.1499684147877679 0 0.39700055726989097 -0.15664682800685811 0 0.38691599599779503 -0.1739660947730671 0 0.36359383050920879 -0.15501193774405861 0 0.38691599599779503 -0.1739660947730671 0 0.36359383050920879 -0.15501193774405861 0 0.38605620033535121 -0.1499684147877679 0 0.38691599599779503 -0.1739660947730671 0 0.36422253950936112 -0.1859310752075029 0 0.38691599599779503 -0.1739660947730671 0 0.37910290544765168 -0.18685571494790659 0 0.36422253950936112 -0.1859310752075029 0 0.38691599599779503 -0.1739660947730671 0 0.38691599599779503 -0.1739660947730671 0 0.38753717637180268 -0.18155585423065651 0 0.39509360975394031 -0.18061212321895309 0 0.38373621375160438 -0.1885238144486111 0 0.38753717637180268 -0.18155585423065651 0 0.39509360975394031 -0.18061212321895309 0 0.38691599599779503 -0.1739660947730671 0 0.37910290544765168 -0.18685571494790659 0 0.38753717637180268 -0.18155585423065651 0 0.38373621375160438 -0.1885238144486111 0 0.37910290544765168 -0.18685571494790659 0 0.38753717637180268 -0.18155585423065651 0 0.40291487034120532 -0.16553079014728059 0 0.38691599599779503 -0.1739660947730671 0 0.39509360975394031 -0.18061212321895309 0 0.39694758591794982 -0.18886739411602391 0 0.39665445354372708 -0.18451779314135289 0 0.39509360975394031 -0.18061212321895309 0 0.39694758591794982 -0.18886739411602391 0 0.39665445354372708 -0.18451779314135289 0 0.40021252966215071 -0.18382207331845951 0 0.39665445354372708 -0.18451779314135289 0 0.39509360975394031 -0.18061212321895309 0 0.40021252966215071 -0.18382207331845951 0 0.38691599599779503 -0.1739660947730671 0 0.39509360975394031 -0.18061212321895309 0 0.40291487034120532 -0.16553079014728059 0 0.39509360975394031 -0.18061212321895309 0 0.40549068313545528 -0.17742909809594989 0 0.40291487034120532 -0.16553079014728059 0 0.39509360975394031 -0.18061212321895309 0 0.40549068313545528 -0.17742909809594989 0 0.40419144491046238 -0.1874222587525772 0 0.40021252966215071 -0.18382207331845951 0 0.39509360975394031 -0.18061212321895309 0 0.40549068313545528 -0.17742909809594989 0 0.40021252966215071 -0.18382207331845951 0 0.39694758591794982 -0.18886739411602391 0 0.40419144491046238 -0.1874222587525772 0 0.40021252966215071 -0.18382207331845951 0 0.42581299264578848 -0.18832250896932939 0 0.41453364601533049 -0.1862870086825022 0 0.42235201908535791 -0.17050045814039369 0 0.40549068313545528 -0.17742909809594989 0 0.41453364601533049 -0.1862870086825022 0 0.42235201908535791 -0.17050045814039369 0 0.40549068313545528 -0.17742909809594989 0 0.40419144491046238 -0.1874222587525772 0 0.41453364601533049 -0.1862870086825022 0 0.42235201908535791 -0.17050045814039369 0 0.44127751826325029 -0.16493106072254701 0 0.444302871767289 -0.18527179670816579 0 0.42581299264578848 -0.18832250896932939 0 0.42235201908535791 -0.17050045814039369 0 0.444302871767289 -0.18527179670816579 0 0.42235201908535791 -0.17050045814039369 0 0.42606808286872072 -0.1533234062687002 0 0.44127751826325029 -0.16493106072254701 0 0.40291487034120532 -0.16553079014728059 0 0.40766935758353628 -0.1563629578155839 0 0.42606808286872072 -0.1533234062687002 0 0.40291487034120532 -0.16553079014728059 0 0.42606808286872072 -0.1533234062687002 0 0.40291487034120532 -0.16553079014728059 0 0.42235201908535791 -0.17050045814039369 0 0.42606808286872072 -0.1533234062687002 0 0.40291487034120532 -0.16553079014728059 0 0.40549068313545528 -0.17742909809594989 0 0.42235201908535791 -0.17050045814039369 0 0.41182663021293903 -0.1473295298712288 0 0.42606808286872072 -0.1533234062687002 0 0.41368108829086198 -0.13554811058748131 0 0.40766935758353628 -0.1563629578155839 0 0.41182663021293903 -0.1473295298712288 0 0.42606808286872072 -0.1533234062687002 0 0.39988799210863701 -0.14408364481314989 0 0.40766935758353628 -0.1563629578155839 0 0.41182663021293903 -0.1473295298712288 0 0.39988799210863701 -0.14408364481314989 0 0.41182663021293903 -0.1473295298712288 0 0.41368108829086198 -0.13554811058748131 0 0.42606808286872072 -0.1533234062687002 0 0.430889964195386 -0.135117951771525 0 0.44922129539623712 -0.14111602239012119 0 0.42606808286872072 -0.1533234062687002 0 0.430889964195386 -0.135117951771525 0 0.41368108829086198 -0.13554811058748131 0 0.42080162445294911 -0.1170697999396166 0 0.430889964195386 -0.135117951771525 0 0.41368108829086198 -0.13554811058748131 0 0.45825176112352212 -0.1171944005084963 0 0.44922129539623712 -0.14111602239012119 0 0.47461064769812122 -0.12772964805397971 0 0.44922129539623712 -0.14111602239012119 0 0.47461064769812122 -0.12772964805397971 0 0.44922129539623712 -0.14111602239012119 0 0.47041229806123103 -0.14236165737458781 0 0.47461064769812122 -0.12772964805397971 0 0.43893170590200609 -0.1195052611799315 0 0.430889964195386 -0.135117951771525 0 0.44922129539623712 -0.14111602239012119 0 0.43893170590200609 -0.1195052611799315 0 0.45825176112352212 -0.1171944005084963 0 0.44922129539623712 -0.14111602239012119 0 0.43893170590200609 -0.1195052611799315 0 0.44922129539623712 -0.14111602239012119 0 0.42606808286872072 -0.1533234062687002 0 0.44922129539623712 -0.14111602239012119 0 0.44127751826325029 -0.16493106072254701 0 0.42606808286872072 -0.1533234062687002 0 0.44922129539623712 -0.14111602239012119 0 0.44922129539623712 -0.14111602239012119 0 0.46204773445353348 -0.16805481443812731 0 0.44922129539623712 -0.14111602239012119 0 0.46204773445353348 -0.16805481443812731 0 0.47041229806123103 -0.14236165737458781 0 0.44922129539623712 -0.14111602239012119 0 0.46204773445353348 -0.16805481443812731 0 0.44127751826325029 -0.16493106072254701 0 0.46204773445353348 -0.16805481443812731 0 0.44127751826325029 -0.16493106072254701 0 0.444302871767289 -0.18527179670816579 0 0.46204773445353348 -0.16805481443812731 0 0.444302871767289 -0.18527179670816579 0 0.46675991992270621 -0.1779516052682695 0 0.47013600328087812 -0.185042241033678 0 0.44995934289594253 -0.19835057932979169 0 0.444302871767289 -0.18527179670816579 0 0.46675991992270621 -0.1779516052682695 0 0.44995934289594253 -0.19835057932979169 0 0.46204773445353348 -0.16805481443812731 0 0.444302871767289 -0.18527179670816579 0 0.46675991992270621 -0.1779516052682695 0 0.46204773445353348 -0.16805481443812731 0 0.46675991992270621 -0.1779516052682695 0 0.46675991992270621 -0.1779516052682695 0 0.47013600328087812 -0.185042241033678 0 0.46675991992270621 -0.1779516052682695 0 0.48388214138120561 -0.17390417728894431 0 0.47927416581767118 -0.18397687174081401 0 0.46675991992270621 -0.1779516052682695 0 0.47013600328087812 -0.185042241033678 0 0.47927416581767118 -0.18397687174081401 0 0.48388214138120561 -0.17390417728894431 0 0.47927416581767118 -0.18397687174081401 0 0.48987334582395858 -0.18140433091368091 0 0.48987334582395858 -0.18140433091368091 0 0.5 -0.16492372169971509 0 0.5 -0.19225537639104809 0 0.48388214138120561 -0.17390417728894431 0 0.48987334582395858 -0.18140433091368091 0 0.5 -0.16492372169971509 0 0.47927416581767118 -0.18397687174081401 0 0.48987334582395858 -0.18140433091368091 0 0.48552241192915191 -0.19206174635411891 0 0.48388214138120561 -0.17390417728894431 0 0.5 -0.16492372169971509 0 0.48337995996135552 -0.1577718361383266 0 0.46675991992270621 -0.1779516052682695 0 0.48388214138120561 -0.17390417728894431 0 0.48337995996135552 -0.1577718361383266 0 0.46204773445353348 -0.16805481443812731 0 0.46675991992270621 -0.1779516052682695 0 0.48337995996135552 -0.1577718361383266 0 0.46204773445353348 -0.16805481443812731 0 0.48337995996135552 -0.1577718361383266 0 0.47713463147989749 -0.15341672773068571 0 0.46675991992270621 -0.1779516052682695 0 0.48337995996135552 -0.1577718361383266 0 0.46204773445353348 -0.16805481443812731 0 0.47713463147989749 -0.15341672773068571 0 0.46204773445353348 -0.16805481443812731 0 0.47041229806123103 -0.14236165737458781 0 0.47713463147989749 -0.15341672773068571 0 0.48337995996135552 -0.1577718361383266 0 0.47713463147989749 -0.15341672773068571 0 0.48456351921585428 -0.1397192317593817 0 0.47041229806123103 -0.14236165737458781 0 0.47713463147989749 -0.15341672773068571 0 0.48456351921585428 -0.1397192317593817 0 0.48337995996135552 -0.1577718361383266 0 0.50000000000000311 -0.1375920670083822 0 0.48456351921585428 -0.1397192317593817 0 0.5 -0.16492372169971509 0 0.48337995996135552 -0.1577718361383266 0 0.50000000000000311 -0.1375920670083822 0 0.48337995996135552 -0.1577718361383266 0 0.50000000000000311 -0.1375920670083822 0 0.50000000000000433 -0.1143432737178363 0 0.50000000000000311 -0.1375920670083822 0 0.48456351921585428 -0.1397192317593817 0 0.50000000000000433 -0.1143432737178363 0 0.48456351921585428 -0.1397192317593817 0 0.47461064769812122 -0.12772964805397971 0 0.47041229806123103 -0.14236165737458781 0 0.48456351921585428 -0.1397192317593817 0 0.47461064769812122 -0.12772964805397971 0 0.46695018322910392 -0.22473955239466681 0 0.44975785303280541 -0.2255898949688982 0 0.46528918090086291 -0.2095084705765255 0 0.46695018322910392 -0.22473955239466681 0 0.46086119099944728 -0.24298014516654151 0 0.44975785303280541 -0.2255898949688982 0 0.46086119099944728 -0.24298014516654151 0 0.44338493428344739 -0.24574379201886831 0 0.44975785303280541 -0.2255898949688982 0 0.43199948472716282 -0.23703470349933331 0 0.44338493428344739 -0.24574379201886831 0 0.44975785303280541 -0.2255898949688982 0 0.46086119099944728 -0.24298014516654151 0 0.44338493428344739 -0.24574379201886831 0 0.45165913482636821 -0.26068325523694041 0 0.43237997939727391 -0.21969514264188619 0 0.43199948472716282 -0.23703470349933331 0 0.44975785303280541 -0.2255898949688982 0 0.43237997939727391 -0.21969514264188619 0 0.44975785303280541 -0.2255898949688982 0 0.44995934289594253 -0.19835057932979169 0 0.43237997939727391 -0.21969514264188619 0 0.44995934289594253 -0.19835057932979169 0 0.42655800908104652 -0.20248877897820619 0 0.444302871767289 -0.18527179670816579 0 0.44995934289594253 -0.19835057932979169 0 0.42655800908104652 -0.20248877897820619 0 0.44995934289594253 -0.19835057932979169 0 0.46675991992270621 -0.1779516052682695 0 0.44995934289594253 -0.19835057932979169 0 0.44995934289594253 -0.19835057932979169 0 0.46774087741254722 -0.19520616284195491 0 0.47013600328087812 -0.185042241033678 0 0.44995934289594253 -0.19835057932979169 0 0.46774087741254722 -0.19520616284195491 0 0.44995934289594253 -0.19835057932979169 0 0.46774087741254722 -0.19520616284195491 0 0.46528918090086291 -0.2095084705765255 0 0.44975785303280541 -0.2255898949688982 0 0.44995934289594253 -0.19835057932979169 0 0.46528918090086291 -0.2095084705765255 0 0.46695018322910392 -0.22473955239466681 0 0.46528918090086291 -0.2095084705765255 0 0.48029579162163721 -0.21558854579597769 0 0.46528918090086291 -0.2095084705765255 0 0.47801733861628259 -0.20339364304417529 0 0.48029579162163721 -0.21558854579597769 0 0.47801733861628259 -0.20339364304417529 0 0.48029579162163721 -0.21558854579597769 0 0.48876710843341442 -0.20457726853354019 0 0.46774087741254722 -0.19520616284195491 0 0.47801733861628259 -0.20339364304417529 0 0.48552241192915191 -0.19206174635411891 0 0.47927416581767118 -0.18397687174081401 0 0.46774087741254722 -0.19520616284195491 0 0.48552241192915191 -0.19206174635411891 0 0.46774087741254722 -0.19520616284195491 0 0.48552241192915191 -0.19206174635411891 0 0.47013600328087812 -0.185042241033678 0 0.47927416581767118 -0.18397687174081401 0 0.46774087741254722 -0.19520616284195491 0 0.46774087741254722 -0.19520616284195491 0 0.46528918090086291 -0.2095084705765255 0 0.47801733861628259 -0.20339364304417529 0 0.47801733861628259 -0.20339364304417529 0 0.48552241192915191 -0.19206174635411891 0 0.48876710843341442 -0.20457726853354019 0 0.48987334582395858 -0.18140433091368091 0 0.48552241192915191 -0.19206174635411891 0 0.5 -0.19225537639104809 0 0.48552241192915191 -0.19206174635411891 0 0.5 -0.19225537639104809 0 0.48876710843341442 -0.20457726853354019 0 0.5 -0.19225537639104809 0 0.48876710843341442 -0.20457726853354019 0 0.5 -0.21958703108238101 0 0.48029579162163721 -0.21558854579597769 0 0.48876710843341442 -0.20457726853354019 0 0.5 -0.21958703108238101 0 0.5 -0.21958703108238101 0 0.48033598971293961 -0.23536730169414519 0 0.5 -0.24691868577371379 0 0.48029579162163721 -0.21558854579597769 0 0.5 -0.21958703108238101 0 0.48033598971293961 -0.23536730169414519 0 0.46695018322910392 -0.22473955239466681 0 0.46086119099944728 -0.24298014516654151 0 0.48033598971293961 -0.23536730169414519 0 0.46695018322910392 -0.22473955239466681 0 0.48029579162163721 -0.21558854579597769 0 0.48033598971293961 -0.23536730169414519 0 0.46086119099944728 -0.24298014516654151 0 0.48033598971293961 -0.23536730169414519 0 0.47450143065275591 -0.2599846894272051 0 0.48033598971293961 -0.23536730169414519 0 0.5 -0.24691868577371379 0 0.47450143065275591 -0.2599846894272051 0 0.5 -0.24691868577371379 0 0.50000000000000222 -0.27425034046504659 0 0.47450143065275591 -0.2599846894272051 0 0.50000000000000222 -0.27425034046504659 0 0.47605513413645029 -0.28008102786359129 0 0.47450143065275591 -0.2599846894272051 0 0.47605513413645029 -0.28008102786359129 0 0.47450143065275591 -0.2599846894272051 0 0.45931845050930209 -0.27772900618102819 0 0.46086119099944728 -0.24298014516654151 0 0.47450143065275591 -0.2599846894272051 0 0.45165913482636821 -0.26068325523694041 0 0.47450143065275591 -0.2599846894272051 0 0.45931845050930209 -0.27772900618102819 0 0.45165913482636821 -0.26068325523694041 0 0.45931845050930209 -0.27772900618102819 0 0.44355941821905998 -0.27577600561597132 0 0.45165913482636821 -0.26068325523694041 0 0.44338493428344739 -0.24574379201886831 0 0.45165913482636821 -0.26068325523694041 0 0.42892204251950339 -0.2594807324876427 0 0.44355941821905998 -0.27577600561597132 0 0.45165913482636821 -0.26068325523694041 0 0.42892204251950339 -0.2594807324876427 0 0.44743457629936911 -0.29125199491084608 0 0.45088585771739531 -0.31517042999936162 0 0.43686388954492023 -0.30206384222820981 0 0.45088585771739531 -0.31517042999936162 0 0.43602078127065758 -0.31524868357114688 0 0.43686388954492023 -0.30206384222820981 0 0.45931845050930209 -0.27772900618102819 0 0.44355941821905998 -0.27577600561597132 0 0.44743457629936911 -0.29125199491084608 0 0.44355941821905998 -0.27577600561597132 0 0.44743457629936911 -0.29125199491084608 0 0.42611848489587972 -0.28658767974219163 0 0.47605513413645029 -0.28008102786359129 0 0.45931845050930209 -0.27772900618102819 0 0.46516191830632447 -0.295844547827811 0 0.45931845050930209 -0.27772900618102819 0 0.44743457629936911 -0.29125199491084608 0 0.46516191830632447 -0.295844547827811 0 0.44743457629936911 -0.29125199491084608 0 0.46516191830632447 -0.295844547827811 0 0.45088585771739531 -0.31517042999936162 0 0.46516191830632447 -0.295844547827811 0 0.47218478901913252 -0.31616939882945228 0 0.45088585771739531 -0.31517042999936162 0 0.4860923945095682 -0.29520986964724988 0 0.47218478901913252 -0.31616939882945228 0 0.50000000000000222 -0.27425034046504659 0 0.4860923945095682 -0.29520986964724988 0 0.5 -0.307151228172029 0 0.46516191830632447 -0.295844547827811 0 0.4860923945095682 -0.29520986964724988 0 0.47218478901913252 -0.31616939882945228 0 0.47605513413645029 -0.28008102786359129 0 0.46516191830632447 -0.295844547827811 0 0.4860923945095682 -0.29520986964724988 0 0.50000000000000222 -0.27425034046504659 0 0.47605513413645029 -0.28008102786359129 0 0.4860923945095682 -0.29520986964724988 0 0.50000000000000222 -0.27425034046504659 0 0.4860923945095682 -0.29520986964724988 0 0.4860923945095682 -0.29520986964724988 0 0.5 -0.307151228172029 0 0.47218478901913252 -0.31616939882945228 0 0.5 -0.307151228172029 0 0.47500442815187882 -0.33618410333150461 0 0.5 -0.35237408365171952 0 0.5 -0.307151228172029 0 0.47500442815187882 -0.33618410333150461 0 0.47218478901913252 -0.31616939882945228 0 0.47500442815187882 -0.33618410333150461 0 0.5 -0.35237408365171952 0 0.46252966193221051 -0.36479181955861489 0 0.5 -0.35237408365171952 0 0.46252966193221051 -0.36479181955861489 0 0.4680243894331878 -0.39009447735167219 0 0.46252966193221051 -0.36479181955861489 0 0.44439653888602387 -0.37108278870097211 0 0.45518384933885458 -0.37953704158418422 0 0.46252966193221051 -0.36479181955861489 0 0.4490308344886651 -0.35295870566956811 0 0.45703493443123322 -0.33948916176555749 0 0.47500442815187882 -0.33618410333150461 0 0.46252966193221051 -0.36479181955861489 0 0.45703493443123322 -0.33948916176555749 0 0.46252966193221051 -0.36479181955861489 0 0.45703493443123322 -0.33948916176555749 0 0.4490308344886651 -0.35295870566956811 0 0.44439653888602387 -0.37108278870097211 0 0.43547581015886039 -0.35374612963373181 0 0.44432011104097457 -0.34600420025309703 0 0.4490308344886651 -0.35295870566956811 0 0.45042795048268808 -0.34263813410543531 0 0.4490308344886651 -0.35295870566956811 0 0.45703493443123322 -0.33948916176555749 0 0.45042795048268808 -0.34263813410543531 0 0.44432011104097457 -0.34600420025309703 0 0.4490308344886651 -0.35295870566956811 0 0.43547581015886039 -0.35374612963373181 0 0.44432011104097457 -0.34600420025309703 0 0.43877314986606192 -0.33818418946214152 0 0.43547581015886039 -0.35374612963373181 0 0.46252966193221051 -0.36479181955861489 0 0.4490308344886651 -0.35295870566956811 0 0.44439653888602387 -0.37108278870097211 0 0.47218478901913252 -0.31616939882945228 0 0.45845081404400378 -0.32484725803309861 0 0.45088585771739531 -0.31517042999936162 0 0.47218478901913252 -0.31616939882945228 0 0.45845081404400378 -0.32484725803309861 0 0.45827718352869679 -0.33712892801165451 0 0.47218478901913252 -0.31616939882945228 0 0.45827718352869679 -0.33712892801165451 0 0.45845081404400378 -0.32484725803309861 0 0.45465012105844921 -0.33200612518688721 0 0.44755831468875862 -0.32470483606049327 0 0.47500442815187882 -0.33618410333150461 0 0.45703493443123322 -0.33948916176555749 0 0.45827718352869679 -0.33712892801165451 0 0.47500442815187882 -0.33618410333150461 0 0.47218478901913252 -0.31616939882945228 0 0.45827718352869679 -0.33712892801165451 0 0.45703493443123322 -0.33948916176555749 0 0.4547926195999189 -0.33699511694280199 0 0.45042795048268808 -0.34263813410543531 0 0.45703493443123322 -0.33948916176555749 0 0.45827718352869679 -0.33712892801165451 0 0.4547926195999189 -0.33699511694280199 0 0.45845081404400378 -0.32484725803309861 0 0.45827718352869679 -0.33712892801165451 0 0.45465012105844921 -0.33200612518688721 0 0.4547926195999189 -0.33699511694280199 0 0.45465012105844921 -0.33200612518688721 0 0.45190540097192972 -0.33615439765103378 0 0.45827718352869679 -0.33712892801165451 0 0.4547926195999189 -0.33699511694280199 0 0.45465012105844921 -0.33200612518688721 0 0.45465012105844921 -0.33200612518688721 0 0.44749393872662357 -0.33307274595813069 0 0.44755831468875862 -0.32470483606049327 0 0.45465012105844921 -0.33200612518688721 0 0.44749393872662357 -0.33307274595813069 0 0.45190540097192972 -0.33615439765103378 0 0.4547926195999189 -0.33699511694280199 0 0.45042795048268808 -0.34263813410543531 0 0.45190540097192972 -0.33615439765103378 0 0.45042795048268808 -0.34263813410543531 0 0.45190540097192972 -0.33615439765103378 0 0.44691761172297523 -0.33872250108465612 0 0.44749393872662357 -0.33307274595813069 0 0.45190540097192972 -0.33615439765103378 0 0.44691761172297523 -0.33872250108465612 0 0.44432011104097457 -0.34600420025309703 0 0.45042795048268808 -0.34263813410543531 0 0.44691761172297523 -0.33872250108465612 0 0.44432011104097457 -0.34600420025309703 0 0.44691761172297523 -0.33872250108465612 0 0.43877314986606192 -0.33818418946214152 0 0.44749393872662357 -0.33307274595813069 0 0.44691761172297523 -0.33872250108465612 0 0.43877314986606192 -0.33818418946214152 0 0.44749393872662357 -0.33307274595813069 0 0.43877314986606192 -0.33818418946214152 0 0.43784837531542259 -0.32788377361433518 0 0.44749393872662357 -0.33307274595813069 0 0.43784837531542259 -0.32788377361433518 0 0.44755831468875862 -0.32470483606049327 0 0.43784837531542259 -0.32788377361433518 0 0.44755831468875862 -0.32470483606049327 0 0.43602078127065758 -0.31524868357114688 0 0.45845081404400378 -0.32484725803309861 0 0.44755831468875862 -0.32470483606049327 0 0.45088585771739531 -0.31517042999936162 0 0.44755831468875862 -0.32470483606049327 0 0.45088585771739531 -0.31517042999936162 0 0.43602078127065758 -0.31524868357114688 0 0.43784837531542259 -0.32788377361433518 0 0.42583518759170652 -0.33528639298719382 0 0.41775460495295358 -0.31793141321765611 0 0.43784837531542259 -0.32788377361433518 0 0.43602078127065758 -0.31524868357114688 0 0.41775460495295358 -0.31793141321765611 0 0.43877314986606192 -0.33818418946214152 0 0.43784837531542259 -0.32788377361433518 0 0.42583518759170652 -0.33528639298719382 0 0.43877314986606192 -0.33818418946214152 0 0.42583518759170652 -0.33528639298719382 0 0.43547581015886039 -0.35374612963373181 0 0.41250416259223432 -0.33960725990233392 0 0.41775460495295358 -0.31793141321765611 0 0.39805431729583179 -0.33510365622952631 0 0.41250416259223432 -0.33960725990233392 0 0.41775460495295358 -0.31793141321765611 0 0.42583518759170652 -0.33528639298719382 0 0.41250416259223432 -0.33960725990233392 0 0.41775460495295358 -0.31793141321765611 0 0.42583518759170652 -0.33528639298719382 0 0.41250416259223432 -0.33960725990233392 0 0.42034794007649889 -0.35298104146800569 0 0.43547581015886039 -0.35374612963373181 0 0.42034794007649889 -0.35298104146800569 0 0.42578668388574042 -0.37577956855813549 0 0.44439653888602387 -0.37108278870097211 0 0.43547581015886039 -0.35374612963373181 0 0.42578668388574042 -0.37577956855813549 0 0.42583518759170652 -0.33528639298719382 0 0.43547581015886039 -0.35374612963373181 0 0.42034794007649889 -0.35298104146800569 0 0.41250416259223432 -0.33960725990233392 0 0.42034794007649889 -0.35298104146800569 0 0.40725372023151529 -0.36128310658701179 0 0.41250416259223432 -0.33960725990233392 0 0.40725372023151529 -0.36128310658701179 0 0.40725372023151529 -0.36128310658701179 0 0.42578668388574042 -0.37577956855813549 0 0.40193856510946419 -0.3832261124550107 0 0.40725372023151529 -0.36128310658701179 0 0.42578668388574042 -0.37577956855813549 0 0.42034794007649889 -0.35298104146800569 0 0.40725372023151529 -0.36128310658701179 0 0.42578668388574042 -0.37577956855813549 0 0.40725372023151529 -0.36128310658701179 0 0.39425043507280438 -0.36432915978129837 0 0.40193856510946419 -0.3832261124550107 0 0.40725372023151529 -0.36128310658701179 0 0.40193856510946419 -0.3832261124550107 0 0.39425043507280438 -0.36432915978129837 0 0.38081427771294768 -0.36737052156009248 0 0.40193856510946419 -0.3832261124550107 0 0.40725372023151529 -0.36128310658701179 0 0.38699517723729038 -0.34543689852307891 0 0.39805431729583179 -0.33510365622952631 0 0.40725372023151529 -0.36128310658701179 0 0.39425043507280438 -0.36432915978129837 0 0.38699517723729038 -0.34543689852307891 0 0.40725372023151529 -0.36128310658701179 0 0.38699517723729038 -0.34543689852307891 0 0.41250416259223432 -0.33960725990233392 0 0.40725372023151529 -0.36128310658701179 0 0.39805431729583179 -0.33510365622952631 0 0.38699517723729038 -0.34543689852307891 0 0.38081427771294768 -0.36737052156009248 0 0.37640125955739012 -0.35149107478397351 0 0.38465179156333151 -0.34360390505586791 0 0.36805061276354478 -0.3427907498460791 0 0.39425043507280438 -0.36432915978129837 0 0.38699517723729038 -0.34543689852307891 0 0.38081427771294768 -0.36737052156009248 0 0.38699517723729038 -0.34543689852307891 0 0.37640125955739012 -0.35149107478397351 0 0.38081427771294768 -0.36737052156009248 0 0.38699517723729038 -0.34543689852307891 0 0.38465179156333151 -0.34360390505586791 0 0.38699517723729038 -0.34543689852307891 0 0.37640125955739012 -0.35149107478397351 0 0.38465179156333151 -0.34360390505586791 0 0.41775460495295358 -0.31793141321765611 0 0.39401776620237461 -0.32051644503610022 0 0.39805431729583179 -0.33510365622952631 0 0.38699517723729038 -0.34543689852307891 0 0.39401776620237461 -0.32051644503610022 0 0.39805431729583179 -0.33510365622952631 0 0.38699517723729038 -0.34543689852307891 0 0.39401776620237461 -0.32051644503610022 0 0.38465179156333151 -0.34360390505586791 0 0.37858644206980091 -0.32769985780377792 0 0.36805061276354478 -0.3427907498460791 0 0.38699517723729038 -0.34543689852307891 0 0.39401776620237461 -0.32051644503610022 0 0.38465179156333151 -0.34360390505586791 0 0.39401776620237461 -0.32051644503610022 0 0.38465179156333151 -0.34360390505586791 0 0.37858644206980091 -0.32769985780377792 0 0.39401776620237461 -0.32051644503610022 0 0.37858644206980091 -0.32769985780377792 0 0.37861767820969228 -0.30691821554646831 0 0.41775460495295358 -0.31793141321765611 0 0.39401776620237461 -0.32051644503610022 0 0.40104035516745928 -0.29559599154912142 0 0.39401776620237461 -0.32051644503610022 0 0.37861767820969228 -0.30691821554646831 0 0.40104035516745928 -0.29559599154912142 0 0.39401776620237461 -0.32051644503610022 0 0.40104035516745928 -0.29559599154912142 0 0.40104035516745928 -0.29559599154912142 0 0.38498320530945151 -0.287592927137584 0 0.39655653748852282 -0.27284147297554762 0 0.38498320530945151 -0.287592927137584 0 0.37764450162479901 -0.26965755496232408 0 0.36873774536035581 -0.28861226174546889 0 0.37861767820969228 -0.30691821554646831 0 0.40104035516745928 -0.29559599154912142 0 0.38498320530945151 -0.287592927137584 0 0.37861767820969228 -0.30691821554646831 0 0.38498320530945151 -0.287592927137584 0 0.36873774536035581 -0.28861226174546889 0 0.38498320530945151 -0.287592927137584 0 0.37764450162479901 -0.26965755496232408 0 0.39655653748852282 -0.27284147297554762 0 0.39206528024080278 -0.24921397013056479 0 0.37764450162479901 -0.26965755496232408 0 0.39655653748852282 -0.27284147297554762 0 0.39206528024080278 -0.24921397013056479 0 0.37764450162479901 -0.26965755496232408 0 0.37510228513818711 -0.25237727586059511 0 0.39206528024080278 -0.24921397013056479 0 0.39655653748852282 -0.27284147297554762 0 0.40884184876520419 -0.25890250189124958 0 0.40104035516745928 -0.29559599154912142 0 0.39655653748852282 -0.27284147297554762 0 0.4136044294752057 -0.2739163227279473 0 0.39655653748852282 -0.27284147297554762 0 0.4136044294752057 -0.2739163227279473 0 0.40884184876520419 -0.25890250189124958 0 0.4148006158986044 -0.24103970595398019 0 0.40884184876520419 -0.25890250189124958 0 0.42892204251950339 -0.2594807324876427 0 0.4136044294752057 -0.2739163227279473 0 0.40884184876520419 -0.25890250189124958 0 0.42892204251950339 -0.2594807324876427 0 0.4136044294752057 -0.2739163227279473 0 0.42892204251950339 -0.2594807324876427 0 0.42611848489587972 -0.28658767974219163 0 0.44355941821905998 -0.27577600561597132 0 0.42892204251950339 -0.2594807324876427 0 0.42611848489587972 -0.28658767974219163 0 0.44743457629936911 -0.29125199491084608 0 0.42611848489587972 -0.28658767974219163 0 0.43686388954492023 -0.30206384222820981 0 0.43602078127065758 -0.31524868357114688 0 0.41775460495295358 -0.31793141321765611 0 0.42179240152309172 -0.30222108271158582 0 0.42611848489587972 -0.28658767974219163 0 0.43686388954492023 -0.30206384222820981 0 0.42179240152309172 -0.30222108271158582 0 0.43602078127065758 -0.31524868357114688 0 0.43686388954492023 -0.30206384222820981 0 0.42179240152309172 -0.30222108271158582 0 0.41775460495295358 -0.31793141321765611 0 0.40104035516745928 -0.29559599154912142 0 0.42179240152309172 -0.30222108271158582 0 0.40104035516745928 -0.29559599154912142 0 0.4136044294752057 -0.2739163227279473 0 0.42611848489587972 -0.28658767974219163 0 0.40104035516745928 -0.29559599154912142 0 0.42611848489587972 -0.28658767974219163 0 0.42179240152309172 -0.30222108271158582 0 0.5 -0.5 0 0.478892924595126 -0.45923392689990328 0 0.5 -0.41454166856117469 0 0.5 -0.5 0 0.47943423265092072 -0.49342116463239621 0 0.40014079662082208 -0.5 0 0.43983937115661631 -0.46972557693384148 0 0.47943423265092072 -0.49342116463239621 0 0.40014079662082208 -0.5 0 0.43983937115661631 -0.46972557693384148 0 0.46715606132834708 -0.47012790102379598 0 0.47943423265092072 -0.49342116463239621 0 0.5 -0.5 0 0.47943423265092072 -0.49342116463239621 0 0.478892924595126 -0.45923392689990328 0 0.46715606132834708 -0.47012790102379598 0 0.47943423265092072 -0.49342116463239621 0 0.478892924595126 -0.45923392689990328 0 0.46715606132834708 -0.47012790102379598 0 0.47943423265092072 -0.49342116463239621 0 0.478892924595126 -0.45923392689990328 0 0.45487789000577361 -0.44683463741519602 0 0.47188936358571532 -0.4304781897668572 0 0.46715606132834708 -0.47012790102379598 0 0.45487789000577361 -0.44683463741519602 0 0.46715606132834708 -0.47012790102379598 0 0.478892924595126 -0.45923392689990328 0 0.45487789000577361 -0.44683463741519602 0 0.43983937115661631 -0.46972557693384148 0 0.46715606132834708 -0.47012790102379598 0 0.45487789000577361 -0.44683463741519602 0 0.43983937115661631 -0.46972557693384148 0 0.45487789000577361 -0.44683463741519602 0 0.43095981599733307 -0.44753658110846528 0 0.45487789000577361 -0.44683463741519602 0 0.43408281430989271 -0.43319973453275151 0 0.43095981599733307 -0.44753658110846528 0 0.45487789000577361 -0.44683463741519602 0 0.44259971868320003 -0.42354137380659601 0 0.45487789000577361 -0.44683463741519602 0 0.44259971868320003 -0.42354137380659601 0 0.43408281430989271 -0.43319973453275151 0 0.45487789000577361 -0.44683463741519602 0 0.44259971868320003 -0.42354137380659601 0 0.45959372781066021 -0.42263882295877442 0 0.44259971868320003 -0.42354137380659601 0 0.45186952978880229 -0.40983589673226128 0 0.45959372781066021 -0.42263882295877442 0 0.44259971868320003 -0.42354137380659601 0 0.45186952978880229 -0.40983589673226128 0 0.44161148704613862 -0.40579593671517361 0 0.44259971868320003 -0.42354137380659601 0 0.44161148704613862 -0.40579593671517361 0 0.43098246877755192 -0.41858878846052949 0 0.45186952978880229 -0.40983589673226128 0 0.45959372781066021 -0.42263882295877442 0 0.46285261119418991 -0.40477249250038388 0 0.45959372781066021 -0.42263882295877442 0 0.4735191169341651 -0.41539713514472942 0 0.46285261119418991 -0.40477249250038388 0 0.45959372781066021 -0.42263882295877442 0 0.47188936358571532 -0.4304781897668572 0 0.4735191169341651 -0.41539713514472942 0 0.45487789000577361 -0.44683463741519602 0 0.45959372781066021 -0.42263882295877442 0 0.47188936358571532 -0.4304781897668572 0 0.5 -0.41454166856117469 0 0.4735191169341651 -0.41539713514472942 0 0.4680243894331878 -0.39009447735167219 0 0.478892924595126 -0.45923392689990328 0 0.47188936358571532 -0.4304781897668572 0 0.5 -0.41454166856117469 0 0.47188936358571532 -0.4304781897668572 0 0.5 -0.41454166856117469 0 0.4735191169341651 -0.41539713514472942 0 0.5 -0.35237408365171952 0 0.5 -0.41454166856117469 0 0.4680243894331878 -0.39009447735167219 0 0.4735191169341651 -0.41539713514472942 0 0.4680243894331878 -0.39009447735167219 0 0.46252966193221051 -0.36479181955861489 0 0.45518384933885458 -0.37953704158418422 0 0.4680243894331878 -0.39009447735167219 0 0.45518384933885458 -0.37953704158418422 0 0.4680243894331878 -0.39009447735167219 0 0.44431964753996511 -0.39027603052925969 0 0.46252966193221051 -0.36479181955861489 0 0.4680243894331878 -0.39009447735167219 0 0.4735191169341651 -0.41539713514472942 0 0.4680243894331878 -0.39009447735167219 0 0.46285261119418991 -0.40477249250038388 0 0.4680243894331878 -0.39009447735167219 0 0.46285261119418991 -0.40477249250038388 0 0.44431964753996511 -0.39027603052925969 0 0.46285261119418991 -0.40477249250038388 0 0.44431964753996511 -0.39027603052925969 0 0.45186952978880229 -0.40983589673226128 0 0.44161148704613862 -0.40579593671517361 0 0.44431964753996511 -0.39027603052925969 0 0.45186952978880229 -0.40983589673226128 0 0.46285261119418991 -0.40477249250038388 0 0.44431964753996511 -0.39027603052925969 0 0.44439653888602387 -0.37108278870097211 0 0.44431964753996511 -0.39027603052925969 0 0.42578668388574042 -0.37577956855813549 0 0.44439653888602387 -0.37108278870097211 0 0.45518384933885458 -0.37953704158418422 0 0.44431964753996511 -0.39027603052925969 0 0.44431964753996511 -0.39027603052925969 0 0.42578668388574042 -0.37577956855813549 0 0.42627525148907153 -0.39512359141131242 0 0.44431964753996511 -0.39027603052925969 0 0.42578668388574042 -0.37577956855813549 0 0.44161148704613862 -0.40579593671517361 0 0.44431964753996511 -0.39027603052925969 0 0.42627525148907153 -0.39512359141131242 0 0.44161148704613862 -0.40579593671517361 0 0.42627525148907153 -0.39512359141131242 0 0.41380476734409732 -0.40903711363024231 0 0.41288573556315727 -0.39366710087554208 0 0.39662340998741341 -0.40516911832300972 0 0.41380476734409732 -0.40903711363024231 0 0.42627525148907153 -0.39512359141131242 0 0.41288573556315727 -0.39366710087554208 0 0.41380476734409732 -0.40903711363024231 0 0.42578668388574042 -0.37577956855813549 0 0.41288573556315727 -0.39366710087554208 0 0.40193856510946419 -0.3832261124550107 0 0.42578668388574042 -0.37577956855813549 0 0.42627525148907153 -0.39512359141131242 0 0.41288573556315727 -0.39366710087554208 0 0.38081427771294768 -0.36737052156009248 0 0.37463337818860382 -0.38930414459710588 0 0.3737028077843495 -0.38742295831448542 0 0.38081427771294768 -0.36737052156009248 0 0.38897026210220897 -0.39170162293651239 0 0.37463337818860382 -0.38930414459710588 0 0.38081427771294768 -0.36737052156009248 0 0.37463337818860382 -0.38930414459710588 0 0.38081427771294768 -0.36737052156009248 0 0.40193856510946419 -0.3832261124550107 0 0.38897026210220897 -0.39170162293651239 0 0.38599804764205609 -0.41227829054531151 0 0.37463337818860382 -0.38930414459710588 0 0.38897026210220897 -0.39170162293651239 0 0.39662340998741341 -0.40516911832300972 0 0.38599804764205609 -0.41227829054531151 0 0.38599804764205609 -0.41227829054531151 0 0.36755341006792419 -0.41442821452601158 0 0.37463337818860382 -0.38930414459710588 0 0.38897026210220897 -0.39170162293651239 0 0.38599804764205609 -0.41227829054531151 0 0.37463337818860382 -0.38930414459710588 0 0.40193856510946419 -0.3832261124550107 0 0.38897026210220897 -0.39170162293651239 0 0.39662340998741341 -0.40516911832300972 0 0.41288573556315727 -0.39366710087554208 0 0.40193856510946419 -0.3832261124550107 0 0.39662340998741341 -0.40516911832300972 0 0.40193856510946419 -0.3832261124550107 0 0.39662340998741341 -0.40516911832300972 0 0.38599804764205609 -0.41227829054531151 0 0.41380476734409732 -0.40903711363024231 0 0.39662340998741341 -0.40516911832300972 0 0.38599804764205609 -0.41227829054531151 0 0.41380476734409732 -0.40903711363024231 0 0.40147331832312588 -0.42054231308375889 0 0.38599804764205609 -0.41227829054531151 0 0.41380476734409732 -0.40903711363024231 0 0.38599804764205609 -0.41227829054531151 0 0.36755341006792419 -0.41442821452601158 0 0.38599804764205609 -0.41227829054531151 0 0.37837193070639508 -0.43074191130029282 0 0.36755341006792419 -0.41442821452601158 0 0.38599804764205609 -0.41227829054531151 0 0.37837193070639508 -0.43074191130029282 0 0.39716653888589531 -0.43485585418744782 0 0.37837193070639508 -0.43074191130029282 0 0.39716653888589531 -0.43485585418744782 0 0.38455236834147782 -0.44235831893697952 0 0.38599804764205609 -0.41227829054531151 0 0.39716653888589531 -0.43485585418744782 0 0.40147331832312588 -0.42054231308375889 0 0.38599804764205609 -0.41227829054531151 0 0.39716653888589531 -0.43485585418744782 0 0.40147331832312588 -0.42054231308375889 0 0.39716653888589531 -0.43485585418744782 0 0.40988830344794153 -0.42850982814637428 0 0.39716653888589531 -0.43485585418744782 0 0.40988830344794153 -0.42850982814637428 0 0.41424956646142452 -0.44145335337101582 0 0.40988830344794153 -0.42850982814637428 0 0.42255857874347952 -0.42798536962106742 0 0.41424956646142452 -0.44145335337101582 0 0.40147331832312588 -0.42054231308375889 0 0.40988830344794153 -0.42850982814637428 0 0.41380476734409732 -0.40903711363024231 0 0.40988830344794153 -0.42850982814637428 0 0.41380476734409732 -0.40903711363024231 0 0.42255857874347952 -0.42798536962106742 0 0.44161148704613862 -0.40579593671517361 0 0.41380476734409732 -0.40903711363024231 0 0.43098246877755192 -0.41858878846052949 0 0.44161148704613862 -0.40579593671517361 0 0.41380476734409732 -0.40903711363024231 0 0.41380476734409732 -0.40903711363024231 0 0.43098246877755192 -0.41858878846052949 0 0.42255857874347952 -0.42798536962106742 0 0.43408281430989271 -0.43319973453275151 0 0.42255857874347952 -0.42798536962106742 0 0.43095981599733307 -0.44753658110846528 0 0.44259971868320003 -0.42354137380659601 0 0.43098246877755192 -0.41858878846052949 0 0.43408281430989271 -0.43319973453275151 0 0.43098246877755192 -0.41858878846052949 0 0.43408281430989271 -0.43319973453275151 0 0.42255857874347952 -0.42798536962106742 0 0.42255857874347952 -0.42798536962106742 0 0.43095981599733307 -0.44753658110846528 0 0.41424956646142452 -0.44145335337101582 0 0.43983937115661631 -0.46972557693384148 0 0.42706067288056998 -0.45966910190407051 0 0.41707216494033877 -0.46659444091922031 0 0.43983937115661631 -0.46972557693384148 0 0.43095981599733307 -0.44753658110846528 0 0.42706067288056998 -0.45966910190407051 0 0.43095981599733307 -0.44753658110846528 0 0.42706067288056998 -0.45966910190407051 0 0.42037133942799187 -0.45481980865475502 0 0.42037133942799187 -0.45481980865475502 0 0.41707216494033877 -0.46659444091922031 0 0.40833503012973449 -0.45743341782958391 0 0.42706067288056998 -0.45966910190407051 0 0.42037133942799187 -0.45481980865475502 0 0.41707216494033877 -0.46659444091922031 0 0.41707216494033877 -0.46659444091922031 0 0.40833503012973449 -0.45743341782958391 0 0.39424227281986102 -0.46676003377889269 0 0.43095981599733307 -0.44753658110846528 0 0.42037133942799187 -0.45481980865475502 0 0.41424956646142452 -0.44145335337101582 0 0.42037133942799187 -0.45481980865475502 0 0.40833503012973449 -0.45743341782958391 0 0.41424956646142452 -0.44145335337101582 0 0.39716653888589531 -0.43485585418744782 0 0.40833503012973449 -0.45743341782958391 0 0.41424956646142452 -0.44145335337101582 0 0.39716653888589531 -0.43485585418744782 0 0.39345157537004599 -0.45057062730194619 0 0.38455236834147782 -0.44235831893697952 0 0.39716653888589531 -0.43485585418744782 0 0.40833503012973449 -0.45743341782958391 0 0.39345157537004599 -0.45057062730194619 0 0.39716653888589531 -0.43485585418744782 0 0.40833503012973449 -0.45743341782958391 0 0.39345157537004599 -0.45057062730194619 0 0.38455236834147782 -0.44235831893697952 0 0.38182359321740972 -0.45292134106576409 0 0.38455236834147782 -0.44235831893697952 0 0.38182359321740972 -0.45292134106576409 0 0.37194820352764257 -0.4427018608294464 0 0.37837193070639508 -0.43074191130029282 0 0.38455236834147782 -0.44235831893697952 0 0.37194820352764257 -0.4427018608294464 0 0.38182359321740972 -0.45292134106576409 0 0.39424227281986102 -0.46676003377889269 0 0.37141238069938332 -0.46692562663856529 0 0.39345157537004599 -0.45057062730194619 0 0.38182359321740972 -0.45292134106576409 0 0.39424227281986102 -0.46676003377889269 0 0.39424227281986102 -0.46676003377889269 0 0.37141238069938332 -0.46692562663856529 0 0.40833503012973449 -0.45743341782958391 0 0.39345157537004599 -0.45057062730194619 0 0.39424227281986102 -0.46676003377889269 0 0.41707216494033877 -0.46659444091922031 0 0.39424227281986102 -0.46676003377889269 0 0.41707216494033877 -0.46659444091922031 0 0.39424227281986102 -0.46676003377889269 0 0.40014079662082208 -0.5 0 0.39424227281986102 -0.46676003377889269 0 0.40014079662082208 -0.5 0 0.37141238069938332 -0.46692562663856529 0 0.43983937115661631 -0.46972557693384148 0 0.41707216494033877 -0.46659444091922031 0 0.40014079662082208 -0.5 0 0.40014079662082208 -0.5 0 0.32546065004022617 -0.5 0 0.3462765218470546 -0.48033279556006703 0 0.32546065004022617 -0.5 0 0.3462765218470546 -0.48033279556006703 0 0.30631021868456298 -0.48072311486568892 0 0.3462765218470546 -0.48033279556006703 0 0.32575259645842791 -0.46725681235791028 0 0.30631021868456298 -0.48072311486568892 0 0.3462765218470546 -0.48033279556006703 0 0.3485824885789055 -0.46709121949823779 0 0.32575259645842791 -0.46725681235791028 0 0.40014079662082208 -0.5 0 0.3462765218470546 -0.48033279556006703 0 0.37141238069938332 -0.46692562663856529 0 0.3462765218470546 -0.48033279556006703 0 0.3485824885789055 -0.46709121949823779 0 0.37141238069938332 -0.46692562663856529 0 0.3485824885789055 -0.46709121949823779 0 0.37141238069938332 -0.46692562663856529 0 0.35324569388809701 -0.44989359131069062 0 0.3485824885789055 -0.46709121949823779 0 0.35324569388809701 -0.44989359131069062 0 0.33806214337105372 -0.45777686618061397 0 0.38182359321740972 -0.45292134106576409 0 0.37141238069938332 -0.46692562663856529 0 0.35324569388809701 -0.44989359131069062 0 0.3485824885789055 -0.46709121949823779 0 0.37141238069938332 -0.46692562663856529 0 0.36060935802898147 -0.43906997082244181 0 0.37194820352764257 -0.4427018608294464 0 0.35324569388809701 -0.44989359131069062 0 0.38182359321740972 -0.45292134106576409 0 0.35324569388809701 -0.44989359131069062 0 0.37837193070639508 -0.43074191130029282 0 0.36060935802898147 -0.43906997082244181 0 0.37194820352764257 -0.4427018608294464 0 0.38182359321740972 -0.45292134106576409 0 0.37194820352764257 -0.4427018608294464 0 0.35324569388809701 -0.44989359131069062 0 0.36060935802898147 -0.43906997082244181 0 0.35324569388809701 -0.44989359131069062 0 0.34315104194743368 -0.43483422324315929 0 0.32466779455878442 -0.44686584155561709 0 0.32761501992215097 -0.43116249501185328 0 0.34315104194743368 -0.43483422324315929 0 0.35324569388809701 -0.44989359131069062 0 0.33806214337105372 -0.45777686618061397 0 0.32466779455878442 -0.44686584155561709 0 0.35324569388809701 -0.44989359131069062 0 0.32466779455878442 -0.44686584155561709 0 0.34315104194743368 -0.43483422324315929 0 0.35324569388809701 -0.44989359131069062 0 0.32466779455878442 -0.44686584155561709 0 0.3485824885789055 -0.46709121949823779 0 0.32575259645842791 -0.46725681235791028 0 0.3485824885789055 -0.46709121949823779 0 0.33806214337105372 -0.45777686618061397 0 0.32575259645842791 -0.46725681235791028 0 0.33806214337105372 -0.45777686618061397 0 0.32575259645842791 -0.46725681235791028 0 0.32466779455878442 -0.44686584155561709 0 0.32575259645842791 -0.46725681235791028 0 0.30904716904302271 -0.45792120175055678 0 0.30631021868456298 -0.48072311486568892 0 0.32575259645842791 -0.46725681235791028 0 0.32466779455878442 -0.44686584155561709 0 0.30904716904302271 -0.45792120175055678 0 0.32466779455878442 -0.44686584155561709 0 0.31800868577585262 -0.43516031519895321 0 0.30735360635596409 -0.43632211706289747 0 0.32466779455878442 -0.44686584155561709 0 0.32761501992215097 -0.43116249501185328 0 0.31800868577585262 -0.43516031519895321 0 0.32761501992215097 -0.43116249501185328 0 0.32339131420283213 -0.41656724990055422 0 0.31239832226651099 -0.42629080716544471 0 0.32761501992215097 -0.43116249501185328 0 0.31800868577585262 -0.43516031519895321 0 0.31239832226651099 -0.42629080716544471 0 0.31800868577585262 -0.43516031519895321 0 0.31239832226651099 -0.42629080716544471 0 0.30735360635596409 -0.43632211706289747 0 0.32339131420283213 -0.41656724990055422 0 0.31120060169272079 -0.4133373498197 0 0.31239832226651099 -0.42629080716544471 0 0.32339131420283213 -0.41656724990055422 0 0.319673984964159 -0.40346676889879052 0 0.31120060169272079 -0.4133373498197 0 0.319673984964159 -0.40346676889879052 0 0.30884060304287331 -0.40229515593698711 0 0.31120060169272079 -0.4133373498197 0 0.32339131420283213 -0.41656724990055422 0 0.33281994217864741 -0.40778505865636938 0 0.319673984964159 -0.40346676889879052 0 0.32761501992215097 -0.43116249501185328 0 0.32339131420283213 -0.41656724990055422 0 0.33796042338316851 -0.41787760036937549 0 0.32339131420283213 -0.41656724990055422 0 0.33281994217864741 -0.40778505865636938 0 0.33796042338316851 -0.41787760036937549 0 0.33281994217864741 -0.40778505865636938 0 0.33796042338316851 -0.41787760036937549 0 0.34601675315157321 -0.40486547886918423 0 0.32761501992215097 -0.43116249501185328 0 0.33796042338316851 -0.41787760036937549 0 0.34315104194743368 -0.43483422324315929 0 0.33796042338316851 -0.41787760036937549 0 0.34315104194743368 -0.43483422324315929 0 0.35231855835687692 -0.42655250224024699 0 0.36060935802898147 -0.43906997082244181 0 0.34315104194743368 -0.43483422324315929 0 0.35231855835687692 -0.42655250224024699 0 0.37837193070639508 -0.43074191130029282 0 0.36060935802898147 -0.43906997082244181 0 0.36755341006792419 -0.41442821452601158 0 0.36060935802898147 -0.43906997082244181 0 0.35231855835687692 -0.42655250224024699 0 0.36755341006792419 -0.41442821452601158 0 0.36060935802898147 -0.43906997082244181 0 0.36755341006792419 -0.41442821452601158 0 0.33796042338316851 -0.41787760036937549 0 0.35231855835687692 -0.42655250224024699 0 0.36755341006792419 -0.41442821452601158 0 0.33796042338316851 -0.41787760036937549 0 0.36755341006792419 -0.41442821452601158 0 0.34601675315157321 -0.40486547886918423 0 0.33796042338316851 -0.41787760036937549 0 0.36755341006792419 -0.41442821452601158 0 0.36755341006792419 -0.41442821452601158 0 0.34601675315157321 -0.40486547886918423 0 0.35566250251704978 -0.3975177511027051 0 0.34601675315157321 -0.40486547886918423 0 0.34667365318154342 -0.39629832909528578 0 0.35566250251704978 -0.3975177511027051 0 0.34667365318154342 -0.39629832909528578 0 0.34795812186604658 -0.38666189116531141 0 0.33705723519150399 -0.3961481952439429 0 0.34667365318154342 -0.39629832909528578 0 0.35566250251704978 -0.3975177511027051 0 0.34795812186604658 -0.38666189116531141 0 0.36755341006792419 -0.41442821452601158 0 0.35566250251704978 -0.3975177511027051 0 0.36706103815962848 -0.39187921332532882 0 0.36755341006792419 -0.41442821452601158 0 0.37463337818860382 -0.38930414459710588 0 0.36755341006792419 -0.41442821452601158 0 0.36706103815962848 -0.39187921332532882 0 0.37463337818860382 -0.38930414459710588 0 0.35566250251704978 -0.3975177511027051 0 0.36706103815962848 -0.39187921332532882 0 0.35924801608749379 -0.38543857686598643 0 0.38081427771294768 -0.36737052156009248 0 0.36848073339739068 -0.37517807712711049 0 0.3737028077843495 -0.38742295831448542 0 0.36848073339739068 -0.37517807712711049 0 0.3737028077843495 -0.38742295831448542 0 0.36599997940964812 -0.38379980358563692 0 0.36706103815962848 -0.39187921332532882 0 0.3737028077843495 -0.38742295831448542 0 0.36599997940964812 -0.38379980358563692 0 0.36706103815962848 -0.39187921332532882 0 0.37463337818860382 -0.38930414459710588 0 0.3737028077843495 -0.38742295831448542 0 0.37463337818860382 -0.38930414459710588 0 0.3737028077843495 -0.38742295831448542 0 0.36706103815962848 -0.39187921332532882 0 0.36599997940964812 -0.38379980358563692 0 0.35924801608749379 -0.38543857686598643 0 0.36599997940964812 -0.38379980358563692 0 0.36207090148421361 -0.37959838259465167 0 0.35924801608749379 -0.38543857686598643 0 0.36848073339739068 -0.37517807712711049 0 0.36599997940964812 -0.38379980358563692 0 0.36207090148421361 -0.37959838259465167 0 0.36848073339739068 -0.37517807712711049 0 0.36207090148421361 -0.37959838259465167 0 0.3554566368260581 -0.37480617727887811 0 0.36207090148421361 -0.37959838259465167 0 0.35924801608749379 -0.38543857686598643 0 0.3554566368260581 -0.37480617727887811 0 0.35924801608749379 -0.38543857686598643 0 0.34795812186604658 -0.38666189116531141 0 0.3554566368260581 -0.37480617727887811 0 0.35566250251704978 -0.3975177511027051 0 0.35924801608749379 -0.38543857686598643 0 0.34795812186604658 -0.38666189116531141 0 0.34795812186604658 -0.38666189116531141 0 0.34537995690420659 -0.3737828605913362 0 0.3554566368260581 -0.37480617727887811 0 0.34795812186604658 -0.38666189116531141 0 0.33323562740676532 -0.37769939737979058 0 0.34537995690420659 -0.3737828605913362 0 0.34795812186604658 -0.38666189116531141 0 0.33323562740676532 -0.37769939737979058 0 0.33705723519150399 -0.3961481952439429 0 0.33323562740676532 -0.37769939737979058 0 0.33705723519150399 -0.3961481952439429 0 0.319673984964159 -0.40346676889879052 0 0.33281994217864741 -0.40778505865636938 0 0.33705723519150399 -0.3961481952439429 0 0.319673984964159 -0.40346676889879052 0 0.33281994217864741 -0.40778505865636938 0 0.34601675315157321 -0.40486547886918423 0 0.33705723519150399 -0.3961481952439429 0 0.34601675315157321 -0.40486547886918423 0 0.34667365318154342 -0.39629832909528578 0 0.33705723519150399 -0.3961481952439429 0 0.33323562740676532 -0.37769939737979058 0 0.319673984964159 -0.40346676889879052 0 0.31422368515007948 -0.393427126581603 0 0.319673984964159 -0.40346676889879052 0 0.31422368515007948 -0.393427126581603 0 0.30884060304287331 -0.40229515593698711 0 0.33323562740676532 -0.37769939737979058 0 0.319673984964159 -0.40346676889879052 0 0.31422368515007948 -0.393427126581603 0 0.30591552541026101 -0.37751124227982003 0 0.32002671755222051 -0.36641101040373808 0 0.33323562740676532 -0.37769939737979058 0 0.31422368515007948 -0.393427126581603 0 0.32002671755222051 -0.36641101040373808 0 0.31422368515007948 -0.393427126581603 0 0.32002671755222051 -0.36641101040373808 0 0.30591552541026101 -0.37751124227982003 0 0.29934269892459558 -0.39453707190143028 0 0.28871394442674109 -0.38265385864092483 0 0.31422368515007948 -0.393427126581603 0 0.30591552541026101 -0.37751124227982003 0 0.29934269892459558 -0.39453707190143028 0 0.31422368515007948 -0.393427126581603 0 0.30884060304287331 -0.40229515593698711 0 0.29934269892459558 -0.39453707190143028 0 0.30884060304287331 -0.40229515593698711 0 0.29934269892459558 -0.39453707190143028 0 0.29896657827583012 -0.40866065312134409 0 0.28871394442674109 -0.38265385864092483 0 0.27786210523133942 -0.40981541802129928 0 0.29934269892459558 -0.39453707190143028 0 0.27786210523133942 -0.40981541802129928 0 0.29896657827583012 -0.40866065312134409 0 0.29934269892459558 -0.39453707190143028 0 0.28871394442674109 -0.38265385864092483 0 0.27786210523133942 -0.40981541802129928 0 0.28871394442674109 -0.38265385864092483 0 0.26416245427686541 -0.38049931320234009 0 0.26125098829365018 -0.39969694482297641 0 0.28871394442674109 -0.38265385864092483 0 0.26416245427686541 -0.38049931320234009 0 0.27571190406721402 -0.36345127203525351 0 0.26416245427686541 -0.38049931320234009 0 0.24971336314328341 -0.36520417674804972 0 0.24502858373403441 -0.39146921073642488 0 0.26416245427686541 -0.38049931320234009 0 0.26125098829365018 -0.39969694482297641 0 0.24502858373403441 -0.39146921073642488 0 0.28871394442674109 -0.38265385864092483 0 0.26125098829365018 -0.39969694482297641 0 0.27786210523133942 -0.40981541802129928 0 0.26125098829365018 -0.39969694482297641 0 0.25610826383841628 -0.42120346698794331 0 0.2333640889907381 -0.41241884790723538 0 0.26125098829365018 -0.39969694482297641 0 0.27786210523133942 -0.40981541802129928 0 0.25610826383841628 -0.42120346698794331 0 0.25610826383841628 -0.42120346698794331 0 0.26701026603593758 -0.43697697740167368 0 0.2518592606704963 -0.43815060111373921 0 0.27786210523133942 -0.40981541802129928 0 0.26701026603593758 -0.43697697740167368 0 0.28078102790119369 -0.4274552938509788 0 0.27786210523133942 -0.40981541802129928 0 0.26701026603593758 -0.43697697740167368 0 0.27786210523133942 -0.40981541802129928 0 0.25610826383841628 -0.42120346698794331 0 0.26701026603593758 -0.43697697740167368 0 0.26701026603593758 -0.43697697740167368 0 0.28078102790119369 -0.4274552938509788 0 0.27712236562531017 -0.4375193999175232 0 0.28078102790119369 -0.4274552938509788 0 0.28865243891263809 -0.43215364344327012 0 0.27712236562531017 -0.4375193999175232 0 0.28865243891263809 -0.43215364344327012 0 0.28959476197880307 -0.44168956347039928 0 0.27712236562531017 -0.4375193999175232 0 0.28865243891263809 -0.43215364344327012 0 0.29503220707493127 -0.43614369036708622 0 0.29829711678041942 -0.42866378264525379 0 0.28865243891263809 -0.43215364344327012 0 0.29503220707493127 -0.43614369036708622 0 0.28959476197880307 -0.44168956347039928 0 0.28865243891263809 -0.43215364344327012 0 0.29108715411517122 -0.42145013040837909 0 0.29829711678041942 -0.42866378264525379 0 0.28078102790119369 -0.4274552938509788 0 0.28865243891263809 -0.43215364344327012 0 0.29108715411517122 -0.42145013040837909 0 0.27786210523133942 -0.40981541802129928 0 0.28078102790119369 -0.4274552938509788 0 0.29108715411517122 -0.42145013040837909 0 0.27786210523133942 -0.40981541802129928 0 0.29108715411517122 -0.42145013040837909 0 0.29896657827583012 -0.40866065312134409 0 0.29108715411517122 -0.42145013040837909 0 0.30377653118007591 -0.4205559058691733 0 0.29896657827583012 -0.40866065312134409 0 0.30377653118007591 -0.4205559058691733 0 0.29896657827583012 -0.40866065312134409 0 0.31120060169272079 -0.4133373498197 0 0.30884060304287331 -0.40229515593698711 0 0.29896657827583012 -0.40866065312134409 0 0.31120060169272079 -0.4133373498197 0 0.30377653118007591 -0.4205559058691733 0 0.31120060169272079 -0.4133373498197 0 0.31239832226651099 -0.42629080716544471 0 0.30377653118007591 -0.4205559058691733 0 0.31239832226651099 -0.42629080716544471 0 0.29829711678041942 -0.42866378264525379 0 0.31239832226651099 -0.42629080716544471 0 0.30735360635596409 -0.43632211706289747 0 0.29829711678041942 -0.42866378264525379 0 0.29503220707493127 -0.43614369036708622 0 0.30735360635596409 -0.43632211706289747 0 0.29829711678041942 -0.42866378264525379 0 0.29108715411517122 -0.42145013040837909 0 0.30377653118007591 -0.4205559058691733 0 0.29829711678041942 -0.42866378264525379 0 0.32466779455878442 -0.44686584155561709 0 0.30904716904302271 -0.45792120175055678 0 0.29608989522947149 -0.44383809180054362 0 0.32466779455878442 -0.44686584155561709 0 0.29608989522947149 -0.44383809180054362 0 0.32466779455878442 -0.44686584155561709 0 0.30735360635596409 -0.43632211706289747 0 0.29608989522947149 -0.44383809180054362 0 0.30904716904302271 -0.45792120175055678 0 0.29860320416278402 -0.45529674645956592 0 0.29608989522947149 -0.44383809180054362 0 0.29503220707493127 -0.43614369036708622 0 0.30735360635596409 -0.43632211706289747 0 0.29608989522947149 -0.44383809180054362 0 0.30904716904302271 -0.45792120175055678 0 0.29721119201091789 -0.46522563712477349 0 0.30631021868456298 -0.48072311486568892 0 0.30904716904302271 -0.45792120175055678 0 0.29721119201091789 -0.46522563712477349 0 0.29860320416278402 -0.45529674645956592 0 0.28932919617959602 -0.45338424297023883 0 0.27756010650442758 -0.45518222858252849 0 0.28072062580449653 -0.47155582870540619 0 0.29721119201091789 -0.46522563712477349 0 0.28932919617959602 -0.45338424297023883 0 0.28072062580449653 -0.47155582870540619 0 0.29721119201091789 -0.46522563712477349 0 0.29860320416278402 -0.45529674645956592 0 0.28932919617959602 -0.45338424297023883 0 0.28932919617959602 -0.45338424297023883 0 0.28959476197880307 -0.44168956347039928 0 0.27756010650442758 -0.45518222858252849 0 0.29860320416278402 -0.45529674645956592 0 0.28932919617959602 -0.45338424297023883 0 0.29608989522947149 -0.44383809180054362 0 0.28932919617959602 -0.45338424297023883 0 0.29608989522947149 -0.44383809180054362 0 0.28959476197880307 -0.44168956347039928 0 0.29503220707493127 -0.43614369036708622 0 0.29608989522947149 -0.44383809180054362 0 0.28959476197880307 -0.44168956347039928 0 0.28959476197880307 -0.44168956347039928 0 0.26138620688844749 -0.44792543592233808 0 0.26701026603593758 -0.43697697740167368 0 0.27712236562531017 -0.4375193999175232 0 0.26138620688844749 -0.44792543592233808 0 0.28959476197880307 -0.44168956347039928 0 0.26138620688844749 -0.44792543592233808 0 0.27756010650442758 -0.45518222858252849 0 0.28959476197880307 -0.44168956347039928 0 0.27712236562531017 -0.4375193999175232 0 0.26138620688844749 -0.44792543592233808 0 0.26701026603593758 -0.43697697740167368 0 0.26138620688844749 -0.44792543592233808 0 0.2518592606704963 -0.43815060111373921 0 0.26138620688844749 -0.44792543592233808 0 0.26339579246569877 -0.46312143350125029 0 0.23317765179809191 -0.45416130837427687 0 0.26138620688844749 -0.44792543592233808 0 0.26339579246569877 -0.46312143350125029 0 0.27756010650442758 -0.45518222858252849 0 0.26339579246569877 -0.46312143350125029 0 0.27756010650442758 -0.45518222858252849 0 0.28072062580449653 -0.47155582870540619 0 0.28072062580449653 -0.47155582870540619 0 0.2532296876789632 -0.47497352743918242 0 0.27004646425256568 -0.5 0 0.26339579246569877 -0.46312143350125029 0 0.28072062580449653 -0.47155582870540619 0 0.2532296876789632 -0.47497352743918242 0 0.32546065004022617 -0.5 0 0.27004646425256568 -0.5 0 0.30631021868456298 -0.48072311486568892 0 0.28072062580449653 -0.47155582870540619 0 0.27004646425256568 -0.5 0 0.30631021868456298 -0.48072311486568892 0 0.29721119201091789 -0.46522563712477349 0 0.28072062580449653 -0.47155582870540619 0 0.30631021868456298 -0.48072311486568892 0 0.33743581475864359 -0.28536266187014298 0 0.3388307833371127 -0.27886836189579028 0 0.34706744656536048 -0.28007479224216619 0 0.33743581475864359 -0.28536266187014298 0 0.3388307833371127 -0.27886836189579028 0 0.33743581475864359 -0.28536266187014298 0 0.33163278235650262 -0.31237877804800812 0 0.33743581475864359 -0.28536266187014298 0 0.33163278235650262 -0.31237877804800812 0 0.34308905326158867 -0.30070827197480321 0 0.33743581475864359 -0.28536266187014298 0 0.33163278235650262 -0.31237877804800812 0 0.32364365619397351 -0.29600562892690968 0 0.33163278235650262 -0.31237877804800812 0 0.32364365619397351 -0.29600562892690968 0 0.30954970221622308 -0.30462347215273478 0 0.31296692944630888 -0.29314018565426941 0 0.32364365619397351 -0.29600562892690968 0 0.30954970221622308 -0.30462347215273478 0 0.31296692944630888 -0.29314018565426941 0 0.32364365619397351 -0.29600562892690968 0 0.31569414790308259 -0.28159305760617132 0 0.33743581475864359 -0.28536266187014298 0 0.32364365619397351 -0.29600562892690968 0 0.31569414790308259 -0.28159305760617132 0 0.33743581475864359 -0.28536266187014298 0 0.31569414790308259 -0.28159305760617132 0 0.33743581475864359 -0.28536266187014298 0 0.31569414790308259 -0.28159305760617132 0 0.32852563272885182 -0.27784073863383552 0 0.31569414790308259 -0.28159305760617132 0 0.31275786215232049 -0.27168837282467972 0 0.32066228436037369 -0.27402337931129878 0 0.31275786215232049 -0.27168837282467972 0 0.32001527731196461 -0.26686042829596718 0 0.31054181011664339 -0.26140137874582919 0 0.31275786215232049 -0.27168837282467972 0 0.32001527731196461 -0.26686042829596718 0 0.32066228436037369 -0.27402337931129878 0 0.32001527731196461 -0.26686042829596718 0 0.32631850170564902 -0.27213429919584042 0 0.32066228436037369 -0.27402337931129878 0 0.32001527731196461 -0.26686042829596718 0 0.32631850170564902 -0.27213429919584042 0 0.32861545200372733 -0.26431566092564712 0 0.32631850170564902 -0.27213429919584042 0 0.32066228436037369 -0.27402337931129878 0 0.32852563272885182 -0.27784073863383552 0 0.31569414790308259 -0.28159305760617132 0 0.32066228436037369 -0.27402337931129878 0 0.32852563272885182 -0.27784073863383552 0 0.30517917142926537 -0.24716040808135001 0 0.322544075342931 -0.25649048942400782 0 0.31054181011664339 -0.26140137874582919 0 0.32001527731196461 -0.26686042829596718 0 0.322544075342931 -0.25649048942400782 0 0.31054181011664339 -0.26140137874582919 0 0.32001527731196461 -0.26686042829596718 0 0.322544075342931 -0.25649048942400782 0 0.32861545200372733 -0.26431566092564712 0 0.322544075342931 -0.25649048942400782 0 0.32861545200372733 -0.26431566092564712 0 0.33700232267718733 -0.25494009872172468 0 0.32861545200372733 -0.26431566092564712 0 0.33700232267718733 -0.25494009872172468 0 0.3370936559567923 -0.26597622971595652 0 0.33700232267718733 -0.25494009872172468 0 0.3370936559567923 -0.26597622971595652 0 0.34612034525793539 -0.26165354425485998 0 0.32852563272885182 -0.27784073863383552 0 0.33374486488877292 -0.2728357791174113 0 0.3388307833371127 -0.27886836189579028 0 0.33743581475864359 -0.28536266187014298 0 0.32852563272885182 -0.27784073863383552 0 0.3388307833371127 -0.27886836189579028 0 0.32631850170564902 -0.27213429919584042 0 0.32852563272885182 -0.27784073863383552 0 0.33374486488877292 -0.2728357791174113 0 0.32631850170564902 -0.27213429919584042 0 0.32861545200372733 -0.26431566092564712 0 0.33374486488877292 -0.2728357791174113 0 0.32861545200372733 -0.26431566092564712 0 0.33374486488877292 -0.2728357791174113 0 0.3370936559567923 -0.26597622971595652 0 0.34349817463331772 -0.27223575233246988 0 0.3370936559567923 -0.26597622971595652 0 0.34612034525793539 -0.26165354425485998 0 0.33374486488877292 -0.2728357791174113 0 0.34349817463331772 -0.27223575233246988 0 0.3370936559567923 -0.26597622971595652 0 0.33374486488877292 -0.2728357791174113 0 0.34349817463331772 -0.27223575233246988 0 0.3388307833371127 -0.27886836189579028 0 0.34349817463331772 -0.27223575233246988 0 0.3388307833371127 -0.27886836189579028 0 0.34706744656536048 -0.28007479224216619 0 0.34349817463331772 -0.27223575233246988 0 0.34706744656536048 -0.28007479224216619 0 0.35711558672006172 -0.27354793744083078 0 0.34349817463331772 -0.27223575233246988 0 0.35711558672006172 -0.27354793744083078 0 0.34612034525793539 -0.26165354425485998 0 0.34706744656536048 -0.28007479224216619 0 0.35711558672006172 -0.27354793744083078 0 0.35357832102308678 -0.28816147489813743 0 0.35007299243335749 -0.24785688602667111 0 0.33700232267718733 -0.25494009872172468 0 0.34612034525793539 -0.26165354425485998 0 0.35711558672006172 -0.27354793744083078 0 0.34612034525793539 -0.26165354425485998 0 0.36124693131331159 -0.25807728632712912 0 0.35007299243335749 -0.24785688602667111 0 0.34612034525793539 -0.26165354425485998 0 0.36124693131331159 -0.25807728632712912 0 0.37764450162479901 -0.26965755496232408 0 0.37510228513818711 -0.25237727586059511 0 0.36124693131331159 -0.25807728632712912 0 0.36225179838031341 -0.2439392928582107 0 0.37510228513818711 -0.25237727586059511 0 0.36124693131331159 -0.25807728632712912 0 0.37764450162479901 -0.26965755496232408 0 0.35711558672006172 -0.27354793744083078 0 0.36124693131331159 -0.25807728632712912 0 0.37764450162479901 -0.26965755496232408 0 0.35711558672006172 -0.27354793744083078 0 0.36873774536035581 -0.28861226174546889 0 0.36873774536035581 -0.28861226174546889 0 0.35357832102308678 -0.28816147489813743 0 0.36087634202934032 -0.30211297570133377 0 0.35711558672006172 -0.27354793744083078 0 0.36873774536035581 -0.28861226174546889 0 0.35357832102308678 -0.28816147489813743 0 0.33743581475864359 -0.28536266187014298 0 0.35357832102308678 -0.28816147489813743 0 0.33743581475864359 -0.28536266187014298 0 0.34706744656536048 -0.28007479224216619 0 0.35357832102308678 -0.28816147489813743 0 0.33743581475864359 -0.28536266187014298 0 0.34308905326158867 -0.30070827197480321 0 0.35357832102308678 -0.28816147489813743 0 0.34308905326158867 -0.30070827197480321 0 0.36087634202934032 -0.30211297570133377 0 0.3603589122919777 -0.32616465434179109 0 0.34308905326158867 -0.30070827197480321 0 0.35357832102308678 -0.28816147489813743 0 0.36087634202934032 -0.30211297570133377 0 0.37861767820969228 -0.30691821554646831 0 0.36873774536035581 -0.28861226174546889 0 0.36087634202934032 -0.30211297570133377 0 0.37861767820969228 -0.30691821554646831 0 0.36087634202934032 -0.30211297570133377 0 0.3603589122919777 -0.32616465434179109 0 0.37858644206980091 -0.32769985780377792 0 0.37861767820969228 -0.30691821554646831 0 0.3603589122919777 -0.32616465434179109 0 0.37858644206980091 -0.32769985780377792 0 0.3603589122919777 -0.32616465434179109 0 0.36805061276354478 -0.3427907498460791 0 0.3603589122919777 -0.32616465434179109 0 0.34679726984937148 -0.35193202586079081 0 0.3603589122919777 -0.32616465434179109 0 0.34679726984937148 -0.35193202586079081 0 0.3423644242317993 -0.33453707324987059 0 0.3603589122919777 -0.32616465434179109 0 0.36805061276354478 -0.3427907498460791 0 0.34679726984937148 -0.35193202586079081 0 0.33163278235650262 -0.31237877804800812 0 0.34308905326158867 -0.30070827197480321 0 0.3603589122919777 -0.32616465434179109 0 0.33163278235650262 -0.31237877804800812 0 0.3603589122919777 -0.32616465434179109 0 0.3423644242317993 -0.33453707324987059 0 0.37640125955739012 -0.35149107478397351 0 0.38081427771294768 -0.36737052156009248 0 0.36600013168445039 -0.36059477107615401 0 0.36848073339739068 -0.37517807712711049 0 0.36600013168445039 -0.36059477107615401 0 0.3554566368260581 -0.37480617727887811 0 0.38081427771294768 -0.36737052156009248 0 0.36848073339739068 -0.37517807712711049 0 0.36600013168445039 -0.36059477107615401 0 0.36805061276354478 -0.3427907498460791 0 0.36600013168445039 -0.36059477107615401 0 0.34679726984937148 -0.35193202586079081 0 0.37640125955739012 -0.35149107478397351 0 0.36805061276354478 -0.3427907498460791 0 0.36600013168445039 -0.36059477107615401 0 0.36600013168445039 -0.36059477107615401 0 0.34679726984937148 -0.35193202586079081 0 0.3554566368260581 -0.37480617727887811 0 0.34679726984937148 -0.35193202586079081 0 0.34537995690420659 -0.3737828605913362 0 0.3554566368260581 -0.37480617727887811 0 0.33323562740676532 -0.37769939737979058 0 0.33171275220581908 -0.35441984147836231 0 0.32002671755222051 -0.36641101040373808 0 0.33323562740676532 -0.37769939737979058 0 0.34679726984937148 -0.35193202586079081 0 0.33323562740676532 -0.37769939737979058 0 0.34679726984937148 -0.35193202586079081 0 0.34537995690420659 -0.3737828605913362 0 0.33323562740676532 -0.37769939737979058 0 0.34679726984937148 -0.35193202586079081 0 0.33171275220581908 -0.35441984147836231 0 0.34679726984937148 -0.35193202586079081 0 0.33171275220581908 -0.35441984147836231 0 0.3423644242317993 -0.33453707324987059 0 0.33171275220581908 -0.35441984147836231 0 0.32002671755222051 -0.36641101040373808 0 0.32582974995436148 -0.33939489422587321 0 0.32002671755222051 -0.36641101040373808 0 0.32582974995436148 -0.33939489422587321 0 0.31500009593534162 -0.35119999692538878 0 0.32002671755222051 -0.36641101040373808 0 0.32582974995436148 -0.33939489422587321 0 0.33163278235650262 -0.31237877804800812 0 0.32582974995436148 -0.33939489422587321 0 0.33163278235650262 -0.31237877804800812 0 0.3423644242317993 -0.33453707324987059 0 0.32582974995436148 -0.33939489422587321 0 0.33171275220581908 -0.35441984147836231 0 0.3423644242317993 -0.33453707324987059 0 0.32582974995436148 -0.33939489422587321 0 0.31500009593534162 -0.35119999692538878 0 0.32582974995436148 -0.33939489422587321 0 0.31041762281754448 -0.32833073988017608 0 0.33163278235650262 -0.31237877804800812 0 0.32582974995436148 -0.33939489422587321 0 0.31041762281754448 -0.32833073988017608 0 0.33163278235650262 -0.31237877804800812 0 0.31041762281754448 -0.32833073988017608 0 0.30954970221622308 -0.30462347215273478 0 0.31041762281754448 -0.32833073988017608 0 0.29592063247569211 -0.31558436997640987 0 0.30954970221622308 -0.30462347215273478 0 0.31041762281754448 -0.32833073988017608 0 0.29132656616613523 -0.33188180257029998 0 0.29592063247569211 -0.31558436997640987 0 0.31041762281754448 -0.32833073988017608 0 0.29132656616613523 -0.33188180257029998 0 0.29956578362214281 -0.35549229926055048 0 0.31041762281754448 -0.32833073988017608 0 0.29956578362214281 -0.35549229926055048 0 0.29132656616613523 -0.33188180257029998 0 0.28219501787468609 -0.34702129220438421 0 0.27282035448602859 -0.33554085100614839 0 0.29132656616613523 -0.33188180257029998 0 0.29592063247569211 -0.31558436997640987 0 0.27986439667319313 -0.31630171845149863 0 0.29132656616613523 -0.33188180257029998 0 0.27986439667319313 -0.31630171845149863 0 0.27282035448602859 -0.33554085100614839 0 0.30591552541026101 -0.37751124227982003 0 0.28871394442674109 -0.38265385864092483 0 0.29956578362214281 -0.35549229926055048 0 0.30591552541026101 -0.37751124227982003 0 0.32002671755222051 -0.36641101040373808 0 0.29956578362214281 -0.35549229926055048 0 0.31500009593534162 -0.35119999692538878 0 0.32002671755222051 -0.36641101040373808 0 0.29956578362214281 -0.35549229926055048 0 0.31500009593534162 -0.35119999692538878 0 0.31041762281754448 -0.32833073988017608 0 0.29956578362214281 -0.35549229926055048 0 0.29956578362214281 -0.35549229926055048 0 0.28219501787468609 -0.34702129220438421 0 0.27571190406721402 -0.36345127203525351 0 0.29132656616613523 -0.33188180257029998 0 0.29956578362214281 -0.35549229926055048 0 0.28219501787468609 -0.34702129220438421 0 0.28871394442674109 -0.38265385864092483 0 0.29956578362214281 -0.35549229926055048 0 0.27571190406721402 -0.36345127203525351 0 0.28871394442674109 -0.38265385864092483 0 0.29956578362214281 -0.35549229926055048 0 0.28219501787468609 -0.34702129220438421 0 0.27571190406721402 -0.36345127203525351 0 0.2669677564247489 -0.35003134695070198 0 0.28219501787468609 -0.34702129220438421 0 0.2669677564247489 -0.35003134695070198 0 0.27282035448602859 -0.33554085100614839 0 0.2669677564247489 -0.35003134695070198 0 0.2543981425525324 -0.33893914275967452 0 0.24971336314328341 -0.36520417674804972 0 0.2543981425525324 -0.33893914275967452 0 0.24971336314328341 -0.36520417674804972 0 0.26416245427686541 -0.38049931320234009 0 0.27571190406721402 -0.36345127203525351 0 0.24971336314328341 -0.36520417674804972 0 0.27571190406721402 -0.36345127203525351 0 0.2669677564247489 -0.35003134695070198 0 0.24971336314328341 -0.36520417674804972 0 0.27986439667319313 -0.31630171845149863 0 0.27282035448602859 -0.33554085100614839 0 0.27986439667319313 -0.31630171845149863 0 0.27282035448602859 -0.33554085100614839 0 0.2590829219617814 -0.31267410877129931 0 0.2669677564247489 -0.35003134695070198 0 0.27282035448602859 -0.33554085100614839 0 0.2543981425525324 -0.33893914275967452 0 0.27282035448602859 -0.33554085100614839 0 0.2543981425525324 -0.33893914275967452 0 0.2590829219617814 -0.31267410877129931 0 0.2543981425525324 -0.33893914275967452 0 0.2590829219617814 -0.31267410877129931 0 0.24087195768162309 -0.32614810142562012 0 0.2543981425525324 -0.33893914275967452 0 0.2590829219617814 -0.31267410877129931 0 0.2590829219617814 -0.31267410877129931 0 0.26376770137103039 -0.2864090747829241 0 0.27385105082646688 -0.29718155094811333 0 0.2590829219617814 -0.31267410877129931 0 0.26376770137103039 -0.2864090747829241 0 0.24821325608307901 -0.29522124281265988 0 0.2590829219617814 -0.31267410877129931 0 0.26376770137103039 -0.2864090747829241 0 0.26376770137103039 -0.2864090747829241 0 0.24785603391849151 -0.27709942466880599 0 0.24821325608307901 -0.29522124281265988 0 0.26376770137103039 -0.2864090747829241 0 0.27275834958840189 -0.28372268528309152 0 0.2724225943816766 -0.27409056785933389 0 0.26376770137103039 -0.2864090747829241 0 0.27275834958840189 -0.28372268528309152 0 0.27385105082646688 -0.29718155094811333 0 0.28072449650403741 -0.28691913250301798 0 0.27385105082646688 -0.29718155094811333 0 0.2869084388603575 -0.29706258589684881 0 0.27275834958840189 -0.28372268528309152 0 0.28072449650403741 -0.28691913250301798 0 0.27385105082646688 -0.29718155094811333 0 0.27275834958840189 -0.28372268528309152 0 0.28072449650403741 -0.28691913250301798 0 0.27996448038040939 -0.28063895974691061 0 0.27986439667319313 -0.31630171845149863 0 0.2590829219617814 -0.31267410877129931 0 0.27385105082646688 -0.29718155094811333 0 0.27986439667319313 -0.31630171845149863 0 0.27385105082646688 -0.29718155094811333 0 0.2869084388603575 -0.29706258589684881 0 0.27986439667319313 -0.31630171845149863 0 0.2869084388603575 -0.29706258589684881 0 0.29592063247569211 -0.31558436997640987 0 0.27986439667319313 -0.31630171845149863 0 0.2869084388603575 -0.29706258589684881 0 0.2869084388603575 -0.29706258589684881 0 0.30298021147195658 -0.29033858393126172 0 0.29395248104752192 -0.27782345334219888 0 0.28072449650403741 -0.28691913250301798 0 0.2869084388603575 -0.29706258589684881 0 0.29395248104752192 -0.27782345334219888 0 0.2869084388603575 -0.29706258589684881 0 0.29395248104752192 -0.27782345334219888 0 0.28072449650403741 -0.28691913250301798 0 0.29395248104752192 -0.27782345334219888 0 0.27996448038040939 -0.28063895974691061 0 0.31569414790308259 -0.28159305760617132 0 0.30298021147195658 -0.29033858393126172 0 0.29395248104752192 -0.27782345334219888 0 0.31296692944630888 -0.29314018565426941 0 0.31569414790308259 -0.28159305760617132 0 0.30298021147195658 -0.29033858393126172 0 0.31296692944630888 -0.29314018565426941 0 0.30298021147195658 -0.29033858393126172 0 0.30954970221622308 -0.30462347215273478 0 0.2869084388603575 -0.29706258589684881 0 0.30298021147195658 -0.29033858393126172 0 0.30954970221622308 -0.30462347215273478 0 0.29592063247569211 -0.31558436997640987 0 0.2869084388603575 -0.29706258589684881 0 0.30954970221622308 -0.30462347215273478 0 0.30517917142926537 -0.24716040808135001 0 0.31054181011664339 -0.26140137874582919 0 0.2976408850071105 -0.26774945168120262 0 0.30517917142926537 -0.24716040808135001 0 0.2976408850071105 -0.26774945168120262 0 0.31275786215232049 -0.27168837282467972 0 0.2976408850071105 -0.26774945168120262 0 0.29395248104752192 -0.27782345334219888 0 0.31275786215232049 -0.27168837282467972 0 0.2976408850071105 -0.26774945168120262 0 0.31275786215232049 -0.27168837282467972 0 0.31054181011664339 -0.26140137874582919 0 0.2976408850071105 -0.26774945168120262 0 0.31569414790308259 -0.28159305760617132 0 0.29395248104752192 -0.27782345334219888 0 0.31569414790308259 -0.28159305760617132 0 0.31275786215232049 -0.27168837282467972 0 0.29395248104752192 -0.27782345334219888 0 0.2976408850071105 -0.26774945168120262 0 0.28600938745522969 -0.26471871668720698 0 0.2976408850071105 -0.26774945168120262 0 0.29395248104752192 -0.27782345334219888 0 0.29395248104752192 -0.27782345334219888 0 0.27996448038040939 -0.28063895974691061 0 0.2724225943816766 -0.27409056785933389 0 0.29395248104752192 -0.27782345334219888 0 0.28600938745522969 -0.26471871668720698 0 0.27658132089261911 -0.27335422882897692 0 0.2976408850071105 -0.26774945168120262 0 0.29395248104752192 -0.27782345334219888 0 0.28600938745522969 -0.26471871668720698 0 0.29395248104752192 -0.27782345334219888 0 0.2724225943816766 -0.27409056785933389 0 0.28600938745522969 -0.26471871668720698 0 0.27658132089261911 -0.27335422882897692 0 0.30517917142926537 -0.24716040808135001 0 0.28600938745522969 -0.26471871668720698 0 0.30517917142926537 -0.24716040808135001 0 0.2976408850071105 -0.26774945168120262 0 0.28600938745522969 -0.26471871668720698 0 0.30517917142926537 -0.24716040808135001 0 0.28765229627979871 -0.24304032400626949 0 0.28600938745522969 -0.26471871668720698 0 0.28600938745522969 -0.26471871668720698 0 0.26845248078028039 -0.26014404079454911 0 0.28765229627979871 -0.24304032400626949 0 0.28600938745522969 -0.26471871668720698 0 0.26845248078028039 -0.26014404079454911 0 0.26376770137103039 -0.2864090747829241 0 0.26845248078028039 -0.26014404079454911 0 0.2724225943816766 -0.27409056785933389 0 0.28600938745522969 -0.26471871668720698 0 0.26845248078028039 -0.26014404079454911 0 0.27658132089261911 -0.27335422882897692 0 0.26376770137103039 -0.2864090747829241 0 0.26845248078028039 -0.26014404079454911 0 0.29395248104752192 -0.27782345334219888 0 0.27658132089261911 -0.27335422882897692 0 0.2724225943816766 -0.27409056785933389 0 0.27275834958840189 -0.28372268528309152 0 0.27996448038040939 -0.28063895974691061 0 0.2724225943816766 -0.27409056785933389 0 0.26845248078028039 -0.26014404079454911 0 0.27658132089261911 -0.27335422882897692 0 0.2724225943816766 -0.27409056785933389 0 0.26376770137103039 -0.2864090747829241 0 0.26845248078028039 -0.26014404079454911 0 0.24785603391849151 -0.27709942466880599 0 0.26845248078028039 -0.26014404079454911 0 0.2410490216361528 -0.25300372010805161 0 0.26845248078028039 -0.26014404079454911 0 0.2410490216361528 -0.25300372010805161 0 0.24785603391849151 -0.27709942466880599 0 0.25787859859726192 -0.24372773219337371 0 0.26845248078028039 -0.26014404079454911 0 0.2410490216361528 -0.25300372010805161 0 0.2410490216361528 -0.25300372010805161 0 0.24785603391849151 -0.27709942466880599 0 0.23139485578507429 -0.27647983237136509 0 0.23139485578507429 -0.27647983237136509 0 0.2171028506536257 -0.26700629366950379 0 0.21674952071488601 -0.28686299221921707 0 0.2410490216361528 -0.25300372010805161 0 0.23139485578507429 -0.27647983237136509 0 0.2171028506536257 -0.26700629366950379 0 0.2410490216361528 -0.25300372010805161 0 0.2171028506536257 -0.26700629366950379 0 0.2136455624920251 -0.24586339942155419 0 0.2171028506536257 -0.26700629366950379 0 0.1960217485778272 -0.26205501631648559 0 0.2136455624920251 -0.24586339942155419 0 0.2171028506536257 -0.26700629366950379 0 0.2037572178097509 -0.27803645254629672 0 0.1960217485778272 -0.26205501631648559 0 0.2171028506536257 -0.26700629366950379 0 0.2037572178097509 -0.27803645254629672 0 0.21674952071488601 -0.28686299221921707 0 0.2037572178097509 -0.27803645254629672 0 0.1960217485778272 -0.26205501631648559 0 0.18672217274589489 -0.28463667424064248 0 0.1960217485778272 -0.26205501631648559 0 0.2136455624920251 -0.24586339942155419 0 0.1970165427207646 -0.2431475676051908 0 0.1960217485778272 -0.26205501631648559 0 0.1970165427207646 -0.2431475676051908 0 0.18013525364959199 -0.24590787480667409 0 0.19163287831415901 -0.30538761534618902 0 0.20219697373587131 -0.29192032270869461 0 0.2153952098199983 -0.30425933719731207 0 0.2037572178097509 -0.27803645254629672 0 0.20219697373587131 -0.29192032270869461 0 0.18672217274589489 -0.28463667424064248 0 0.19163287831415901 -0.30538761534618902 0 0.20219697373587131 -0.29192032270869461 0 0.18672217274589489 -0.28463667424064248 0 0.20219697373587131 -0.29192032270869461 0 0.21674952071488601 -0.28686299221921707 0 0.2153952098199983 -0.30425933719731207 0 0.2037572178097509 -0.27803645254629672 0 0.20219697373587131 -0.29192032270869461 0 0.21674952071488601 -0.28686299221921707 0 0.19163287831415901 -0.30538761534618902 0 0.2153952098199983 -0.30425933719731207 0 0.20381788977078771 -0.32236963909420019 0 0.2153952098199983 -0.30425933719731207 0 0.2333373149176502 -0.29099433783704243 0 0.2370223082464416 -0.30892926800322767 0 0.2153952098199983 -0.30425933719731207 0 0.2370223082464416 -0.30892926800322767 0 0.22300958304019269 -0.32335118517261402 0 0.21674952071488601 -0.28686299221921707 0 0.2153952098199983 -0.30425933719731207 0 0.2333373149176502 -0.29099433783704243 0 0.23139485578507429 -0.27647983237136509 0 0.21674952071488601 -0.28686299221921707 0 0.2333373149176502 -0.29099433783704243 0 0.24785603391849151 -0.27709942466880599 0 0.2333373149176502 -0.29099433783704243 0 0.24821325608307901 -0.29522124281265988 0 0.24785603391849151 -0.27709942466880599 0 0.23139485578507429 -0.27647983237136509 0 0.2333373149176502 -0.29099433783704243 0 0.2333373149176502 -0.29099433783704243 0 0.24821325608307901 -0.29522124281265988 0 0.2370223082464416 -0.30892926800322767 0 0.2590829219617814 -0.31267410877129931 0 0.24821325608307901 -0.29522124281265988 0 0.2370223082464416 -0.30892926800322767 0 0.2590829219617814 -0.31267410877129931 0 0.2370223082464416 -0.30892926800322767 0 0.24087195768162309 -0.32614810142562012 0 0.2543981425525324 -0.33893914275967452 0 0.24087195768162309 -0.32614810142562012 0 0.2308468326071676 -0.34684680242128502 0 0.24087195768162309 -0.32614810142562012 0 0.22300958304019269 -0.32335118517261402 0 0.2308468326071676 -0.34684680242128502 0 0.22300958304019269 -0.32335118517261402 0 0.2308468326071676 -0.34684680242128502 0 0.21275128108028149 -0.33749920242868869 0 0.2370223082464416 -0.30892926800322767 0 0.24087195768162309 -0.32614810142562012 0 0.22300958304019269 -0.32335118517261402 0 0.24971336314328341 -0.36520417674804972 0 0.2308468326071676 -0.34684680242128502 0 0.229200177642885 -0.36995291413531828 0 0.2543981425525324 -0.33893914275967452 0 0.24971336314328341 -0.36520417674804972 0 0.2308468326071676 -0.34684680242128502 0 0.229200177642885 -0.36995291413531828 0 0.20725651587090471 -0.36571099534901208 0 0.22031030243082139 -0.38906492162812378 0 0.2308468326071676 -0.34684680242128502 0 0.229200177642885 -0.36995291413531828 0 0.20725651587090471 -0.36571099534901208 0 0.2308468326071676 -0.34684680242128502 0 0.20725651587090471 -0.36571099534901208 0 0.21275128108028149 -0.33749920242868869 0 0.20725651587090471 -0.36571099534901208 0 0.21275128108028149 -0.33749920242868869 0 0.194202729310988 -0.34235706906990038 0 0.20725651587090471 -0.36571099534901208 0 0.194202729310988 -0.34235706906990038 0 0.180238718969634 -0.3612454971324468 0 0.20725651587090471 -0.36571099534901208 0 0.194202729310988 -0.34235706906990038 0 0.20725651587090471 -0.36571099534901208 0 0.19261827162763251 -0.374541644607297 0 0.180238718969634 -0.3612454971324468 0 0.22300958304019269 -0.32335118517261402 0 0.20381788977078771 -0.32236963909420019 0 0.21275128108028149 -0.33749920242868869 0 0.2153952098199983 -0.30425933719731207 0 0.22300958304019269 -0.32335118517261402 0 0.20381788977078771 -0.32236963909420019 0 0.20381788977078771 -0.32236963909420019 0 0.21275128108028149 -0.33749920242868869 0 0.194202729310988 -0.34235706906990038 0 0.20381788977078771 -0.32236963909420019 0 0.194202729310988 -0.34235706906990038 0 0.18384400034678741 -0.32250280289756078 0 0.19163287831415901 -0.30538761534618902 0 0.20381788977078771 -0.32236963909420019 0 0.18384400034678741 -0.32250280289756078 0 0.18384400034678741 -0.32250280289756078 0 0.17702055828029431 -0.33666004199980942 0 0.15719449589681389 -0.32866913917705798 0 0.194202729310988 -0.34235706906990038 0 0.18384400034678741 -0.32250280289756078 0 0.17702055828029431 -0.33666004199980942 0 0.15719449589681389 -0.32866913917705798 0 0.16581699513551909 -0.35306125248096398 0 0.17702055828029431 -0.33666004199980942 0 0.15719449589681389 -0.32866913917705798 0 0.16581699513551909 -0.35306125248096398 0 0.18384400034678741 -0.32250280289756078 0 0.15719449589681389 -0.32866913917705798 0 0.17186855286937899 -0.30453082832045192 0 0.180238718969634 -0.3612454971324468 0 0.1834568796589737 -0.38583095226508418 0 0.17443949437422429 -0.37745336578486988 0 0.180238718969634 -0.3612454971324468 0 0.16581699513551909 -0.35306125248096398 0 0.17443949437422429 -0.37745336578486988 0 0.180238718969634 -0.3612454971324468 0 0.1834568796589737 -0.38583095226508418 0 0.19261827162763251 -0.374541644607297 0 0.180238718969634 -0.3612454971324468 0 0.1834568796589737 -0.38583095226508418 0 0.17702055828029431 -0.33666004199980942 0 0.180238718969634 -0.3612454971324468 0 0.16581699513551909 -0.35306125248096398 0 0.17702055828029431 -0.33666004199980942 0 0.180238718969634 -0.3612454971324468 0 0.194202729310988 -0.34235706906990038 0 0.17702055828029431 -0.33666004199980942 0 0.180238718969634 -0.3612454971324468 0 0.16581699513551909 -0.35306125248096398 0 0.1602354860011011 -0.36875954027416918 0 0.14952990885070691 -0.36034775620209553 0 0.16581699513551909 -0.35306125248096398 0 0.17443949437422429 -0.37745336578486988 0 0.16581699513551909 -0.35306125248096398 0 0.1602354860011011 -0.36875954027416918 0 0.17443949437422429 -0.37745336578486988 0 0.1602354860011011 -0.36875954027416918 0 0.14673951295096799 -0.37363029079717242 0 0.14952990885070691 -0.36034775620209553 0 0.16581699513551909 -0.35306125248096398 0 0.14952990885070691 -0.36034775620209553 0 0.144826286403443 -0.34676284914488159 0 0.14952990885070691 -0.36034775620209553 0 0.144826286403443 -0.34676284914488159 0 0.12334710111447229 -0.36406834251145731 0 0.144826286403443 -0.34676284914488159 0 0.12334710111447229 -0.36406834251145731 0 0.144826286403443 -0.34676284914488159 0 0.12334710111447229 -0.36406834251145731 0 0.11573058637367541 -0.34380091622275832 0 0.13273239812562251 -0.3803535413873157 0 0.1208593498238435 -0.38006314209191833 0 0.12334710111447229 -0.36406834251145731 0 0.14673951295096799 -0.37363029079717242 0 0.14952990885070691 -0.36034775620209553 0 0.12334710111447229 -0.36406834251145731 0 0.14673951295096799 -0.37363029079717242 0 0.13273239812562251 -0.3803535413873157 0 0.12334710111447229 -0.36406834251145731 0 0.15719449589681389 -0.32866913917705798 0 0.13978194378111039 -0.33004063130878142 0 0.14857199665810869 -0.30427702587315197 0 0.15719449589681389 -0.32866913917705798 0 0.14857199665810869 -0.30427702587315197 0 0.15719449589681389 -0.32866913917705798 0 0.144826286403443 -0.34676284914488159 0 0.13978194378111039 -0.33004063130878142 0 0.15719449589681389 -0.32866913917705798 0 0.16581699513551909 -0.35306125248096398 0 0.144826286403443 -0.34676284914488159 0 0.13978194378111039 -0.33004063130878142 0 0.1249111379911398 -0.32186001205002218 0 0.11573058637367541 -0.34380091622275832 0 0.144826286403443 -0.34676284914488159 0 0.13978194378111039 -0.33004063130878142 0 0.11573058637367541 -0.34380091622275832 0 0.13978194378111039 -0.33004063130878142 0 0.14857199665810869 -0.30427702587315197 0 0.1249111379911398 -0.32186001205002218 0 0.14857199665810869 -0.30427702587315197 0 0.13584279120622419 -0.29064916595208462 0 0.1212075847983899 -0.30357596212866123 0 0.14857199665810869 -0.30427702587315197 0 0.1212075847983899 -0.30357596212866123 0 0.1249111379911398 -0.32186001205002218 0 0.14857199665810869 -0.30427702587315197 0 0.14941647374314521 -0.28066083506566319 0 0.1659314811884508 -0.28303851802095531 0 0.14857199665810869 -0.30427702587315197 0 0.13584279120622419 -0.29064916595208462 0 0.14941647374314521 -0.28066083506566319 0 0.13554841089854469 -0.28148943716570812 0 0.13584279120622419 -0.29064916595208462 0 0.14941647374314521 -0.28066083506566319 0 0.13554841089854469 -0.28148943716570812 0 0.13584279120622419 -0.29064916595208462 0 0.1176113560141319 -0.2851589593963586 0 0.1376178273856396 -0.2676878026278281 0 0.13932302263067731 -0.26948878824872591 0 0.1176113560141319 -0.2851589593963586 0 0.13554841089854469 -0.28148943716570812 0 0.13932302263067731 -0.26948878824872591 0 0.1176113560141319 -0.2851589593963586 0 0.13932302263067731 -0.26948878824872591 0 0.1176113560141319 -0.2851589593963586 0 0.1376178273856396 -0.2676878026278281 0 0.1200034520355143 -0.24749468667538321 0 0.1376178273856396 -0.2676878026278281 0 0.1200034520355143 -0.24749468667538321 0 0.1412434604122122 -0.24631040783256791 0 0.1376178273856396 -0.2676878026278281 0 0.16103468924722281 -0.25381861710109321 0 0.1412434604122122 -0.24631040783256791 0 0.1376178273856396 -0.2676878026278281 0 0.13932302263067731 -0.26948878824872591 0 0.16103468924722281 -0.25381861710109321 0 0.13932302263067731 -0.26948878824872591 0 0.16103468924722281 -0.25381861710109321 0 0.13932302263067731 -0.26948878824872591 0 0.14941647374314521 -0.28066083506566319 0 0.16103468924722281 -0.25381861710109321 0 0.13554841089854469 -0.28148943716570812 0 0.13932302263067731 -0.26948878824872591 0 0.14941647374314521 -0.28066083506566319 0 0.14941647374314521 -0.28066083506566319 0 0.16103468924722281 -0.25381861710109321 0 0.1659314811884508 -0.28303851802095531 0 0.16103468924722281 -0.25381861710109321 0 0.1779690690817976 -0.26589134009717008 0 0.1659314811884508 -0.28303851802095531 0 0.16103468924722281 -0.25381861710109321 0 0.1779690690817976 -0.26589134009717008 0 0.18013525364959199 -0.24590787480667409 0 0.1960217485778272 -0.26205501631648559 0 0.1779690690817976 -0.26589134009717008 0 0.18013525364959199 -0.24590787480667409 0 0.1960217485778272 -0.26205501631648559 0 0.1779690690817976 -0.26589134009717008 0 0.18672217274589489 -0.28463667424064248 0 0.1779690690817976 -0.26589134009717008 0 0.18672217274589489 -0.28463667424064248 0 0.1659314811884508 -0.28303851802095531 0 0.18672217274589489 -0.28463667424064248 0 0.17186855286937899 -0.30453082832045192 0 0.1659314811884508 -0.28303851802095531 0 0.19163287831415901 -0.30538761534618902 0 0.18384400034678741 -0.32250280289756078 0 0.17186855286937899 -0.30453082832045192 0 0.19163287831415901 -0.30538761534618902 0 0.18672217274589489 -0.28463667424064248 0 0.17186855286937899 -0.30453082832045192 0 0.14857199665810869 -0.30427702587315197 0 0.17186855286937899 -0.30453082832045192 0 0.1659314811884508 -0.28303851802095531 0 0.15719449589681389 -0.32866913917705798 0 0.14857199665810869 -0.30427702587315197 0 0.17186855286937899 -0.30453082832045192 0 0.27004646425256568 -0.5 0 0.19840125792562099 -0.499999999999995 0 0.2258071254777905 -0.47806137695806639 0 0.19840125792562099 -0.499999999999995 0 0.1955652389629654 -0.47833395417678298 0 0.19840125792562099 -0.499999999999995 0 0.1955652389629654 -0.47833395417678298 0 0.1857239970351309 -0.48926605560099218 0 0.1955652389629654 -0.47833395417678298 0 0.2258071254777905 -0.47806137695806639 0 0.20496909670773639 -0.46039718082621561 0 0.19840125792562099 -0.499999999999995 0 0.1955652389629654 -0.47833395417678298 0 0.2258071254777905 -0.47806137695806639 0 0.2532296876789632 -0.47497352743918242 0 0.27004646425256568 -0.5 0 0.2258071254777905 -0.47806137695806639 0 0.2532296876789632 -0.47497352743918242 0 0.2258071254777905 -0.47806137695806639 0 0.23317765179809191 -0.45416130837427687 0 0.2258071254777905 -0.47806137695806639 0 0.23317765179809191 -0.45416130837427687 0 0.20496909670773639 -0.46039718082621561 0 0.23317765179809191 -0.45416130837427687 0 0.20496909670773639 -0.46039718082621561 0 0.26339579246569877 -0.46312143350125029 0 0.2532296876789632 -0.47497352743918242 0 0.23317765179809191 -0.45416130837427687 0 0.26138620688844749 -0.44792543592233808 0 0.2518592606704963 -0.43815060111373921 0 0.23317765179809191 -0.45416130837427687 0 0.26138620688844749 -0.44792543592233808 0 0.23317765179809191 -0.45416130837427687 0 0.2518592606704963 -0.43815060111373921 0 0.23317765179809191 -0.45416130837427687 0 0.24161391479158839 -0.43048581688246368 0 0.23317765179809191 -0.45416130837427687 0 0.21274467024756119 -0.44537306322652892 0 0.22596778666418391 -0.43195218695593612 0 0.23317765179809191 -0.45416130837427687 0 0.22596778666418391 -0.43195218695593612 0 0.24161391479158839 -0.43048581688246368 0 0.20738663592967541 -0.43977689630152639 0 0.21274467024756119 -0.44537306322652892 0 0.21231789143938981 -0.43260924517595267 0 0.20738663592967541 -0.43977689630152639 0 0.20306963394956029 -0.44528763306514119 0 0.2014143480821905 -0.43583764373848299 0 0.20738663592967541 -0.43977689630152639 0 0.21274467024756119 -0.44537306322652892 0 0.20306963394956029 -0.44528763306514119 0 0.21274467024756119 -0.44537306322652892 0 0.20306963394956029 -0.44528763306514119 0 0.20202636709778779 -0.45196992376671852 0 0.21274467024756119 -0.44537306322652892 0 0.20496909670773639 -0.46039718082621561 0 0.20202636709778779 -0.45196992376671852 0 0.23317765179809191 -0.45416130837427687 0 0.21274467024756119 -0.44537306322652892 0 0.20496909670773639 -0.46039718082621561 0 0.1955652389629654 -0.47833395417678298 0 0.20496909670773639 -0.46039718082621561 0 0.1927292200003092 -0.45666790835357102 0 0.1955652389629654 -0.47833395417678298 0 0.1927292200003092 -0.45666790835357102 0 0.1955652389629654 -0.47833395417678298 0 0.19047701204926121 -0.46094242075341862 0 0.1927292200003092 -0.45666790835357102 0 0.20496909670773639 -0.46039718082621561 0 0.1927292200003092 -0.45666790835357102 0 0.20202636709778779 -0.45196992376671852 0 0.19047701204926121 -0.46094242075341862 0 0.1927292200003092 -0.45666790835357102 0 0.1876592352144193 -0.45673372923780892 0 0.1927292200003092 -0.45666790835357102 0 0.1876592352144193 -0.45673372923780892 0 0.18777566972406101 -0.44981142861604279 0 0.1927292200003092 -0.45666790835357102 0 0.19595067699787469 -0.4453334870477933 0 0.18989320103765239 -0.43500186253035911 0 0.1927292200003092 -0.45666790835357102 0 0.18989320103765239 -0.43500186253035911 0 0.1927292200003092 -0.45666790835357102 0 0.18777566972406101 -0.44981142861604279 0 0.18989320103765239 -0.43500186253035911 0 0.19521760998379711 -0.43854214036159178 0 0.19595067699787469 -0.4453334870477933 0 0.1916906899727929 -0.43609695451772118 0 0.19595067699787469 -0.4453334870477933 0 0.1916906899727929 -0.43609695451772118 0 0.18989320103765239 -0.43500186253035911 0 0.19521760998379711 -0.43854214036159178 0 0.19821003569121751 -0.44088076654097252 0 0.19595067699787469 -0.4453334870477933 0 0.19821003569121751 -0.44088076654097252 0 0.20306963394956029 -0.44528763306514119 0 0.19595067699787469 -0.4453334870477933 0 0.19821003569121751 -0.44088076654097252 0 0.20306963394956029 -0.44528763306514119 0 0.2014143480821905 -0.43583764373848299 0 0.19521760998379711 -0.43854214036159178 0 0.19821003569121751 -0.44088076654097252 0 0.19632921389935129 -0.43529695882979857 0 0.20306963394956029 -0.44528763306514119 0 0.20202636709778779 -0.45196992376671852 0 0.19595067699787469 -0.4453334870477933 0 0.1927292200003092 -0.45666790835357102 0 0.20202636709778779 -0.45196992376671852 0 0.19595067699787469 -0.4453334870477933 0 0.18989320103765239 -0.43500186253035911 0 0.193210065479164 -0.42351508711829272 0 0.18667504034831339 -0.41041640739772162 0 0.18989320103765239 -0.43500186253035911 0 0.18667504034831339 -0.41041640739772162 0 0.1973860855611401 -0.42692030526330021 0 0.193210065479164 -0.42351508711829272 0 0.19846083006015189 -0.42045811652912207 0 0.1973860855611401 -0.42692030526330021 0 0.19846083006015189 -0.42045811652912207 0 0.20326441538295181 -0.42746054266679712 0 0.1973860855611401 -0.42692030526330021 0 0.19826447490927249 -0.43151164360587502 0 0.20326441538295181 -0.42746054266679712 0 0.2014143480821905 -0.43583764373848299 0 0.19826447490927249 -0.43151164360587502 0 0.20326441538295181 -0.42746054266679712 0 0.19821003569121751 -0.44088076654097252 0 0.2014143480821905 -0.43583764373848299 0 0.19632921389935129 -0.43529695882979857 0 0.2014143480821905 -0.43583764373848299 0 0.19632921389935129 -0.43529695882979857 0 0.19826447490927249 -0.43151164360587502 0 0.19632921389935129 -0.43529695882979857 0 0.19826447490927249 -0.43151164360587502 0 0.1929283116207289 -0.43204276753099607 0 0.1973860855611401 -0.42692030526330021 0 0.19826447490927249 -0.43151164360587502 0 0.1929283116207289 -0.43204276753099607 0 0.1929283116207289 -0.43204276753099607 0 0.18989320103765239 -0.43500186253035911 0 0.193210065479164 -0.42351508711829272 0 0.19521760998379711 -0.43854214036159178 0 0.19632921389935129 -0.43529695882979857 0 0.19377820557052011 -0.43520734882518619 0 0.19521760998379711 -0.43854214036159178 0 0.19377820557052011 -0.43520734882518619 0 0.1916906899727929 -0.43609695451772118 0 0.19632921389935129 -0.43529695882979857 0 0.1929283116207289 -0.43204276753099607 0 0.19377820557052011 -0.43520734882518619 0 0.1929283116207289 -0.43204276753099607 0 0.19210490899723079 -0.4345610298626873 0 0.18989320103765239 -0.43500186253035911 0 0.19377820557052011 -0.43520734882518619 0 0.19210490899723079 -0.4345610298626873 0 0.1916906899727929 -0.43609695451772118 0 0.1929283116207289 -0.43204276753099607 0 0.19377820557052011 -0.43520734882518619 0 0.19210490899723079 -0.4345610298626873 0 0.1916906899727929 -0.43609695451772118 0 0.18989320103765239 -0.43500186253035911 0 0.19210490899723079 -0.4345610298626873 0 0.1916906899727929 -0.43609695451772118 0 0.18989320103765239 -0.43500186253035911 0 0.1973860855611401 -0.42692030526330021 0 0.1929283116207289 -0.43204276753099607 0 0.193210065479164 -0.42351508711829272 0 0.193210065479164 -0.42351508711829272 0 0.1939169242469973 -0.41625106345825691 0 0.18667504034831339 -0.41041640739772162 0 0.193210065479164 -0.42351508711829272 0 0.1939169242469973 -0.41625106345825691 0 0.19846083006015189 -0.42045811652912207 0 0.1968341740193896 -0.41150644481021997 0 0.19418069224578771 -0.40518464808912641 0 0.18667504034831339 -0.41041640739772162 0 0.1939169242469973 -0.41625106345825691 0 0.1968341740193896 -0.41150644481021997 0 0.18667504034831339 -0.41041640739772162 0 0.1968341740193896 -0.41150644481021997 0 0.20469814770209749 -0.41520386531910081 0 0.20485234226760879 -0.40188257102108682 0 0.19846083006015189 -0.42045811652912207 0 0.20469814770209749 -0.41520386531910081 0 0.20326441538295181 -0.42746054266679712 0 0.1939169242469973 -0.41625106345825691 0 0.1968341740193896 -0.41150644481021997 0 0.19846083006015189 -0.42045811652912207 0 0.1968341740193896 -0.41150644481021997 0 0.19846083006015189 -0.42045811652912207 0 0.20469814770209749 -0.41520386531910081 0 0.20469814770209749 -0.41520386531910081 0 0.21626227209603979 -0.41615869782113413 0 0.20326441538295181 -0.42746054266679712 0 0.20469814770209749 -0.41520386531910081 0 0.21626227209603979 -0.41615869782113413 0 0.20485234226760879 -0.40188257102108682 0 0.21626227209603979 -0.41615869782113413 0 0.20326441538295181 -0.42746054266679712 0 0.21231789143938981 -0.43260924517595267 0 0.21626227209603979 -0.41615869782113413 0 0.21231789143938981 -0.43260924517595267 0 0.22596778666418391 -0.43195218695593612 0 0.20738663592967541 -0.43977689630152639 0 0.2014143480821905 -0.43583764373848299 0 0.21231789143938981 -0.43260924517595267 0 0.2014143480821905 -0.43583764373848299 0 0.20326441538295181 -0.42746054266679712 0 0.21231789143938981 -0.43260924517595267 0 0.21274467024756119 -0.44537306322652892 0 0.21231789143938981 -0.43260924517595267 0 0.22596778666418391 -0.43195218695593612 0 0.22596778666418391 -0.43195218695593612 0 0.24161391479158839 -0.43048581688246368 0 0.2333640889907381 -0.41241884790723538 0 0.25610826383841628 -0.42120346698794331 0 0.2518592606704963 -0.43815060111373921 0 0.24161391479158839 -0.43048581688246368 0 0.25610826383841628 -0.42120346698794331 0 0.24161391479158839 -0.43048581688246368 0 0.2333640889907381 -0.41241884790723538 0 0.21626227209603979 -0.41615869782113413 0 0.22596778666418391 -0.43195218695593612 0 0.2333640889907381 -0.41241884790723538 0 0.2333640889907381 -0.41241884790723538 0 0.24502858373403441 -0.39146921073642488 0 0.22031030243082139 -0.38906492162812378 0 0.21626227209603979 -0.41615869782113413 0 0.2333640889907381 -0.41241884790723538 0 0.22031030243082139 -0.38906492162812378 0 0.2333640889907381 -0.41241884790723538 0 0.22031030243082139 -0.38906492162812378 0 0.26125098829365018 -0.39969694482297641 0 0.2333640889907381 -0.41241884790723538 0 0.24502858373403441 -0.39146921073642488 0 0.24971336314328341 -0.36520417674804972 0 0.24502858373403441 -0.39146921073642488 0 0.24971336314328341 -0.36520417674804972 0 0.229200177642885 -0.36995291413531828 0 0.24502858373403441 -0.39146921073642488 0 0.229200177642885 -0.36995291413531828 0 0.24502858373403441 -0.39146921073642488 0 0.22031030243082139 -0.38906492162812378 0 0.20725651587090471 -0.36571099534901208 0 0.22031030243082139 -0.38906492162812378 0 0.19952097201101759 -0.38537913368264481 0 0.20725651587090471 -0.36571099534901208 0 0.22031030243082139 -0.38906492162812378 0 0.21626227209603979 -0.41615869782113413 0 0.22031030243082139 -0.38906492162812378 0 0.20485234226760879 -0.40188257102108682 0 0.22031030243082139 -0.38906492162812378 0 0.20485234226760879 -0.40188257102108682 0 0.19952097201101759 -0.38537913368264481 0 0.20485234226760879 -0.40188257102108682 0 0.19159455078491761 -0.39726910731705511 0 0.19952097201101759 -0.38537913368264481 0 0.1968341740193896 -0.41150644481021997 0 0.20485234226760879 -0.40188257102108682 0 0.19418069224578771 -0.40518464808912641 0 0.20485234226760879 -0.40188257102108682 0 0.19418069224578771 -0.40518464808912641 0 0.19159455078491761 -0.39726910731705511 0 0.19418069224578771 -0.40518464808912641 0 0.19159455078491761 -0.39726910731705511 0 0.18667504034831339 -0.41041640739772162 0 0.20725651587090471 -0.36571099534901208 0 0.19261827162763251 -0.374541644607297 0 0.19952097201101759 -0.38537913368264481 0 0.19261827162763251 -0.374541644607297 0 0.19952097201101759 -0.38537913368264481 0 0.1834568796589737 -0.38583095226508418 0 0.19159455078491761 -0.39726910731705511 0 0.19952097201101759 -0.38537913368264481 0 0.1834568796589737 -0.38583095226508418 0 0.17443949437422429 -0.37745336578486988 0 0.18306199361292941 -0.40184547908877583 0 0.1834568796589737 -0.38583095226508418 0 0.17443949437422429 -0.37745336578486988 0 0.18306199361292941 -0.40184547908877583 0 0.17443949437422429 -0.37745336578486988 0 0.18306199361292941 -0.40184547908877583 0 0.1699565165384864 -0.39219147373696051 0 0.19159455078491761 -0.39726910731705511 0 0.1834568796589737 -0.38583095226508418 0 0.18667504034831339 -0.41041640739772162 0 0.1834568796589737 -0.38583095226508418 0 0.18667504034831339 -0.41041640739772162 0 0.1834568796589737 -0.38583095226508418 0 0.18306199361292941 -0.40184547908877583 0 0.18667504034831339 -0.41041640739772162 0 0.18306199361292941 -0.40184547908877583 0 0.1699565165384864 -0.39219147373696051 0 0.17103987791038719 -0.40450309618882169 0 0.18306199361292941 -0.40184547908877583 0 0.17103987791038719 -0.40450309618882169 0 0.1814131781600461 -0.40758752999736902 0 0.1699565165384864 -0.39219147373696051 0 0.17103987791038719 -0.40450309618882169 0 0.15993177942481909 -0.39557864441750712 0 0.17103987791038719 -0.40450309618882169 0 0.15993177942481909 -0.39557864441750712 0 0.14638679418839309 -0.40849626541203388 0 0.1699565165384864 -0.39219147373696051 0 0.15993177942481909 -0.39557864441750712 0 0.1595700277473481 -0.38298567724053401 0 0.17443949437422429 -0.37745336578486988 0 0.1699565165384864 -0.39219147373696051 0 0.1595700277473481 -0.38298567724053401 0 0.1602354860011011 -0.36875954027416918 0 0.17443949437422429 -0.37745336578486988 0 0.1595700277473481 -0.38298567724053401 0 0.1602354860011011 -0.36875954027416918 0 0.14673951295096799 -0.37363029079717242 0 0.1595700277473481 -0.38298567724053401 0 0.14673951295096799 -0.37363029079717242 0 0.1595700277473481 -0.38298567724053401 0 0.14586341328622179 -0.39002728499933198 0 0.14673951295096799 -0.37363029079717242 0 0.14586341328622179 -0.39002728499933198 0 0.13273239812562251 -0.3803535413873157 0 0.15993177942481909 -0.39557864441750712 0 0.1595700277473481 -0.38298567724053401 0 0.14586341328622179 -0.39002728499933198 0 0.14586341328622179 -0.39002728499933198 0 0.13273239812562251 -0.3803535413873157 0 0.12412735500694751 -0.39493505064503392 0 0.13273239812562251 -0.3803535413873157 0 0.12412735500694751 -0.39493505064503392 0 0.1208593498238435 -0.38006314209191833 0 0.14586341328622179 -0.39002728499933198 0 0.14638679418839309 -0.40849626541203388 0 0.12412735500694751 -0.39493505064503392 0 0.14638679418839309 -0.40849626541203388 0 0.1185943653130178 -0.41089393958744808 0 0.12412735500694751 -0.39493505064503392 0 0.14638679418839309 -0.40849626541203388 0 0.12412735500694751 -0.39493505064503392 0 0.15993177942481909 -0.39557864441750712 0 0.14586341328622179 -0.39002728499933198 0 0.14638679418839309 -0.40849626541203388 0 0.14638679418839309 -0.40849626541203388 0 0.12945713117598301 -0.42527718494859718 0 0.1185943653130178 -0.41089393958744808 0 0.12945713117598301 -0.42527718494859718 0 0.1521605439778134 -0.43517333823265708 0 0.13567485458578729 -0.448289196286278 0 0.14638679418839309 -0.40849626541203388 0 0.12945713117598301 -0.42527718494859718 0 0.1521605439778134 -0.43517333823265708 0 0.14638679418839309 -0.40849626541203388 0 0.1521605439778134 -0.43517333823265708 0 0.16864623336983819 -0.42205748017903449 0 0.1521605439778134 -0.43517333823265708 0 0.16864623336983819 -0.42205748017903449 0 0.1521605439778134 -0.43517333823265708 0 0.16864623336983819 -0.42205748017903449 0 0.16573483381671769 -0.43911683261624462 0 0.16864623336983819 -0.42205748017903449 0 0.17670256027174869 -0.43608133600128551 0 0.16573483381671769 -0.43911683261624462 0 0.17103987791038719 -0.40450309618882169 0 0.14638679418839309 -0.40849626541203388 0 0.16962733287145829 -0.41306172809692981 0 0.14638679418839309 -0.40849626541203388 0 0.16864623336983819 -0.42205748017903449 0 0.14638679418839309 -0.40849626541203388 0 0.16864623336983819 -0.42205748017903449 0 0.16962733287145829 -0.41306172809692981 0 0.16864623336983819 -0.42205748017903449 0 0.17965678171287719 -0.41329759239238029 0 0.18989320103765239 -0.43500186253035911 0 0.17965678171287719 -0.41329759239238029 0 0.18667504034831339 -0.41041640739772162 0 0.16864623336983819 -0.42205748017903449 0 0.16962733287145829 -0.41306172809692981 0 0.17965678171287719 -0.41329759239238029 0 0.17103987791038719 -0.40450309618882169 0 0.16962733287145829 -0.41306172809692981 0 0.17965678171287719 -0.41329759239238029 0 0.17103987791038719 -0.40450309618882169 0 0.17965678171287719 -0.41329759239238029 0 0.1814131781600461 -0.40758752999736902 0 0.18306199361292941 -0.40184547908877583 0 0.1814131781600461 -0.40758752999736902 0 0.18667504034831339 -0.41041640739772162 0 0.17965678171287719 -0.41329759239238029 0 0.1814131781600461 -0.40758752999736902 0 0.18667504034831339 -0.41041640739772162 0 0.18989320103765239 -0.43500186253035911 0 0.16864623336983819 -0.42205748017903449 0 0.18989320103765239 -0.43500186253035911 0 0.16864623336983819 -0.42205748017903449 0 0.17965678171287719 -0.41329759239238029 0 0.18989320103765239 -0.43500186253035911 0 0.16864623336983819 -0.42205748017903449 0 0.17670256027174869 -0.43608133600128551 0 0.18989320103765239 -0.43500186253035911 0 0.17670256027174869 -0.43608133600128551 0 0.18208037526260021 -0.440172852945236 0 0.17851738694434799 -0.45081987712854771 0 0.17618275988476059 -0.44374183802639611 0 0.18401323307134959 -0.44581129240036288 0 0.17851738694434799 -0.45081987712854771 0 0.1776998484129505 -0.456552179461992 0 0.17120073938054131 -0.45123220200337888 0 0.17851738694434799 -0.45081987712854771 0 0.17618275988476059 -0.44374183802639611 0 0.17120073938054131 -0.45123220200337888 0 0.17670256027174869 -0.43608133600128551 0 0.17618275988476059 -0.44374183802639611 0 0.16573483381671769 -0.43911683261624462 0 0.17670256027174869 -0.43608133600128551 0 0.17618275988476059 -0.44374183802639611 0 0.18208037526260021 -0.440172852945236 0 0.18989320103765239 -0.43500186253035911 0 0.18208037526260021 -0.440172852945236 0 0.18401323307134959 -0.44581129240036288 0 0.18777566972406101 -0.44981142861604279 0 0.18989320103765239 -0.43500186253035911 0 0.18401323307134959 -0.44581129240036288 0 0.17618275988476059 -0.44374183802639611 0 0.18208037526260021 -0.440172852945236 0 0.18401323307134959 -0.44581129240036288 0 0.18777566972406101 -0.44981142861604279 0 0.18401323307134959 -0.44581129240036288 0 0.18385690407389799 -0.45446609953290928 0 0.17851738694434799 -0.45081987712854771 0 0.18401323307134959 -0.44581129240036288 0 0.18385690407389799 -0.45446609953290928 0 0.19047701204926121 -0.46094242075341862 0 0.1876592352144193 -0.45673372923780892 0 0.1806900259799068 -0.46227126151247672 0 0.1876592352144193 -0.45673372923780892 0 0.18777566972406101 -0.44981142861604279 0 0.18385690407389799 -0.45446609953290928 0 0.19047701204926121 -0.46094242075341862 0 0.1806900259799068 -0.46227126151247672 0 0.17298031468751371 -0.48047121037671059 0 0.1876592352144193 -0.45673372923780892 0 0.18385690407389799 -0.45446609953290928 0 0.1806900259799068 -0.46227126151247672 0 0.18385690407389799 -0.45446609953290928 0 0.1806900259799068 -0.46227126151247672 0 0.1776998484129505 -0.456552179461992 0 0.17851738694434799 -0.45081987712854771 0 0.18385690407389799 -0.45446609953290928 0 0.1776998484129505 -0.456552179461992 0 0.1806900259799068 -0.46227126151247672 0 0.1776998484129505 -0.456552179461992 0 0.17146684144139809 -0.46446192971202138 0 0.1776998484129505 -0.456552179461992 0 0.17146684144139809 -0.46446192971202138 0 0.17120073938054131 -0.45123220200337888 0 0.17146684144139809 -0.46446192971202138 0 0.15759213853868431 -0.45113306297151079 0 0.14900727366634989 -0.46501884712825781 0 0.17146684144139809 -0.46446192971202138 0 0.15759213853868431 -0.45113306297151079 0 0.17120073938054131 -0.45123220200337888 0 0.1521605439778134 -0.43517333823265708 0 0.15759213853868431 -0.45113306297151079 0 0.16573483381671769 -0.43911683261624462 0 0.15759213853868431 -0.45113306297151079 0 0.17120073938054131 -0.45123220200337888 0 0.16573483381671769 -0.43911683261624462 0 0.17618275988476059 -0.44374183802639611 0 0.17120073938054131 -0.45123220200337888 0 0.16573483381671769 -0.43911683261624462 0 0.1521605439778134 -0.43517333823265708 0 0.15759213853868431 -0.45113306297151079 0 0.13567485458578729 -0.448289196286278 0 0.1521605439778134 -0.43517333823265708 0 0.13567485458578729 -0.448289196286278 0 0.13567485458578729 -0.448289196286278 0 0.1191891651937612 -0.46140505433989892 0 0.12203304576274319 -0.43975504748265359 0 0.12945713117598301 -0.42527718494859718 0 0.13567485458578729 -0.448289196286278 0 0.12203304576274319 -0.43975504748265359 0 0.13567485458578729 -0.448289196286278 0 0.1191891651937612 -0.46140505433989892 0 0.13567485458578729 -0.448289196286278 0 0.13480127744719991 -0.46410976413563299 0 0.1191891651937612 -0.46140505433989892 0 0.13567485458578729 -0.448289196286278 0 0.13480127744719991 -0.46410976413563299 0 0.14900727366634989 -0.46501884712825781 0 0.15759213853868431 -0.45113306297151079 0 0.13567485458578729 -0.448289196286278 0 0.14900727366634989 -0.46501884712825781 0 0.14900727366634989 -0.46501884712825781 0 0.15577652408963519 -0.48266000469618581 0 0.13873200589539489 -0.47945912496791759 0 0.13480127744719991 -0.46410976413563299 0 0.14900727366634989 -0.46501884712825781 0 0.13873200589539489 -0.47945912496791759 0 0.13480127744719991 -0.46410976413563299 0 0.13873200589539489 -0.47945912496791759 0 0.11801755443736479 -0.48060781756800708 0 0.13873200589539489 -0.47945912496791759 0 0.13581988522262109 -0.50000000000000244 0 0.11801755443736479 -0.48060781756800708 0 0.13581988522262109 -0.50000000000000244 0 0.11801755443736479 -0.48060781756800708 0 0.15577652408963519 -0.48266000469618581 0 0.13873200589539489 -0.47945912496791759 0 0.13581988522262109 -0.50000000000000244 0 0.15577652408963519 -0.48266000469618581 0 0.13581988522262109 -0.50000000000000244 0 0.15548361732576529 -0.50000000000000178 0 0.15577652408963519 -0.48266000469618581 0 0.15548361732576529 -0.50000000000000178 0 0.17298031468751371 -0.48047121037671059 0 0.15548361732576529 -0.50000000000000178 0 0.17298031468751371 -0.48047121037671059 0 0.1769424376256932 -0.5 0 0.15548361732576529 -0.50000000000000178 0 0.17298031468751371 -0.48047121037671059 0 0.17146684144139809 -0.46446192971202138 0 0.15577652408963519 -0.48266000469618581 0 0.17298031468751371 -0.48047121037671059 0 0.17146684144139809 -0.46446192971202138 0 0.14900727366634989 -0.46501884712825781 0 0.15577652408963519 -0.48266000469618581 0 0.19047701204926121 -0.46094242075341862 0 0.17298031468751371 -0.48047121037671059 0 0.1806900259799068 -0.46227126151247672 0 0.17146684144139809 -0.46446192971202138 0 0.17298031468751371 -0.48047121037671059 0 0.1955652389629654 -0.47833395417678298 0 0.19047701204926121 -0.46094242075341862 0 0.17298031468751371 -0.48047121037671059 0 0.1955652389629654 -0.47833395417678298 0 0.17298031468751371 -0.48047121037671059 0 0.1857239970351309 -0.48926605560099218 0 0.19840125792562099 -0.499999999999995 0 0.1857239970351309 -0.48926605560099218 0 0.1769424376256932 -0.5 0 0.17298031468751371 -0.48047121037671059 0 0.1857239970351309 -0.48926605560099218 0 0.1769424376256932 -0.5 0 0.074737975103940479 -0.48487994098964171 0 0.071046826552429457 -0.50000000000000733 0 0.059434139084113012 -0.47963991399004141 0 0.071046826552429457 -0.50000000000000733 0 0.059434139084113012 -0.47963991399004141 0 0.074737975103940479 -0.48487994098964171 0 0.05802097188470097 -0.46975988197928431 0 0.059434139084113012 -0.47963991399004141 0 0.074737975103940479 -0.48487994098964171 0 0.071955909258469009 -0.46877079283141743 0 0.05802097188470097 -0.46975988197928431 0 0.074737975103940479 -0.48487994098964171 0 0.071955909258469009 -0.46877079283141743 0 0.082737354296077953 -0.47427357099325013 0 0.074737975103940479 -0.48487994098964171 0 0.05802097188470097 -0.46975988197928431 0 0.074737975103940479 -0.48487994098964171 0 0.082737354296077953 -0.47427357099325013 0 0.094811061721812542 -0.48112121468145302 0 0.082737354296077953 -0.47427357099325013 0 0.094811061721812542 -0.48112121468145302 0 0.1002152236521098 -0.46121563513601083 0 0.074737975103940479 -0.48487994098964171 0 0.091454978323179614 -0.49999999999999939 0 0.094811061721812542 -0.48112121468145302 0 0.074737975103940479 -0.48487994098964171 0 0.091454978323179614 -0.49999999999999939 0 0.074737975103940479 -0.48487994098964171 0 0.071046826552429457 -0.50000000000000733 0 0.091454978323179614 -0.49999999999999939 0 0.1136374317729003 -0.5 0 0.11801755443736479 -0.48060781756800708 0 0.094811061721812542 -0.48112121468145302 0 0.091454978323179614 -0.49999999999999939 0 0.1136374317729003 -0.5 0 0.094811061721812542 -0.48112121468145302 0 0.13581988522262109 -0.50000000000000244 0 0.1136374317729003 -0.5 0 0.11801755443736479 -0.48060781756800708 0 0.11801755443736479 -0.48060781756800708 0 0.094811061721812542 -0.48112121468145302 0 0.1002152236521098 -0.46121563513601083 0 0.11801755443736479 -0.48060781756800708 0 0.1002152236521098 -0.46121563513601083 0 0.1002152236521098 -0.46121563513601083 0 0.1191891651937612 -0.46140505433989892 0 0.1082504500781146 -0.44478934181291102 0 0.11801755443736479 -0.48060781756800708 0 0.1002152236521098 -0.46121563513601083 0 0.1191891651937612 -0.46140505433989892 0 0.13480127744719991 -0.46410976413563299 0 0.11801755443736479 -0.48060781756800708 0 0.1191891651937612 -0.46140505433989892 0 0.1191891651937612 -0.46140505433989892 0 0.12203304576274319 -0.43975504748265359 0 0.1082504500781146 -0.44478934181291102 0 0.1002152236521098 -0.46121563513601083 0 0.1082504500781146 -0.44478934181291102 0 0.082412892866854714 -0.44182345270401441 0 0.1002152236521098 -0.46121563513601083 0 0.082412892866854714 -0.44182345270401441 0 0.082737354296077953 -0.47427357099325013 0 0.1002152236521098 -0.46121563513601083 0 0.07989865607697158 -0.46093656822545309 0 0.1002152236521098 -0.46121563513601083 0 0.082412892866854714 -0.44182345270401441 0 0.07989865607697158 -0.46093656822545309 0 0.071955909258469009 -0.46877079283141743 0 0.082737354296077953 -0.47427357099325013 0 0.07989865607697158 -0.46093656822545309 0 0.071955909258469009 -0.46877079283141743 0 0.07989865607697158 -0.46093656822545309 0 0.064942869781788204 -0.45298741250561531 0 0.071955909258469009 -0.46877079283141743 0 0.064942869781788204 -0.45298741250561531 0 0.05802097188470097 -0.46975988197928431 0 0.082412892866854714 -0.44182345270401441 0 0.07989865607697158 -0.46093656822545309 0 0.064942869781788204 -0.45298741250561531 0 0.082412892866854714 -0.44182345270401441 0 0.064942869781788204 -0.45298741250561531 0 0.064610562081599654 -0.42243127027201799 0 0.082412892866854714 -0.44182345270401441 0 0.064610562081599654 -0.42243127027201799 0 0.085410796704641828 -0.41553833344022301 0 0.082412892866854714 -0.44182345270401441 0 0.064610562081599654 -0.42243127027201799 0 0.064610562081599654 -0.42243127027201799 0 0.085410796704641828 -0.41553833344022301 0 0.071260751408415451 -0.40583032332525898 0 0.082412892866854714 -0.44182345270401441 0 0.085410796704641828 -0.41553833344022301 0 0.10565257718969159 -0.42402980380391259 0 0.1082504500781146 -0.44478934181291102 0 0.10565257718969159 -0.42402980380391259 0 0.1082504500781146 -0.44478934181291102 0 0.082412892866854714 -0.44182345270401441 0 0.10565257718969159 -0.42402980380391259 0 0.12203304576274319 -0.43975504748265359 0 0.1082504500781146 -0.44478934181291102 0 0.10565257718969159 -0.42402980380391259 0 0.12945713117598301 -0.42527718494859718 0 0.12203304576274319 -0.43975504748265359 0 0.10565257718969159 -0.42402980380391259 0 0.12945713117598301 -0.42527718494859718 0 0.10565257718969159 -0.42402980380391259 0 0.1185943653130178 -0.41089393958744808 0 0.10565257718969159 -0.42402980380391259 0 0.10305470430126849 -0.40327026579491432 0 0.10565257718969159 -0.42402980380391259 0 0.1185943653130178 -0.41089393958744808 0 0.10305470430126849 -0.40327026579491432 0 0.085410796704641828 -0.41553833344022301 0 0.10565257718969159 -0.42402980380391259 0 0.10305470430126849 -0.40327026579491432 0 0.10305470430126849 -0.40327026579491432 0 0.1092296532162271 -0.39195520602732847 0 0.1018679158255022 -0.38137383587803358 0 0.10305470430126849 -0.40327026579491432 0 0.1018679158255022 -0.38137383587803358 0 0.084827885114816814 -0.39510276155480978 0 0.10305470430126849 -0.40327026579491432 0 0.1018679158255022 -0.38137383587803358 0 0.1185943653130178 -0.41089393958744808 0 0.10305470430126849 -0.40327026579491432 0 0.1092296532162271 -0.39195520602732847 0 0.1185943653130178 -0.41089393958744808 0 0.1092296532162271 -0.39195520602732847 0 0.12412735500694751 -0.39493505064503392 0 0.12412735500694751 -0.39493505064503392 0 0.1208593498238435 -0.38006314209191833 0 0.1018679158255022 -0.38137383587803358 0 0.1092296532162271 -0.39195520602732847 0 0.12412735500694751 -0.39493505064503392 0 0.1018679158255022 -0.38137383587803358 0 0.12412735500694751 -0.39493505064503392 0 0.1018679158255022 -0.38137383587803358 0 0.1208593498238435 -0.38006314209191833 0 0.1018679158255022 -0.38137383587803358 0 0.12334710111447229 -0.36406834251145731 0 0.1018679158255022 -0.38137383587803358 0 0.1001863568717406 -0.38034937241650962 0 0.10879209213087419 -0.36797725762153549 0 0.1018679158255022 -0.38137383587803358 0 0.1001863568717406 -0.38034937241650962 0 0.092680417082859706 -0.38189565836938699 0 0.1018679158255022 -0.38137383587803358 0 0.1001863568717406 -0.38034937241650962 0 0.1001863568717406 -0.38034937241650962 0 0.092680417082859706 -0.38189565836938699 0 0.078941289569781151 -0.36740614783332631 0 0.1018679158255022 -0.38137383587803358 0 0.084827885114816814 -0.39510276155480978 0 0.1018679158255022 -0.38137383587803358 0 0.092680417082859706 -0.38189565836938699 0 0.084827885114816814 -0.39510276155480978 0 0.083667078469080447 -0.3817485906143725 0 0.076461538166658155 -0.38231907318138902 0 0.078941289569781151 -0.36740614783332631 0 0.092680417082859706 -0.38189565836938699 0 0.083667078469080447 -0.3817485906143725 0 0.078941289569781151 -0.36740614783332631 0 0.084827885114816814 -0.39510276155480978 0 0.073546264855348126 -0.39398280964304111 0 0.076461538166658155 -0.38231907318138902 0 0.083667078469080447 -0.3817485906143725 0 0.084827885114816814 -0.39510276155480978 0 0.076461538166658155 -0.38231907318138902 0 0.092680417082859706 -0.38189565836938699 0 0.083667078469080447 -0.3817485906143725 0 0.084827885114816814 -0.39510276155480978 0 0.085410796704641828 -0.41553833344022301 0 0.10305470430126849 -0.40327026579491432 0 0.084827885114816814 -0.39510276155480978 0 0.085410796704641828 -0.41553833344022301 0 0.084827885114816814 -0.39510276155480978 0 0.071260751408415451 -0.40583032332525898 0 0.084827885114816814 -0.39510276155480978 0 0.073546264855348126 -0.39398280964304111 0 0.071260751408415451 -0.40583032332525898 0 0.073546264855348126 -0.39398280964304111 0 0.071260751408415451 -0.40583032332525898 0 0.061634884731502082 -0.39267908051070671 0 0.076461538166658155 -0.38231907318138902 0 0.061634884731502082 -0.39267908051070671 0 0.076461538166658155 -0.38231907318138902 0 0.061634884731502082 -0.39267908051070671 0 0.061904282875925747 -0.37237526148823941 0 0.073546264855348126 -0.39398280964304111 0 0.076461538166658155 -0.38231907318138902 0 0.061634884731502082 -0.39267908051070671 0 0.051370350477500881 -0.3764161884637201 0 0.045801185216693012 -0.38580832539780119 0 0.043663507306638913 -0.36868104746756258 0 0.051370350477500881 -0.3764161884637201 0 0.061634884731502082 -0.39267908051070671 0 0.045801185216693012 -0.38580832539780119 0 0.051370350477500881 -0.3764161884637201 0 0.061634884731502082 -0.39267908051070671 0 0.061904282875925747 -0.37237526148823941 0 0.071260751408415451 -0.40583032332525898 0 0.061634884731502082 -0.39267908051070671 0 0.04680823129634433 -0.40303908784002201 0 0.061634884731502082 -0.39267908051070671 0 0.04680823129634433 -0.40303908784002201 0 0.045801185216693012 -0.38580832539780119 0 0.061634884731502082 -0.39267908051070671 0 0.04680823129634433 -0.40303908784002201 0 0.04680823129634433 -0.40303908784002201 0 0.02837172461734 -0.38295609391969199 0 0.04680823129634433 -0.40303908784002201 0 0.02837172461734 -0.38295609391969199 0 0.028215565298714249 -0.40094151263492078 0 0.045801185216693012 -0.38580832539780119 0 0.02837172461734 -0.38295609391969199 0 0.043663507306638913 -0.36868104746756258 0 0.04680823129634433 -0.40303908784002201 0 0.045801185216693012 -0.38580832539780119 0 0.02837172461734 -0.38295609391969199 0 0.02837172461734 -0.38295609391969199 0 0.0122991559467155 -0.37891225603134221 0 0.011208636448502229 -0.39508796301279092 0 -0.002178803782163227 -0.37161627006544062 0 0.0122991559467155 -0.37891225603134221 0 0.011208636448502229 -0.39508796301279092 0 -0.002178803782163227 -0.37161627006544062 0 0.011208636448502229 -0.39508796301279092 0 -0.002178803782163227 -0.37161627006544062 0 -0.0066930742226519926 -0.39143820132839208 0 0.011208636448502229 -0.39508796301279092 0 -0.001728596279610697 -0.40597762003102339 0 0.011208636448502229 -0.39508796301279092 0 0.0082246319185010179 -0.41465428951275207 0 -0.0066930742226519926 -0.39143820132839208 0 -0.001728596279610697 -0.40597762003102339 0 0.011208636448502229 -0.39508796301279092 0 0.011208636448502229 -0.39508796301279092 0 0.028215565298714249 -0.40094151263492078 0 0.024596076679173799 -0.41855965596013778 0 0.02837172461734 -0.38295609391969199 0 0.011208636448502229 -0.39508796301279092 0 0.028215565298714249 -0.40094151263492078 0 0.011208636448502229 -0.39508796301279092 0 0.024596076679173799 -0.41855965596013778 0 0.011208636448502229 -0.39508796301279092 0 0.024596076679173799 -0.41855965596013778 0 0.0082246319185010179 -0.41465428951275207 0 0.024596076679173799 -0.41855965596013778 0 0.0082246319185010179 -0.41465428951275207 0 0.01039378864355619 -0.42848339288335913 0 -0.009537301248459449 -0.42510302968362512 0 0.0082246319185010179 -0.41465428951275207 0 0.01039378864355619 -0.42848339288335913 0 0.024596076679173799 -0.41855965596013778 0 0.036208764147486278 -0.43891974197010591 0 0.024596076679173799 -0.41855965596013778 0 0.036208764147486278 -0.43891974197010591 0 0.020713539006084219 -0.44010250100644183 0 0.024596076679173799 -0.41855965596013778 0 0.01039378864355619 -0.42848339288335913 0 0.020713539006084219 -0.44010250100644183 0 0.024596076679173799 -0.41855965596013778 0 0.01039378864355619 -0.42848339288335913 0 0.024596076679173799 -0.41855965596013778 0 0.043950702345966319 -0.42295947833088071 0 0.036208764147486278 -0.43891974197010591 0 0.043950702345966319 -0.42295947833088071 0 0.051347790295756007 -0.43901682978775403 0 0.036208764147486278 -0.43891974197010591 0 0.04680823129634433 -0.40303908784002201 0 0.024596076679173799 -0.41855965596013778 0 0.04680823129634433 -0.40303908784002201 0 0.028215565298714249 -0.40094151263492078 0 0.024596076679173799 -0.41855965596013778 0 0.04680823129634433 -0.40303908784002201 0 0.024596076679173799 -0.41855965596013778 0 0.043950702345966319 -0.42295947833088071 0 0.064610562081599654 -0.42243127027201799 0 0.071260751408415451 -0.40583032332525898 0 0.04680823129634433 -0.40303908784002201 0 0.064610562081599654 -0.42243127027201799 0 0.04680823129634433 -0.40303908784002201 0 0.064610562081599654 -0.42243127027201799 0 0.04680823129634433 -0.40303908784002201 0 0.043950702345966319 -0.42295947833088071 0 0.064610562081599654 -0.42243127027201799 0 0.043950702345966319 -0.42295947833088071 0 0.051347790295756007 -0.43901682978775403 0 0.064942869781788204 -0.45298741250561531 0 0.064610562081599654 -0.42243127027201799 0 0.051347790295756007 -0.43901682978775403 0 0.064942869781788204 -0.45298741250561531 0 0.051347790295756007 -0.43901682978775403 0 0.047821451615799627 -0.45927982798007361 0 0.064942869781788204 -0.45298741250561531 0 0.047821451615799627 -0.45927982798007361 0 0.05802097188470097 -0.46975988197928431 0 0.047821451615799627 -0.45927982798007361 0 0.023714967739582489 -0.4565662814222432 0 0.032020960621095843 -0.47777188036233098 0 0.047821451615799627 -0.45927982798007361 0 0.036208764147486278 -0.43891974197010591 0 0.051347790295756007 -0.43901682978775403 0 0.047821451615799627 -0.45927982798007361 0 0.036208764147486278 -0.43891974197010591 0 0.047821451615799627 -0.45927982798007361 0 0.036208764147486278 -0.43891974197010591 0 0.023714967739582489 -0.4565662814222432 0 0.036208764147486278 -0.43891974197010591 0 0.020713539006084219 -0.44010250100644183 0 0.023714967739582489 -0.4565662814222432 0 -0.0013374034004768371 -0.44947558896604423 0 0.01039378864355619 -0.42848339288335913 0 0.020713539006084219 -0.44010250100644183 0 -0.0013374034004768371 -0.44947558896604423 0 0.020713539006084219 -0.44010250100644183 0 0.023714967739582489 -0.4565662814222432 0 -0.0013374034004768371 -0.44947558896604423 0 0.0068624944475057766 -0.47384814824846327 0 -0.0013374034004768371 -0.44947558896604423 0 0.023714967739582489 -0.4565662814222432 0 0.0068624944475057766 -0.47384814824846327 0 0.023714967739582489 -0.4565662814222432 0 0.0068624944475057766 -0.47384814824846327 0 0.032020960621095843 -0.47777188036233098 0 0.0068624944475057766 -0.47384814824846327 0 0.0150623922954884 -0.49822070753088238 0 0.032020960621095843 -0.47777188036233098 0 -0.015217900669161011 -0.5 0 0.0024053695883212941 -0.48891336768777249 0 0.013537008404702511 -0.5 0 0.0068624944475057766 -0.47384814824846327 0 0.0024053695883212941 -0.48891336768777249 0 0.0150623922954884 -0.49822070753088238 0 0.0068624944475057766 -0.47384814824846327 0 0.0150623922954884 -0.49822070753088238 0 0.0024053695883212941 -0.48891336768777249 0 0.0150623922954884 -0.49822070753088238 0 0.013537008404702511 -0.5 0 0.0150623922954884 -0.49822070753088238 0 0.013537008404702511 -0.5 0 0.042291917478565873 -0.5 0 0.0150623922954884 -0.49822070753088238 0 0.042291917478565873 -0.5 0 0.032020960621095843 -0.47777188036233098 0 0.042291917478565873 -0.5 0 0.032020960621095843 -0.47777188036233098 0 0.059434139084113012 -0.47963991399004141 0 0.047821451615799627 -0.45927982798007361 0 0.032020960621095843 -0.47777188036233098 0 0.059434139084113012 -0.47963991399004141 0 0.047821451615799627 -0.45927982798007361 0 0.05802097188470097 -0.46975988197928431 0 0.059434139084113012 -0.47963991399004141 0 0.047821451615799627 -0.45927982798007361 0 0.059434139084113012 -0.47963991399004141 0 0.071046826552429457 -0.50000000000000733 0 0.042291917478565873 -0.5 0 0.059434139084113012 -0.47963991399004141 0 0.078456545354339768 -0.28525100698693651 0 0.075192778843485145 -0.3004755496101415 0 0.095899689397586599 -0.3008291305439913 0 0.078456545354339768 -0.28525100698693651 0 0.095711127176573443 -0.2751242682777974 0 0.095899689397586599 -0.3008291305439913 0 0.075192778843485145 -0.3004755496101415 0 0.095899689397586599 -0.3008291305439913 0 0.074188022781041252 -0.31649930169162399 0 0.095899689397586599 -0.3008291305439913 0 0.074188022781041252 -0.31649930169162399 0 0.075192778843485145 -0.3004755496101415 0 0.074188022781041252 -0.31649930169162399 0 0.058270312985904418 -0.30816514798469019 0 0.075192778843485145 -0.3004755496101415 0 0.068995976747761104 -0.2945131319279734 0 0.058270312985904418 -0.30816514798469019 0 0.068995976747761104 -0.2945131319279734 0 0.064064269807315097 -0.28416082313012542 0 0.058270312985904418 -0.30816514798469019 0 0.078456545354339768 -0.28525100698693651 0 0.075192778843485145 -0.3004755496101415 0 0.068995976747761104 -0.2945131319279734 0 0.078456545354339768 -0.28525100698693651 0 0.068995976747761104 -0.2945131319279734 0 0.064064269807315097 -0.28416082313012542 0 0.064064269807315097 -0.28416082313012542 0 0.069858226628725775 -0.26015649827556059 0 0.078456545354339768 -0.28525100698693651 0 0.064064269807315097 -0.28416082313012542 0 0.069858226628725775 -0.26015649827556059 0 0.069858226628725775 -0.26015649827556059 0 0.095711127176573443 -0.2751242682777974 0 0.096521476943682558 -0.25181800011133371 0 0.078456545354339768 -0.28525100698693651 0 0.069858226628725775 -0.26015649827556059 0 0.095711127176573443 -0.2751242682777974 0 0.095711127176573443 -0.2751242682777974 0 0.114720785939063 -0.26575264298982931 0 0.1176113560141319 -0.2851589593963586 0 0.095711127176573443 -0.2751242682777974 0 0.096521476943682558 -0.25181800011133371 0 0.114720785939063 -0.26575264298982931 0 0.1376178273856396 -0.2676878026278281 0 0.114720785939063 -0.26575264298982931 0 0.1200034520355143 -0.24749468667538321 0 0.096521476943682558 -0.25181800011133371 0 0.114720785939063 -0.26575264298982931 0 0.1200034520355143 -0.24749468667538321 0 0.1376178273856396 -0.2676878026278281 0 0.114720785939063 -0.26575264298982931 0 0.1176113560141319 -0.2851589593963586 0 0.13584279120622419 -0.29064916595208462 0 0.1176113560141319 -0.2851589593963586 0 0.1212075847983899 -0.30357596212866123 0 0.1176113560141319 -0.2851589593963586 0 0.095899689397586599 -0.3008291305439913 0 0.1212075847983899 -0.30357596212866123 0 0.1176113560141319 -0.2851589593963586 0 0.095899689397586599 -0.3008291305439913 0 0.095711127176573443 -0.2751242682777974 0 0.1176113560141319 -0.2851589593963586 0 0.095899689397586599 -0.3008291305439913 0 0.095899689397586599 -0.3008291305439913 0 0.1212075847983899 -0.30357596212866123 0 0.1047724191350739 -0.31963875894108951 0 0.1212075847983899 -0.30357596212866123 0 0.1249111379911398 -0.32186001205002218 0 0.1047724191350739 -0.31963875894108951 0 0.1249111379911398 -0.32186001205002218 0 0.1047724191350739 -0.31963875894108951 0 0.11573058637367541 -0.34380091622275832 0 0.094619564876377599 -0.33586527524184762 0 0.1047724191350739 -0.31963875894108951 0 0.11573058637367541 -0.34380091622275832 0 0.094619564876377599 -0.33586527524184762 0 0.1047724191350739 -0.31963875894108951 0 0.086339338786571823 -0.32698567366184278 0 0.095899689397586599 -0.3008291305439913 0 0.1047724191350739 -0.31963875894108951 0 0.086339338786571823 -0.32698567366184278 0 0.1018679158255022 -0.38137383587803358 0 0.12334710111447229 -0.36406834251145731 0 0.1018679158255022 -0.38137383587803358 0 0.12334710111447229 -0.36406834251145731 0 0.10879209213087419 -0.36797725762153549 0 0.12334710111447229 -0.36406834251145731 0 0.11573058637367541 -0.34380091622275832 0 0.10879209213087419 -0.36797725762153549 0 0.11573058637367541 -0.34380091622275832 0 0.097402960874061584 -0.35810732382917831 0 0.10879209213087419 -0.36797725762153549 0 0.094619564876377599 -0.33586527524184762 0 0.11573058637367541 -0.34380091622275832 0 0.097402960874061584 -0.35810732382917831 0 0.094619564876377599 -0.33586527524184762 0 0.097402960874061584 -0.35810732382917831 0 0.1001863568717406 -0.38034937241650962 0 0.097402960874061584 -0.35810732382917831 0 0.1001863568717406 -0.38034937241650962 0 0.097402960874061584 -0.35810732382917831 0 0.10879209213087419 -0.36797725762153549 0 0.1001863568717406 -0.38034937241650962 0 0.097402960874061584 -0.35810732382917831 0 0.078941289569781151 -0.36740614783332631 0 0.1001863568717406 -0.38034937241650962 0 0.078941289569781151 -0.36740614783332631 0 0.094619564876377599 -0.33586527524184762 0 0.097402960874061584 -0.35810732382917831 0 0.084740357312199394 -0.34701535865000288 0 0.078941289569781151 -0.36740614783332631 0 0.084740357312199394 -0.34701535865000288 0 0.072564810466095128 -0.35396504242622201 0 0.097402960874061584 -0.35810732382917831 0 0.078941289569781151 -0.36740614783332631 0 0.084740357312199394 -0.34701535865000288 0 0.078941289569781151 -0.36740614783332631 0 0.072564810466095128 -0.35396504242622201 0 0.057696222267823373 -0.35446292325014028 0 0.084740357312199394 -0.34701535865000288 0 0.072564810466095128 -0.35396504242622201 0 0.073102422775426085 -0.33909783780230318 0 0.064643683218506637 -0.34920539315333932 0 0.072564810466095128 -0.35396504242622201 0 0.073102422775426085 -0.33909783780230318 0 0.064643683218506637 -0.34920539315333932 0 0.072564810466095128 -0.35396504242622201 0 0.057696222267823373 -0.35446292325014028 0 0.078941289569781151 -0.36740614783332631 0 0.057696222267823373 -0.35446292325014028 0 0.076461538166658155 -0.38231907318138902 0 0.078941289569781151 -0.36740614783332631 0 0.061904282875925747 -0.37237526148823941 0 0.078941289569781151 -0.36740614783332631 0 0.061904282875925747 -0.37237526148823941 0 0.057696222267823373 -0.35446292325014028 0 0.095899689397586599 -0.3008291305439913 0 0.086339338786571823 -0.32698567366184278 0 0.074188022781041252 -0.31649930169162399 0 0.094619564876377599 -0.33586527524184762 0 0.084740357312199394 -0.34701535865000288 0 0.086339338786571823 -0.32698567366184278 0 0.084740357312199394 -0.34701535865000288 0 0.086339338786571823 -0.32698567366184278 0 0.073102422775426085 -0.33909783780230318 0 0.073102422775426085 -0.33909783780230318 0 0.074188022781041252 -0.31649930169162399 0 0.052476356164494947 -0.33216947283925541 0 0.064643683218506637 -0.34920539315333932 0 0.073102422775426085 -0.33909783780230318 0 0.060945063747813971 -0.34285112352430303 0 0.074188022781041252 -0.31649930169162399 0 0.052476356164494947 -0.33216947283925541 0 0.086339338786571823 -0.32698567366184278 0 0.073102422775426085 -0.33909783780230318 0 0.074188022781041252 -0.31649930169162399 0 0.052476356164494947 -0.33216947283925541 0 0.058270312985904418 -0.30816514798469019 0 0.052476356164494947 -0.33216947283925541 0 0.044648526871603783 -0.31770081170742831 0 0.058270312985904418 -0.30816514798469019 0 0.074188022781041252 -0.31649930169162399 0 0.052476356164494947 -0.33216947283925541 0 0.058270312985904418 -0.30816514798469019 0 0.052476356164494947 -0.33216947283925541 0 0.047583047975914103 -0.35244241635483559 0 0.073102422775426085 -0.33909783780230318 0 0.060945063747813971 -0.34285112352430303 0 0.052476356164494947 -0.33216947283925541 0 0.060945063747813971 -0.34285112352430303 0 0.052476356164494947 -0.33216947283925541 0 0.054181307711507642 -0.34983992205818981 0 0.052476356164494947 -0.33216947283925541 0 0.04071506683574927 -0.34065806194451792 0 0.047583047975914103 -0.35244241635483559 0 0.052476356164494947 -0.33216947283925541 0 0.04071506683574927 -0.34065806194451792 0 0.044648526871603783 -0.31770081170742831 0 0.04071506683574927 -0.34065806194451792 0 0.03015636661650286 -0.3225410253719756 0 0.04071506683574927 -0.34065806194451792 0 0.03015636661650286 -0.3225410253719756 0 0.02636863849756152 -0.33688388254537838 0 0.052476356164494947 -0.33216947283925541 0 0.04071506683574927 -0.34065806194451792 0 0.04071506683574927 -0.34065806194451792 0 0.044648526871603783 -0.31770081170742831 0 0.03015636661650286 -0.3225410253719756 0 0.044648526871603783 -0.31770081170742831 0 0.03015636661650286 -0.3225410253719756 0 0.034491627806478041 -0.30853974567073322 0 0.061904282875925747 -0.37237526148823941 0 0.053259535722039633 -0.3641180164926533 0 0.057696222267823373 -0.35446292325014028 0 0.051370350477500881 -0.3764161884637201 0 0.053259535722039633 -0.3641180164926533 0 0.043663507306638913 -0.36868104746756258 0 0.051370350477500881 -0.3764161884637201 0 0.061904282875925747 -0.37237526148823941 0 0.053259535722039633 -0.3641180164926533 0 0.053259535722039633 -0.3641180164926533 0 0.048773826387857627 -0.3544856011778737 0 0.043663507306638913 -0.36868104746756258 0 0.052476356164494947 -0.33216947283925541 0 0.047583047975914103 -0.35244241635483559 0 0.054181307711507642 -0.34983992205818981 0 0.053259535722039633 -0.3641180164926533 0 0.053244657324237762 -0.3582642649149802 0 0.048773826387857627 -0.3544856011778737 0 0.053244657324237762 -0.3582642649149802 0 0.048773826387857627 -0.3544856011778737 0 0.054181307711507642 -0.34983992205818981 0 0.048773826387857627 -0.3544856011778737 0 0.047583047975914103 -0.35244241635483559 0 0.054181307711507642 -0.34983992205818981 0 0.048773826387857627 -0.3544856011778737 0 0.047583047975914103 -0.35244241635483559 0 0.053259535722039633 -0.3641180164926533 0 0.053244657324237762 -0.3582642649149802 0 0.057696222267823373 -0.35446292325014028 0 0.053244657324237762 -0.3582642649149802 0 0.057696222267823373 -0.35446292325014028 0 0.054181307711507642 -0.34983992205818981 0 0.064643683218506637 -0.34920539315333932 0 0.057696222267823373 -0.35446292325014028 0 0.054181307711507642 -0.34983992205818981 0 0.064643683218506637 -0.34920539315333932 0 0.060945063747813971 -0.34285112352430303 0 0.054181307711507642 -0.34983992205818981 0 0.048773826387857627 -0.3544856011778737 0 0.047583047975914103 -0.35244241635483559 0 0.043663507306638913 -0.36868104746756258 0 0.04071506683574927 -0.34065806194451792 0 0.047583047975914103 -0.35244241635483559 0 0.04071506683574927 -0.34065806194451792 0 0.047583047975914103 -0.35244241635483559 0 0.03985573710467899 -0.35136837444597901 0 0.04071506683574927 -0.34065806194451792 0 0.03985573710467899 -0.35136837444597901 0 0.03205896378917665 -0.35434441690964041 0 0.04071506683574927 -0.34065806194451792 0 0.03205896378917665 -0.35434441690964041 0 0.025431496553892478 -0.35168882095041942 0 0.04071506683574927 -0.34065806194451792 0 0.025431496553892478 -0.35168882095041942 0 0.03985573710467899 -0.35136837444597901 0 0.03205896378917665 -0.35434441690964041 0 0.039065869817875902 -0.35802860257492208 0 0.047583047975914103 -0.35244241635483559 0 0.03985573710467899 -0.35136837444597901 0 0.039065869817875902 -0.35802860257492208 0 0.02837172461734 -0.38295609391969199 0 0.033371525452051833 -0.36592480980272157 0 0.043663507306638913 -0.36868104746756258 0 0.047583047975914103 -0.35244241635483559 0 0.039065869817875902 -0.35802860257492208 0 0.043663507306638913 -0.36868104746756258 0 0.047583047975914103 -0.35244241635483559 0 0.043663507306638913 -0.36868104746756258 0 0.039065869817875902 -0.35802860257492208 0 0.033371525452051833 -0.36592480980272157 0 0.043663507306638913 -0.36868104746756258 0 0.03205896378917665 -0.35434441690964041 0 0.039065869817875902 -0.35802860257492208 0 0.033371525452051833 -0.36592480980272157 0 0.02837172461734 -0.38295609391969199 0 0.0099352179383349771 -0.36287309999936251 0 0.02837172461734 -0.38295609391969199 0 0.023697561729227701 -0.3656138881417908 0 0.0099352179383349771 -0.36287309999936251 0 0.02837172461734 -0.38295609391969199 0 0.033371525452051833 -0.36592480980272157 0 0.023697561729227701 -0.3656138881417908 0 0.02837172461734 -0.38295609391969199 0 0.0122991559467155 -0.37891225603134221 0 0.0099352179383349771 -0.36287309999936251 0 0.03205896378917665 -0.35434441690964041 0 0.033371525452051833 -0.36592480980272157 0 0.023697561729227701 -0.3656138881417908 0 0.023697561729227701 -0.3656138881417908 0 0.025431496553892478 -0.35168882095041942 0 0.0099352179383349771 -0.36287309999936251 0 0.025431496553892478 -0.35168882095041942 0 0.0075807645751098419 -0.34453611388615663 0 0.025431496553892478 -0.35168882095041942 0 0.0075807645751098419 -0.34453611388615663 0 0.02636863849756152 -0.33688388254537838 0 0.025431496553892478 -0.35168882095041942 0 0.0099352179383349771 -0.36287309999936251 0 0.03205896378917665 -0.35434441690964041 0 0.023697561729227701 -0.3656138881417908 0 0.025431496553892478 -0.35168882095041942 0 0.03205896378917665 -0.35434441690964041 0 0.025431496553892478 -0.35168882095041942 0 -0.0096343958099064687 -0.34155580596031437 0 0.0099352179383349771 -0.36287309999936251 0 -0.0096343958099064687 -0.34155580596031437 0 0.0075807645751098419 -0.34453611388615663 0 0.0099352179383349771 -0.36287309999936251 0 0.025431496553892478 -0.35168882095041942 0 0.0075807645751098419 -0.34453611388615663 0 0.0099352179383349771 -0.36287309999936251 0 -0.002178803782163227 -0.37161627006544062 0 0.0122991559467155 -0.37891225603134221 0 0.0099352179383349771 -0.36287309999936251 0 -0.0070150904897389628 -0.35875101633193152 0 -0.002178803782163227 -0.37161627006544062 0 0.0099352179383349771 -0.36287309999936251 0 -0.002178803782163227 -0.37161627006544062 0 0.0099352179383349771 -0.36287309999936251 0 0.03015636661650286 -0.3225410253719756 0 0.019597666397256509 -0.30442398879943339 0 0.03015636661650286 -0.3225410253719756 0 0.014793392922354411 -0.31628120652474823 0 0.019597666397256509 -0.30442398879943339 0 0.03015636661650286 -0.3225410253719756 0 0.01453256369494863 -0.32953892791496292 0 0.014793392922354411 -0.31628120652474823 0 0.03015636661650286 -0.3225410253719756 0 0.02636863849756152 -0.33688388254537838 0 0.01453256369494863 -0.32953892791496292 0 0.0075807645751098419 -0.34453611388615663 0 0.02636863849756152 -0.33688388254537838 0 0.01453256369494863 -0.32953892791496292 0 0.04071506683574927 -0.34065806194451792 0 0.025431496553892478 -0.35168882095041942 0 0.02636863849756152 -0.33688388254537838 0 0.0075807645751098419 -0.34453611388615663 0 0.01453256369494863 -0.32953892791496292 0 0.0034794820758208261 -0.33361449123698089 0 -0.010269967403673339 -0.33738340682189533 0 0.0075807645751098419 -0.34453611388615663 0 0.0034794820758208261 -0.33361449123698089 0 0.01453256369494863 -0.32953892791496292 0 0.0034794820758208261 -0.33361449123698089 0 0.001904989571353899 -0.32214434476741449 0 0.001904989571353899 -0.32214434476741449 0 0.014793392922354411 -0.31628120652474823 0 0.0019518825097332619 -0.30029273945570772 0 0.01453256369494863 -0.32953892791496292 0 0.001904989571353899 -0.32214434476741449 0 0.014793392922354411 -0.31628120652474823 0 0.0019518825097332619 -0.30029273945570772 0 0.0090389661780101715 -0.28630695222689118 0 0.019597666397256509 -0.30442398879943339 0 0.014793392922354411 -0.31628120652474823 0 0.0019518825097332619 -0.30029273945570772 0 0.019597666397256509 -0.30442398879943339 0 -0.0020851015340006161 -0.28052611142458661 0 0.0019518825097332619 -0.30029273945570772 0 0.0090389661780101715 -0.28630695222689118 0 0.0090389661780101715 -0.28630695222689118 0 0.019597666397256509 -0.30442398879943339 0 0.0090389661780101715 -0.28630695222689118 0 0.019597666397256509 -0.30442398879943339 0 0.033821918158706138 -0.27707393290215671 0 0.03015636661650286 -0.3225410253719756 0 0.019597666397256509 -0.30442398879943339 0 0.034491627806478041 -0.30853974567073322 0 0.019597666397256509 -0.30442398879943339 0 0.034491627806478041 -0.30853974567073322 0 0.043330632548044458 -0.29475484461045087 0 0.044648526871603783 -0.31770081170742831 0 0.034491627806478041 -0.30853974567073322 0 0.043330632548044458 -0.29475484461045087 0 0.019597666397256509 -0.30442398879943339 0 0.043330632548044458 -0.29475484461045087 0 0.033821918158706138 -0.27707393290215671 0 0.043330632548044458 -0.29475484461045087 0 0.062049371387241412 -0.28749956346879602 0 0.033821918158706138 -0.27707393290215671 0 0.064064269807315097 -0.28416082313012542 0 0.058270312985904418 -0.30816514798469019 0 0.062049371387241412 -0.28749956346879602 0 0.033821918158706138 -0.27707393290215671 0 0.064064269807315097 -0.28416082313012542 0 0.062049371387241412 -0.28749956346879602 0 0.058270312985904418 -0.30816514798469019 0 0.043330632548044458 -0.29475484461045087 0 0.062049371387241412 -0.28749956346879602 0 0.058270312985904418 -0.30816514798469019 0 0.044648526871603783 -0.31770081170742831 0 0.043330632548044458 -0.29475484461045087 0 0.058270312985904418 -0.30816514798469019 0 0.069858226628725775 -0.26015649827556059 0 0.051624075113339378 -0.26919050519125598 0 0.046498349670861652 -0.24826912251879649 0 0.064064269807315097 -0.28416082313012542 0 0.069858226628725775 -0.26015649827556059 0 0.051624075113339378 -0.26919050519125598 0 0.062049371387241412 -0.28749956346879602 0 0.051624075113339378 -0.26919050519125598 0 0.033821918158706138 -0.27707393290215671 0 0.064064269807315097 -0.28416082313012542 0 0.062049371387241412 -0.28749956346879602 0 0.051624075113339378 -0.26919050519125598 0 0.051624075113339378 -0.26919050519125598 0 0.033821918158706138 -0.27707393290215671 0 0.034240698289148337 -0.25967273023798509 0 0.051624075113339378 -0.26919050519125598 0 0.034240698289148337 -0.25967273023798509 0 0.046498349670861652 -0.24826912251879649 0 0.034240698289148337 -0.25967273023798509 0 0.02296875629887114 -0.2464092256209898 0 0.046498349670861652 -0.24826912251879649 0 0.034240698289148337 -0.25967273023798509 0 0.0055944649301708496 -0.26664830233551728 0 0.02296875629887114 -0.2464092256209898 0 0.0090389661780101715 -0.28630695222689118 0 0.033821918158706138 -0.27707393290215671 0 0.0055944649301708496 -0.26664830233551728 0 0.033821918158706138 -0.27707393290215671 0 0.034240698289148337 -0.25967273023798509 0 0.0055944649301708496 -0.26664830233551728 0 0.033821918158706138 -0.27707393290215671 0 0.0055944649301708496 -0.26664830233551728 0 -0.0020851015340006161 -0.28052611142458661 0 0.0090389661780101715 -0.28630695222689118 0 0.0055944649301708496 -0.26664830233551728 0 0.0055944649301708496 -0.26664830233551728 0 0.0055632338660241776 -0.24332209518663511 0 0.02296875629887114 -0.2464092256209898 0 -0.0080727856436109482 -0.2481099565327444 0 0.0055944649301708496 -0.26664830233551728 0 0.0055632338660241776 -0.24332209518663511 0 0.0055632338660241776 -0.24332209518663511 0 0.0032521440618358652 -0.23009641691855939 0 0.019268989126464159 -0.2308348024940351 0 -0.0084819670471955304 -0.2367225590632196 0 0.0055632338660241776 -0.24332209518663511 0 0.0032521440618358652 -0.23009641691855939 0 -0.0075276580997289226 -0.21896018305478171 0 0.0032521440618358652 -0.23009641691855939 0 0.012041166441398349 -0.21677938876306921 0 0.0032521440618358652 -0.23009641691855939 0 0.019268989126464159 -0.2308348024940351 0 0.012041166441398349 -0.21677938876306921 0 0.019268989126464159 -0.2308348024940351 0 0.028464877365028059 -0.21915571909051779 0 0.012041166441398349 -0.21677938876306921 0 0.019268989126464159 -0.2308348024940351 0 0.028464877365028059 -0.21915571909051779 0 0.041174919052571327 -0.22964645066930789 0 0.0055632338660241776 -0.24332209518663511 0 0.019268989126464159 -0.2308348024940351 0 0.02296875629887114 -0.2464092256209898 0 0.019268989126464159 -0.2308348024940351 0 0.02296875629887114 -0.2464092256209898 0 0.041174919052571327 -0.22964645066930789 0 -0.0075276580997289226 -0.21896018305478171 0 0.003555539334036632 -0.19934620758084881 0 0.012041166441398349 -0.21677938876306921 0 0.003555539334036632 -0.19934620758084881 0 0.012041166441398349 -0.21677938876306921 0 0.02523310686075431 -0.20228300343967229 0 0.028464877365028059 -0.21915571909051779 0 0.012041166441398349 -0.21677938876306921 0 0.02523310686075431 -0.20228300343967229 0 0.02523310686075431 -0.20228300343967229 0 0.033125333554059701 -0.1865598477748947 0 0.018588522793563201 -0.18166153924030251 0 0.003555539334036632 -0.19934620758084881 0 0.02523310686075431 -0.20228300343967229 0 0.018588522793563201 -0.18166153924030251 0 0.048648578511840943 -0.20623258170594561 0 0.049880579816306267 -0.17970719815632741 0 0.033125333554059701 -0.1865598477748947 0 0.02523310686075431 -0.20228300343967229 0 0.048648578511840943 -0.20623258170594561 0 0.033125333554059701 -0.1865598477748947 0 0.028464877365028059 -0.21915571909051779 0 0.02523310686075431 -0.20228300343967229 0 0.048648578511840943 -0.20623258170594561 0 0.028464877365028059 -0.21915571909051779 0 0.048648578511840943 -0.20623258170594561 0 0.041174919052571327 -0.22964645066930789 0 0.048648578511840943 -0.20623258170594561 0 0.059757914812518881 -0.22869522271940709 0 0.066598585428591164 -0.21133354617687591 0 0.048648578511840943 -0.20623258170594561 0 0.067160325985138131 -0.18691533881804831 0 0.049880579816306267 -0.17970719815632741 0 0.048648578511840943 -0.20623258170594561 0 0.066598585428591164 -0.21133354617687591 0 0.067160325985138131 -0.18691533881804831 0 0.069858226628725775 -0.26015649827556059 0 0.046498349670861652 -0.24826912251879649 0 0.059757914812518881 -0.22869522271940709 0 0.02296875629887114 -0.2464092256209898 0 0.046498349670861652 -0.24826912251879649 0 0.041174919052571327 -0.22964645066930789 0 0.048648578511840943 -0.20623258170594561 0 0.041174919052571327 -0.22964645066930789 0 0.059757914812518881 -0.22869522271940709 0 0.046498349670861652 -0.24826912251879649 0 0.041174919052571327 -0.22964645066930789 0 0.059757914812518881 -0.22869522271940709 0 0.069858226628725775 -0.26015649827556059 0 0.059757914812518881 -0.22869522271940709 0 0.080941623453078815 -0.2334444244951252 0 0.069858226628725775 -0.26015649827556059 0 0.096521476943682558 -0.25181800011133371 0 0.080941623453078815 -0.2334444244951252 0 0.096521476943682558 -0.25181800011133371 0 0.080941623453078815 -0.2334444244951252 0 0.102389076685389 -0.22730157072293841 0 0.080941623453078815 -0.2334444244951252 0 0.084774701335263575 -0.20710845477049339 0 0.102389076685389 -0.22730157072293841 0 0.059757914812518881 -0.22869522271940709 0 0.080941623453078815 -0.2334444244951252 0 0.066598585428591164 -0.21133354617687591 0 0.080941623453078815 -0.2334444244951252 0 0.066598585428591164 -0.21133354617687591 0 0.084774701335263575 -0.20710845477049339 0 0.084774701335263575 -0.20710845477049339 0 0.067160325985138131 -0.18691533881804831 0 0.066598585428591164 -0.21133354617687591 0 0.084774701335263575 -0.20710845477049339 0 0.067160325985138131 -0.18691533881804831 0 0.092537347032927528 -0.18889969997864839 0 0.084774701335263575 -0.20710845477049339 0 0.067160325985138131 -0.18691533881804831 0 0.084774701335263575 -0.20710845477049339 0 0.102389076685389 -0.22730157072293841 0 0.084774701335263575 -0.20710845477049339 0 0.10575093398731179 -0.20517541990618701 0 0.102389076685389 -0.22730157072293841 0 0.092537347032927528 -0.18889969997864839 0 0.10575093398731179 -0.20517541990618701 0 0.11404320040195411 -0.17785048998131209 0 0.092537347032927528 -0.18889969997864839 0 0.084774701335263575 -0.20710845477049339 0 0.10575093398731179 -0.20517541990618701 0 0.10575093398731179 -0.20517541990618701 0 0.11404320040195411 -0.17785048998131209 0 0.12592289232087811 -0.19910656028939411 0 0.10575093398731179 -0.20517541990618701 0 0.1284413173888232 -0.22347585252773641 0 0.12592289232087811 -0.19910656028939411 0 0.10575093398731179 -0.20517541990618701 0 0.102389076685389 -0.22730157072293841 0 0.1284413173888232 -0.22347585252773641 0 0.1200034520355143 -0.24749468667538321 0 0.102389076685389 -0.22730157072293841 0 0.1284413173888232 -0.22347585252773641 0 0.1200034520355143 -0.24749468667538321 0 0.102389076685389 -0.22730157072293841 0 0.096521476943682558 -0.25181800011133371 0 0.1200034520355143 -0.24749468667538321 0 0.102389076685389 -0.22730157072293841 0 0.099885875260422058 -0.15149088269105351 0 0.1161887790728692 -0.1476769396888597 0 0.1105045846919957 -0.16013033574144619 0 0.099885875260422058 -0.15149088269105351 0 0.099597293261818404 -0.1347502866929414 0 0.1161887790728692 -0.1476769396888597 0 0.099597293261818404 -0.1347502866929414 0 0.1161887790728692 -0.1476769396888597 0 0.099597293261818404 -0.1347502866929414 0 0.1047785765018954 -0.13712350701568179 0 0.1161887790728692 -0.1476769396888597 0 0.099597293261818404 -0.1347502866929414 0 0.093527805260815264 -0.13002146576964491 0 0.104312872852085 -0.12243825994362539 0 0.099597293261818404 -0.1347502866929414 0 0.093527805260815264 -0.13002146576964491 0 0.099597293261818404 -0.1347502866929414 0 0.093527805260815264 -0.13002146576964491 0 0.092996203934319052 -0.1329056080468716 0 0.099597293261818404 -0.1347502866929414 0 0.1088944047617572 -0.13480079442927331 0 0.104312872852085 -0.12243825994362539 0 0.099597293261818404 -0.1347502866929414 0 0.1047785765018954 -0.13712350701568179 0 0.1088944047617572 -0.13480079442927331 0 0.099597293261818404 -0.1347502866929414 0 0.1088944047617572 -0.13480079442927331 0 0.1047785765018954 -0.13712350701568179 0 0.1088944047617572 -0.13480079442927331 0 0.1088944047617572 -0.13480079442927331 0 0.1161887790728692 -0.1476769396888597 0 0.13638976604354719 -0.13495016646355951 0 0.1088944047617572 -0.13480079442927331 0 0.12800820934211829 -0.12401417466047961 0 0.13638976604354719 -0.13495016646355951 0 0.1047785765018954 -0.13712350701568179 0 0.1088944047617572 -0.13480079442927331 0 0.1161887790728692 -0.1476769396888597 0 0.1088944047617572 -0.13480079442927331 0 0.104312872852085 -0.12243825994362539 0 0.12800820934211829 -0.12401417466047961 0 0.1088944047617572 -0.13480079442927331 0 0.12800820934211829 -0.12401417466047961 0 0.1088944047617572 -0.13480079442927331 0 0.13638976604354719 -0.13495016646355951 0 0.1161887790728692 -0.1476769396888597 0 0.1105045846919957 -0.16013033574144619 0 0.1305387904294309 -0.15561497697083931 0 0.1105045846919957 -0.16013033574144619 0 0.11404320040195411 -0.17785048998131209 0 0.1305387904294309 -0.15561497697083931 0 0.092537347032927528 -0.18889969997864839 0 0.11404320040195411 -0.17785048998131209 0 0.090957573454969964 -0.1674487964172009 0 0.1105045846919957 -0.16013033574144619 0 0.11404320040195411 -0.17785048998131209 0 0.090957573454969964 -0.1674487964172009 0 0.099885875260422058 -0.15149088269105351 0 0.1105045846919957 -0.16013033574144619 0 0.090957573454969964 -0.1674487964172009 0 0.099885875260422058 -0.15149088269105351 0 0.090957573454969964 -0.1674487964172009 0 0.080257725164813276 -0.1505404030764457 0 0.090957573454969964 -0.1674487964172009 0 0.065342325237630991 -0.1650228072456788 0 0.080257725164813276 -0.1505404030764457 0 0.092537347032927528 -0.18889969997864839 0 0.090957573454969964 -0.1674487964172009 0 0.067160325985138131 -0.18691533881804831 0 0.090957573454969964 -0.1674487964172009 0 0.067160325985138131 -0.18691533881804831 0 0.065342325237630991 -0.1650228072456788 0 0.065342325237630991 -0.1650228072456788 0 0.080257725164813276 -0.1505404030764457 0 0.056224073158944461 -0.14994265306170279 0 0.080257725164813276 -0.1505404030764457 0 0.069539210615093855 -0.1345869923500955 0 0.056224073158944461 -0.14994265306170279 0 0.099885875260422058 -0.15149088269105351 0 0.099597293261818404 -0.1347502866929414 0 0.080257725164813276 -0.1505404030764457 0 0.099597293261818404 -0.1347502866929414 0 0.080257725164813276 -0.1505404030764457 0 0.069539210615093855 -0.1345869923500955 0 0.099597293261818404 -0.1347502866929414 0 0.092996203934319052 -0.1329056080468716 0 0.069539210615093855 -0.1345869923500955 0 0.099597293261818404 -0.1347502866929414 0 0.069539210615093855 -0.1345869923500955 0 0.092996203934319052 -0.1329056080468716 0 0.069539210615093855 -0.1345869923500955 0 0.079322302472514483 -0.11895376470488229 0 0.093527805260815264 -0.13002146576964491 0 0.092996203934319052 -0.1329056080468716 0 0.079322302472514483 -0.11895376470488229 0 0.093527805260815264 -0.13002146576964491 0 0.092996203934319052 -0.1329056080468716 0 0.069539210615093855 -0.1345869923500955 0 0.052298963826290519 -0.1211548808236817 0 0.066569319149528045 -0.1206454253796948 0 0.069539210615093855 -0.1345869923500955 0 0.039481127968369292 -0.1344236980072451 0 0.052298963826290519 -0.1211548808236817 0 0.069539210615093855 -0.1345869923500955 0 0.056224073158944461 -0.14994265306170279 0 0.039481127968369292 -0.1344236980072451 0 0.069539210615093855 -0.1345869923500955 0 0.039481127968369292 -0.1344236980072451 0 0.056224073158944461 -0.14994265306170279 0 0.038811693183881758 -0.15444647348478721 0 0.047368807546727579 -0.16279517251764489 0 0.056224073158944461 -0.14994265306170279 0 0.038811693183881758 -0.15444647348478721 0 0.039481127968369292 -0.1344236980072451 0 0.038811693183881758 -0.15444647348478721 0 0.039481127968369292 -0.1344236980072451 0 0.019056913867763529 -0.155566515408149 0 0.034777770017858589 -0.1343981464191871 0 0.039481127968369292 -0.1344236980072451 0 0.022320289212787989 -0.1422177528203018 0 0.034777770017858589 -0.1343981464191871 0 0.039481127968369292 -0.1344236980072451 0 0.034777770017858589 -0.1343981464191871 0 0.029299678594365521 -0.12697140115214181 0 0.037800108132664212 -0.12348471533883321 0 0.034777770017858589 -0.1343981464191871 0 0.039481127968369292 -0.1344236980072451 0 0.037800108132664212 -0.12348471533883321 0 0.039481127968369292 -0.1344236980072451 0 0.052298963826290519 -0.1211548808236817 0 0.039481127968369292 -0.1344236980072451 0 0.052298963826290519 -0.1211548808236817 0 0.037800108132664212 -0.12348471533883321 0 0.067160325985138131 -0.18691533881804831 0 0.065342325237630991 -0.1650228072456788 0 0.049880579816306267 -0.17970719815632741 0 0.065342325237630991 -0.1650228072456788 0 0.049880579816306267 -0.17970719815632741 0 0.047368807546727579 -0.16279517251764489 0 0.065342325237630991 -0.1650228072456788 0 0.056224073158944461 -0.14994265306170279 0 0.047368807546727579 -0.16279517251764489 0 0.049880579816306267 -0.17970719815632741 0 0.047368807546727579 -0.16279517251764489 0 0.031927543377605602 -0.16950432842919569 0 0.038811693183881758 -0.15444647348478721 0 0.047368807546727579 -0.16279517251764489 0 0.031927543377605602 -0.16950432842919569 0 0.049880579816306267 -0.17970719815632741 0 0.031927543377605602 -0.16950432842919569 0 0.033125333554059701 -0.1865598477748947 0 0.031927543377605602 -0.16950432842919569 0 0.033125333554059701 -0.1865598477748947 0 0.018588522793563201 -0.18166153924030251 0 0.031927543377605602 -0.16950432842919569 0 0.018588522793563201 -0.18166153924030251 0 0.019056913867763529 -0.155566515408149 0 0.038811693183881758 -0.15444647348478721 0 0.031927543377605602 -0.16950432842919569 0 0.019056913867763529 -0.155566515408149 0 -0.0013673002328405961 -0.1767093328090546 0 0.018588522793563201 -0.18166153924030251 0 0.019056913867763529 -0.155566515408149 0 -0.0013673002328405961 -0.1767093328090546 0 0.019056913867763529 -0.155566515408149 0 -0.0013673002328405961 -0.1767093328090546 0 0.019056913867763529 -0.155566515408149 0 0.0027310736070901482 -0.15493719994590471 0 -0.0013673002328405961 -0.1767093328090546 0 0.003555539334036632 -0.19934620758084881 0 0.018588522793563201 -0.18166153924030251 0 0.020222670022858619 -0.12863691797839069 0 0.022320289212787989 -0.1422177528203018 0 0.0088678229424013627 -0.13941235935176011 0 0.020222670022858619 -0.12863691797839069 0 0.02665510196196769 -0.1330560545925053 0 0.022320289212787989 -0.1422177528203018 0 0.034777770017858589 -0.1343981464191871 0 0.029299678594365521 -0.12697140115214181 0 0.02665510196196769 -0.1330560545925053 0 0.020222670022858619 -0.12863691797839069 0 0.029299678594365521 -0.12697140115214181 0 0.02665510196196769 -0.1330560545925053 0 0.034777770017858589 -0.1343981464191871 0 0.02665510196196769 -0.1330560545925053 0 0.022320289212787989 -0.1422177528203018 0 0.039481127968369292 -0.1344236980072451 0 0.019056913867763529 -0.155566515408149 0 0.019056913867763529 -0.155566515408149 0 0.022320289212787989 -0.1422177528203018 0 0.0088678229424013627 -0.13941235935176011 0 0.039481127968369292 -0.1344236980072451 0 0.019056913867763529 -0.155566515408149 0 0.022320289212787989 -0.1422177528203018 0 0.019056913867763529 -0.155566515408149 0 0.0027310736070901482 -0.15493719994590471 0 0.0088678229424013627 -0.13941235935176011 0 0.020222670022858619 -0.12863691797839069 0 0.0088678229424013627 -0.13941235935176011 0 0.0015243557028834459 -0.11711868301268021 0 0.020222670022858619 -0.12863691797839069 0 0.0015243557028834459 -0.11711868301268021 0 0.0144479962461943 -0.1082343501681014 0 0.020222670022858619 -0.12863691797839069 0 0.02728947708542654 -0.1146689930447462 0 0.0144479962461943 -0.1082343501681014 0 0.020222670022858619 -0.12863691797839069 0 0.029299678594365521 -0.12697140115214181 0 0.02728947708542654 -0.1146689930447462 0 0.0144479962461943 -0.1082343501681014 0 0.01674231050701382 -0.093658367309864349 0 0.03170108987002046 -0.10050694789866579 0 0.02728947708542654 -0.1146689930447462 0 0.0144479962461943 -0.1082343501681014 0 0.03170108987002046 -0.10050694789866579 0 0.01674231050701382 -0.093658367309864349 0 0.02745527456064175 -0.089089442263575569 0 0.03170108987002046 -0.10050694789866579 0 0.0144479962461943 -0.1082343501681014 0 0.001856719827670471 -0.098182337095309047 0 0.01674231050701382 -0.093658367309864349 0 0.0015243557028834459 -0.11711868301268021 0 0.0144479962461943 -0.1082343501681014 0 0.001856719827670471 -0.098182337095309047 0 0.001856719827670471 -0.098182337095309047 0 0.0065051428120863272 -0.082127796022149757 0 0.01674231050701382 -0.093658367309864349 0 0.0065051428120863272 -0.082127796022149757 0 0.018539693253586439 -0.071597204448153262 0 0.01731060528333208 -0.084118202510935727 0 0.0065051428120863272 -0.082127796022149757 0 0.01674231050701382 -0.093658367309864349 0 0.01731060528333208 -0.084118202510935727 0 0.0065051428120863272 -0.082127796022149757 0 0.018539693253586439 -0.071597204448153262 0 0.00035237720396625368 -0.061086817302918282 0 0.018539693253586439 -0.071597204448153262 0 0.00035237720396625368 -0.061086817302918282 0 0.029337839486141829 -0.062098975348790997 0 0.018539693253586439 -0.071597204448153262 0 0.036998616429076953 -0.080413518666692163 0 0.029337839486141829 -0.062098975348790997 0 0.018539693253586439 -0.071597204448153262 0 0.039278739387756327 -0.087755278287702396 0 0.018539693253586439 -0.071597204448153262 0 0.02745527456064175 -0.089089442263575569 0 0.039278739387756327 -0.087755278287702396 0 0.018539693253586439 -0.071597204448153262 0 0.01731060528333208 -0.084118202510935727 0 0.02745527456064175 -0.089089442263575569 0 0.01674231050701382 -0.093658367309864349 0 0.01731060528333208 -0.084118202510935727 0 0.02745527456064175 -0.089089442263575569 0 0.018539693253586439 -0.071597204448153262 0 0.036998616429076953 -0.080413518666692163 0 0.039278739387756327 -0.087755278287702396 0 0.02745527456064175 -0.089089442263575569 0 0.039278739387756327 -0.087755278287702396 0 0.036114206476440321 -0.094502097047588079 0 0.036998616429076953 -0.080413518666692163 0 0.039278739387756327 -0.087755278287702396 0 0.050747139898636717 -0.081209848062237813 0 0.058323301768317432 -0.063111133394663815 0 0.029337839486141829 -0.062098975348790997 0 0.036998616429076953 -0.080413518666692163 0 0.058323301768317432 -0.063111133394663815 0 0.029337839486141829 -0.062098975348790997 0 0.036998616429076953 -0.080413518666692163 0 0.058323301768317432 -0.063111133394663815 0 0.058323301768317432 -0.063111133394663815 0 0.050747139898636717 -0.081209848062237813 0 0.060228637404373828 -0.081759239016750626 0 0.036998616429076953 -0.080413518666692163 0 0.058323301768317432 -0.063111133394663815 0 0.050747139898636717 -0.081209848062237813 0 0.039278739387756327 -0.087755278287702396 0 0.050747139898636717 -0.081209848062237813 0 0.060818353003097771 -0.090653503469919336 0 0.050747139898636717 -0.081209848062237813 0 0.060228637404373828 -0.081759239016750626 0 0.060818353003097771 -0.090653503469919336 0 0.060017785521926562 -0.10391335212725129 0 0.042153090511964017 -0.099193769589441219 0 0.043653631303676513 -0.1092911725859987 0 0.060017785521926562 -0.10391335212725129 0 0.043653631303676513 -0.1092911725859987 0 0.039278739387756327 -0.087755278287702396 0 0.060818353003097771 -0.090653503469919336 0 0.060017785521926562 -0.10391335212725129 0 0.060017785521926562 -0.10391335212725129 0 0.053375718786791107 -0.1112883554404277 0 0.043653631303676513 -0.1092911725859987 0 0.039278739387756327 -0.087755278287702396 0 0.060017785521926562 -0.10391335212725129 0 0.039278739387756327 -0.087755278287702396 0 0.060017785521926562 -0.10391335212725129 0 0.042153090511964017 -0.099193769589441219 0 0.060017785521926562 -0.10391335212725129 0 0.053375718786791107 -0.1112883554404277 0 0.065116799684213397 -0.10788606364011991 0 0.052298963826290519 -0.1211548808236817 0 0.066569319149528045 -0.1206454253796948 0 0.065116799684213397 -0.10788606364011991 0 0.052298963826290519 -0.1211548808236817 0 0.065116799684213397 -0.10788606364011991 0 0.052298963826290519 -0.1211548808236817 0 0.053375718786791107 -0.1112883554404277 0 0.065116799684213397 -0.10788606364011991 0 0.052298963826290519 -0.1211548808236817 0 0.053375718786791107 -0.1112883554404277 0 0.043653631303676513 -0.1092911725859987 0 0.02728947708542654 -0.1146689930447462 0 0.037800108132664212 -0.12348471533883321 0 0.043653631303676513 -0.1092911725859987 0 0.02728947708542654 -0.1146689930447462 0 0.043653631303676513 -0.1092911725859987 0 0.052298963826290519 -0.1211548808236817 0 0.037800108132664212 -0.12348471533883321 0 0.043653631303676513 -0.1092911725859987 0 0.029299678594365521 -0.12697140115214181 0 0.02728947708542654 -0.1146689930447462 0 0.037800108132664212 -0.12348471533883321 0 0.02728947708542654 -0.1146689930447462 0 0.03170108987002046 -0.10050694789866579 0 0.043653631303676513 -0.1092911725859987 0 0.036114206476440321 -0.094502097047588079 0 0.03170108987002046 -0.10050694789866579 0 0.042153090511964017 -0.099193769589441219 0 0.02745527456064175 -0.089089442263575569 0 0.036114206476440321 -0.094502097047588079 0 0.03170108987002046 -0.10050694789866579 0 0.039278739387756327 -0.087755278287702396 0 0.036114206476440321 -0.094502097047588079 0 0.042153090511964017 -0.099193769589441219 0 0.03170108987002046 -0.10050694789866579 0 0.042153090511964017 -0.099193769589441219 0 0.043653631303676513 -0.1092911725859987 0 0.025695344612614111 0.0095801541182225364 0 0.02812452509478746 -0.0099579005571815878 0 0.006935528729737548 -0.0054826371559186567 0 0.02812452509478746 -0.0099579005571815878 0 0.006935528729737548 -0.0054826371559186567 0 0.01889941714368459 -0.025130787452367569 0 0.006935528729737548 -0.0054826371559186567 0 0.0027408304473846411 -0.028176541972939319 0 0.01889941714368459 -0.025130787452367569 0 0.02812452509478746 -0.0099579005571815878 0 0.01889941714368459 -0.025130787452367569 0 0.035567370731091272 -0.02454493013615917 0 0.01889941714368459 -0.025130787452367569 0 0.02846567832778216 -0.042756626880165419 0 0.035567370731091272 -0.02454493013615917 0 0.01889941714368459 -0.025130787452367569 0 0.02846567832778216 -0.042756626880165419 0 0.0096258971738255473 -0.043108802377643002 0 0.02846567832778216 -0.042756626880165419 0 0.0096258971738255473 -0.043108802377643002 0 0.016945448047928951 -0.052262805477379423 0 0.01889941714368459 -0.025130787452367569 0 0.0096258971738255473 -0.043108802377643002 0 -0.01026660782967455 -0.041229232136501717 0 0.0027408304473846411 -0.028176541972939319 0 0.0096258971738255473 -0.043108802377643002 0 0.0027408304473846411 -0.028176541972939319 0 0.01889941714368459 -0.025130787452367569 0 0.0096258971738255473 -0.043108802377643002 0 0.0096258971738255473 -0.043108802377643002 0 0.00035237720396625368 -0.061086817302918282 0 0.016945448047928951 -0.052262805477379423 0 0.00035237720396625368 -0.061086817302918282 0 0.016945448047928951 -0.052262805477379423 0 0.029337839486141829 -0.062098975348790997 0 0.0096258971738255473 -0.043108802377643002 0 0.00035237720396625368 -0.061086817302918282 0 0.00035237720396625368 -0.061086817302918282 0 0.029337839486141829 -0.062098975348790997 0 0.02846567832778216 -0.042756626880165419 0 0.016945448047928951 -0.052262805477379423 0 0.029337839486141829 -0.062098975348790997 0 0.02846567832778216 -0.042756626880165419 0 0.029337839486141829 -0.062098975348790997 0 0.044041605111135473 -0.049431168693685697 0 0.058323301768317432 -0.063111133394663815 0 0.029337839486141829 -0.062098975348790997 0 0.044041605111135473 -0.049431168693685697 0 0.058323301768317432 -0.063111133394663815 0 0.044041605111135473 -0.049431168693685697 0 0.059903341899081253 -0.040049795258846832 0 0.059903341899081253 -0.040049795258846832 0 0.045154502468205723 -0.035444412579530127 0 0.052999286202529479 -0.022291816621987929 0 0.044041605111135473 -0.049431168693685697 0 0.059903341899081253 -0.040049795258846832 0 0.045154502468205723 -0.035444412579530127 0 0.02846567832778216 -0.042756626880165419 0 0.044041605111135473 -0.049431168693685697 0 0.045154502468205723 -0.035444412579530127 0 0.02846567832778216 -0.042756626880165419 0 0.045154502468205723 -0.035444412579530127 0 0.035567370731091272 -0.02454493013615917 0 0.045154502468205723 -0.035444412579530127 0 0.035567370731091272 -0.02454493013615917 0 0.052999286202529479 -0.022291816621987929 0 0.035567370731091272 -0.02454493013615917 0 0.052999286202529479 -0.022291816621987929 0 0.04138045704507981 -0.013293391242584921 0 0.02812452509478746 -0.0099579005571815878 0 0.035567370731091272 -0.02454493013615917 0 0.04138045704507981 -0.013293391242584921 0 0.059903341899081253 -0.040049795258846832 0 0.052999286202529479 -0.022291816621987929 0 0.073093181043766914 -0.026775388104941698 0 0.052999286202529479 -0.022291816621987929 0 0.049896637954744763 -0.0073960790217490677 0 0.04138045704507981 -0.013293391242584921 0 0.052999286202529479 -0.022291816621987929 0 0.049896637954744763 -0.0073960790217490677 0 0.066530330394949447 -0.012320269852860621 0 0.049896637954744763 -0.0073960790217490677 0 0.040314465242246092 -0.002276229875846851 0 0.04138045704507981 -0.013293391242584921 0 0.025695344612614111 0.0095801541182225364 0 0.02812452509478746 -0.0099579005571815878 0 0.040314465242246092 -0.002276229875846851 0 0.046640351189982193 0.001482106492276504 0 0.049896637954744763 -0.0073960790217490677 0 0.040314465242246092 -0.002276229875846851 0 0.02812452509478746 -0.0099579005571815878 0 0.040314465242246092 -0.002276229875846851 0 0.04138045704507981 -0.013293391242584921 0 0.075461568133428525 0.0044331687040122013 0 0.081703970602104437 -0.011974759962048749 0 0.098011391193308373 -0.0056982583262641584 0 0.075461568133428525 0.0044331687040122013 0 0.049896637954744763 -0.0073960790217490677 0 0.075461568133428525 0.0044331687040122013 0 0.049896637954744763 -0.0073960790217490677 0 0.066530330394949447 -0.012320269852860621 0 0.075461568133428525 0.0044331687040122013 0 0.081703970602104437 -0.011974759962048749 0 0.066530330394949447 -0.012320269852860621 0 0.081703970602104437 -0.011974759962048749 0 0.066530330394949447 -0.012320269852860621 0 0.073093181043766914 -0.026775388104941698 0 0.052999286202529479 -0.022291816621987929 0 0.066530330394949447 -0.012320269852860621 0 0.073093181043766914 -0.026775388104941698 0 0.081703970602104437 -0.011974759962048749 0 0.097837743661838034 -0.031049975793767819 0 0.098011391193308373 -0.0056982583262641584 0 0.081703970602104437 -0.011974759962048749 0 0.073093181043766914 -0.026775388104941698 0 0.097837743661838034 -0.031049975793767819 0 0.078080522715077566 -0.047080554594215653 0 0.097861902682226248 -0.045151270938537998 0 0.097837743661838034 -0.031049975793767819 0 0.073093181043766914 -0.026775388104941698 0 0.078080522715077566 -0.047080554594215653 0 0.097837743661838034 -0.031049975793767819 0 0.078080522715077566 -0.047080554594215653 0 0.097837743661838034 -0.031049975793767819 0 0.059903341899081253 -0.040049795258846832 0 0.073093181043766914 -0.026775388104941698 0 0.078080522715077566 -0.047080554594215653 0 0.058323301768317432 -0.063111133394663815 0 0.078080522715077566 -0.047080554594215653 0 0.058323301768317432 -0.063111133394663815 0 0.059903341899081253 -0.040049795258846832 0 0.078080522715077566 -0.047080554594215653 0 0.058323301768317432 -0.063111133394663815 0 0.078080522715077566 -0.047080554594215653 0 0.081939961595450139 -0.063935815506958552 0 0.078080522715077566 -0.047080554594215653 0 0.094142039140793971 -0.055881476276546937 0 0.081939961595450139 -0.063935815506958552 0 0.078080522715077566 -0.047080554594215653 0 0.094142039140793971 -0.055881476276546937 0 0.097861902682226248 -0.045151270938537998 0 0.094142039140793971 -0.055881476276546937 0 0.081939961595450139 -0.063935815506958552 0 0.1067368008806147 -0.064801708903802782 0 0.094142039140793971 -0.055881476276546937 0 0.1075629424949773 -0.053875431803618333 0 0.097861902682226248 -0.045151270938537998 0 0.094142039140793971 -0.055881476276546937 0 0.1075629424949773 -0.053875431803618333 0 0.1067368008806147 -0.064801708903802782 0 0.1075629424949773 -0.053875431803618333 0 0.1067368008806147 -0.064801708903802782 0 0.1075629424949773 -0.053875431803618333 0 0.1232921759667842 -0.047663851323270827 0 0.1067368008806147 -0.064801708903802782 0 0.1232921759667842 -0.047663851323270827 0 0.1067368008806147 -0.064801708903802782 0 0.1075629424949773 -0.053875431803618333 0 0.1232921759667842 -0.047663851323270827 0 0.1109518143893137 -0.039435966374661548 0 0.1232921759667842 -0.047663851323270827 0 0.1067368008806147 -0.064801708903802782 0 0.13548767730717889 -0.06580567532731052 0 0.1232921759667842 -0.047663851323270827 0 0.1109518143893137 -0.039435966374661548 0 0.124582941869709 -0.030507807285028901 0 0.1109518143893137 -0.039435966374661548 0 0.097861902682226248 -0.045151270938537998 0 0.097837743661838034 -0.031049975793767819 0 0.1075629424949773 -0.053875431803618333 0 0.1109518143893137 -0.039435966374661548 0 0.097861902682226248 -0.045151270938537998 0 0.097837743661838034 -0.031049975793767819 0 0.1175949646085984 -0.015019396993320021 0 0.097837743661838034 -0.031049975793767819 0 0.1175949646085984 -0.015019396993320021 0 0.098011391193308373 -0.0056982583262641584 0 0.1109518143893137 -0.039435966374661548 0 0.097837743661838034 -0.031049975793767819 0 0.1175949646085984 -0.015019396993320021 0 0.1109518143893137 -0.039435966374661548 0 0.124582941869709 -0.030507807285028901 0 0.1175949646085984 -0.015019396993320021 0 0.124582941869709 -0.030507807285028901 0 0.1175949646085984 -0.015019396993320021 0 0.13165260102391191 -0.019660205177744808 0 0.11882011836095251 0.0065886106746579649 0 0.1175949646085984 -0.015019396993320021 0 0.098011391193308373 -0.0056982583262641584 0 0.11882011836095251 0.0065886106746579649 0 0.13735218555535891 0.001011181807127467 0 0.1175949646085984 -0.015019396993320021 0 0.073111172643960082 -0.099610417542301155 0 0.10058413041743761 -0.090581864498492995 0 0.088608598291174498 -0.101420796185217 0 0.073111172643960082 -0.099610417542301155 0 0.10058413041743761 -0.090581864498492995 0 0.083297568291202648 -0.10670285905343881 0 0.088608598291174498 -0.101420796185217 0 0.073111172643960082 -0.099610417542301155 0 0.083297568291202648 -0.10670285905343881 0 0.088608598291174498 -0.101420796185217 0 0.097441521812097198 -0.10878804364663471 0 0.093527805260815264 -0.13002146576964491 0 0.079322302472514483 -0.11895376470488229 0 0.097441521812097198 -0.10878804364663471 0 0.083297568291202648 -0.10670285905343881 0 0.079322302472514483 -0.11895376470488229 0 0.097441521812097198 -0.10878804364663471 0 0.093527805260815264 -0.13002146576964491 0 0.079322302472514483 -0.11895376470488229 0 0.079322302472514483 -0.11895376470488229 0 0.065116799684213397 -0.10788606364011991 0 0.083297568291202648 -0.10670285905343881 0 0.079322302472514483 -0.11895376470488229 0 0.065116799684213397 -0.10788606364011991 0 0.079322302472514483 -0.11895376470488229 0 0.066569319149528045 -0.1206454253796948 0 0.065116799684213397 -0.10788606364011991 0 0.069539210615093855 -0.1345869923500955 0 0.079322302472514483 -0.11895376470488229 0 0.066569319149528045 -0.1206454253796948 0 0.060017785521926562 -0.10391335212725129 0 0.065116799684213397 -0.10788606364011991 0 0.060017785521926562 -0.10391335212725129 0 0.073111172643960082 -0.099610417542301155 0 0.065116799684213397 -0.10788606364011991 0 0.073111172643960082 -0.099610417542301155 0 0.083297568291202648 -0.10670285905343881 0 0.065116799684213397 -0.10788606364011991 0 0.073111172643960082 -0.099610417542301155 0 0.060017785521926562 -0.10391335212725129 0 0.065116799684213397 -0.10788606364011991 0 0.073111172643960082 -0.099610417542301155 0 0.060818353003097771 -0.090653503469919336 0 0.060017785521926562 -0.10391335212725129 0 0.073111172643960082 -0.099610417542301155 0 0.060818353003097771 -0.090653503469919336 0 0.073111172643960082 -0.099610417542301155 0 0.074211161232423301 -0.082716200610011378 0 0.060228637404373828 -0.081759239016750626 0 0.060818353003097771 -0.090653503469919336 0 0.074211161232423301 -0.082716200610011378 0 0.058323301768317432 -0.063111133394663815 0 0.081939961595450139 -0.063935815506958552 0 0.058323301768317432 -0.063111133394663815 0 0.074211161232423301 -0.082716200610011378 0 0.081939961595450139 -0.063935815506958552 0 0.058323301768317432 -0.063111133394663815 0 0.060228637404373828 -0.081759239016750626 0 0.074211161232423301 -0.082716200610011378 0 0.074211161232423301 -0.082716200610011378 0 0.081939961595450139 -0.063935815506958552 0 0.089190063779311518 -0.082965808471458069 0 0.081939961595450139 -0.063935815506958552 0 0.089190063779311518 -0.082965808471458069 0 0.1052689549146623 -0.0663211994006144 0 0.073111172643960082 -0.099610417542301155 0 0.074211161232423301 -0.082716200610011378 0 0.089190063779311518 -0.082965808471458069 0 0.073111172643960082 -0.099610417542301155 0 0.089190063779311518 -0.082965808471458069 0 0.073111172643960082 -0.099610417542301155 0 0.089190063779311518 -0.082965808471458069 0 0.10058413041743761 -0.090581864498492995 0 0.089190063779311518 -0.082965808471458069 0 0.1017080788123951 -0.087804556385465471 0 0.1052689549146623 -0.0663211994006144 0 0.089190063779311518 -0.082965808471458069 0 0.10058413041743761 -0.090581864498492995 0 0.1017080788123951 -0.087804556385465471 0 0.1017080788123951 -0.087804556385465471 0 0.1084674426683357 -0.077888137089068013 0 0.1052689549146623 -0.0663211994006144 0 0.089190063779311518 -0.082965808471458069 0 0.1052689549146623 -0.0663211994006144 0 0.081939961595450139 -0.063935815506958552 0 0.1067368008806147 -0.064801708903802782 0 0.1052689549146623 -0.0663211994006144 0 0.081939961595450139 -0.063935815506958552 0 0.1067368008806147 -0.064801708903802782 0 0.1017080788123951 -0.087804556385465471 0 0.1052689549146623 -0.0663211994006144 0 0.1084674426683357 -0.077888137089068013 0 0.1067368008806147 -0.064801708903802782 0 0.1052689549146623 -0.0663211994006144 0 0.1067368008806147 -0.064801708903802782 0 0.1052689549146623 -0.0663211994006144 0 0.1067368008806147 -0.064801708903802782 0 0.13548767730717889 -0.06580567532731052 0 0.1084674426683357 -0.077888137089068013 0 0.1067368008806147 -0.064801708903802782 0 0.1232061248222129 -0.075206297362028066 0 0.1067368008806147 -0.064801708903802782 0 0.1232061248222129 -0.075206297362028066 0 0.13548767730717889 -0.06580567532731052 0 0.1017080788123951 -0.087804556385465471 0 0.1084674426683357 -0.077888137089068013 0 0.1272797878356694 -0.088593758706814907 0 0.1017080788123951 -0.087804556385465471 0 0.1272797878356694 -0.088593758706814907 0 0.1084674426683357 -0.077888137089068013 0 0.1232061248222129 -0.075206297362028066 0 0.1272797878356694 -0.088593758706814907 0 0.1017080788123951 -0.087804556385465471 0 0.11567178204704499 -0.10568275569041199 0 0.1272797878356694 -0.088593758706814907 0 0.1017080788123951 -0.087804556385465471 0 0.11567178204704499 -0.10568275569041199 0 0.097441521812097198 -0.10878804364663471 0 0.1017080788123951 -0.087804556385465471 0 0.097441521812097198 -0.10878804364663471 0 0.088608598291174498 -0.101420796185217 0 0.10058413041743761 -0.090581864498492995 0 0.097441521812097198 -0.10878804364663471 0 0.10058413041743761 -0.090581864498492995 0 0.1017080788123951 -0.087804556385465471 0 0.097441521812097198 -0.10878804364663471 0 0.093527805260815264 -0.13002146576964491 0 0.097441521812097198 -0.10878804364663471 0 0.104312872852085 -0.12243825994362539 0 0.093527805260815264 -0.13002146576964491 0 0.097441521812097198 -0.10878804364663471 0 0.11567178204704499 -0.10568275569041199 0 0.097441521812097198 -0.10878804364663471 0 0.104312872852085 -0.12243825994362539 0 0.11567178204704499 -0.10568275569041199 0 0.104312872852085 -0.12243825994362539 0 0.12800820934211829 -0.12401417466047961 0 0.12800820934211829 -0.12401417466047961 0 0.14712201392247631 -0.1132275548916801 0 0.13655559816636781 -0.1031347463460832 0 0.12800820934211829 -0.12401417466047961 0 0.14712201392247631 -0.1132275548916801 0 0.11567178204704499 -0.10568275569041199 0 0.12800820934211829 -0.12401417466047961 0 0.13655559816636781 -0.1031347463460832 0 0.12800820934211829 -0.12401417466047961 0 0.14712201392247631 -0.1132275548916801 0 0.1486045981545247 -0.12747252536747111 0 0.14712201392247631 -0.1132275548916801 0 0.16095359288685571 -0.1184472051676727 0 0.1486045981545247 -0.12747252536747111 0 0.15146120268426411 -0.099532086410862586 0 0.13655559816636781 -0.1031347463460832 0 0.1528514968589437 -0.089382961028164357 0 0.14712201392247631 -0.1132275548916801 0 0.15146120268426411 -0.099532086410862586 0 0.16623581850283431 -0.10244093512288061 0 0.14712201392247631 -0.1132275548916801 0 0.15146120268426411 -0.099532086410862586 0 0.13655559816636781 -0.1031347463460832 0 0.11567178204704499 -0.10568275569041199 0 0.13655559816636781 -0.1031347463460832 0 0.1272797878356694 -0.088593758706814907 0 0.1272797878356694 -0.088593758706814907 0 0.13805891541926751 -0.078942206783145619 0 0.1528514968589437 -0.089382961028164357 0 0.1272797878356694 -0.088593758706814907 0 0.1528514968589437 -0.089382961028164357 0 0.13655559816636781 -0.1031347463460832 0 0.1272797878356694 -0.088593758706814907 0 0.1528514968589437 -0.089382961028164357 0 0.1232061248222129 -0.075206297362028066 0 0.1272797878356694 -0.088593758706814907 0 0.13805891541926751 -0.078942206783145619 0 0.1232061248222129 -0.075206297362028066 0 0.13805891541926751 -0.078942206783145619 0 0.13548767730717889 -0.06580567532731052 0 0.13548767730717889 -0.06580567532731052 0 0.16423855373374319 -0.066809641750814969 0 0.13548767730717889 -0.06580567532731052 0 0.1516507619880918 -0.076739651506421189 0 0.16423855373374319 -0.066809641750814969 0 0.13548767730717889 -0.06580567532731052 0 0.16423855373374319 -0.066809641750814969 0 0.16004124225532049 -0.061841453839887157 0 0.13805891541926751 -0.078942206783145619 0 0.13548767730717889 -0.06580567532731052 0 0.1516507619880918 -0.076739651506421189 0 0.13805891541926751 -0.078942206783145619 0 0.1516507619880918 -0.076739651506421189 0 0.1528514968589437 -0.089382961028164357 0 0.15146120268426411 -0.099532086410862586 0 0.1528514968589437 -0.089382961028164357 0 0.15581646250916109 -0.090151240212135456 0 0.1528514968589437 -0.089382961028164357 0 0.15581646250916109 -0.090151240212135456 0 0.17842320588221819 -0.090172163349513806 0 0.1528514968589437 -0.089382961028164357 0 0.17842320588221819 -0.090172163349513806 0 0.15581646250916109 -0.090151240212135456 0 0.16859491992305889 -0.093070393687126218 0 0.17842320588221819 -0.090172163349513806 0 0.1528514968589437 -0.089382961028164357 0 0.1653897445003264 -0.079862578323319361 0 0.17842320588221819 -0.090172163349513806 0 0.1516507619880918 -0.076739651506421189 0 0.1528514968589437 -0.089382961028164357 0 0.1653897445003264 -0.079862578323319361 0 0.1516507619880918 -0.076739651506421189 0 0.1653897445003264 -0.079862578323319361 0 0.16423855373374319 -0.066809641750814969 0 0.1653897445003264 -0.079862578323319361 0 0.16423855373374319 -0.066809641750814969 0 0.17833356117891219 -0.077628002067558224 0 0.16423855373374319 -0.066809641750814969 0 0.1727598808088672 -0.056322389892066158 0 0.1929894301603077 -0.067813608174319001 0 0.16423855373374319 -0.066809641750814969 0 0.1929894301603077 -0.067813608174319001 0 0.16423855373374319 -0.066809641750814969 0 0.17833356117891219 -0.077628002067558224 0 0.1929894301603077 -0.067813608174319001 0 0.17833356117891219 -0.077628002067558224 0 0.19040307974074269 -0.080139672987034255 0 0.1929894301603077 -0.067813608174319001 0 0.16859491992305889 -0.093070393687126218 0 0.17842320588221819 -0.090172163349513806 0 0.17335524666804841 -0.094081054567607611 0 0.17842320588221819 -0.090172163349513806 0 0.17824607109877541 -0.095663109832525739 0 0.17335524666804841 -0.094081054567607611 0 0.1653897445003264 -0.079862578323319361 0 0.17833356117891219 -0.077628002067558224 0 0.17842320588221819 -0.090172163349513806 0 0.17833356117891219 -0.077628002067558224 0 0.1854866420256687 -0.084161575248007242 0 0.19040307974074269 -0.080139672987034255 0 0.17833356117891219 -0.077628002067558224 0 0.17842320588221819 -0.090172163349513806 0 0.1854866420256687 -0.084161575248007242 0 0.18404025852736719 -0.096743595743047278 0 0.18504385230606449 -0.10434071571553651 0 0.19243594079672521 -0.096163448387799222 0 0.17824607109877541 -0.095663109832525739 0 0.18504385230606449 -0.10434071571553651 0 0.16623581850283431 -0.10244093512288061 0 0.18504385230606449 -0.10434071571553651 0 0.18014950107347269 -0.1188522098678762 0 0.16623581850283431 -0.10244093512288061 0 0.18404025852736719 -0.096743595743047278 0 0.17824607109877541 -0.095663109832525739 0 0.18504385230606449 -0.10434071571553651 0 0.17842320588221819 -0.090172163349513806 0 0.18404025852736719 -0.096743595743047278 0 0.19243594079672521 -0.096163448387799222 0 0.17842320588221819 -0.090172163349513806 0 0.18404025852736719 -0.096743595743047278 0 0.17824607109877541 -0.095663109832525739 0 0.17824607109877541 -0.095663109832525739 0 0.17335524666804841 -0.094081054567607611 0 0.16623581850283431 -0.10244093512288061 0 0.17824607109877541 -0.095663109832525739 0 0.16623581850283431 -0.10244093512288061 0 0.18504385230606449 -0.10434071571553651 0 0.18014950107347269 -0.1188522098678762 0 0.1922879604253335 -0.1099500278873989 0 0.18014950107347269 -0.1188522098678762 0 0.16623581850283431 -0.10244093512288061 0 0.18014950107347269 -0.1188522098678762 0 0.16095359288685571 -0.1184472051676727 0 0.16623581850283431 -0.10244093512288061 0 0.14712201392247631 -0.1132275548916801 0 0.16095359288685571 -0.1184472051676727 0 0.16623581850283431 -0.10244093512288061 0 0.18014950107347269 -0.1188522098678762 0 0.16095359288685571 -0.1184472051676727 0 0.16265603278097029 -0.1302428005884553 0 0.14712201392247631 -0.1132275548916801 0 0.16623581850283431 -0.10244093512288061 0 0.15581646250916109 -0.090151240212135456 0 0.16859491992305889 -0.093070393687126218 0 0.16623581850283431 -0.10244093512288061 0 0.15146120268426411 -0.099532086410862586 0 0.15581646250916109 -0.090151240212135456 0 0.16623581850283431 -0.10244093512288061 0 0.15581646250916109 -0.090151240212135456 0 0.16623581850283431 -0.10244093512288061 0 0.16859491992305889 -0.093070393687126218 0 0.17335524666804841 -0.094081054567607611 0 0.16623581850283431 -0.10244093512288061 0 0.13735218555535891 0.001011181807127467 0 0.1449152044553462 -0.019939696741877431 0 0.14216046477152491 0.0049125148476896544 0 0.15727218843160701 -0.01758578836774349 0 0.15849764294065671 -0.0060544572746906826 0 0.14216046477152491 0.0049125148476896544 0 0.15727218843160701 -0.01758578836774349 0 0.14216046477152491 0.0049125148476896544 0 0.1449152044553462 -0.019939696741877431 0 0.15727218843160701 -0.01758578836774349 0 0.14216046477152491 0.0049125148476896544 0 0.13735218555535891 0.001011181807127467 0 0.1449152044553462 -0.019939696741877431 0 0.13735218555535891 0.001011181807127467 0 0.1175949646085984 -0.015019396993320021 0 0.13735218555535891 0.001011181807127467 0 0.1175949646085984 -0.015019396993320021 0 0.13165260102391191 -0.019660205177744808 0 0.13735218555535891 0.001011181807127467 0 0.13165260102391191 -0.019660205177744808 0 0.1449152044553462 -0.019939696741877431 0 0.13165260102391191 -0.019660205177744808 0 0.13984755105295521 -0.030525993742740402 0 0.1449152044553462 -0.019939696741877431 0 0.124582941869709 -0.030507807285028901 0 0.13165260102391191 -0.019660205177744808 0 0.13984755105295521 -0.030525993742740402 0 0.1449152044553462 -0.019939696741877431 0 0.15247822335533329 -0.040890575290882317 0 0.15727218843160701 -0.01758578836774349 0 0.13984755105295521 -0.030525993742740402 0 0.1449152044553462 -0.019939696741877431 0 0.15247822335533329 -0.040890575290882317 0 0.1449152044553462 -0.019939696741877431 0 0.15247822335533329 -0.040890575290882317 0 0.15247822335533329 -0.040890575290882317 0 0.1379109625223634 -0.045605004272587249 0 0.14629243763992239 -0.054068479542427092 0 0.13984755105295521 -0.030525993742740402 0 0.15247822335533329 -0.040890575290882317 0 0.1379109625223634 -0.045605004272587249 0 0.1232921759667842 -0.047663851323270827 0 0.13984755105295521 -0.030525993742740402 0 0.1379109625223634 -0.045605004272587249 0 0.1232921759667842 -0.047663851323270827 0 0.124582941869709 -0.030507807285028901 0 0.13984755105295521 -0.030525993742740402 0 0.1232921759667842 -0.047663851323270827 0 0.13984755105295521 -0.030525993742740402 0 0.1232921759667842 -0.047663851323270827 0 0.13548767730717889 -0.06580567532731052 0 0.1379109625223634 -0.045605004272587249 0 0.13548767730717889 -0.06580567532731052 0 0.1379109625223634 -0.045605004272587249 0 0.14629243763992239 -0.054068479542427092 0 0.13548767730717889 -0.06580567532731052 0 0.14629243763992239 -0.054068479542427092 0 0.16004124225532049 -0.061841453839887157 0 0.15247822335533329 -0.040890575290882317 0 0.14629243763992239 -0.054068479542427092 0 0.16004124225532049 -0.061841453839887157 0 0.15247822335533329 -0.040890575290882317 0 0.16004124225532049 -0.061841453839887157 0 0.1644158146278025 -0.049784627651503079 0 0.1644158146278025 -0.049784627651503079 0 0.1727598808088672 -0.056322389892066158 0 0.1723839120916891 -0.040084091583176683 0 0.15247822335533329 -0.040890575290882317 0 0.16004124225532049 -0.061841453839887157 0 0.16423855373374319 -0.066809641750814969 0 0.16004124225532049 -0.061841453839887157 0 0.1727598808088672 -0.056322389892066158 0 0.16004124225532049 -0.061841453839887157 0 0.1644158146278025 -0.049784627651503079 0 0.1727598808088672 -0.056322389892066158 0 0.1727598808088672 -0.056322389892066158 0 0.18434240851125541 -0.050289724698312777 0 0.1723839120916891 -0.040084091583176683 0 0.1727598808088672 -0.056322389892066158 0 0.18434240851125541 -0.050289724698312777 0 0.1929894301603077 -0.067813608174319001 0 0.1723839120916891 -0.040084091583176683 0 0.18077822909658589 -0.032018797610549231 0 0.17598651952492231 -0.0227560541305885 0 0.18434240851125541 -0.050289724698312777 0 0.1723839120916891 -0.040084091583176683 0 0.18674227588606429 -0.037749552466939278 0 0.1723839120916891 -0.040084091583176683 0 0.18674227588606429 -0.037749552466939278 0 0.18077822909658589 -0.032018797610549231 0 0.18674227588606429 -0.037749552466939278 0 0.18077822909658589 -0.032018797610549231 0 0.18610830639217099 -0.030062433202775862 0 0.15247822335533329 -0.040890575290882317 0 0.1723839120916891 -0.040084091583176683 0 0.15727218843160701 -0.01758578836774349 0 0.15247822335533329 -0.040890575290882317 0 0.1644158146278025 -0.049784627651503079 0 0.1723839120916891 -0.040084091583176683 0 0.1723839120916891 -0.040084091583176683 0 0.15727218843160701 -0.01758578836774349 0 0.1723839120916891 -0.040084091583176683 0 0.1668946229318731 -0.019675061199070819 0 0.17598651952492231 -0.0227560541305885 0 0.1723839120916891 -0.040084091583176683 0 0.15727218843160701 -0.01758578836774349 0 0.1668946229318731 -0.019675061199070819 0 0.1668946229318731 -0.019675061199070819 0 0.17598651952492231 -0.0227560541305885 0 0.16985348277487761 -0.0099868764823510571 0 0.18077822909658589 -0.032018797610549231 0 0.18438258456793261 -0.021379302004443181 0 0.17598651952492231 -0.0227560541305885 0 0.18077822909658589 -0.032018797610549231 0 0.18610830639217099 -0.030062433202775862 0 0.18438258456793261 -0.021379302004443181 0 0.18438258456793261 -0.021379302004443181 0 0.17598651952492231 -0.0227560541305885 0 0.17878486519392331 -0.011645355321630489 0 0.17598651952492231 -0.0227560541305885 0 0.17878486519392331 -0.011645355321630489 0 0.16985348277487761 -0.0099868764823510571 0 0.17878486519392331 -0.011645355321630489 0 0.17506184651935949 -0.0021247232161890161 0 0.16985348277487761 -0.0099868764823510571 0 0.18438258456793261 -0.021379302004443181 0 0.17878486519392331 -0.011645355321630489 0 0.18863989258252481 -0.001979820774580698 0 0.17878486519392331 -0.011645355321630489 0 0.17506184651935949 -0.0021247232161890161 0 0.18863989258252481 -0.001979820774580698 0 0.1628037813635097 0.0015330777282007481 0 0.17506184651935949 -0.0021247232161890161 0 0.16985348277487761 -0.0099868764823510571 0 0.1668946229318731 -0.019675061199070819 0 0.16985348277487761 -0.0099868764823510571 0 0.15849764294065671 -0.0060544572746906826 0 0.15727218843160701 -0.01758578836774349 0 0.1668946229318731 -0.019675061199070819 0 0.15849764294065671 -0.0060544572746906826 0 0.1628037813635097 0.0015330777282007481 0 0.16985348277487761 -0.0099868764823510571 0 0.15849764294065671 -0.0060544572746906826 0 0.1628037813635097 0.0015330777282007481 0 0.15453230216132671 0.0032055715019124438 0 0.15849764294065671 -0.0060544572746906826 0 0.21174544862736719 0.0096628206364345465 0 0.20589386385567829 -0.0063134785331596111 0 0.2185782736923042 -0.0038367730406402641 0 0.20589386385567829 -0.0063134785331596111 0 0.2185782736923042 -0.0038367730406402641 0 0.2199828155312514 -0.0225516893132638 0 0.20589386385567829 -0.0063134785331596111 0 0.18863989258252481 -0.001979820774580698 0 0.1936475112771239 -0.030998707124919651 0 0.20589386385567829 -0.0063134785331596111 0 0.1936475112771239 -0.030998707124919651 0 0.20001428446098229 -0.034334459813343092 0 0.18863989258252481 -0.001979820774580698 0 0.1936475112771239 -0.030998707124919651 0 0.20589386385567829 -0.0063134785331596111 0 0.20001428446098229 -0.034334459813343092 0 0.18438258456793261 -0.021379302004443181 0 0.18863989258252481 -0.001979820774580698 0 0.1936475112771239 -0.030998707124919651 0 0.18610830639217099 -0.030062433202775862 0 0.18438258456793261 -0.021379302004443181 0 0.1936475112771239 -0.030998707124919651 0 0.20589386385567829 -0.0063134785331596111 0 0.20001428446098229 -0.034334459813343092 0 0.2199828155312514 -0.0225516893132638 0 0.20001428446098229 -0.034334459813343092 0 0.22061008072662569 -0.045125245157715169 0 0.20001428446098229 -0.034334459813343092 0 0.22061008072662569 -0.045125245157715169 0 0.2199828155312514 -0.0225516893132638 0 0.20001428446098229 -0.034334459813343092 0 0.19683654360934791 -0.049478981375062181 0 0.22061008072662569 -0.045125245157715169 0 0.1936475112771239 -0.030998707124919651 0 0.19683654360934791 -0.049478981375062181 0 0.18674227588606429 -0.037749552466939278 0 0.1936475112771239 -0.030998707124919651 0 0.19683654360934791 -0.049478981375062181 0 0.1936475112771239 -0.030998707124919651 0 0.20001428446098229 -0.034334459813343092 0 0.19683654360934791 -0.049478981375062181 0 0.1936475112771239 -0.030998707124919651 0 0.20001428446098229 -0.034334459813343092 0 0.18674227588606429 -0.037749552466939278 0 0.18610830639217099 -0.030062433202775862 0 0.1936475112771239 -0.030998707124919651 0 0.18434240851125541 -0.050289724698312777 0 0.18674227588606429 -0.037749552466939278 0 0.19683654360934791 -0.049478981375062181 0 0.20001428446098229 -0.034334459813343092 0 0.19683654360934791 -0.049478981375062181 0 0.19683654360934791 -0.049478981375062181 0 0.1929894301603077 -0.067813608174319001 0 0.2000429458732931 -0.068059913463883598 0 0.19683654360934791 -0.049478981375062181 0 0.21158346953455981 -0.057932445704329483 0 0.2000429458732931 -0.068059913463883598 0 0.19683654360934791 -0.049478981375062181 0 0.2000429458732931 -0.068059913463883598 0 0.19683654360934791 -0.049478981375062181 0 0.1929894301603077 -0.067813608174319001 0 0.18434240851125541 -0.050289724698312777 0 0.19683654360934791 -0.049478981375062181 0 0.1929894301603077 -0.067813608174319001 0 0.19683654360934791 -0.049478981375062181 0 0.21158346953455981 -0.057932445704329483 0 0.22061008072662569 -0.045125245157715169 0 0.24120587699226881 -0.055916030502087773 0 0.22061008072662569 -0.045125245157715169 0 0.2288443079289719 -0.069065642820655804 0 0.21158346953455981 -0.057932445704329483 0 0.22061008072662569 -0.045125245157715169 0 0.2288443079289719 -0.069065642820655804 0 0.24120587699226881 -0.055916030502087773 0 0.22061008072662569 -0.045125245157715169 0 0.25030159180115191 -0.034143426788088307 0 0.24120587699226881 -0.055916030502087773 0 0.23430517811137791 -0.037629801295311363 0 0.25030159180115191 -0.034143426788088307 0 0.23430517811137791 -0.037629801295311363 0 0.23651070060392609 -0.023431292744830981 0 0.22061008072662569 -0.045125245157715169 0 0.23430517811137791 -0.037629801295311363 0 0.2199828155312514 -0.0225516893132638 0 0.24120587699226881 -0.055916030502087773 0 0.22061008072662569 -0.045125245157715169 0 0.23430517811137791 -0.037629801295311363 0 0.2199828155312514 -0.0225516893132638 0 0.23651070060392609 -0.023431292744830981 0 0.2300866381754704 -0.0072438550720441714 0 0.23430517811137791 -0.037629801295311363 0 0.2199828155312514 -0.0225516893132638 0 0.23651070060392609 -0.023431292744830981 0 0.25030159180115191 -0.034143426788088307 0 0.23651070060392609 -0.023431292744830981 0 0.2464198669495459 -0.012097030270161889 0 0.23790413247208811 0.0091049515404343275 0 0.2464198669495459 -0.012097030270161889 0 0.2300866381754704 -0.0072438550720441714 0 0.23651070060392609 -0.023431292744830981 0 0.2464198669495459 -0.012097030270161889 0 0.2300866381754704 -0.0072438550720441714 0 0.2185782736923042 -0.0038367730406402641 0 0.2199828155312514 -0.0225516893132638 0 0.2300866381754704 -0.0072438550720441714 0 0.22518260227175371 0.0072623370788317187 0 0.2185782736923042 -0.0038367730406402641 0 0.2300866381754704 -0.0072438550720441714 0 0.20666963866093291 -0.1113398018781358 0 0.20399491490549271 -0.090961365670864353 0 0.20666963866093291 -0.1113398018781358 0 0.23081911420975029 -0.091789222750733895 0 0.20666963866093291 -0.1113398018781358 0 0.20399491490549271 -0.090961365670864353 0 0.23081911420975029 -0.091789222750733895 0 0.2184940671700534 -0.12394732724419751 0 0.20666963866093291 -0.1113398018781358 0 0.22056261316880149 -0.1108234873110058 0 0.2184940671700534 -0.12394732724419751 0 0.20975191972323501 -0.12432290509972491 0 0.20666963866093291 -0.1113398018781358 0 0.2184940671700534 -0.12394732724419751 0 0.20666963866093291 -0.1113398018781358 0 0.20975191972323501 -0.12432290509972491 0 0.20666963866093291 -0.1113398018781358 0 0.1971408692894723 -0.1190539635876471 0 0.20975191972323501 -0.12432290509972491 0 0.20666963866093291 -0.1113398018781358 0 0.18014950107347269 -0.1188522098678762 0 0.1971408692894723 -0.1190539635876471 0 0.19406318364410949 -0.13526348461287321 0 0.20666963866093291 -0.1113398018781358 0 0.1971408692894723 -0.1190539635876471 0 0.18014950107347269 -0.1188522098678762 0 0.1971408692894723 -0.1190539635876471 0 0.1922879604253335 -0.1099500278873989 0 0.20666963866093291 -0.1113398018781358 0 0.1971408692894723 -0.1190539635876471 0 0.1922879604253335 -0.1099500278873989 0 0.20666963866093291 -0.1113398018781358 0 0.19243594079672521 -0.096163448387799222 0 0.20399491490549271 -0.090961365670864353 0 0.18504385230606449 -0.10434071571553651 0 0.1922879604253335 -0.1099500278873989 0 0.19243594079672521 -0.096163448387799222 0 0.20666963866093291 -0.1113398018781358 0 0.1922879604253335 -0.1099500278873989 0 0.19243594079672521 -0.096163448387799222 0 0.20666963866093291 -0.1113398018781358 0 0.19243594079672521 -0.096163448387799222 0 0.1854866420256687 -0.084161575248007242 0 0.19040307974074269 -0.080139672987034255 0 0.20399491490549271 -0.090961365670864353 0 0.17842320588221819 -0.090172163349513806 0 0.19243594079672521 -0.096163448387799222 0 0.20399491490549271 -0.090961365670864353 0 0.17842320588221819 -0.090172163349513806 0 0.20399491490549271 -0.090961365670864353 0 0.17842320588221819 -0.090172163349513806 0 0.1854866420256687 -0.084161575248007242 0 0.20399491490549271 -0.090961365670864353 0 0.2000429458732931 -0.068059913463883598 0 0.20399491490549271 -0.090961365670864353 0 0.19040307974074269 -0.080139672987034255 0 0.2000429458732931 -0.068059913463883598 0 0.20399491490549271 -0.090961365670864353 0 0.19040307974074269 -0.080139672987034255 0 0.1929894301603077 -0.067813608174319001 0 0.2000429458732931 -0.068059913463883598 0 0.19040307974074269 -0.080139672987034255 0 0.1929894301603077 -0.067813608174319001 0 0.1929894301603077 -0.067813608174319001 0 0.2000429458732931 -0.068059913463883598 0 0.2000429458732931 -0.068059913463883598 0 0.2288443079289719 -0.069065642820655804 0 0.2000429458732931 -0.068059913463883598 0 0.21771238563745279 -0.081480669998114597 0 0.2288443079289719 -0.069065642820655804 0 0.21158346953455981 -0.057932445704329483 0 0.2000429458732931 -0.068059913463883598 0 0.2288443079289719 -0.069065642820655804 0 0.2000429458732931 -0.068059913463883598 0 0.20399491490549271 -0.090961365670864353 0 0.21771238563745279 -0.081480669998114597 0 0.20399491490549271 -0.090961365670864353 0 0.21771238563745279 -0.081480669998114597 0 0.23081911420975029 -0.091789222750733895 0 0.20399491490549271 -0.090961365670864353 0 0.23081911420975029 -0.091789222750733895 0 0.21771238563745279 -0.081480669998114597 0 0.23081911420975029 -0.091789222750733895 0 0.2288443079289719 -0.069065642820655804 0 0.25764566998465072 -0.070071372177431313 0 0.24120587699226881 -0.055916030502087773 0 0.2288443079289719 -0.069065642820655804 0 0.25764566998465072 -0.070071372177431313 0 0.2288443079289719 -0.069065642820655804 0 0.25764566998465072 -0.070071372177431313 0 0.2288443079289719 -0.069065642820655804 0 0.24423239209720191 -0.080930297464084477 0 0.25666672159796139 -0.092586939936295867 0 0.23081911420975029 -0.091789222750733895 0 0.23081911420975029 -0.091789222750733895 0 0.2288443079289719 -0.069065642820655804 0 0.24423239209720191 -0.080930297464084477 0 0.25666672159796139 -0.092586939936295867 0 0.23081911420975029 -0.091789222750733895 0 0.24423239209720191 -0.080930297464084477 0 0.23081911420975029 -0.091789222750733895 0 0.24423239209720191 -0.080930297464084477 0 0.25666672159796139 -0.092586939936295867 0 0.23081911420975029 -0.091789222750733895 0 0.23839025179526999 -0.1151992729885977 0 0.20666963866093291 -0.1113398018781358 0 0.23081911420975029 -0.091789222750733895 0 0.22056261316880149 -0.1108234873110058 0 0.23081911420975029 -0.091789222750733895 0 0.22056261316880149 -0.1108234873110058 0 0.23839025179526999 -0.1151992729885977 0 0.2184940671700534 -0.12394732724419751 0 0.22056261316880149 -0.1108234873110058 0 0.23839025179526999 -0.1151992729885977 0 0.2184940671700534 -0.12394732724419751 0 0.23839025179526999 -0.1151992729885977 0 0.22928680998153819 -0.13545484142638689 0 0.25915390151091949 -0.11811210275817149 0 0.25133622254172122 -0.13557462765415079 0 0.23839025179526999 -0.1151992729885977 0 0.25133622254172122 -0.13557462765415079 0 0.25208407187516418 -0.1419613505697605 0 0.23274332603383319 -0.13914027229300069 0 0.25133622254172122 -0.13557462765415079 0 0.23839025179526999 -0.1151992729885977 0 0.22928680998153819 -0.13545484142638689 0 0.25133622254172122 -0.13557462765415079 0 0.22928680998153819 -0.13545484142638689 0 0.25133622254172122 -0.13557462765415079 0 0.23274332603383319 -0.13914027229300069 0 0.22928680998153819 -0.13545484142638689 0 0.25208407187516418 -0.1419613505697605 0 0.23274332603383319 -0.13914027229300069 0 0.2530488896403309 -0.16079061319898569 0 0.23274332603383319 -0.13914027229300069 0 0.2530488896403309 -0.16079061319898569 0 0.23274332603383319 -0.13914027229300069 0 0.2334622085995452 -0.15779257262933219 0 0.2530488896403309 -0.16079061319898569 0 0.25208407187516418 -0.1419613505697605 0 0.23274332603383319 -0.13914027229300069 0 0.22694604844669111 -0.15137512496012309 0 0.2202725953444182 -0.1456731206256075 0 0.22100128495381829 -0.16152072110389429 0 0.22694604844669111 -0.15137512496012309 0 0.23274332603383319 -0.13914027229300069 0 0.2334622085995452 -0.15779257262933219 0 0.22694604844669111 -0.15137512496012309 0 0.2202725953444182 -0.1456731206256075 0 0.23274332603383319 -0.13914027229300069 0 0.23274332603383319 -0.13914027229300069 0 0.20959101376118139 -0.13576323162740581 0 0.22928680998153819 -0.13545484142638689 0 0.2116749968128239 -0.1353591630196288 0 0.23274332603383319 -0.13914027229300069 0 0.22928680998153819 -0.13545484142638689 0 0.2116749968128239 -0.1353591630196288 0 0.2184940671700534 -0.12394732724419751 0 0.22928680998153819 -0.13545484142638689 0 0.2116749968128239 -0.1353591630196288 0 0.2202725953444182 -0.1456731206256075 0 0.23274332603383319 -0.13914027229300069 0 0.20959101376118139 -0.13576323162740581 0 0.23274332603383319 -0.13914027229300069 0 0.22928680998153819 -0.13545484142638689 0 0.2184940671700534 -0.12394732724419751 0 0.22928680998153819 -0.13545484142638689 0 0.23274332603383319 -0.13914027229300069 0 0.20959101376118139 -0.13576323162740581 0 0.2116749968128239 -0.1353591630196288 0 0.20975191972323501 -0.12432290509972491 0 0.2116749968128239 -0.1353591630196288 0 0.19406318364410949 -0.13526348461287321 0 0.2184940671700534 -0.12394732724419751 0 0.20975191972323501 -0.12432290509972491 0 0.2116749968128239 -0.1353591630196288 0 0.20959101376118139 -0.13576323162740581 0 0.2116749968128239 -0.1353591630196288 0 0.19406318364410949 -0.13526348461287321 0 0.2202725953444182 -0.1456731206256075 0 0.21077041390333781 -0.15496976615408631 0 0.22100128495381829 -0.16152072110389429 0 0.2202725953444182 -0.1456731206256075 0 0.20959101376118139 -0.13576323162740581 0 0.21077041390333781 -0.15496976615408631 0 0.20959101376118139 -0.13576323162740581 0 0.21077041390333781 -0.15496976615408631 0 0.19406318364410949 -0.13526348461287321 0 0.21077041390333781 -0.15496976615408631 0 0.19019323353294471 -0.15547991582157239 0 0.19406318364410949 -0.13526348461287321 0 0.21077041390333781 -0.15496976615408631 0 0.19406318364410949 -0.13526348461287321 0 0.20975191972323501 -0.12432290509972491 0 0.1971408692894723 -0.1190539635876471 0 0.19406318364410949 -0.13526348461287321 0 0.2116749968128239 -0.1353591630196288 0 0.19406318364410949 -0.13526348461287321 0 0.2064216300685435 -0.1763378775815001 0 0.19333004299069351 -0.19482382871724169 0 0.185888281266576 -0.1738959907954824 0 0.21077041390333781 -0.15496976615408631 0 0.19019323353294471 -0.15547991582157239 0 0.2064216300685435 -0.1763378775815001 0 0.19019323353294471 -0.15547991582157239 0 0.2064216300685435 -0.1763378775815001 0 0.185888281266576 -0.1738959907954824 0 0.21077041390333781 -0.15496976615408631 0 0.2064216300685435 -0.1763378775815001 0 0.22100128495381829 -0.16152072110389429 0 0.2064216300685435 -0.1763378775815001 0 0.22637928715471201 -0.1750627007060517 0 0.22100128495381829 -0.16152072110389429 0 0.2064216300685435 -0.1763378775815001 0 0.22637928715471201 -0.1750627007060517 0 0.2213864998634191 -0.19074186604973761 0 0.22637928715471201 -0.1750627007060517 0 0.2363010186387848 -0.18586727398715949 0 0.2213864998634191 -0.19074186604973761 0 0.22637928715471201 -0.1750627007060517 0 0.22100128495381829 -0.16152072110389429 0 0.2334622085995452 -0.15779257262933219 0 0.22637928715471201 -0.1750627007060517 0 0.2334622085995452 -0.15779257262933219 0 0.24133419147104179 -0.17110858194103351 0 0.22694604844669111 -0.15137512496012309 0 0.22100128495381829 -0.16152072110389429 0 0.2334622085995452 -0.15779257262933219 0 0.2530488896403309 -0.16079061319898569 0 0.2334622085995452 -0.15779257262933219 0 0.24133419147104179 -0.17110858194103351 0 0.2550208565069661 -0.17514012483034949 0 0.2530488896403309 -0.16079061319898569 0 0.24133419147104179 -0.17110858194103351 0 0.22637928715471201 -0.1750627007060517 0 0.24133419147104179 -0.17110858194103351 0 0.2363010186387848 -0.18586727398715949 0 0.25030889548151403 -0.1837077448593728 0 0.2550208565069661 -0.17514012483034949 0 0.24133419147104179 -0.17110858194103351 0 0.25030889548151403 -0.1837077448593728 0 0.24133419147104179 -0.17110858194103351 0 0.2363010186387848 -0.18586727398715949 0 0.25030889548151403 -0.1837077448593728 0 0.2363010186387848 -0.18586727398715949 0 0.24624710011957149 -0.19756578472926509 0 0.2363010186387848 -0.18586727398715949 0 0.24624710011957149 -0.19756578472926509 0 0.23232272155890341 -0.19906227567560569 0 0.24624710011957149 -0.19756578472926509 0 0.2390873575194972 -0.2119906927462733 0 0.23232272155890341 -0.19906227567560569 0 0.25806059678156651 -0.21160485628964759 0 0.24624710011957149 -0.19756578472926509 0 0.2390873575194972 -0.2119906927462733 0 0.25806059678156651 -0.21160485628964759 0 0.2390873575194972 -0.2119906927462733 0 0.2485278721491469 -0.22983386195931649 0 0.22156570902884701 -0.2081716276760221 0 0.2275965143199381 -0.22680811778712909 0 0.21130945108473639 -0.22000441216527869 0 0.2390873575194972 -0.2119906927462733 0 0.22156570902884701 -0.2081716276760221 0 0.23232272155890341 -0.19906227567560569 0 0.2390873575194972 -0.2119906927462733 0 0.22156570902884701 -0.2081716276760221 0 0.2275965143199381 -0.22680811778712909 0 0.22156570902884701 -0.2081716276760221 0 0.2213864998634191 -0.19074186604973761 0 0.23232272155890341 -0.19906227567560569 0 0.2363010186387848 -0.18586727398715949 0 0.2213864998634191 -0.19074186604973761 0 0.23232272155890341 -0.19906227567560569 0 0.2410490216361528 -0.25300372010805161 0 0.2485278721491469 -0.22983386195931649 0 0.2275965143199381 -0.22680811778712909 0 0.25787859859726192 -0.24372773219337371 0 0.2410490216361528 -0.25300372010805161 0 0.2485278721491469 -0.22983386195931649 0 0.2390873575194972 -0.2119906927462733 0 0.2485278721491469 -0.22983386195931649 0 0.2275965143199381 -0.22680811778712909 0 0.2410490216361528 -0.25300372010805161 0 0.2275965143199381 -0.22680811778712909 0 0.2136455624920251 -0.24586339942155419 0 0.2410490216361528 -0.25300372010805161 0 0.2136455624920251 -0.24586339942155419 0 0.2136455624920251 -0.24586339942155419 0 0.1995187067769538 -0.22648505830905971 0 0.1970165427207646 -0.2431475676051908 0 0.2275965143199381 -0.22680811778712909 0 0.2136455624920251 -0.24586339942155419 0 0.21130945108473639 -0.22000441216527869 0 0.2136455624920251 -0.24586339942155419 0 0.21130945108473639 -0.22000441216527869 0 0.1995187067769538 -0.22648505830905971 0 0.1995187067769538 -0.22648505830905971 0 0.1970165427207646 -0.2431475676051908 0 0.1843931124890181 -0.23269732176232691 0 0.21130945108473639 -0.22000441216527869 0 0.1995187067769538 -0.22648505830905971 0 0.19847161958806309 -0.21206345826637629 0 0.2064216300685435 -0.1763378775815001 0 0.2213864998634191 -0.19074186604973761 0 0.20705859430259141 -0.20063481153153051 0 0.22156570902884701 -0.2081716276760221 0 0.2213864998634191 -0.19074186604973761 0 0.20705859430259141 -0.20063481153153051 0 0.22156570902884701 -0.2081716276760221 0 0.21130945108473639 -0.22000441216527869 0 0.20705859430259141 -0.20063481153153051 0 0.21130945108473639 -0.22000441216527869 0 0.20705859430259141 -0.20063481153153051 0 0.19847161958806309 -0.21206345826637629 0 0.19847161958806309 -0.21206345826637629 0 0.19333004299069351 -0.19482382871724169 0 0.184507054165965 -0.21658659277756609 0 0.1995187067769538 -0.22648505830905971 0 0.19847161958806309 -0.21206345826637629 0 0.184507054165965 -0.21658659277756609 0 0.20705859430259141 -0.20063481153153051 0 0.19847161958806309 -0.21206345826637629 0 0.19333004299069351 -0.19482382871724169 0 0.2064216300685435 -0.1763378775815001 0 0.20705859430259141 -0.20063481153153051 0 0.19333004299069351 -0.19482382871724169 0 0.1776330785524223 -0.18942424135099509 0 0.184507054165965 -0.21658659277756609 0 0.16837846483810831 -0.20319749351435479 0 0.19333004299069351 -0.19482382871724169 0 0.1776330785524223 -0.18942424135099509 0 0.184507054165965 -0.21658659277756609 0 0.1776330785524223 -0.18942424135099509 0 0.184507054165965 -0.21658659277756609 0 0.184507054165965 -0.21658659277756609 0 0.1749867686249286 -0.21735889230250449 0 0.16837846483810831 -0.20319749351435479 0 0.1749867686249286 -0.21735889230250449 0 0.16837846483810831 -0.20319749351435479 0 0.15045483047290331 -0.2082327262959493 0 0.1749867686249286 -0.21735889230250449 0 0.15045483047290331 -0.2082327262959493 0 0.1749867686249286 -0.21735889230250449 0 0.16226861639455931 -0.22172210758959859 0 0.15045483047290331 -0.2082327262959493 0 0.16837846483810831 -0.20319749351435479 0 0.15045483047290331 -0.2082327262959493 0 0.15431059237432221 -0.18438501484475869 0 0.1776330785524223 -0.18942424135099509 0 0.16837846483810831 -0.20319749351435479 0 0.15431059237432221 -0.18438501484475869 0 0.1970165427207646 -0.2431475676051908 0 0.18013525364959199 -0.24590787480667409 0 0.1843931124890181 -0.23269732176232691 0 0.18013525364959199 -0.24590787480667409 0 0.1843931124890181 -0.23269732176232691 0 0.17030829067285161 -0.2305872157882054 0 0.1995187067769538 -0.22648505830905971 0 0.1749867686249286 -0.21735889230250449 0 0.1995187067769538 -0.22648505830905971 0 0.1749867686249286 -0.21735889230250449 0 0.1843931124890181 -0.23269732176232691 0 0.1995187067769538 -0.22648505830905971 0 0.184507054165965 -0.21658659277756609 0 0.1749867686249286 -0.21735889230250449 0 0.1749867686249286 -0.21735889230250449 0 0.1843931124890181 -0.23269732176232691 0 0.17030829067285161 -0.2305872157882054 0 0.16226861639455931 -0.22172210758959859 0 0.17030829067285161 -0.2305872157882054 0 0.15332457580755371 -0.23070959597173549 0 0.1749867686249286 -0.21735889230250449 0 0.16226861639455931 -0.22172210758959859 0 0.17030829067285161 -0.2305872157882054 0 0.16103468924722281 -0.25381861710109321 0 0.18013525364959199 -0.24590787480667409 0 0.17030829067285161 -0.2305872157882054 0 0.16103468924722281 -0.25381861710109321 0 0.17030829067285161 -0.2305872157882054 0 0.15332457580755371 -0.23070959597173549 0 0.16103468924722281 -0.25381861710109321 0 0.1412434604122122 -0.24631040783256791 0 0.15332457580755371 -0.23070959597173549 0 0.1412434604122122 -0.24631040783256791 0 0.15332457580755371 -0.23070959597173549 0 0.1284413173888232 -0.22347585252773641 0 0.15332457580755371 -0.23070959597173549 0 0.1284413173888232 -0.22347585252773641 0 0.15045483047290331 -0.2082327262959493 0 0.16226861639455931 -0.22172210758959859 0 0.15332457580755371 -0.23070959597173549 0 0.15045483047290331 -0.2082327262959493 0 0.1200034520355143 -0.24749468667538321 0 0.1412434604122122 -0.24631040783256791 0 0.1284413173888232 -0.22347585252773641 0 0.15045483047290331 -0.2082327262959493 0 0.12592289232087811 -0.19910656028939411 0 0.15431059237432221 -0.18438501484475869 0 0.15045483047290331 -0.2082327262959493 0 0.12592289232087811 -0.19910656028939411 0 0.1284413173888232 -0.22347585252773641 0 0.15045483047290331 -0.2082327262959493 0 0.12592289232087811 -0.19910656028939411 0 0.11404320040195411 -0.17785048998131209 0 0.12592289232087811 -0.19910656028939411 0 0.1362427207560932 -0.1734399905344442 0 0.12592289232087811 -0.19910656028939411 0 0.1362427207560932 -0.1734399905344442 0 0.15431059237432221 -0.18438501484475869 0 0.1362427207560932 -0.1734399905344442 0 0.15431059237432221 -0.18438501484475869 0 0.1498051255961938 -0.157092757972084 0 0.11404320040195411 -0.17785048998131209 0 0.1362427207560932 -0.1734399905344442 0 0.1305387904294309 -0.15561497697083931 0 0.1362427207560932 -0.1734399905344442 0 0.1498051255961938 -0.157092757972084 0 0.1305387904294309 -0.15561497697083931 0 0.1498051255961938 -0.157092757972084 0 0.1305387904294309 -0.15561497697083931 0 0.13638976604354719 -0.13495016646355951 0 0.1161887790728692 -0.1476769396888597 0 0.1305387904294309 -0.15561497697083931 0 0.13638976604354719 -0.13495016646355951 0 0.12800820934211829 -0.12401417466047961 0 0.13638976604354719 -0.13495016646355951 0 0.1486045981545247 -0.12747252536747111 0 0.13638976604354719 -0.13495016646355951 0 0.16388512732533739 -0.13509953849785281 0 0.13638976604354719 -0.13495016646355951 0 0.1486045981545247 -0.12747252536747111 0 0.16388512732533739 -0.13509953849785281 0 0.1498051255961938 -0.157092757972084 0 0.13638976604354719 -0.13495016646355951 0 0.16388512732533739 -0.13509953849785281 0 0.16388512732533739 -0.13509953849785281 0 0.17075910293887969 -0.16226188992442411 0 0.1498051255961938 -0.157092757972084 0 0.16388512732533739 -0.13509953849785281 0 0.17075910293887969 -0.16226188992442411 0 0.18014950107347269 -0.1188522098678762 0 0.16265603278097029 -0.1302428005884553 0 0.16388512732533739 -0.13509953849785281 0 0.16095359288685571 -0.1184472051676727 0 0.1486045981545247 -0.12747252536747111 0 0.16265603278097029 -0.1302428005884553 0 0.1486045981545247 -0.12747252536747111 0 0.16265603278097029 -0.1302428005884553 0 0.16388512732533739 -0.13509953849785281 0 0.16265603278097029 -0.1302428005884553 0 0.16388512732533739 -0.13509953849785281 0 0.19406318364410949 -0.13526348461287321 0 0.16388512732533739 -0.13509953849785281 0 0.18014950107347269 -0.1188522098678762 0 0.19406318364410949 -0.13526348461287321 0 0.18014950107347269 -0.1188522098678762 0 0.19406318364410949 -0.13526348461287321 0 0.16388512732533739 -0.13509953849785281 0 0.19019323353294471 -0.15547991582157239 0 0.16388512732533739 -0.13509953849785281 0 0.17075910293887969 -0.16226188992442411 0 0.19019323353294471 -0.15547991582157239 0 0.19406318364410949 -0.13526348461287321 0 0.16388512732533739 -0.13509953849785281 0 0.19019323353294471 -0.15547991582157239 0 0.185888281266576 -0.1738959907954824 0 0.17075910293887969 -0.16226188992442411 0 0.1776330785524223 -0.18942424135099509 0 0.185888281266576 -0.1738959907954824 0 0.17075910293887969 -0.16226188992442411 0 0.1776330785524223 -0.18942424135099509 0 0.17075910293887969 -0.16226188992442411 0 0.19333004299069351 -0.19482382871724169 0 0.1776330785524223 -0.18942424135099509 0 0.185888281266576 -0.1738959907954824 0 0.1776330785524223 -0.18942424135099509 0 0.15431059237432221 -0.18438501484475869 0 0.17075910293887969 -0.16226188992442411 0 0.15431059237432221 -0.18438501484475869 0 0.1498051255961938 -0.157092757972084 0 0.17075910293887969 -0.16226188992442411 0 
</DataArray>
</Points>
<Cells>
<DataArray type="UInt32" Name="connectivity" format="ascii">
0 1 2 3 4 5 6 7 8 9 10 11 12 13 14 15 16 17 18 19 20 21 22 23 24 25 26 27 28 29 30 31 32 33 34 35 36 37 38 39 40 41 42 43 44 45 46 47 48 49 50 51 52 53 54 55 56 57 58 59 60 61 62 63 64 65 66 67 68 69 70 71 72 73 74 75 76 77 78 79 80 81 82 83 84 85 86 87 88 89 90 91 92 93 94 95 96 97 98 99 100 101 102 103 104 105 106 107 108 109 110 111 112 113 114 115 116 117 118 119 120 121 122 123 124 125 126 127 128 129 130 131 132 133 134 135 136 137 138 139 140 141 142 143 144 145 146 147 148 149 150 151 152 153 154 155 156 157 158 159 160 161 162 163 164 165 166 167 168 169 170 171 172 173 174 175 176 177 178 179 180 181 182 183 184 185 186 187 188 189 190 191 192 193 194 195 196 197 198 199 200 201 202 203 204 205 206 207 208 209 210 211 212 213 214 215 216 217 218 219 220 221 222 223 224 225 226 227 228 229 230 231 232 233 234 235 236 237 238 239 240 241 242 243 244 245 246 247 248 249 250 251 252 253 254 255 256 257 258 259 260 261 262 263 264 265 266 267 268 269 270 271 272 273 274 275 276 277 278 279 280 281 282 283 284 285 286 287 288 289 290 291 292 293 294 295 296 297 298 299 300 301 302 303 304 305 306 307 308 309 310 311 312 313 314 315 316 317 318 319 320 321 322 323 324 325 326 327 328 329 330 331 332 333 334 335 336 337 338 339 340 341 342 343 344 345 346 347 348 349 350 351 352 353 354 355 356 357 358 359 360 361 362 363 364 365 366 367 368 369 370 371 372 373 374 375 376 377 378 379 380 381 382 383 384 385 386 387 388 389 390 391 392 393 394 395 396 397 398 399 400 401 402 403 404 405 406 407 408 409 410 411 412 413 414 415 416 417 418 419 420 421 422 423 424 425 426 427 428 429 430 431 432 433 434 435 436 437 438 439 440 441 442 443 444 445 446 447 448 449 450 451 452 453 454 455 456 457 458 459 460 461 462 463 464 465 466 467 468 469 470 471 472 473 474 475 476 477 478 479 480 481 482 483 484 485 486 487 488 489 490 491 492 493 494 495 496 497 498 499 500 501 502 503 504 505 506 507 508 509 510 511 512 513 514 515 516 517 518 519 520 521 522 523 524 525 526 527 528 529 530 531 532 533 534 535 536 537 538 539 540 541 542 543 544 545 546 547 548 549 550 551 552 553 554 555 556 557 558 559 560 561 562 563 564 565 566 567 568 569 570 571 572 573 574 575 576 577 578 579 580 581 582 583 584 585 586 587 588 589 590 591 592 593 594 595 596 597 598 599 600 601 602 603 604 605 606 607 608 609 610 611 612 613 614 615 616 617 618 619 620 621 622 623 624 625 626 627 628 629 630 631 632 633 634 635 636 637 638 639 640 641 642 643 644 645 646 647 648 649 650 651 652 653 654 655 656 657 658 659 660 661 662 663 664 665 666 667 668 669 670 671 672 673 674 675 676 677 678 679 680 681 682 683 684 685 686 687 688 689 690 691 692 693 694 695 696 697 698 699 700 701 702 703 704 705 706 707 708 709 710 711 712 713 714 715 716 717 718 719 720 721 722 723 724 725 726 727 728 729 730 731 732 733 734 735 736 737 738 739 740 741 742 743 744 745 746 747 748 749 750 751 752 753 754 755 756 757 758 759 760 761 762 763 764 765 766 767 768 769 770 771 772 773 774 775 776 777 778 779 780 781 782 783 784 785 786 787 788 789 790 791 792 793 794 795 796 797 798 799 800 801 802 803 804 805 806 807 808 809 810 811 812 813 814 815 816 817 818 819 820 821 822 823 824 825 826 827 828 829 830 831 832 833 834 835 836 837 838 839 840 841 842 843 844 845 846 847 848 849 850 851 852 853 854 855 856 857 858 859 860 861 862 863 864 865 866 867 868 869 870 871 872 873 874 875 876 877 878 879 880 881 882 883 884 885 886 887 888 889 890 891 892 893 894 895 896 897 898 899 900 901 902 903 904 905 906 907 908 909 910 911 912 913 914 915 916 917 918 919 920 921 922 923 924 925 926 927 928 929 930 931 932 933 934 935 936 937 938 939 940 941 942 943 944 945 946 947 948 949 950 951 952 953 954 955 956 957 958 959 960 961 962 963 964 965 966 967 968 969 970 971 972 973 974 975 976 977 978 979 980 981 982 983 984 985 986 987 988 989 990 991 992 993 994 995 996 997 998 999 1000 1001 1002 1003 1004 1005 1006 1007 1008 1009 1010 1011 1012 1013 1014 1015 1016 1017 1018 1019 1020 1021 1022 1023 1024 1025 1026 1027 1028 1029 1030 1031 1032 1033 1034 1035 1036 1037 1038 1039 1040 1041 1042 1043 1044 1045 1046 1047 1048 1049 1050 1051 1052 1053 1054 1055 1056 1057 1058 1059 1060 1061 1062 1063 1064 1065 1066 1067 1068 1069 1070 1071 1072 1073 1074 1075 1076 1077 1078 1079 1080 1081 1082 1083 1084 1085 1086 1087 1088 1089 1090 1091 1092 1093 1094 1095 1096 1097 1098 1099 1100 1101 1102 1103 1104 1105 1106 1107 1108 1109 1110 1111 1112 1113 1114 1115 1116 1117 1118 1119 1120 1121 1122 1123 1124 1125 1126 1127 1128 1129 1130 1131 1132 1133 1134 1135 1136 1137 1138 1139 1140 1141 1142 1143 1144 1145 1146 1147 1148 1149 1150 1151 1152 1153 1154 1155 1156 1157 1158 1159 1160 1161 1162 1163 1164 1165 1166 1167 1168 1169 1170 1171 1172 1173 1174 1175 1176 1177 1178 1179 1180 1181 1182 1183 1184 1185 1186 1187 1188 1189 1190 1191 1192 1193 1194 1195 1196 1197 1198 1199 1200 1201 1202 1203 1204 1205 1206 1207 1208 1209 1210 1211 1212 1213 1214 1215 1216 1217 1218 1219 1220 1221 1222 1223 1224 1225 1226 1227 1228 1229 1230 1231 1232 1233 1234 1235 1236 1237 1238 1239 1240 1241 1242 1243 1244 1245 1246 1247 1248 1249 1250 1251 1252 1253 1254 1255 1256 1257 1258 1259 1260 1261 1262 1263 1264 1265 1266 1267 1268 1269 1270 1271 1272 1273 1274 1275 1276 1277 1278 1279 1280 1281 1282 1283 1284 1285 1286 1287 1288 1289 1290 1291 1292 1293 1294 1295 1296 1297 1298 1299 1300 1301 1302 1303 1304 1305 1306 1307 1308 1309 1310 1311 1312 1313 1314 1315 1316 1317 1318 1319 1320 1321 1322 1323 1324 1325 1326 1327 1328 1329 1330 1331 1332 1333 1334 1335 1336 1337 1338 1339 1340 1341 1342 1343 1344 1345 1346 1347 1348 1349 1350 1351 1352 1353 1354 1355 1356 1357 1358 1359 1360 1361 1362 1363 1364 1365 1366 1367 1368 1369 1370 1371 1372 1373 1374 1375 1376 1377 1378 1379 1380 1381 1382 1383 1384 1385 1386 1387 1388 1389 1390 1391 1392 1393 1394 1395 1396 1397 1398 1399 1400 1401 1402 1403 1404 1405 1406 1407 1408 1409 1410 1411 1412 1413 1414 1415 1416 1417 1418 1419 1420 1421 1422 1423 1424 1425 1426 1427 1428 1429 1430 1431 1432 1433 1434 1435 1436 1437 1438 1439 1440 1441 1442 1443 1444 1445 1446 1447 1448 1449 1450 1451 1452 1453 1454 1455 1456 1457 1458 1459 1460 1461 1462 1463 1464 1465 1466 1467 1468 1469 1470 1471 1472 1473 1474 1475 1476 1477 1478 1479 1480 1481 1482 1483 1484 1485 1486 1487 1488 1489 1490 1491 1492 1493 1494 1495 1496 1497 1498 1499 1500 1501 1502 1503 1504 1505 1506 1507 1508 1509 1510 1511 1512 1513 1514 1515 1516 1517 1518 1519 1520 1521 1522 1523 1524 1525 1526 1527 1528 1529 1530 1531 1532 1533 1534 1535 1536 1537 1538 1539 1540 1541 1542 1543 1544 1545 1546 1547 1548 1549 1550 1551 1552 1553 1554 1555 1556 1557 1558 1559 1560 1561 1562 1563 1564 1565 1566 1567 1568 1569 1570 1571 1572 1573 1574 1575 1576 1577 1578 1579 1580 1581 1582 1583 1584 1585 1586 1587 1588 1589 1590 1591 1592 1593 1594 1595 1596 1597 1598 1599 1600 1601 1602 1603 1604 1605 1606 1607 1608 1609 1610 1611 1612 1613 1614 1615 1616 1617 1618 1619 1620 1621 1622 1623 1624 1625 1626 1627 1628 1629 1630 1631 1632 1633 1634 1635 1636 1637 1638 1639 1640 1641 1642 1643 1644 1645 1646 1647 1648 1649 1650 1651 1652 1653 1654 1655 1656 1657 1658 1659 1660 1661 1662 1663 1664 1665 1666 1667 1668 1669 1670 1671 1672 1673 1674 1675 1676 1677 1678 1679 1680 1681 1682 1683 1684 1685 1686 1687 1688 1689 1690 1691 1692 1693 1694 1695 1696 1697 1698 1699 1700 1701 1702 1703 1704 1705 1706 1707 1708 1709 1710 1711 1712 1713 1714 1715 1716 1717 1718 1719 1720 1721 1722 1723 1724 1725 1726 1727 1728 1729 1730 1731 1732 1733 1734 1735 1736 1737 1738 1739 1740 1741 1742 1743 1744 1745 1746 1747 1748 1749 1750 1751 1752 1753 1754 1755 1756 1757 1758 1759 1760 1761 1762 1763 1764 1765 1766 1767 1768 1769 1770 1771 1772 1773 1774 1775 1776 1777 1778 1779 1780 1781 1782 1783 1784 1785 1786 1787 1788 1789 1790 1791 1792 1793 1794 1795 1796 1797 1798 1799 1800 1801 1802 1803 1804 1805 1806 1807 1808 1809 1810 1811 1812 1813 1814 1815 1816 1817 1818 1819 1820 1821 1822 1823 1824 1825 1826 1827 1828 1829 1830 1831 1832 1833 1834 1835 1836 1837 1838 1839 1840 1841 1842 1843 1844 1845 1846 1847 1848 1849 1850 1851 1852 1853 1854 1855 1856 1857 1858 1859 1860 1861 1862 1863 1864 1865 1866 1867 1868 1869 1870 1871 1872 1873 1874 1875 1876 1877 1878 1879 1880 1881 1882 1883 1884 1885 1886 1887 1888 1889 1890 1891 1892 1893 1894 1895 1896 1897 1898 1899 1900 1901 1902 1903 1904 1905 1906 1907 1908 1909 1910 1911 1912 1913 1914 1915 1916 1917 1918 1919 1920 1921 1922 1923 1924 1925 1926 1927 1928 1929 1930 1931 1932 1933 1934 1935 1936 1937 1938 1939 1940 1941 1942 1943 1944 1945 1946 1947 1948 1949 1950 1951 1952 1953 1954 1955 1956 1957 1958 1959 1960 1961 1962 1963 1964 1965 1966 1967 1968 1969 1970 1971 1972 1973 1974 1975 1976 1977 1978 1979 1980 1981 1982 1983 1984 1985 1986 1987 1988 1989 1990 1991 1992 1993 1994 1995 1996 1997 1998 1999 2000 2001 2002 2003 2004 2005 2006 2007 2008 2009 2010 2011 2012 2013 2014 2015 2016 2017 2018 2019 2020 2021 2022 2023 2024 2025 2026 2027 2028 2029 2030 2031 2032 2033 2034 2035 2036 2037 2038 2039 2040 2041 2042 2043 2044 2045 2046 2047 2048 2049 2050 2051 2052 2053 2054 2055 2056 2057 2058 2059 2060 2061 2062 2063 2064 2065 2066 2067 2068 2069 2070 2071 2072 2073 2074 2075 2076 2077 2078 2079 2080 2081 2082 2083 2084 2085 2086 2087 2088 2089 2090 2091 2092 2093 2094 2095 2096 2097 2098 2099 2100 2101 2102 2103 2104 2105 2106 2107 2108 2109 2110 2111 2112 2113 2114 2115 2116 2117 2118 2119 2120 2121 2122 2123 2124 2125 2126 2127 2128 2129 2130 2131 2132 2133 2134 2135 2136 2137 2138 2139 2140 2141 2142 2143 2144 2145 2146 2147 2148 2149 2150 2151 2152 2153 2154 2155 2156 2157 2158 2159 2160 2161 2162 2163 2164 2165 2166 2167 2168 2169 2170 2171 2172 2173 2174 2175 2176 2177 2178 2179 2180 2181 2182 2183 2184 2185 2186 2187 2188 2189 2190 2191 2192 2193 2194 2195 2196 2197 2198 2199 2200 2201 2202 2203 2204 2205 2206 2207 2208 2209 2210 2211 2212 2213 2214 2215 2216 2217 2218 2219 2220 2221 2222 2223 2224 2225 2226 2227 2228 2229 2230 2231 2232 2233 2234 2235 2236 2237 2238 2239 2240 2241 2242 2243 2244 2245 2246 2247 2248 2249 2250 2251 2252 2253 2254 2255 2256 2257 2258 2259 2260 2261 2262 2263 2264 2265 2266 2267 2268 2269 2270 2271 2272 2273 2274 2275 2276 2277 2278 2279 2280 2281 2282 2283 2284 2285 2286 2287 2288 2289 2290 2291 2292 2293 2294 2295 2296 2297 2298 2299 2300 2301 2302 2303 2304 2305 2306 2307 2308 2309 2310 2311 2312 2313 2314 2315 2316 2317 2318 2319 2320 2321 2322 2323 2324 2325 2326 2327 2328 2329 2330 2331 2332 2333 2334 2335 2336 2337 2338 2339 2340 2341 2342 2343 2344 2345 2346 2347 2348 2349 2350 2351 2352 2353 2354 2355 2356 2357 2358 2359 2360 2361 2362 2363 2364 2365 2366 2367 2368 2369 2370 2371 2372 2373 2374 2375 2376 2377 2378 2379 2380 2381 2382 2383 2384 2385 2386 2387 2388 2389 2390 2391 2392 2393 2394 2395 2396 2397 2398 2399 2400 2401 2402 2403 2404 2405 2406 2407 2408 2409 2410 2411 2412 2413 2414 2415 2416 2417 2418 2419 2420 2421 2422 2423 2424 2425 2426 2427 2428 2429 2430 2431 2432 2433 2434 2435 2436 2437 2438 2439 2440 2441 2442 2443 2444 2445 2446 2447 2448 2449 2450 2451 2452 2453 2454 2455 2456 2457 2458 2459 2460 2461 2462 2463 2464 2465 2466 2467 2468 2469 2470 2471 2472 2473 2474 2475 2476 2477 2478 2479 2480 2481 2482 2483 2484 2485 2486 2487 2488 2489 2490 2491 2492 2493 2494 2495 2496 2497 2498 2499 2500 2501 2502 2503 2504 2505 2506 2507 2508 2509 2510 2511 2512 2513 2514 2515 2516 2517 2518 2519 2520 2521 2522 2523 2524 2525 2526 2527 2528 2529 2530 2531 2532 2533 2534 2535 2536 2537 2538 2539 2540 2541 2542 2543 2544 2545 2546 2547 2548 2549 2550 2551 2552 2553 2554 2555 2556 2557 2558 2559 2560 2561 2562 2563 2564 2565 2566 2567 2568 2569 2570 2571 2572 2573 2574 2575 2576 2577 2578 2579 2580 2581 2582 2583 2584 2585 2586 2587 2588 2589 2590 2591 2592 2593 2594 2595 2596 2597 2598 2599 2600 2601 2602 2603 2604 2605 2606 2607 2608 2609 2610 2611 2612 2613 2614 2615 2616 2617 2618 2619 2620 2621 2622 2623 2624 2625 2626 2627 2628 2629 2630 2631 2632 2633 2634 2635 2636 2637 2638 2639 2640 2641 2642 2643 2644 2645 2646 2647 2648 2649 2650 2651 2652 2653 2654 2655 2656 2657 2658 2659 2660 2661 2662 2663 2664 2665 2666 2667 2668 2669 2670 2671 2672 2673 2674 2675 2676 2677 2678 2679 2680 2681 2682 2683 2684 2685 2686 2687 2688 2689 2690 2691 2692 2693 2694 2695 2696 2697 2698 2699 2700 2701 2702 2703 2704 2705 2706 2707 2708 2709 2710 2711 2712 2713 2714 2715 2716 2717 2718 2719 2720 2721 2722 2723 2724 2725 2726 2727 2728 2729 2730 2731 2732 2733 2734 2735 2736 2737 2738 2739 2740 2741 2742 2743 2744 2745 2746 2747 2748 2749 2750 2751 2752 2753 2754 2755 2756 2757 2758 2759 2760 2761 2762 2763 2764 2765 2766 2767 2768 2769 2770 2771 2772 2773 2774 2775 2776 2777 2778 2779 2780 2781 2782 2783 2784 2785 2786 2787 2788 2789 2790 2791 2792 2793 2794 2795 2796 2797 2798 2799 2800 2801 2802 2803 2804 2805 2806 2807 2808 2809 2810 2811 2812 2813 2814 2815 2816 2817 2818 2819 2820 2821 2822 2823 2824 2825 2826 2827 2828 2829 2830 2831 2832 2833 2834 2835 2836 2837 2838 2839 2840 2841 2842 2843 2844 2845 2846 2847 2848 2849 2850 2851 2852 2853 2854 2855 2856 2857 2858 2859 2860 2861 2862 2863 2864 2865 2866 2867 2868 2869 2870 2871 2872 2873 2874 2875 2876 2877 2878 2879 2880 2881 2882 2883 2884 2885 2886 2887 2888 2889 2890 2891 2892 2893 2894 2895 2896 2897 2898 2899 2900 2901 2902 2903 2904 2905 2906 2907 2908 2909 2910 2911 2912 2913 2914 2915 2916 2917 2918 2919 2920 2921 2922 2923 2924 2925 2926 2927 2928 2929 2930 2931 2932 2933 2934 2935 2936 2937 2938 2939 2940 2941 2942 2943 2944 2945 2946 2947 2948 2949 2950 2951 2952 2953 2954 2955 2956 2957 2958 2959 2960 2961 2962 2963 2964 2965 2966 2967 2968 2969 2970 2971 2972 2973 2974 2975 2976 2977 2978 2979 2980 2981 2982 2983 2984 2985 2986 2987 2988 2989 2990 2991 2992 2993 2994 2995 2996 2997 2998 2999 3000 3001 3002 3003 3004 3005 3006 3007 3008 3009 3010 3011 3012 3013 3014 3015 3016 3017 3018 3019 3020 3021 3022 3023 3024 3025 3026 3027 3028 3029 3030 3031 3032 3033 3034 3035 3036 3037 3038 3039 3040 3041 3042 3043 3044 3045 3046 3047 3048 3049 3050 3051 3052 3053 3054 3055 3056 3057 3058 3059 3060 3061 3062 3063 3064 3065 3066 3067 3068 3069 3070 3071 3072 3073 3074 3075 3076 3077 3078 3079 3080 3081 3082 3083 3084 3085 3086 3087 3088 3089 3090 3091 3092 3093 3094 3095 3096 3097 3098 3099 3100 3101 3102 3103 3104 3105 3106 3107 3108 3109 3110 3111 3112 3113 3114 3115 3116 3117 3118 3119 3120 3121 3122 3123 3124 3125 3126 3127 3128 3129 3130 3131 3132 3133 3134 3135 3136 3137 3138 3139 3140 3141 3142 3143 3144 3145 3146 3147 3148 3149 3150 3151 3152 3153 3154 3155 3156 3157 3158 3159 3160 3161 3162 3163 3164 3165 3166 3167 3168 3169 3170 3171 3172 3173 3174 3175 3176 3177 3178 3179 3180 3181 3182 3183 3184 3185 3186 3187 3188 3189 3190 3191 3192 3193 3194 3195 3196 3197 3198 3199 3200 3201 3202 3203 3204 3205 3206 3207 3208 3209 3210 3211 3212 3213 3214 3215 3216 3217 3218 3219 3220 3221 3222 3223 3224 3225 3226 3227 3228 3229 3230 3231 3232 3233 3234 3235 3236 3237 3238 3239 3240 3241 3242 3243 3244 3245 3246 3247 3248 3249 3250 3251 3252 3253 3254 3255 3256 3257 3258 3259 3260 3261 3262 3263 3264 3265 3266 3267 3268 3269 3270 3271 3272 3273 3274 3275 3276 3277 3278 3279 3280 3281 3282 3283 3284 3285 3286 3287 3288 3289 3290 3291 3292 3293 3294 3295 3296 3297 3298 3299 3300 3301 3302 3303 3304 3305 3306 3307 3308 3309 3310 3311 3312 3313 3314 3315 3316 3317 3318 3319 3320 3321 3322 3323 3324 3325 3326 3327 3328 3329 3330 3331 3332 3333 3334 3335 3336 3337 3338 3339 3340 3341 3342 3343 3344 3345 3346 3347 3348 3349 3350 3351 3352 3353 3354 3355 3356 3357 3358 3359 3360 3361 3362 3363 3364 3365 3366 3367 3368 3369 3370 3371 3372 3373 3374 3375 3376 3377 3378 3379 3380 3381 3382 3383 3384 3385 3386 3387 3388 3389 3390 3391 3392 3393 3394 3395 3396 3397 3398 3399 3400 3401 3402 3403 3404 3405 3406 3407 3408 3409 3410 3411 3412 3413 3414 3415 3416 3417 3418 3419 3420 3421 3422 3423 3424 3425 3426 3427 3428 3429 3430 3431 3432 3433 3434 3435 3436 3437 3438 3439 3440 3441 3442 3443 3444 3445 3446 3447 3448 3449 3450 3451 3452 3453 3454 3455 3456 3457 3458 3459 3460 3461 3462 3463 3464 3465 3466 3467 3468 3469 3470 3471 3472 3473 3474 3475 3476 3477 3478 3479 3480 3481 3482 3483 3484 3485 3486 3487 3488 3489 3490 3491 3492 3493 3494 3495 3496 3497 3498 3499 3500 3501 3502 3503 3504 3505 3506 3507 3508 3509 3510 3511 3512 3513 3514 3515 3516 3517 3518 3519 3520 3521 3522 3523 3524 3525 3526 3527 3528 3529 3530 3531 3532 3533 3534 3535 3536 3537 3538 3539 3540 3541 3542 3543 3544 3545 3546 3547 3548 3549 3550 3551 3552 3553 3554 3555 3556 3557 3558 3559 3560 3561 3562 3563 3564 3565 3566 3567 3568 3569 3570 3571 3572 3573 3574 3575 3576 3577 3578 3579 3580 3581 3582 3583 3584 3585 3586 3587 3588 3589 3590 3591 3592 3593 3594 3595 3596 3597 3598 3599 3600 3601 3602 3603 3604 3605 3606 3607 3608 3609 3610 3611 3612 3613 3614 3615 3616 3617 3618 3619 3620 3621 3622 3623 3624 3625 3626 3627 3628 3629 3630 3631 3632 3633 3634 3635 3636 3637 3638 3639 3640 3641 3642 3643 3644 3645 3646 3647 3648 3649 3650 3651 3652 3653 3654 3655 3656 3657 3658 3659 3660 3661 3662 3663 3664 3665 3666 3667 3668 3669 3670 3671 3672 3673 3674 3675 3676 3677 3678 3679 3680 3681 3682 3683 3684 3685 3686 3687 3688 3689 3690 3691 3692 3693 3694 3695 3696 3697 3698 3699 3700 3701 3702 3703 3704 3705 3706 3707 3708 3709 3710 3711 3712 3713 3714 3715 3716 3717 3718 3719 3720 3721 3722 3723 3724 3725 3726 3727 3728 3729 3730 3731 3732 3733 3734 3735 3736 3737 3738 3739 3740 3741 3742 3743 3744 3745 3746 3747 3748 3749 3750 3751 3752 3753 3754 3755 3756 3757 3758 3759 3760 3761 3762 3763 3764 3765 3766 3767 3768 3769 3770 3771 3772 3773 3774 3775 3776 3777 3778 3779 3780 3781 3782 3783 3784 3785 3786 3787 3788 3789 3790 3791 3792 3793 3794 3795 3796 3797 3798 3799 3800 3801 3802 3803 3804 3805 3806 3807 3808 3809 3810 3811 3812 3813 3814 3815 3816 3817 3818 3819 3820 3821 3822 3823 3824 3825 3826 3827 3828 3829 3830 3831 3832 3833 3834 3835 3836 3837 3838 3839 3840 3841 3842 3843 3844 3845 3846 3847 3848 3849 3850 3851 3852 3853 3854 3855 3856 3857 3858 3859 3860 3861 3862 3863 3864 3865 3866 3867 3868 3869 3870 3871 3872 3873 3874 3875 3876 3877 3878 3879 3880 3881 3882 3883 3884 3885 3886 3887 3888 3889 3890 3891 3892 3893 3894 3895 3896 3897 3898 3899 3900 3901 3902 3903 3904 3905 3906 3907 3908 3909 3910 3911 3912 3913 3914 3915 3916 3917 3918 3919 3920 3921 3922 3923 3924 3925 3926 3927 3928 3929 3930 3931 3932 3933 3934 3935 3936 3937 3938 3939 3940 3941 3942 3943 3944 3945 3946 3947 3948 3949 3950 3951 3952 3953 3954 3955 3956 3957 3958 3959 3960 3961 3962 3963 3964 3965 3966 3967 3968 3969 3970 3971 3972 3973 3974 3975 3976 3977 3978 3979 3980 3981 3982 3983 3984 3985 3986 3987 3988 3989 3990 3991 3992 3993 3994 3995 3996 3997 3998 3999 4000 4001 4002 4003 4004 4005 4006 4007 4008 4009 4010 4011 4012 4013 4014 4015 4016 4017 4018 4019 4020 4021 4022 4023 4024 4025 4026 4027 4028 4029 4030 4031 4032 4033 4034 4035 4036 4037 4038 4039 4040 4041 4042 4043 4044 4045 4046 4047 4048 4049 4050 4051 4052 4053 4054 4055 4056 4057 4058 4059 4060 4061 4062 4063 4064 4065 4066 4067 4068 4069 4070 4071 4072 4073 4074 4075 4076 4077 4078 4079 4080 4081 4082 4083 4084 4085 4086 4087 4088 4089 4090 4091 4092 4093 4094 4095 4096 4097 4098 4099 4100 4101 4102 4103 4104 4105 4106 4107 4108 4109 4110 4111 4112 4113 4114 4115 4116 4117 4118 4119 4120 4121 4122 4123 4124 4125 4126 4127 4128 4129 4130 4131 4132 4133 4134 4135 4136 4137 4138 4139 4140 4141 4142 4143 4144 4145 4146 4147 4148 4149 4150 4151 4152 4153 4154 4155 4156 4157 4158 4159 4160 4161 4162 4163 4164 4165 4166 4167 4168 4169 4170 4171 4172 4173 4174 4175 4176 4177 4178 4179 4180 4181 4182 4183 4184 4185 4186 4187 4188 4189 4190 4191 4192 4193 4194 4195 4196 4197 4198 4199 4200 4201 4202 4203 4204 4205 4206 4207 4208 4209 4210 4211 4212 4213 4214 4215 4216 4217 4218 4219 4220 4221 4222 4223 4224 4225 4226 4227 4228 4229 4230 4231 4232 4233 4234 4235 4236 4237 4238 4239 4240 4241 4242 4243 4244 4245 4246 4247 4248 4249 4250 4251 4252 4253 4254 4255 4256 4257 4258 4259 4260 4261 4262 4263 4264 4265 4266 4267 4268 4269 4270 4271 4272 4273 4274 4275 4276 4277 4278 4279 4280 4281 4282 4283 4284 4285 4286 4287 4288 4289 4290 4291 4292 4293 4294 4295 4296 4297 4298 4299 4300 4301 4302 4303 4304 4305 4306 4307 4308 4309 4310 4311 4312 4313 4314 4315 4316 4317 4318 4319 4320 4321 4322 4323 4324 4325 4326 4327 4328 4329 4330 4331 4332 4333 4334 4335 4336 4337 4338 4339 4340 4341 4342 4343 4344 4345 4346 4347 4348 4349 4350 4351 4352 4353 4354 4355 4356 4357 4358 4359 4360 4361 4362 4363 4364 4365 4366 4367 4368 4369 4370 4371 4372 4373 4374 4375 4376 4377 4378 4379 4380 4381 4382 4383 4384 4385 4386 4387 4388 4389 4390 4391 4392 4393 4394 4395 4396 4397 4398 4399 4400 4401 4402 4403 4404 4405 4406 4407 4408 4409 4410 4411 4412 4413 4414 4415 4416 4417 4418 4419 4420 4421 4422 4423 4424 4425 4426 4427 4428 4429 4430 4431 4432 4433 4434 4435 4436 4437 4438 4439 4440 4441 4442 4443 4444 4445 4446 4447 4448 4449 4450 4451 4452 4453 4454 4455 4456 4457 4458 4459 4460 4461 4462 4463 4464 4465 4466 4467 4468 4469 4470 4471 4472 4473 4474 4475 4476 4477 4478 4479 4480 4481 4482 4483 4484 4485 4486 4487 4488 4489 4490 4491 4492 4493 4494 4495 4496 4497 4498 4499 4500 4501 4502 4503 4504 4505 4506 4507 4508 4509 4510 4511 4512 4513 4514 4515 4516 4517 4518 4519 4520 4521 4522 4523 4524 4525 4526 4527 4528 4529 4530 4531 4532 4533 4534 4535 4536 4537 4538 4539 4540 4541 4542 4543 4544 4545 4546 4547 4548 4549 4550 4551 4552 4553 4554 4555 4556 4557 4558 4559 4560 4561 4562 4563 4564 4565 4566 4567 4568 4569 4570 4571 4572 4573 4574 4575 4576 4577 4578 4579 4580 4581 4582 4583 4584 4585 4586 4587 4588 4589 4590 4591 4592 4593 4594 4595 4596 4597 4598 4599 4600 4601 4602 4603 4604 4605 4606 4607 4608 4609 4610 4611 4612 4613 4614 4615 4616 4617 4618 4619 4620 4621 4622 4623 4624 4625 4626 4627 4628 4629 4630 4631 4632 4633 4634 4635 4636 4637 4638 4639 4640 4641 4642 4643 4644 4645 4646 4647 4648 4649 4650 4651 4652 4653 4654 4655 4656 4657 4658 4659 4660 4661 4662 4663 4664 4665 4666 4667 4668 4669 4670 4671 4672 4673 4674 4675 4676 4677 4678 4679 4680 4681 4682 4683 4684 4685 4686 4687 4688 4689 4690 4691 4692 4693 4694 4695 4696 4697 4698 4699 4700 4701 4702 4703 4704 4705 4706 4707 4708 4709 4710 4711 4712 4713 4714 4715 4716 4717 4718 4719 4720 4721 4722 4723 4724 4725 4726 4727 4728 4729 4730 4731 4732 4733 4734 4735 4736 4737 4738 4739 4740 4741 4742 4743 4744 4745 4746 4747 4748 4749 4750 4751 4752 4753 4754 4755 4756 4757 4758 4759 4760 4761 4762 4763 4764 4765 4766 4767 4768 4769 4770 4771 4772 4773 4774 4775 4776 4777 4778 4779 4780 4781 4782 4783 4784 4785 4786 4787 4788 4789 4790 4791 4792 4793 4794 4795 4796 4797 4798 4799 4800 4801 4802 4803 4804 4805 4806 4807 4808 4809 4810 4811 4812 4813 4814 4815 4816 4817 4818 4819 4820 4821 4822 4823 4824 4825 4826 4827 4828 4829 4830 4831 4832 4833 4834 4835 4836 4837 4838 4839 4840 4841 4842 4843 4844 4845 4846 4847 4848 4849 4850 4851 4852 4853 4854 4855 4856 4857 4858 4859 4860 4861 4862 4863 4864 4865 4866 4867 4868 4869 4870 4871 4872 4873 4874 4875 4876 4877 4878 4879 4880 4881 4882 4883 4884 4885 4886 4887 4888 4889 4890 4891 4892 4893 4894 4895 4896 4897 4898 4899 4900 4901 4902 4903 4904 4905 4906 4907 4908 4909 4910 4911 4912 4913 4914 4915 4916 4917 4918 4919 4920 4921 4922 4923 4924 4925 4926 4927 4928 4929 4930 4931 4932 4933 4934 4935 4936 4937 4938 4939 4940 4941 4942 4943 4944 4945 4946 4947 4948 4949 4950 4951 4952 4953 4954 4955 4956 4957 4958 4959 4960 4961 4962 4963 4964 4965 4966 4967 4968 4969 4970 4971 4972 4973 4974 4975 4976 4977 4978 4979 4980 4981 4982 4983 4984 4985 4986 4987 4988 4989 4990 4991 4992 4993 4994 4995 4996 4997 4998 4999 5000 5001 5002 5003 5004 5005 5006 5007 5008 5009 5010 5011 5012 5013 5014 5015 5016 5017 5018 5019 5020 5021 5022 5023 5024 5025 5026 5027 5028 5029 5030 5031 5032 5033 5034 5035 5036 5037 5038 5039 5040 5041 5042 5043 5044 5045 5046 5047 5048 5049 5050 5051 5052 5053 5054 5055 5056 5057 5058 5059 5060 5061 5062 5063 5064 5065 5066 5067 5068 5069 5070 5071 5072 5073 5074 5075 5076 5077 5078 5079 5080 5081 5082 5083 5084 5085 5086 5087 5088 5089 5090 5091 5092 5093 5094 5095 5096 5097 5098 5099 5100 5101 5102 5103 5104 5105 5106 5107 5108 5109 5110 5111 5112 5113 5114 5115 5116 5117 5118 5119 5120 5121 5122 5123 5124 5125 5126 5127 5128 5129 5130 5131 5132 5133 5134 5135 5136 5137 5138 5139 5140 5141 5142 5143 5144 5145 5146 5147 5148 5149 5150 5151 5152 5153 5154 5155 5156 5157 5158 5159 5160 5161 5162 5163 5164 5165 5166 5167 5168 5169 5170 5171 5172 5173 5174 5175 5176 5177 5178 5179 5180 5181 5182 5183 5184 5185 5186 5187 5188 5189 5190 5191 5192 5193 5194 5195 5196 5197 5198 5199 5200 5201 5202 5203 5204 5205 5206 5207 5208 5209 5210 5211 5212 5213 5214 5215 5216 5217 5218 5219 5220 5221 5222 5223 5224 5225 5226 5227 5228 5229 5230 5231 5232 5233 5234 5235 5236 5237 5238 5239 5240 5241 5242 5243 5244 5245 5246 5247 5248 5249 5250 5251 5252 5253 5254 5255 5256 5257 5258 5259 5260 5261 5262 5263 5264 5265 5266 5267 5268 5269 5270 5271 5272 5273 5274 5275 5276 5277 5278 5279 5280 5281 5282 5283 5284 5285 5286 5287 5288 5289 5290 5291 5292 5293 5294 5295 5296 5297 5298 5299 5300 5301 5302 5303 5304 5305 5306 5307 5308 5309 5310 5311 5312 5313 5314 5315 5316 5317 5318 5319 5320 5321 5322 5323 5324 5325 5326 5327 5328 5329 5330 5331 5332 5333 5334 5335 5336 5337 5338 5339 5340 5341 5342 5343 5344 5345 5346 5347 5348 5349 5350 5351 5352 5353 5354 5355 5356 5357 5358 5359 5360 5361 5362 5363 5364 5365 5366 5367 5368 5369 5370 5371 5372 5373 5374 5375 5376 5377 5378 5379 5380 5381 5382 5383 5384 5385 5386 5387 5388 5389 5390 5391 5392 5393 5394 5395 5396 5397 5398 5399 5400 5401 5402 5403 5404 5405 5406 5407 5408 5409 5410 5411 5412 5413 5414 5415 5416 5417 5418 5419 5420 5421 5422 5423 5424 5425 5426 5427 5428 5429 5430 5431 5432 5433 5434 5435 5436 5437 5438 5439 5440 5441 5442 5443 5444 5445 5446 5447 5448 5449 5450 5451 5452 5453 5454 5455 5456 5457 5458 5459 5460 5461 5462 5463 5464 5465 5466 5467 5468 5469 5470 5471 5472 5473 5474 5475 5476 5477 5478 5479 5480 5481 5482 5483 5484 5485 5486 5487 5488 5489 5490 5491 5492 5493 5494 5495 5496 5497 5498 5499 5500 5501 5502 5503 5504 5505 5506 5507 5508 5509 5510 5511 5512 5513 5514 5515 5516 5517 5518 5519 5520 5521 5522 5523 5524 5525 5526 5527 5528 5529 5530 5531 5532 5533 5534 5535 5536 5537 5538 5539 5540 5541 5542 5543 5544 5545 5546 5547 5548 5549 5550 5551 5552 5553 5554 5555 5556 5557 5558 5559 5560 5561 5562 5563 5564 5565 5566 5567 5568 5569 5570 5571 5572 5573 5574 5575 5576 5577 5578 5579 5580 5581 5582 5583 5584 5585 5586 5587 5588 5589 5590 5591 5592 5593 5594 5595 5596 5597 5598 5599 5600 5601 5602 5603 5604 5605 5606 5607 5608 5609 5610 5611 5612 5613 5614 5615 5616 5617 5618 5619 5620 5621 5622 5623 5624 5625 5626 5627 5628 5629 5630 5631 5632 5633 5634 5635 5636 5637 5638 5639 5640 5641 5642 5643 5644 5645 5646 5647 5648 5649 5650 5651 5652 5653 5654 5655 5656 5657 5658 5659 5660 5661 5662 5663 5664 5665 5666 5667 5668 5669 5670 5671 5672 5673 5674 5675 5676 5677 5678 5679 5680 5681 5682 5683 5684 5685 5686 5687 5688 5689 5690 5691 5692 5693 5694 5695 5696 5697 5698 5699 5700 5701 5702 5703 5704 5705 5706 5707 5708 5709 5710 5711 5712 5713 5714 5715 5716 5717 5718 5719 5720 5721 5722 5723 5724 5725 5726 5727 5728 5729 5730 5731 5732 5733 5734 5735 5736 5737 5738 5739 5740 5741 5742 5743 5744 5745 5746 5747 5748 5749 5750 5751 5752 5753 5754 5755 5756 5757 5758 5759 5760 5761 5762 5763 5764 5765 5766 5767 5768 5769 5770 5771 5772 5773 5774 5775 5776 5777 5778 5779 5780 5781 5782 5783 5784 5785 5786 5787 5788 5789 5790 5791 5792 5793 5794 5795 5796 5797 5798 5799 5800 5801 5802 5803 5804 5805 5806 5807 5808 5809 5810 5811 5812 5813 5814 5815 5816 5817 5818 5819 5820 5821 5822 5823 5824 5825 5826 5827 5828 5829 5830 5831 5832 5833 5834 5835 5836 5837 5838 5839 5840 5841 5842 5843 5844 5845 5846 5847 5848 5849 5850 5851 5852 5853 5854 5855 5856 5857 5858 5859 5860 5861 5862 5863 5864 5865 5866 5867 5868 5869 5870 5871 5872 5873 5874 5875 5876 5877 5878 5879 5880 5881 5882 5883 5884 5885 5886 5887 5888 5889 5890 5891 5892 5893 5894 5895 5896 5897 5898 5899 5900 5901 5902 5903 5904 5905 5906 5907 5908 5909 5910 5911 5912 5913 5914 5915 5916 5917 5918 5919 5920 5921 5922 5923 5924 5925 5926 5927 5928 5929 5930 5931 5932 5933 5934 5935 5936 5937 5938 5939 5940 5941 5942 5943 5944 5945 5946 5947 5948 5949 5950 5951 5952 5953 5954 5955 5956 5957 5958 5959 5960 5961 5962 5963 5964 5965 5966 5967 5968 5969 5970 5971 5972 5973 5974 5975 5976 5977 5978 5979 5980 5981 5982 5983 5984 5985 5986 5987 5988 5989 5990 5991 5992 5993 5994 5995 5996 5997 5998 5999 6000 6001 6002 6003 6004 6005 6006 6007 6008 6009 6010 6011 6012 6013 6014 6015 6016 6017 6018 6019 6020 6021 6022 6023 6024 6025 6026 6027 6028 6029 6030 6031 6032 6033 6034 6035 6036 6037 6038 6039 6040 6041 6042 6043 6044 6045 6046 6047 6048 6049 6050 6051 6052 6053 6054 6055 6056 6057 6058 6059 6060 6061 6062 6063 6064 6065 6066 6067 6068 6069 6070 6071 6072 6073 6074 6075 6076 6077 6078 6079 6080 6081 6082 6083 6084 6085 6086 6087 6088 6089 6090 6091 6092 6093 6094 6095 6096 6097 6098 6099 6100 6101 6102 6103 6104 6105 6106 6107 6108 6109 6110 6111 6112 6113 6114 6115 6116 6117 6118 6119 6120 6121 6122 6123 6124 6125 6126 6127 6128 6129 6130 6131 6132 6133 6134 6135 6136 6137 6138 6139 6140 6141 6142 6143 6144 6145 6146 6147 6148 6149 6150 6151 6152 6153 6154 6155 6156 6157 6158 6159 6160 6161 6162 6163 6164 6165 6166 6167 6168 6169 6170 6171 6172 6173 6174 6175 6176 6177 6178 6179 6180 6181 6182 6183 6184 6185 6186 6187 6188 6189 6190 6191 6192 6193 6194 6195 6196 6197 6198 6199 6200 6201 6202 6203 6204 6205 6206 6207 6208 6209 6210 6211 6212 6213 6214 6215 6216 6217 6218 6219 6220 6221 6222 6223 6224 6225 6226 6227 6228 6229 6230 6231 6232 6233 6234 6235 6236 6237 6238 6239 6240 6241 6242 6243 6244 6245 6246 6247 6248 6249 6250 6251 6252 6253 6254 6255 6256 6257 6258 6259 6260 6261 6262 6263 6264 6265 6266 6267 6268 6269 6270 6271 6272 6273 6274 6275 6276 6277 6278 6279 6280 6281 6282 6283 6284 6285 6286 6287 6288 6289 6290 6291 6292 6293 6294 6295 6296 6297 6298 6299 6300 6301 6302 6303 6304 6305 6306 6307 6308 6309 6310 6311 6312 6313 6314 6315 6316 6317 6318 6319 6320 6321 6322 6323 6324 6325 6326 6327 6328 6329 6330 6331 6332 6333 6334 6335 6336 6337 6338 6339 6340 6341 6342 6343 6344 6345 6346 6347 6348 6349 6350 6351 6352 6353 6354 6355 6356 6357 6358 6359 6360 6361 6362 6363 6364 6365 6366 6367 6368 6369 6370 6371 6372 6373 6374 6375 6376 6377 6378 6379 6380 6381 6382 6383 6384 6385 6386 6387 6388 6389 6390 6391 6392 6393 6394 6395 6396 6397 6398 6399 6400 6401 6402 6403 6404 6405 6406 6407 6408 6409 6410 6411 6412 6413 6414 6415 6416 6417 6418 6419 6420 6421 6422 6423 6424 6425 6426 6427 6428 6429 6430 6431 6432 6433 6434 6435 6436 6437 6438 6439 6440 6441 6442 6443 6444 6445 6446 6447 6448 6449 6450 6451 6452 6453 6454 6455 6456 6457 6458 6459 6460 6461 6462 6463 6464 6465 6466 6467 6468 6469 6470 6471 6472 6473 6474 6475 6476 6477 6478 6479 6480 6481 6482 6483 6484 6485 6486 6487 6488 6489 6490 6491 6492 6493 6494 6495 6496 6497 6498 6499 6500 6501 6502 6503 6504 6505 6506 6507 6508 6509 6510 6511 6512 6513 6514 6515 6516 6517 6518 6519 6520 6521 6522 6523 6524 6525 6526 6527 6528 6529 6530 6531 6532 6533 6534 6535 6536 6537 6538 6539 6540 6541 6542 6543 6544 6545 6546 6547 6548 6549 6550 6551 6552 6553 6554 6555 6556 6557 6558 6559 6560 6561 6562 6563 6564 6565 6566 6567 6568 6569 6570 6571 6572 6573 6574 6575 6576 6577 6578 6579 6580 6581 6582 6583 6584 6585 6586 6587 6588 6589 6590 6591 6592 6593 6594 6595 6596 6597 6598 6599 6600 6601 6602 6603 6604 6605 6606 6607 6608 6609 6610 6611 6612 6613 6614 6615 6616 6617 6618 6619 6620 6621 6622 6623 6624 6625 6626 6627 6628 6629 6630 6631 6632 6633 6634 6635 6636 6637 6638 6639 6640 6641 6642 6643 6644 6645 6646 6647 6648 6649 6650 6651 6652 6653 6654 6655 6656 6657 6658 6659 6660 6661 6662 6663 6664 6665 6666 6667 6668 6669 6670 6671 6672 6673 6674 6675 6676 6677 6678 6679 6680 6681 6682 6683 6684 6685 6686 6687 6688 6689 6690 6691 6692 6693 6694 6695 6696 6697 6698 6699 6700 6701 6702 6703 6704 6705 6706 6707 6708 6709 6710 6711 6712 6713 6714 6715 6716 6717 6718 6719 6720 6721 6722 6723 6724 6725 6726 6727 6728 6729 6730 6731 6732 6733 6734 6735 6736 6737 6738 6739 6740 6741 6742 6743 6744 6745 6746 6747 6748 6749 6750 6751 6752 6753 6754 6755 6756 6757 6758 6759 6760 6761 6762 6763 6764 6765 6766 6767 6768 6769 6770 6771 6772 6773 6774 6775 6776 6777 6778 6779 6780 6781 6782 6783 6784 6785 6786 6787 6788 6789 6790 6791 6792 6793 6794 6795 6796 6797 6798 6799 6800 6801 6802 6803 6804 6805 6806 6807 6808 6809 6810 6811 6812 6813 6814 6815 6816 6817 6818 6819 6820 6821 6822 6823 6824 6825 6826 6827 6828 6829 6830 6831 6832 6833 6834 6835 6836 6837 6838 6839 6840 6841 6842 6843 6844 6845 6846 6847 6848 6849 6850 6851 6852 6853 6854 6855 6856 6857 6858 6859 6860 6861 6862 6863 6864 6865 6866 6867 6868 6869 6870 6871 6872 6873 6874 6875 6876 6877 6878 6879 6880 6881 6882 6883 6884 6885 6886 6887 6888 6889 6890 6891 6892 6893 6894 6895 6896 6897 6898 6899 6900 6901 6902 6903 6904 6905 6906 6907 6908 6909 6910 6911 6912 6913 6914 6915 6916 6917 6918 6919 6920 6921 6922 6923 6924 6925 6926 6927 6928 6929 6930 6931 6932 6933 6934 6935 6936 6937 6938 6939 6940 6941 6942 6943 6944 6945 6946 6947 6948 6949 6950 6951 6952 6953 6954 6955 6956 6957 6958 6959 6960 6961 6962 6963 6964 6965 6966 6967 6968 6969 6970 6971 6972 6973 6974 6975 6976 6977 6978 6979 6980 6981 6982 6983 6984 6985 6986 6987 6988 6989 6990 6991 6992 6993 6994 6995 6996 6997 6998 6999 7000 7001 7002 7003 7004 7005 7006 7007 7008 7009 7010 7011 7012 7013 7014 7015 7016 7017 7018 7019 7020 7021 7022 7023 7024 7025 7026 7027 7028 7029 7030 7031 7032 7033 7034 7035 7036 7037 7038 7039 7040 7041 7042 7043 7044 7045 7046 7047 7048 7049 7050 7051 7052 7053 7054 7055 7056 7057 7058 7059 7060 7061 7062 7063 7064 7065 7066 7067 7068 7069 7070 7071 7072 7073 7074 7075 7076 7077 7078 7079 7080 7081 7082 7083 7084 7085 7086 7087 7088 7089 7090 7091 7092 7093 7094 7095 7096 7097 7098 7099 7100 7101 7102 7103 7104 7105 7106 7107 7108 7109 7110 7111 7112 7113 7114 7115 7116 7117 7118 7119 7120 7121 7122 7123 7124 7125 7126 7127 7128 7129 7130 7131 7132 7133 7134 7135 7136 7137 7138 7139 7140 7141 7142 7143 7144 7145 7146 7147 7148 7149 7150 7151 7152 7153 7154 7155 7156 7157 7158 7159 7160 7161 7162 7163 7164 7165 7166 7167 7168 7169 7170 7171 7172 7173 7174 7175 7176 7177 7178 7179 7180 7181 7182 7183 7184 7185 7186 7187 7188 7189 7190 7191 7192 7193 7194 7195 7196 7197 7198 7199 7200 7201 7202 7203 7204 7205 7206 7207 7208 7209 7210 7211 7212 7213 7214 7215 7216 7217 7218 7219 7220 7221 7222 7223 7224 7225 7226 7227 7228 7229 7230 7231 7232 7233 7234 7235 7236 7237 7238 7239 7240 7241 7242 7243 7244 7245 7246 7247 7248 7249 7250 7251 7252 7253 7254 7255 7256 7257 7258 7259 7260 7261 7262 7263 7264 7265 7266 7267 7268 7269 7270 7271 7272 7273 7274 7275 7276 7277 7278 7279 7280 7281 7282 7283 7284 7285 7286 7287 7288 7289 7290 7291 7292 7293 7294 7295 7296 7297 7298 7299 7300 7301 7302 7303 7304 7305 7306 7307 7308 7309 7310 7311 7312 7313 7314 7315 7316 7317 7318 7319 7320 7321 7322 7323 7324 7325 7326 7327 7328 7329 7330 7331 7332 7333 7334 7335 7336 7337 7338 7339 7340 7341 7342 7343 7344 7345 7346 7347 7348 7349 7350 7351 7352 7353 7354 7355 7356 7357 7358 7359 7360 7361 7362 7363 7364 7365 7366 7367 7368 7369 7370 7371 7372 7373 7374 7375 7376 7377 7378 7379 7380 7381 7382 7383 7384 7385 7386 7387 7388 7389 7390 7391 7392 7393 7394 7395 7396 7397 7398 7399 7400 7401 7402 7403 7404 7405 7406 7407 7408 7409 7410 7411 7412 7413 7414 7415 7416 7417 7418 7419 7420 7421 7422 7423 7424 7425 7426 7427 7428 7429 7430 7431 7432 7433 7434 7435 7436 7437 7438 7439 7440 7441 7442 7443 7444 7445 7446 7447 7448 7449 7450 7451 7452 7453 7454 7455 7456 7457 7458 7459 7460 7461 7462 7463 7464 7465 7466 7467 7468 7469 7470 7471 7472 7473 7474 7475 7476 7477 7478 7479 7480 7481 7482 7483 7484 7485 7486 7487 7488 7489 7490 7491 7492 7493 7494 7495 7496 7497 7498 7499 7500 7501 7502 7503 7504 7505 7506 7507 7508 7509 7510 7511 7512 7513 7514 7515 7516 7517 7518 7519 7520 7521 7522 7523 7524 7525 7526 7527 7528 7529 7530 7531 7532 7533 7534 7535 7536 7537 7538 7539 7540 7541 7542 7543 7544 7545 7546 7547 7548 7549 7550 7551 7552 7553 7554 7555 7556 7557 7558 7559 7560 7561 7562 7563 7564 7565 7566 7567 7568 7569 7570 7571 7572 7573 7574 7575 7576 7577 7578 7579 7580 7581 7582 7583 7584 7585 7586 7587 7588 7589 7590 7591 7592 7593 7594 7595 7596 7597 7598 7599 7600 7601 7602 7603 7604 7605 7606 7607 7608 7609 7610 7611 7612 7613 7614 7615 7616 7617 7618 7619 7620 7621 7622 7623 7624 7625 7626 7627 7628 7629 7630 7631 7632 7633 7634 7635 7636 7637 7638 7639 7640 7641 7642 7643 7644 7645 7646 7647 7648 7649 7650 7651 7652 7653 7654 7655 7656 7657 7658 7659 7660 7661 7662 7663 7664 7665 7666 7667 7668 7669 7670 7671 7672 7673 7674 7675 7676 7677 7678 7679 7680 7681 7682 7683 7684 7685 7686 7687 7688 7689 7690 7691 7692 7693 7694 7695 7696 7697 7698 7699 7700 7701 7702 7703 7704 7705 7706 7707 7708 7709 7710 7711 7712 7713 7714 7715 7716 7717 7718 7719 7720 7721 7722 7723 7724 7725 7726 7727 7728 7729 7730 7731 7732 7733 7734 7735 7736 7737 7738 7739 7740 7741 7742 7743 7744 7745 7746 7747 7748 7749 7750 7751 7752 7753 7754 7755 7756 7757 7758 7759 7760 7761 7762 7763 7764 7765 7766 7767 7768 7769 7770 7771 7772 7773 7774 7775 7776 7777 7778 7779 7780 7781 7782 7783 7784 7785 7786 7787 7788 7789 7790 7791 7792 7793 7794 7795 7796 7797 7798 7799 7800 7801 7802 7803 7804 7805 7806 7807 7808 7809 7810 7811 7812 7813 7814 7815 7816 7817 7818 7819 7820 7821 7822 7823 7824 7825 7826 7827 7828 7829 7830 7831 7832 7833 7834 7835 7836 7837 7838 7839 7840 7841 7842 7843 7844 7845 7846 7847 7848 7849 7850 7851 7852 7853 7854 7855 7856 7857 7858 7859 7860 7861 7862 7863 7864 7865 7866 7867 7868 7869 7870 7871 7872 7873 7874 7875 7876 7877 7878 7879 7880 7881 7882 7883 7884 7885 7886 7887 7888 7889 7890 7891 7892 7893 7894 7895 7896 7897 7898 7899 7900 7901 7902 7903 7904 7905 7906 7907 7908 7909 7910 7911 7912 7913 7914 7915 7916 7917 7918 7919 7920 7921 7922 7923 7924 7925 7926 7927 7928 7929 7930 7931 7932 7933 7934 7935 7936 7937 7938 7939 7940 7941 7942 7943 7944 7945 7946 7947 7948 7949 7950 7951 7952 7953 7954 7955 7956 7957 7958 7959 7960 7961 7962 7963 7964 7965 7966 7967 7968 7969 7970 7971 7972 7973 7974 7975 7976 7977 7978 7979 7980 7981 7982 7983 7984 7985 7986 7987 7988 7989 7990 7991 7992 7993 7994 7995 7996 7997 7998 7999 8000 8001 8002 8003 8004 8005 8006 8007 8008 8009 8010 8011 8012 8013 8014 8015 8016 8017 8018 8019 8020 8021 8022 8023 8024 8025 8026 8027 8028 8029 8030 8031 8032 8033 8034 8035 8036 8037 8038 8039 8040 8041 8042 8043 8044 8045 8046 8047 8048 8049 8050 8051 8052 8053 8054 8055 8056 8057 8058 8059 8060 8061 8062 8063 8064 8065 8066 8067 8068 8069 8070 8071 8072 8073 8074 8075 8076 8077 8078 8079 8080 8081 8082 8083 8084 8085 8086 8087 8088 8089 8090 8091 8092 8093 8094 8095 8096 8097 8098 8099 8100 8101 8102 8103 8104 8105 8106 8107 8108 8109 8110 8111 8112 8113 8114 8115 8116 8117 8118 8119 8120 8121 8122 8123 8124 8125 8126 8127 8128 8129 8130 8131 8132 8133 8134 8135 8136 8137 8138 8139 8140 8141 8142 8143 8144 8145 8146 8147 8148 8149 8150 8151 8152 8153 8154 8155 8156 8157 8158 8159 8160 8161 8162 8163 8164 8165 8166 8167 8168 8169 8170 8171 8172 8173 8174 8175 8176 8177 8178 8179 8180 8181 8182 8183 8184 8185 8186 8187 8188 8189 8190 8191 8192 8193 8194 8195 8196 8197 8198 8199 8200 8201 8202 8203 8204 8205 8206 8207 8208 8209 8210 8211 8212 8213 8214 8215 8216 8217 8218 8219 8220 8221 8222 8223 8224 8225 8226 8227 8228 8229 8230 8231 8232 8233 8234 8235 8236 8237 8238 8239 8240 8241 8242 8243 8244 8245 8246 8247 8248 8249 8250 8251 8252 8253 8254 8255 8256 8257 8258 8259 8260 8261 8262 8263 8264 8265 8266 8267 8268 8269 8270 8271 8272 8273 8274 8275 8276 8277 8278 8279 8280 8281 8282 8283 8284 8285 8286 8287 8288 8289 8290 8291 8292 8293 8294 8295 8296 8297 8298 8299 8300 8301 8302 8303 8304 8305 8306 8307 8308 8309 8310 8311 8312 8313 8314 8315 8316 8317 8318 8319 8320 8321 8322 8323 8324 8325 8326 8327 8328 8329 8330 8331 8332 8333 8334 8335 8336 8337 8338 8339 8340 8341 8342 8343 8344 8345 8346 8347 8348 8349 8350 8351 8352 8353 8354 8355 8356 8357 8358 8359 8360 8361 8362 8363 8364 8365 8366 8367 8368 8369 8370 8371 8372 8373 8374 8375 8376 8377 8378 8379 8380 8381 8382 8383 8384 8385 8386 8387 8388 8389 8390 8391 8392 8393 8394 8395 8396 8397 8398 8399 8400 8401 8402 8403 8404 8405 8406 8407 8408 8409 8410 8411 8412 8413 8414 8415 8416 8417 8418 8419 8420 8421 8422 8423 8424 8425 8426 8427 8428 8429 8430 8431 8432 8433 8434 8435 8436 8437 8438 8439 8440 8441 8442 8443 8444 8445 8446 8447 8448 8449 8450 8451 8452 8453 8454 8455 8456 8457 8458 8459 8460 8461 8462 8463 8464 8465 8466 8467 8468 8469 8470 8471 8472 8473 8474 8475 8476 8477 8478 8479 8480 8481 8482 8483 8484 8485 8486 8487 8488 8489 8490 8491 8492 8493 8494 8495 8496 8497 8498 8499 8500 8501 8502 8503 8504 8505 8506 8507 8508 8509 8510 8511 8512 8513 8514 8515 8516 8517 8518 8519 8520 8521 8522 8523 8524 8525 8526 8527 8528 8529 8530 8531 8532 8533 8534 8535 8536 8537 8538 8539 8540 8541 8542 8543 8544 8545 8546 8547 8548 8549 8550 8551 8552 8553 8554 8555 8556 8557 8558 8559 8560 8561 8562 8563 8564 8565 8566 8567 8568 8569 8570 8571 8572 8573 8574 8575 8576 8577 8578 8579 8580 8581 8582 8583 8584 8585 8586 8587 8588 8589 8590 8591 8592 8593 8594 8595 8596 8597 8598 8599 8600 8601 8602 8603 8604 8605 8606 8607 8608 8609 8610 8611 8612 8613 8614 8615 8616 8617 8618 8619 8620 8621 8622 8623 8624 8625 8626 8627 8628 8629 8630 8631 8632 8633 8634 8635 8636 8637 8638 8639 8640 8641 8642 8643 8644 8645 8646 8647 8648 8649 8650 8651 8652 8653 8654 8655 8656 8657 8658 8659 8660 8661 8662 8663 8664 8665 8666 8667 8668 8669 8670 8671 8672 8673 8674 8675 8676 8677 8678 8679 8680 8681 8682 8683 8684 8685 8686 8687 8688 8689 8690 8691 8692 8693 8694 8695 8696 8697 8698 8699 8700 8701 8702 8703 8704 8705 8706 8707 8708 8709 8710 8711 8712 8713 8714 8715 8716 8717 8718 8719 8720 8721 8722 8723 8724 8725 8726 8727 8728 8729 8730 8731 8732 8733 8734 8735 8736 8737 8738 8739 8740 8741 8742 8743 8744 8745 8746 8747 8748 8749 8750 8751 8752 8753 8754 8755 8756 8757 8758 8759 8760 8761 8762 8763 8764 8765 8766 8767 8768 8769 8770 8771 8772 8773 8774 8775 8776 8777 8778 8779 8780 8781 8782 8783 8784 8785 8786 8787 8788 8789 8790 8791 8792 8793 8794 8795 8796 8797 8798 8799 8800 8801 8802 8803 8804 8805 8806 8807 8808 8809 8810 8811 8812 8813 8814 8815 8816 8817 8818 8819 8820 8821 8822 8823 8824 8825 8826 8827 8828 8829 8830 8831 8832 8833 8834 8835 8836 8837 8838 8839 8840 8841 8842 8843 8844 8845 8846 8847 8848 8849 8850 8851 8852 8853 8854 8855 8856 8857 8858 8859 8860 8861 8862 8863 8864 8865 8866 8867 8868 8869 8870 8871 8872 8873 8874 8875 8876 8877 8878 8879 8880 8881 8882 8883 8884 8885 8886 8887 8888 8889 8890 8891 8892 8893 8894 8895 8896 8897 8898 8899 8900 8901 8902 8903 8904 8905 8906 8907 8908 8909 8910 8911 8912 8913 8914 8915 8916 8917 8918 8919 8920 8921 8922 8923 8924 8925 8926 8927 8928 8929 8930 8931 8932 8933 8934 8935 8936 8937 8938 8939 8940 8941 8942 8943 8944 8945 8946 8947 8948 8949 8950 8951 8952 8953 8954 8955 8956 8957 8958 8959 8960 8961 8962 8963 8964 8965 8966 8967 8968 8969 8970 8971 8972 8973 8974 8975 8976 8977 8978 8979 8980 8981 8982 8983 8984 8985 8986 8987 8988 8989 8990 8991 8992 8993 8994 8995 8996 8997 8998 8999 9000 9001 9002 9003 9004 9005 9006 9007 9008 9009 9010 9011 9012 9013 9014 9015 9016 9017 9018 9019 9020 9021 9022 9023 9024 9025 9026 9027 9028 9029 9030 9031 9032 9033 9034 9035 9036 9037 9038 9039 9040 9041 9042 9043 9044 9045 9046 9047 9048 9049 9050 9051 9052 9053 9054 9055 9056 9057 9058 9059 9060 9061 9062 9063 9064 9065 9066 9067 9068 9069 9070 9071 9072 9073 9074 9075 9076 9077 9078 9079 9080 9081 9082 9083 9084 9085 9086 9087 9088 9089 9090 9091 9092 9093 9094 9095 9096 9097 9098 9099 9100 9101 9102 9103 9104 9105 9106 9107 9108 9109 9110 9111 9112 9113 9114 9115 9116 9117 9118 9119 9120 9121 9122 9123 9124 9125 9126 9127 9128 9129 9130 9131 9132 9133 9134 9135 9136 9137 9138 9139 9140 9141 9142 9143 9144 9145 9146 9147 9148 9149 9150 9151 9152 9153 9154 9155 9156 9157 9158 9159 9160 9161 9162 9163 9164 9165 9166 9167 9168 9169 9170 9171 9172 9173 9174 9175 9176 9177 9178 9179 9180 9181 9182 9183 9184 9185 9186 9187 9188 9189 9190 9191 9192 9193 9194 9195 9196 9197 9198 9199 9200 9201 9202 9203 9204 9205 9206 9207 9208 9209 9210 9211 9212 9213 9214 9215 9216 9217 9218 9219 9220 9221 9222 9223 9224 9225 9226 9227 9228 9229 9230 9231 9232 9233 9234 9235 9236 9237 9238 9239 9240 9241 9242 9243 9244 9245 9246 9247 9248 9249 9250 9251 9252 9253 9254 9255 9256 9257 9258 9259 9260 9261 9262 9263 9264 9265 9266 9267 9268 9269 9270 9271 9272 9273 9274 9275 9276 9277 9278 9279 9280 9281 9282 9283 9284 9285 9286 9287 9288 9289 9290 9291 9292 9293 9294 9295 9296 9297 9298 9299 9300 9301 9302 9303 9304 9305 9306 9307 9308 9309 9310 9311 9312 9313 9314 9315 9316 9317 9318 9319 9320 9321 9322 9323 9324 9325 9326 9327 9328 9329 9330 9331 9332 9333 9334 9335 9336 9337 9338 9339 9340 9341 9342 9343 9344 9345 9346 9347 9348 9349 9350 9351 9352 9353 9354 9355 9356 9357 9358 9359 9360 9361 9362 9363 9364 9365 9366 9367 9368 9369 9370 9371 9372 9373 9374 9375 9376 9377 9378 9379 9380 9381 9382 9383 9384 9385 9386 9387 9388 9389 9390 9391 9392 9393 9394 9395 9396 9397 9398 9399 9400 9401 9402 9403 9404 9405 9406 9407 9408 9409 9410 9411 9412 9413 9414 9415 9416 9417 9418 9419 9420 9421 9422 9423 9424 9425 9426 9427 9428 9429 9430 9431 9432 9433 9434 9435 9436 9437 9438 9439 9440 9441 9442 9443 9444 9445 9446 9447 9448 9449 9450 9451 9452 9453 9454 9455 9456 9457 9458 9459 9460 9461 9462 9463 9464 9465 9466 9467 9468 9469 9470 9471 9472 9473 9474 9475 9476 9477 9478 9479 9480 9481 9482 9483 9484 9485 9486 9487 9488 9489 9490 9491 9492 9493 9494 9495 9496 9497 9498 9499 9500 9501 9502 9503 9504 9505 9506 9507 9508 9509 9510 9511 9512 9513 9514 9515 9516 9517 9518 9519 9520 9521 9522 9523 9524 9525 9526 9527 9528 9529 9530 9531 9532 9533 9534 9535 9536 9537 9538 9539 9540 9541 9542 9543 9544 9545 9546 9547 9548 9549 9550 9551 9552 9553 9554 9555 9556 9557 9558 9559 9560 9561 9562 9563 9564 9565 9566 9567 9568 9569 9570 9571 9572 9573 9574 9575 9576 9577 9578 9579 9580 9581 9582 9583 9584 9585 9586 9587 9588 9589 9590 9591 9592 9593 9594 9595 9596 9597 9598 9599 9600 9601 9602 9603 9604 9605 9606 9607 9608 9609 9610 9611 9612 9613 9614 9615 9616 9617 9618 9619 9620 9621 9622 9623 9624 9625 9626 9627 9628 9629 9630 9631 9632 9633 9634 9635 9636 9637 9638 9639 9640 9641 9642 9643 9644 9645 9646 9647 9648 9649 9650 9651 9652 9653 9654 9655 9656 9657 9658 9659 9660 9661 9662 9663 9664 9665 9666 9667 9668 9669 9670 9671 9672 9673 9674 9675 9676 9677 9678 9679 9680 9681 9682 9683 9684 9685 9686 9687 9688 9689 9690 9691 9692 9693 9694 9695 9696 9697 9698 9699 9700 9701 9702 9703 9704 9705 9706 9707 9708 9709 9710 9711 9712 9713 9714 9715 9716 9717 9718 9719 9720 9721 9722 9723 9724 9725 9726 9727 9728 9729 9730 9731 9732 9733 9734 9735 9736 9737 9738 9739 9740 9741 9742 9743 9744 9745 9746 9747 9748 9749 9750 9751 9752 9753 9754 9755 9756 9757 9758 9759 9760 9761 9762 9763 9764 9765 9766 9767 9768 9769 9770 9771 9772 9773 9774 9775 9776 9777 9778 9779 9780 9781 9782 9783 9784 9785 9786 9787 9788 9789 9790 9791 9792 9793 9794 9795 9796 9797 9798 9799 9800 9801 9802 9803 9804 9805 9806 9807 9808 9809 9810 9811 9812 9813 9814 9815 9816 9817 9818 9819 9820 9821 9822 9823 9824 9825 9826 9827 9828 9829 9830 9831 9832 9833 9834 9835 9836 9837 9838 9839 9840 9841 9842 9843 9844 9845 9846 9847 9848 9849 9850 9851 9852 9853 9854 9855 9856 9857 9858 9859 9860 9861 9862 9863 9864 9865 9866 9867 9868 9869 9870 9871 9872 9873 9874 9875 9876 9877 9878 9879 9880 9881 9882 9883 9884 9885 9886 9887 9888 9889 9890 9891 9892 9893 9894 9895 9896 9897 9898 9899 9900 9901 9902 9903 9904 9905 9906 9907 9908 9909 9910 9911 9912 9913 9914 9915 9916 9917 9918 9919 9920 9921 9922 9923 9924 9925 9926 9927 9928 9929 9930 9931 9932 9933 9934 9935 9936 9937 9938 9939 9940 9941 9942 9943 9944 9945 9946 9947 9948 9949 9950 9951 9952 9953 9954 9955 9956 9957 9958 9959 9960 9961 9962 9963 9964 9965 9966 9967 9968 9969 9970 9971 9972 9973 9974 9975 9976 9977 9978 9979 9980 9981 9982 9983 9984 9985 9986 9987 9988 9989 9990 9991 9992 9993 9994 9995 9996 9997 9998 9999 10000 10001 10002 10003 10004 10005 10006 10007 10008 10009 10010 10011 10012 10013 10014 10015 10016 10017 10018 10019 10020 10021 10022 10023 10024 10025 10026 10027 10028 10029 10030 10031 10032 10033 10034 10035 10036 10037 10038 10039 10040 10041 10042 10043 10044 10045 10046 10047 10048 10049 10050 10051 10052 10053 10054 10055 10056 10057 10058 10059 10060 10061 10062 10063 10064 10065 10066 10067 10068 10069 10070 10071 10072 10073 10074 10075 10076 10077 10078 10079 10080 10081 10082 10083 10084 10085 10086 10087 10088 10089 10090 10091 10092 10093 10094 10095 10096 10097 10098 10099 10100 10101 10102 10103 10104 10105 10106 10107 10108 10109 10110 10111 10112 10113 10114 10115 10116 10117 10118 10119 10120 10121 10122 10123 10124 10125 10126 10127 10128 10129 10130 10131 10132 10133 10134 10135 10136 10137 10138 10139 10140 10141 10142 10143 10144 10145 10146 10147 10148 10149 10150 10151 10152 10153 10154 10155 10156 10157 10158 10159 10160 10161 10162 10163 10164 10165 10166 10167 10168 10169 10170 10171 10172 10173 10174 10175 10176 10177 10178 10179 10180 10181 10182 10183 10184 10185 10186 10187 10188 10189 10190 10191 10192 10193 10194 10195 10196 10197 10198 10199 10200 10201 10202 10203 10204 10205 10206 10207 10208 10209 10210 10211 10212 10213 10214 10215 10216 10217 10218 10219 10220 10221 10222 10223 10224 10225 10226 10227 10228 10229 10230 10231 10232 10233 10234 10235 10236 10237 10238 10239 10240 10241 10242 10243 10244 10245 10246 10247 10248 10249 10250 10251 10252 10253 10254 10255 10256 10257 10258 10259 10260 10261 10262 10263 10264 10265 10266 10267 10268 10269 10270 10271 10272 10273 10274 10275 10276 10277 10278 10279 10280 10281 10282 10283 10284 10285 10286 10287 10288 10289 10290 10291 10292 10293 10294 10295 10296 10297 10298 10299 10300 10301 10302 10303 10304 10305 10306 10307 10308 10309 10310 10311 10312 10313 10314 10315 10316 10317 10318 10319 10320 10321 10322 10323 10324 10325 10326 10327 10328 10329 10330 10331 10332 10333 10334 10335 10336 10337 10338 10339 10340 10341 10342 10343 10344 10345 10346 10347 10348 10349 10350 10351 10352 10353 10354 10355 10356 10357 10358 10359 10360 10361 10362 10363 10364 10365 10366 10367 10368 10369 10370 10371 10372 10373 10374 10375 10376 10377 10378 10379 10380 10381 10382 10383 10384 10385 10386 10387 10388 10389 10390 10391 10392 10393 10394 10395 10396 10397 10398 10399 10400 10401 10402 10403 10404 10405 10406 10407 10408 10409 10410 10411 10412 10413 10414 10415 10416 10417 10418 10419 10420 10421 10422 10423 10424 10425 10426 10427 10428 10429 10430 10431 10432 10433 10434 10435 10436 10437 10438 10439 10440 10441 10442 10443 10444 10445 10446 10447 10448 10449 10450 10451 10452 10453 10454 10455 10456 10457 10458 10459 10460 10461 10462 10463 10464 10465 10466 10467 10468 10469 10470 10471 10472 10473 10474 10475 10476 10477 10478 10479 10480 10481 10482 10483 10484 10485 10486 10487 10488 10489 10490 10491 10492 10493 10494 10495 10496 10497 10498 10499 10500 10501 10502 10503 10504 10505 10506 10507 10508 10509 10510 10511 10512 10513 10514 10515 10516 10517 10518 10519 10520 10521 10522 10523 10524 10525 10526 10527 10528 10529 10530 10531 10532 10533 10534 10535 10536 10537 10538 10539 10540 10541 10542 10543 10544 10545 10546 10547 10548 10549 10550 10551 10552 10553 10554 10555 10556 10557 10558 10559 10560 10561 10562 10563 10564 10565 10566 10567 10568 10569 10570 10571 10572 10573 10574 10575 10576 10577 10578 10579 10580 10581 10582 10583 10584 10585 10586 10587 10588 10589 10590 10591 10592 10593 10594 10595 10596 10597 10598 10599 10600 10601 10602 10603 10604 10605 10606 10607 10608 10609 10610 10611 10612 10613 10614 10615 10616 10617 10618 10619 10620 10621 10622 10623 10624 10625 10626 10627 10628 10629 10630 10631 10632 10633 10634 10635 10636 10637 10638 10639 10640 10641 10642 10643 10644 10645 10646 10647 10648 10649 10650 10651 10652 10653 10654 10655 10656 10657 10658 10659 10660 10661 10662 10663 10664 10665 10666 10667 10668 10669 10670 10671 10672 10673 10674 10675 10676 10677 10678 10679 10680 10681 10682 10683 10684 10685 10686 10687 10688 10689 10690 10691 10692 10693 10694 10695 10696 10697 10698 10699 10700 10701 10702 10703 10704 10705 10706 10707 10708 10709 10710 10711 10712 10713 10714 10715 10716 10717 10718 10719 10720 10721 10722 10723 10724 10725 10726 10727 10728 10729 10730 10731 10732 10733 10734 10735 10736 10737 10738 10739 10740 10741 10742 10743 10744 10745 10746 10747 10748 10749 10750 10751 10752 10753 10754 10755 10756 10757 10758 10759 10760 10761 10762 10763 10764 10765 10766 10767 10768 10769 10770 10771 10772 10773 10774 10775 10776 10777 10778 10779 10780 10781 10782 10783 10784 10785 10786 10787 10788 10789 10790 10791 10792 10793 10794 10795 10796 10797 10798 10799 10800 10801 10802 10803 10804 10805 10806 10807 10808 10809 10810 10811 10812 10813 10814 10815 10816 10817 10818 10819 10820 10821 10822 10823 10824 10825 10826 10827 10828 10829 10830 10831 10832 10833 10834 10835 10836 10837 10838 10839 10840 10841 10842 10843 10844 10845 10846 10847 10848 10849 10850 10851 10852 10853 10854 10855 10856 10857 10858 10859 10860 10861 10862 10863 10864 10865 10866 10867 10868 10869 10870 10871 10872 10873 10874 10875 10876 10877 10878 10879 10880 10881 10882 10883 10884 10885 10886 10887 10888 10889 10890 10891 10892 10893 10894 10895 10896 10897 10898 10899 10900 10901 10902 10903 10904 10905 10906 10907 10908 10909 10910 10911 10912 10913 10914 10915 10916 10917 10918 10919 10920 10921 10922 10923 10924 10925 10926 10927 10928 10929 10930 10931 10932 10933 10934 10935 10936 10937 10938 10939 10940 10941 10942 10943 10944 10945 10946 10947 10948 10949 10950 10951 10952 10953 10954 10955 10956 10957 10958 10959 10960 10961 10962 10963 10964 10965 10966 10967 10968 10969 10970 10971 10972 10973 10974 10975 10976 10977 10978 10979 10980 10981 10982 10983 10984 10985 10986 10987 10988 10989 10990 10991 10992 10993 10994 10995 10996 10997 10998 10999 11000 11001 11002 11003 11004 11005 11006 11007 11008 11009 11010 11011 11012 11013 11014 11015 11016 11017 11018 11019 11020 11021 11022 11023 11024 11025 11026 11027 11028 11029 11030 11031 11032 11033 11034 11035 11036 11037 11038 11039 11040 11041 11042 11043 11044 11045 11046 11047 11048 11049 11050 11051 11052 11053 11054 11055 11056 11057 11058 11059 11060 11061 11062 11063 11064 11065 11066 11067 11068 11069 11070 11071 11072 11073 11074 11075 11076 11077 11078 11079 11080 11081 11082 11083 11084 11085 11086 11087 11088 11089 11090 11091 11092 11093 11094 11095 11096 11097 11098 11099 11100 11101 11102 11103 11104 11105 11106 11107 11108 11109 11110 11111 11112 11113 11114 11115 11116 11117 11118 11119 11120 11121 11122 11123 11124 11125 11126 11127 11128 11129 11130 11131 11132 11133 11134 11135 11136 11137 11138 11139 11140 11141 11142 11143 11144 11145 11146 11147 11148 11149 11150 11151 11152 11153 11154 11155 11156 11157 11158 11159 11160 11161 11162 11163 11164 11165 11166 11167 11168 11169 11170 11171 11172 11173 11174 11175 11176 11177 11178 11179 11180 11181 11182 11183 11184 11185 11186 11187 11188 11189 11190 11191 11192 11193 11194 11195 11196 11197 11198 11199 11200 11201 11202 11203 11204 11205 11206 11207 11208 11209 11210 11211 11212 11213 11214 11215 11216 11217 11218 11219 11220 11221 11222 11223 11224 11225 11226 11227 11228 11229 11230 11231 11232 11233 11234 11235 11236 11237 11238 11239 11240 11241 11242 11243 11244 11245 11246 11247 11248 11249 11250 11251 11252 11253 11254 11255 11256 11257 11258 11259 11260 11261 11262 11263 11264 11265 11266 11267 11268 11269 11270 11271 11272 11273 11274 11275 11276 11277 11278 11279 11280 11281 11282 11283 11284 11285 11286 11287 11288 11289 11290 11291 11292 11293 11294 11295 11296 11297 11298 11299 11300 11301 11302 11303 11304 11305 11306 11307 11308 11309 11310 11311 11312 11313 11314 11315 11316 11317 11318 11319 11320 11321 11322 11323 11324 11325 11326 11327 11328 11329 11330 11331 11332 11333 11334 11335 11336 11337 11338 11339 11340 11341 11342 11343 11344 11345 11346 11347 11348 11349 11350 11351 11352 11353 11354 11355 11356 11357 11358 11359 11360 11361 11362 11363 11364 11365 11366 11367 11368 11369 11370 11371 11372 11373 11374 11375 11376 11377 11378 11379 11380 11381 11382 11383 11384 11385 11386 11387 11388 11389 11390 11391 11392 11393 11394 11395 11396 11397 11398 11399 11400 11401 11402 11403 11404 11405 11406 11407 11408 11409 11410 11411 11412 11413 11414 11415 11416 11417 11418 11419 11420 11421 11422 11423 11424 11425 11426 11427 11428 11429 11430 11431 11432 11433 11434 11435 11436 11437 11438 11439 11440 11441 11442 11443 11444 11445 11446 11447 11448 11449 11450 11451 11452 11453 11454 11455 11456 11457 11458 11459 11460 11461 11462 11463 11464 11465 11466 11467 11468 11469 11470 11471 11472 11473 11474 11475 11476 11477 11478 11479 11480 11481 11482 11483 11484 11485 11486 11487 11488 11489 11490 11491 11492 11493 11494 11495 11496 11497 11498 11499 11500 11501 11502 11503 11504 11505 11506 11507 11508 11509 11510 11511 11512 11513 11514 11515 11516 11517 11518 11519 11520 11521 11522 11523 11524 11525 11526 11527 11528 11529 11530 11531 11532 11533 11534 11535 11536 11537 11538 11539 11540 11541 11542 11543 11544 11545 11546 11547 11548 11549 11550 11551 11552 11553 11554 11555 11556 11557 11558 11559 11560 11561 11562 11563 11564 11565 11566 11567 11568 11569 11570 11571 11572 11573 11574 11575 11576 11577 11578 11579 11580 11581 11582 11583 11584 11585 11586 11587 11588 11589 11590 11591 11592 11593 11594 11595 11596 11597 11598 11599 11600 11601 11602 11603 11604 11605 11606 11607 11608 11609 11610 11611 11612 11613 11614 11615 11616 11617 11618 11619 11620 11621 11622 11623 11624 11625 11626 11627 11628 11629 11630 11631 11632 11633 11634 11635 11636 11637 11638 11639 11640 11641 11642 11643 11644 11645 11646 11647 11648 11649 11650 11651 11652 11653 11654 11655 11656 11657 11658 11659 11660 11661 11662 11663 11664 11665 11666 11667 11668 11669 11670 11671 11672 11673 11674 11675 11676 11677 11678 11679 11680 11681 11682 11683 11684 11685 11686 11687 11688 11689 11690 11691 11692 11693 11694 11695 11696 11697 11698 11699 11700 11701 11702 11703 11704 11705 11706 11707 11708 11709 11710 11711 11712 11713 11714 11715 11716 11717 11718 11719 11720 11721 11722 11723 11724 11725 11726 11727 11728 11729 11730 11731 11732 11733 11734 11735 11736 11737 11738 11739 11740 11741 11742 11743 11744 11745 11746 11747 11748 11749 11750 11751 11752 11753 11754 11755 11756 11757 11758 11759 11760 11761 11762 11763 11764 11765 11766 11767 11768 11769 11770 11771 11772 11773 11774 11775 11776 11777 11778 11779 11780 11781 11782 11783 11784 11785 11786 11787 11788 11789 11790 11791 11792 11793 11794 11795 11796 11797 11798 11799 11800 11801 11802 11803 11804 11805 11806 11807 11808 11809 11810 11811 11812 11813 11814 11815 11816 11817 11818 11819 11820 11821 11822 11823 11824 11825 11826 11827 11828 11829 11830 11831 11832 11833 11834 11835 11836 11837 11838 11839 11840 11841 11842 11843 11844 11845 11846 11847 11848 11849 11850 11851 11852 11853 11854 11855 11856 11857 11858 11859 11860 11861 11862 11863 11864 11865 11866 11867 11868 11869 11870 11871 11872 11873 11874 11875 11876 11877 11878 11879 11880 11881 11882 11883 11884 11885 11886 11887 11888 11889 11890 11891 11892 11893 11894 11895 11896 11897 11898 11899 11900 11901 11902 11903 11904 11905 11906 11907 11908 11909 11910 11911 11912 11913 11914 11915 11916 11917 11918 11919 11920 11921 11922 11923 11924 11925 11926 11927 11928 11929 11930 11931 11932 11933 11934 11935 11936 11937 11938 11939 11940 11941 11942 11943 11944 11945 11946 11947 11948 11949 11950 11951 11952 11953 11954 11955 11956 11957 11958 11959 11960 11961 11962 11963 11964 11965 11966 11967 11968 11969 11970 11971 11972 11973 11974 11975 11976 11977 11978 11979 11980 11981 11982 11983 11984 11985 11986 11987 11988 11989 11990 11991 11992 11993 11994 11995 11996 11997 11998 11999 12000 12001 12002 12003 12004 12005 12006 12007 12008 12009 12010 12011 12012 12013 12014 12015 12016 12017 12018 12019 12020 12021 12022 12023 12024 12025 12026 12027 12028 12029 12030 12031 12032 12033 12034 12035 12036 12037 12038 12039 12040 12041 12042 12043 12044 12045 12046 12047 12048 12049 12050 12051 12052 12053 12054 12055 12056 12057 12058 12059 12060 12061 12062 12063 12064 12065 12066 12067 12068 12069 12070 12071 12072 12073 12074 12075 12076 12077 12078 12079 12080 12081 12082 12083 12084 12085 12086 12087 12088 12089 12090 12091 12092 12093 12094 12095 12096 12097 12098 12099 12100 12101 12102 12103 12104 12105 12106 12107 12108 12109 12110 12111 12112 12113 12114 12115 12116 12117 12118 12119 12120 12121 12122 12123 12124 12125 12126 12127 12128 12129 12130 12131 12132 12133 12134 12135 12136 12137 12138 12139 12140 12141 12142 12143 12144 12145 12146 12147 12148 12149 12150 12151 12152 12153 12154 12155 12156 12157 12158 12159 12160 12161 12162 12163 12164 12165 12166 12167 12168 12169 12170 12171 12172 12173 12174 12175 12176 12177 12178 12179 12180 12181 12182 12183 12184 12185 12186 12187 12188 12189 12190 12191 12192 12193 12194 12195 12196 12197 12198 12199 12200 12201 12202 12203 12204 12205 12206 12207 12208 12209 12210 12211 12212 12213 12214 12215 12216 12217 12218 12219 12220 12221 12222 12223 12224 12225 12226 12227 12228 12229 12230 12231 12232 12233 12234 12235 12236 12237 12238 12239 12240 12241 12242 12243 12244 12245 12246 12247 12248 12249 12250 12251 12252 12253 12254 12255 12256 12257 12258 12259 12260 12261 12262 12263 12264 12265 12266 12267 12268 12269 12270 12271 12272 12273 12274 12275 12276 12277 12278 12279 12280 12281 12282 12283 12284 12285 12286 12287 12288 12289 12290 12291 12292 12293 12294 12295 12296 12297 12298 12299 12300 12301 12302 12303 12304 12305 12306 12307 12308 12309 12310 12311 12312 12313 12314 12315 12316 12317 12318 12319 12320 12321 12322 12323 12324 12325 12326 12327 12328 12329 12330 12331 12332 12333 12334 12335 12336 12337 12338 12339 12340 12341 12342 12343 12344 12345 12346 12347 12348 12349 12350 12351 12352 12353 12354 12355 12356 12357 12358 12359 12360 12361 12362 12363 12364 12365 12366 12367 12368 12369 12370 12371 12372 12373 12374 12375 12376 12377 12378 12379 12380 12381 12382 12383 12384 12385 12386 12387 12388 12389 12390 12391 12392 12393 12394 12395 12396 12397 12398 12399 12400 12401 12402 12403 12404 12405 12406 12407 12408 12409 12410 12411 12412 12413 12414 12415 12416 12417 12418 12419 12420 12421 12422 12423 12424 12425 12426 12427 12428 12429 12430 12431 12432 12433 12434 12435 12436 12437 12438 12439 12440 12441 12442 12443 12444 12445 12446 12447 12448 12449 12450 12451 12452 12453 12454 12455 12456 12457 12458 12459 12460 12461 12462 12463 12464 12465 12466 12467 12468 12469 12470 12471 12472 12473 12474 12475 12476 12477 12478 12479 12480 12481 12482 12483 12484 12485 12486 12487 12488 12489 12490 12491 12492 12493 12494 12495 12496 12497 12498 12499 12500 12501 12502 12503 12504 12505 12506 12507 12508 12509 12510 12511 12512 12513 12514 12515 12516 12517 12518 12519 12520 12521 12522 12523 12524 12525 12526 12527 12528 12529 12530 12531 12532 12533 12534 12535 12536 12537 12538 12539 12540 12541 12542 12543 12544 12545 12546 12547 12548 12549 12550 12551 12552 12553 12554 12555 12556 12557 12558 12559 12560 12561 12562 12563 12564 12565 12566 12567 12568 12569 12570 12571 12572 12573 12574 12575 12576 12577 12578 12579 12580 12581 12582 12583 12584 12585 12586 12587 12588 12589 12590 12591 12592 12593 12594 12595 12596 12597 12598 12599 12600 12601 12602 12603 12604 12605 12606 12607 12608 12609 12610 12611 12612 12613 12614 12615 12616 12617 12618 12619 12620 12621 12622 12623 12624 12625 12626 12627 12628 12629 12630 12631 12632 12633 12634 12635 12636 12637 12638 12639 12640 12641 12642 12643 12644 12645 12646 12647 12648 12649 12650 12651 12652 12653 12654 12655 12656 12657 12658 12659 12660 12661 12662 12663 12664 12665 12666 12667 12668 12669 12670 12671 12672 12673 12674 12675 12676 12677 12678 12679 12680 12681 12682 12683 12684 12685 12686 12687 12688 12689 12690 12691 12692 12693 12694 12695 12696 12697 12698 12699 12700 12701 12702 12703 12704 12705 12706 12707 12708 12709 12710 12711 12712 12713 12714 12715 12716 12717 12718 12719 12720 12721 12722 12723 12724 12725 12726 12727 12728 12729 12730 12731 12732 12733 12734 12735 12736 12737 12738 12739 12740 12741 12742 12743 12744 12745 12746 12747 12748 12749 12750 12751 12752 12753 12754 12755 12756 12757 12758 12759 12760 12761 12762 12763 12764 12765 12766 12767 12768 12769 12770 12771 12772 12773 12774 12775 12776 12777 12778 12779 12780 12781 12782 12783 12784 12785 12786 12787 12788 12789 12790 12791 12792 12793 12794 12795 12796 12797 12798 12799 12800 12801 12802 12803 12804 12805 12806 12807 12808 12809 12810 12811 12812 12813 12814 12815 12816 12817 12818 12819 12820 12821 12822 12823 12824 12825 12826 12827 12828 12829 12830 12831 12832 12833 12834 12835 12836 12837 12838 12839 12840 12841 12842 12843 12844 12845 12846 12847 12848 12849 12850 12851 12852 12853 12854 12855 12856 12857 12858 12859 12860 12861 12862 12863 12864 12865 12866 12867 12868 12869 12870 12871 12872 12873 12874 12875 12876 12877 12878 12879 12880 12881 12882 12883 12884 12885 12886 12887 12888 12889 12890 12891 12892 12893 12894 12895 12896 12897 12898 12899 12900 12901 12902 12903 12904 12905 12906 12907 12908 12909 12910 12911 12912 12913 12914 12915 12916 12917 12918 12919 12920 12921 12922 12923 12924 12925 12926 12927 12928 12929 12930 12931 12932 12933 12934 12935 12936 12937 12938 12939 12940 12941 12942 12943 12944 12945 12946 12947 12948 12949 12950 12951 12952 12953 12954 12955 12956 12957 12958 12959 12960 12961 12962 12963 12964 12965 12966 12967 12968 12969 12970 12971 12972 12973 12974 12975 12976 12977 12978 12979 12980 12981 12982 12983 12984 12985 12986 12987 12988 12989 12990 12991 12992 12993 12994 12995 12996 12997 12998 12999 13000 13001 13002 13003 13004 13005 13006 13007 13008 13009 13010 13011 13012 13013 13014 13015 13016 13017 13018 13019 13020 13021 13022 13023 13024 13025 13026 13027 13028 13029 13030 13031 13032 13033 13034 13035 13036 13037 13038 13039 13040 13041 13042 13043 13044 13045 13046 13047 13048 13049 13050 13051 13052 13053 13054 13055 13056 13057 13058 13059 13060 13061 13062 13063 13064 13065 13066 13067 13068 13069 13070 13071 13072 13073 13074 13075 13076 13077 13078 13079 13080 13081 13082 13083 13084 13085 13086 13087 13088 13089 13090 13091 13092 13093 13094 13095 13096 13097 13098 13099 13100 13101 13102 13103 13104 13105 13106 13107 13108 13109 13110 13111 13112 13113 13114 13115 13116 13117 13118 13119 13120 13121 13122 13123 13124 13125 13126 13127 13128 13129 13130 13131 13132 13133 13134 13135 13136 13137 13138 13139 13140 13141 13142 13143 13144 13145 13146 13147 13148 13149 13150 13151 13152 13153 13154 13155 13156 13157 13158 13159 13160 13161 13162 13163 13164 13165 13166 13167 13168 13169 13170 13171 13172 13173 13174 13175 13176 13177 13178 13179 13180 13181 13182 13183 13184 13185 13186 13187 13188 13189 13190 13191 13192 13193 13194 13195 13196 13197 13198 13199 13200 13201 13202 13203 13204 13205 13206 13207 13208 13209 13210 13211 13212 13213 13214 13215 13216 13217 13218 13219 13220 13221 13222 13223 13224 13225 13226 13227 13228 13229 13230 13231 13232 13233 13234 13235 13236 13237 13238 13239 13240 13241 13242 13243 13244 13245 13246 13247 13248 13249 13250 13251 13252 13253 13254 13255 13256 13257 13258 13259 13260 13261 13262 13263 13264 13265 13266 13267 13268 13269 13270 13271 13272 13273 13274 13275 13276 13277 13278 13279 13280 13281 13282 13283 13284 13285 13286 13287 13288 13289 13290 13291 13292 13293 13294 13295 13296 13297 13298 13299 13300 13301 13302 13303 13304 13305 13306 13307 13308 13309 13310 13311 13312 13313 13314 13315 13316 13317 13318 13319 13320 13321 13322 13323 13324 13325 13326 13327 13328 13329 13330 13331 13332 13333 13334 13335 13336 13337 13338 13339 13340 13341 13342 13343 13344 13345 13346 13347 13348 13349 13350 13351 13352 13353 13354 13355 13356 13357 13358 13359 13360 13361 13362 13363 13364 13365 13366 13367 13368 13369 13370 13371 13372 13373 13374 13375 13376 13377 13378 13379 13380 13381 13382 13383 13384 13385 13386 13387 13388 13389 13390 13391 13392 13393 13394 13395 13396 13397 13398 13399 13400 13401 13402 13403 13404 13405 13406 13407 13408 13409 13410 13411 13412 13413 13414 13415 13416 13417 13418 13419 13420 13421 13422 13423 13424 13425 13426 13427 13428 13429 13430 13431 13432 13433 13434 13435 13436 13437 13438 13439 13440 13441 13442 13443 13444 13445 13446 13447 13448 13449 13450 13451 13452 13453 13454 13455 13456 13457 13458 13459 13460 13461 13462 13463 13464 13465 13466 13467 13468 13469 13470 13471 13472 13473 13474 13475 13476 13477 13478 13479 13480 13481 13482 13483 13484 13485 13486 13487 13488 13489 13490 13491 13492 13493 13494 13495 13496 13497 13498 13499 13500 13501 13502 13503 13504 13505 13506 13507 13508 13509 13510 13511 13512 13513 13514 13515 13516 13517 13518 13519 13520 13521 13522 13523 13524 13525 13526 13527 13528 13529 13530 13531 13532 13533 13534 13535 13536 13537 13538 13539 13540 13541 13542 13543 13544 13545 13546 13547 13548 13549 13550 13551 13552 13553 13554 13555 13556 13557 13558 13559 13560 13561 13562 13563 13564 13565 13566 13567 13568 13569 13570 13571 13572 13573 13574 13575 13576 13577 13578 13579 13580 13581 13582 13583 13584 13585 13586 13587 13588 13589 13590 13591 13592 13593 13594 13595 13596 13597 13598 13599 13600 13601 13602 13603 13604 13605 13606 13607 13608 13609 13610 13611 13612 13613 13614 13615 13616 13617 13618 13619 13620 13621 13622 13623 13624 13625 13626 13627 13628 13629 13630 13631 13632 13633 13634 13635 13636 13637 13638 13639 13640 13641 13642 13643 13644 13645 13646 13647 13648 13649 13650 13651 13652 13653 13654 13655 13656 13657 13658 13659 13660 13661 13662 13663 13664 13665 13666 13667 13668 13669 13670 13671 13672 13673 13674 13675 13676 13677 13678 13679 13680 13681 13682 13683 13684 13685 13686 13687 13688 13689 13690 13691 13692 13693 13694 13695 13696 13697 13698 13699 13700 13701 13702 13703 13704 13705 13706 13707 13708 13709 13710 13711 13712 13713 13714 13715 13716 13717 13718 13719 13720 13721 13722 13723 13724 13725 13726 13727 13728 13729 13730 13731 13732 13733 13734 13735 13736 13737 13738 13739 13740 13741 13742 13743 13744 13745 13746 13747 13748 13749 13750 13751 13752 13753 13754 13755 13756 13757 13758 13759 13760 13761 13762 13763 13764 13765 13766 13767 13768 13769 13770 13771 13772 13773 13774 13775 13776 13777 13778 13779 13780 13781 13782 13783 13784 13785 13786 13787 13788 13789 13790 13791 13792 13793 13794 13795 13796 13797 13798 13799 13800 13801 13802 13803 13804 13805 13806 13807 13808 13809 13810 13811 13812 13813 13814 13815 13816 13817 13818 13819 13820 13821 13822 13823 13824 13825 13826 13827 13828 13829 13830 13831 13832 13833 13834 13835 13836 13837 13838 13839 13840 13841 13842 13843 13844 13845 13846 13847 13848 13849 13850 13851 13852 13853 13854 13855 13856 13857 13858 13859 13860 13861 13862 13863 13864 13865 13866 13867 13868 13869 13870 13871 13872 13873 13874 13875 13876 13877 13878 13879 13880 13881 13882 13883 13884 13885 13886 13887 13888 13889 13890 13891 13892 13893 13894 13895 13896 13897 13898 13899 13900 13901 13902 13903 13904 13905 13906 13907 13908 13909 13910 13911 13912 13913 13914 13915 13916 13917 13918 13919 13920 13921 13922 13923 13924 13925 13926 13927 13928 13929 13930 13931 13932 13933 13934 13935 13936 13937 13938 13939 13940 13941 13942 13943 13944 13945 13946 13947 13948 13949 13950 13951 13952 13953 13954 13955 13956 13957 13958 13959 13960 13961 13962 13963 13964 13965 13966 13967 13968 13969 13970 13971 13972 13973 13974 13975 13976 13977 13978 13979 13980 13981 13982 13983 13984 13985 13986 13987 13988 13989 13990 13991 13992 13993 13994 13995 13996 13997 13998 13999 14000 14001 14002 14003 14004 14005 14006 14007 14008 14009 14010 14011 14012 14013 14014 14015 14016 14017 14018 14019 14020 14021 14022 14023 14024 14025 14026 14027 14028 14029 14030 14031 14032 14033 14034 14035 14036 14037 14038 14039 14040 14041 14042 14043 14044 14045 14046 14047 14048 14049 14050 14051 14052 14053 14054 14055 14056 14057 14058 14059 14060 14061 14062 14063 14064 14065 14066 14067 14068 14069 14070 14071 14072 14073 14074 14075 14076 14077 14078 14079 14080 14081 14082 14083 14084 14085 14086 14087 14088 14089 14090 14091 14092 14093 14094 14095 14096 14097 14098 14099 14100 14101 14102 14103 14104 14105 14106 14107 14108 14109 14110 14111 14112 14113 14114 14115 14116 14117 14118 14119 14120 14121 14122 14123 14124 14125 14126 14127 14128 14129 14130 14131 14132 14133 14134 14135 14136 14137 14138 14139 14140 14141 14142 14143 14144 14145 14146 14147 14148 14149 14150 14151 14152 14153 14154 14155 14156 14157 14158 14159 14160 14161 14162 14163 14164 14165 14166 14167 14168 14169 14170 14171 14172 14173 14174 14175 14176 14177 14178 14179 14180 14181 14182 14183 14184 14185 14186 14187 14188 14189 14190 14191 14192 14193 14194 14195 14196 14197 14198 14199 14200 14201 14202 14203 14204 14205 14206 14207 14208 14209 14210 14211 14212 14213 14214 14215 14216 14217 14218 14219 14220 14221 14222 14223 14224 14225 14226 14227 14228 14229 14230 14231 14232 14233 14234 14235 14236 14237 14238 14239 14240 14241 14242 14243 14244 14245 14246 14247 14248 14249 14250 14251 14252 14253 14254 14255 14256 14257 14258 14259 14260 14261 14262 14263 14264 14265 14266 14267 14268 14269 14270 14271 14272 14273 14274 14275 14276 14277 14278 14279 14280 14281 14282 14283 14284 14285 14286 14287 14288 14289 14290 14291 14292 14293 14294 14295 14296 14297 14298 14299 14300 14301 14302 14303 14304 14305 14306 14307 14308 14309 14310 14311 14312 14313 14314 14315 14316 14317 14318 14319 14320 14321 14322 14323 14324 14325 14326 14327 14328 14329 14330 14331 14332 14333 14334 14335 14336 14337 14338 14339 14340 14341 14342 14343 14344 14345 14346 14347 14348 14349 14350 14351 14352 14353 14354 14355 14356 14357 14358 14359 14360 14361 14362 14363 14364 14365 14366 14367 14368 14369 14370 14371 14372 14373 14374 14375 14376 14377 14378 14379 14380 14381 14382 14383 14384 14385 14386 14387 14388 14389 14390 14391 14392 14393 14394 14395 14396 14397 14398 14399 14400 14401 14402 14403 14404 14405 14406 14407 14408 14409 14410 14411 14412 14413 14414 14415 14416 14417 14418 14419 14420 14421 14422 14423 14424 14425 14426 14427 14428 14429 14430 14431 14432 14433 14434 14435 14436 14437 14438 14439 14440 14441 14442 14443 14444 14445 14446 14447 14448 14449 14450 14451 14452 14453 14454 14455 14456 14457 14458 14459 14460 14461 14462 14463 14464 14465 14466 14467 14468 14469 14470 14471 14472 14473 14474 14475 14476 14477 14478 14479 14480 14481 14482 14483 14484 14485 14486 14487 14488 14489 14490 14491 14492 14493 14494 14495 14496 14497 14498 14499 14500 14501 14502 14503 14504 14505 14506 14507 14508 14509 14510 14511 14512 14513 14514 14515 14516 14517 14518 14519 14520 14521 14522 14523 14524 14525 14526 14527 14528 14529 14530 14531 14532 14533 14534 14535 14536 14537 14538 14539 14540 14541 14542 14543 14544 14545 14546 14547 14548 14549 14550 14551 14552 14553 14554 14555 14556 14557 14558 14559 14560 14561 14562 14563 14564 14565 14566 14567 14568 14569 14570 14571 14572 14573 14574 14575 14576 14577 14578 14579 14580 14581 14582 14583 14584 14585 14586 14587 14588 14589 14590 14591 14592 14593 14594 14595 14596 14597 14598 14599 14600 14601 14602 14603 14604 14605 14606 14607 14608 14609 14610 14611 14612 14613 14614 14615 14616 14617 14618 14619 14620 14621 14622 14623 14624 14625 14626 14627 14628 14629 14630 14631 14632 14633 14634 14635 14636 14637 14638 14639 14640 14641 14642 14643 14644 14645 14646 14647 14648 14649 14650 14651 14652 14653 14654 14655 14656 14657 14658 14659 14660 14661 14662 14663 14664 14665 14666 14667 14668 14669 14670 14671 14672 14673 14674 14675 14676 14677 14678 14679 14680 14681 14682 14683 14684 14685 14686 14687 14688 14689 14690 14691 14692 14693 14694 14695 14696 14697 14698 14699 14700 14701 14702 14703 14704 14705 14706 14707 14708 14709 14710 14711 14712 14713 14714 14715 14716 14717 14718 14719 14720 14721 14722 14723 14724 14725 14726 14727 14728 14729 14730 14731 14732 14733 14734 14735 14736 14737 14738 14739 14740 14741 14742 14743 14744 14745 14746 14747 14748 14749 14750 14751 14752 14753 14754 14755 14756 14757 14758 14759 14760 14761 14762 14763 14764 14765 14766 14767 14768 14769 14770 14771 14772 14773 14774 14775 14776 14777 14778 14779 14780 14781 14782 14783 14784 14785 14786 14787 14788 14789 14790 14791 14792 14793 14794 14795 14796 14797 14798 14799 14800 14801 14802 14803 14804 14805 14806 14807 14808 14809 14810 14811 14812 14813 14814 14815 14816 14817 14818 14819 14820 14821 14822 14823 14824 14825 14826 14827 14828 14829 14830 14831 14832 14833 14834 14835 14836 14837 14838 14839 14840 14841 14842 14843 14844 14845 14846 14847 14848 14849 14850 14851 14852 14853 14854 14855 14856 14857 14858 14859 14860 14861 14862 14863 14864 14865 14866 14867 14868 14869 14870 14871 14872 14873 14874 14875 14876 14877 14878 14879 14880 14881 14882 14883 14884 14885 14886 14887 14888 14889 14890 14891 14892 14893 14894 14895 14896 14897 14898 14899 14900 14901 14902 14903 14904 14905 14906 14907 14908 14909 14910 14911 14912 14913 14914 14915 14916 14917 14918 14919 14920 14921 14922 14923 14924 14925 14926 14927 14928 14929 14930 14931 14932 14933 14934 14935 14936 14937 14938 14939 14940 14941 14942 14943 14944 14945 14946 14947 14948 14949 14950 14951 14952 14953 14954 14955 14956 14957 14958 14959 14960 14961 14962 14963 14964 14965 14966 14967 14968 14969 14970 14971 14972 14973 14974 14975 14976 14977 14978 14979 14980 14981 14982 14983 14984 14985 14986 14987 14988 14989 14990 14991 14992 14993 14994 14995 14996 14997 14998 14999 15000 15001 15002 15003 15004 15005 15006 15007 15008 15009 15010 15011 15012 15013 15014 15015 15016 15017 15018 15019 15020 15021 15022 15023 15024 15025 15026 15027 15028 15029 15030 15031 15032 15033 15034 15035 15036 15037 15038 15039 15040 15041 15042 15043 15044 15045 15046 15047 15048 15049 15050 15051 15052 15053 15054 15055 15056 15057 15058 15059 15060 15061 15062 15063 15064 15065 15066 15067 15068 15069 15070 15071 15072 15073 15074 15075 15076 15077 15078 15079 15080 15081 15082 15083 15084 15085 15086 15087 15088 15089 15090 15091 15092 15093 15094 15095 15096 15097 15098 15099 15100 15101 15102 15103 15104 15105 15106 15107 15108 15109 15110 15111 15112 15113 15114 15115 15116 15117 15118 15119 15120 15121 15122 15123 15124 15125 15126 15127 15128 15129 15130 15131 15132 15133 15134 15135 15136 15137 15138 15139 15140 15141 15142 15143 15144 15145 15146 15147 15148 15149 15150 15151 15152 15153 15154 15155 15156 15157 15158 15159 15160 15161 15162 15163 15164 15165 15166 15167 15168 15169 15170 15171 15172 15173 15174 15175 15176 15177 15178 15179 15180 15181 15182 15183 15184 15185 15186 15187 15188 15189 15190 15191 15192 15193 15194 15195 15196 15197 15198 15199 15200 15201 15202 15203 15204 15205 15206 15207 15208 15209 15210 15211 15212 15213 15214 15215 15216 15217 15218 15219 15220 15221 15222 15223 15224 15225 15226 15227 15228 15229 15230 15231 15232 15233 15234 15235 15236 15237 15238 15239 15240 15241 15242 15243 15244 15245 15246 15247 15248 15249 15250 15251 15252 15253 15254 15255 15256 15257 15258 15259 15260 15261 15262 15263 15264 15265 15266 15267 15268 15269 15270 15271 15272 15273 15274 15275 15276 15277 15278 15279 15280 15281 15282 15283 15284 15285 15286 15287 15288 15289 15290 15291 15292 15293 15294 15295 15296 15297 15298 15299 15300 15301 15302 15303 15304 15305 15306 15307 15308 15309 15310 15311 15312 15313 15314 15315 15316 15317 15318 15319 15320 15321 15322 15323 15324 15325 15326 15327 15328 15329 15330 15331 15332 15333 15334 15335 15336 15337 15338 15339 15340 15341 15342 15343 15344 15345 15346 15347 15348 15349 15350 15351 15352 15353 15354 15355 15356 15357 15358 15359 15360 15361 15362 15363 15364 15365 15366 15367 15368 15369 15370 15371 15372 15373 15374 15375 15376 15377 15378 15379 15380 15381 15382 15383 15384 15385 15386 15387 15388 15389 15390 15391 15392 15393 15394 15395 15396 15397 15398 15399 15400 15401 15402 15403 15404 15405 15406 15407 15408 15409 15410 15411 15412 15413 15414 15415 15416 15417 15418 15419 15420 15421 15422 15423 15424 15425 15426 15427 15428 15429 15430 15431 15432 15433 15434 15435 15436 15437 15438 15439 15440 15441 15442 15443 15444 15445 15446 15447 15448 15449 15450 15451 15452 15453 15454 15455 15456 15457 15458 15459 15460 15461 15462 15463 15464 15465 15466 15467 15468 15469 15470 15471 15472 15473 15474 15475 15476 15477 15478 15479 15480 15481 15482 15483 15484 15485 15486 15487 15488 15489 15490 15491 15492 15493 15494 15495 15496 15497 15498 15499 15500 15501 15502 15503 15504 15505 15506 15507 15508 15509 15510 15511 15512 15513 15514 15515 15516 15517 15518 15519 15520 15521 15522 15523 15524 15525 15526 15527 15528 15529 15530 15531 15532 15533 15534 15535 15536 15537 15538 15539 15540 15541 15542 15543 15544 15545 15546 15547 15548 15549 15550 15551 15552 15553 15554 15555 15556 15557 15558 15559 15560 15561 15562 15563 15564 15565 15566 15567 15568 15569 15570 15571 15572 15573 15574 15575 15576 15577 15578 15579 15580 15581 15582 15583 15584 15585 15586 15587 15588 15589 15590 15591 15592 15593 15594 15595 15596 15597 15598 15599 15600 15601 15602 15603 15604 15605 15606 15607 15608 15609 15610 15611 15612 15613 15614 15615 15616 15617 15618 15619 15620 15621 15622 15623 15624 15625 15626 15627 15628 15629 15630 15631 15632 15633 15634 15635 15636 15637 15638 15639 15640 15641 15642 15643 15644 15645 15646 15647 15648 15649 15650 15651 15652 15653 15654 15655 15656 15657 15658 15659 15660 15661 15662 15663 15664 15665 15666 15667 15668 15669 15670 15671 15672 15673 15674 15675 15676 15677 15678 15679 15680 15681 15682 15683 15684 15685 15686 15687 15688 15689 15690 15691 15692 15693 15694 15695 15696 15697 15698 15699 15700 15701 15702 15703 15704 15705 15706 15707 15708 15709 15710 15711 15712 15713 15714 15715 15716 15717 15718 15719 15720 15721 15722 15723 15724 15725 15726 15727 15728 15729 15730 15731 15732 15733 15734 15735 15736 15737 15738 15739 15740 15741 15742 15743 15744 15745 15746 15747 15748 15749 15750 15751 15752 15753 15754 15755 15756 15757 15758 15759 15760 15761 15762 15763 15764 15765 15766 15767 15768 15769 15770 15771 15772 15773 15774 15775 15776 15777 15778 15779 15780 15781 15782 15783 15784 15785 15786 15787 15788 15789 15790 15791 15792 15793 15794 15795 15796 15797 15798 15799 15800 15801 15802 15803 15804 15805 15806 15807 15808 15809 15810 15811 15812 15813 15814 15815 15816 15817 15818 15819 15820 15821 15822 15823 15824 15825 15826 15827 15828 15829 15830 15831 15832 15833 15834 15835 15836 15837 15838 15839 15840 15841 15842 15843 15844 15845 15846 15847 15848 15849 15850 15851 15852 15853 15854 15855 15856 15857 15858 15859 15860 15861 15862 15863 15864 15865 15866 15867 15868 15869 15870 15871 15872 15873 15874 15875 15876 15877 15878 15879 15880 15881 15882 15883 15884 15885 15886 15887 15888 15889 15890 15891 15892 15893 15894 15895 15896 15897 15898 15899 15900 15901 15902 15903 15904 15905 15906 15907 15908 15909 15910 15911 15912 15913 15914 15915 15916 15917 15918 15919 15920 15921 15922 15923 15924 15925 15926 15927 15928 15929 15930 15931 15932 15933 15934 15935 15936 15937 15938 15939 15940 15941 15942 15943 15944 15945 15946 15947 15948 15949 15950 15951 15952 15953 15954 15955 15956 15957 15958 15959 15960 15961 15962 15963 15964 15965 15966 15967 15968 15969 15970 15971 15972 15973 15974 15975 15976 15977 15978 15979 15980 15981 15982 15983 15984 15985 15986 15987 15988 15989 15990 15991 15992 15993 15994 15995 15996 15997 15998 15999 16000 16001 16002 16003 16004 16005 16006 16007 16008 16009 16010 16011 16012 16013 16014 16015 16016 16017 16018 16019 16020 16021 16022 16023 16024 16025 16026 16027 16028 16029 16030 16031 16032 16033 16034 16035 16036 16037 16038 16039 16040 16041 16042 16043 16044 16045 16046 16047 16048 16049 16050 16051 16052 16053 16054 16055 16056 16057 16058 16059 16060 16061 16062 16063 16064 16065 16066 16067 16068 16069 16070 16071 16072 16073 16074 16075 16076 16077 16078 16079 16080 16081 16082 16083 16084 16085 16086 16087 16088 16089 16090 16091 16092 16093 16094 16095 16096 16097 16098 16099 16100 16101 16102 16103 16104 16105 16106 16107 16108 16109 16110 16111 16112 16113 16114 16115 16116 16117 16118 16119 16120 16121 16122 16123 16124 16125 16126 16127 16128 16129 16130 16131 16132 16133 16134 16135 16136 16137 16138 16139 16140 16141 16142 16143 16144 16145 16146 16147 16148 16149 16150 16151 16152 16153 16154 16155 16156 16157 16158 16159 16160 16161 16162 16163 16164 16165 16166 16167 16168 16169 16170 16171 16172 16173 16174 16175 16176 16177 16178 16179 16180 16181 16182 16183 16184 16185 16186 16187 16188 16189 16190 16191 16192 16193 16194 16195 16196 16197 16198 16199 16200 16201 16202 16203 16204 16205 16206 16207 16208 16209 16210 16211 16212 16213 16214 16215 16216 16217 16218 16219 16220 16221 16222 16223 16224 16225 16226 16227 16228 16229 16230 16231 16232 16233 16234 16235 16236 16237 16238 16239 16240 16241 16242 16243 16244 16245 16246 16247 16248 16249 16250 16251 16252 16253 16254 16255 16256 16257 16258 16259 16260 16261 16262 16263 16264 16265 16266 16267 16268 16269 16270 16271 16272 16273 16274 16275 16276 16277 16278 16279 16280 16281 16282 16283 16284 16285 16286 16287 16288 16289 16290 16291 16292 16293 16294 16295 16296 16297 16298 16299 16300 16301 16302 16303 16304 16305 16306 16307 16308 16309 16310 16311 16312 16313 16314 16315 16316 16317 16318 16319 16320 16321 16322 16323 16324 16325 16326 16327 16328 16329 16330 16331 16332 16333 16334 16335 16336 16337 16338 16339 16340 16341 16342 16343 16344 16345 16346 16347 16348 16349 16350 16351 16352 16353 16354 16355 16356 16357 16358 16359 16360 16361 16362 16363 16364 16365 16366 16367 16368 16369 16370 16371 16372 16373 16374 16375 16376 16377 16378 16379 16380 16381 16382 16383 16384 16385 16386 16387 16388 16389 16390 16391 16392 16393 16394 16395 16396 16397 16398 16399 16400 16401 16402 16403 16404 16405 16406 16407 16408 16409 16410 16411 16412 16413 16414 16415 16416 16417 16418 16419 16420 16421 16422 16423 16424 16425 16426 16427 16428 16429 16430 16431 16432 16433 16434 16435 16436 16437 16438 16439 16440 16441 16442 16443 16444 16445 16446 16447 16448 16449 16450 16451 16452 16453 16454 16455 16456 16457 16458 16459 16460 16461 16462 16463 16464 16465 16466 16467 16468 16469 16470 16471 16472 16473 16474 16475 16476 16477 16478 16479 16480 16481 16482 16483 16484 16485 16486 16487 16488 16489 16490 16491 16492 16493 16494 16495 16496 16497 16498 16499 16500 16501 16502 16503 16504 16505 16506 16507 16508 16509 16510 16511 16512 16513 16514 16515 16516 16517 16518 16519 16520 16521 16522 16523 16524 16525 16526 16527 16528 16529 16530 16531 16532 16533 16534 16535 16536 16537 16538 16539 16540 16541 16542 16543 16544 16545 16546 16547 16548 16549 16550 16551 16552 16553 16554 16555 16556 16557 16558 16559 16560 16561 16562 16563 16564 16565 16566 16567 16568 16569 16570 16571 16572 16573 16574 16575 16576 16577 16578 16579 16580 16581 16582 16583 16584 16585 16586 16587 16588 16589 16590 16591 16592 16593 16594 16595 16596 16597 16598 16599 16600 16601 16602 16603 16604 16605 16606 16607 16608 16609 16610 16611 16612 16613 16614 16615 16616 16617 16618 16619 16620 16621 16622 16623 16624 16625 16626 16627 16628 16629 16630 16631 16632 16633 16634 16635 16636 16637 16638 16639 16640 16641 16642 16643 16644 16645 16646 16647 16648 16649 16650 16651 16652 16653 16654 16655 16656 16657 16658 16659 16660 16661 16662 16663 16664 16665 16666 16667 16668 16669 16670 16671 16672 16673 16674 16675 16676 16677 16678 16679 16680 16681 16682 16683 16684 16685 16686 16687 16688 16689 16690 16691 16692 16693 16694 16695 16696 16697 16698 16699 16700 16701 16702 16703 16704 16705 16706 16707 16708 16709 16710 16711 16712 16713 16714 16715 16716 16717 16718 16719 16720 16721 16722 16723 16724 16725 16726 16727 16728 16729 16730 16731 16732 16733 16734 16735 16736 16737 16738 16739 16740 16741 16742 16743 16744 16745 16746 16747 16748 16749 16750 16751 16752 16753 16754 16755 16756 16757 16758 16759 16760 16761 16762 16763 16764 16765 16766 16767 16768 16769 16770 16771 16772 16773 16774 16775 16776 16777 16778 16779 16780 16781 16782 16783 16784 16785 16786 16787 16788 16789 16790 16791 16792 16793 16794 16795 16796 16797 16798 16799 16800 16801 16802 16803 16804 16805 16806 16807 16808 16809 16810 16811 16812 16813 16814 16815 16816 16817 16818 16819 16820 16821 16822 16823 16824 16825 16826 16827 16828 16829 16830 16831 16832 16833 16834 16835 16836 16837 16838 16839 16840 16841 16842 16843 16844 16845 16846 16847 16848 16849 16850 16851 16852 16853 16854 16855 16856 16857 16858 16859 16860 16861 16862 16863 16864 16865 16866 16867 16868 16869 16870 16871 16872 16873 16874 16875 16876 16877 16878 16879 16880 16881 16882 16883 16884 16885 16886 16887 16888 16889 16890 16891 16892 16893 16894 16895 16896 16897 16898 16899 16900 16901 16902 16903 16904 16905 16906 16907 16908 16909 16910 16911 16912 16913 16914 16915 16916 16917 16918 16919 16920 16921 16922 16923 16924 16925 16926 16927 16928 16929 16930 16931 16932 16933 16934 16935 16936 16937 16938 16939 16940 16941 16942 16943 16944 16945 16946 16947 16948 16949 16950 16951 16952 16953 16954 16955 16956 16957 16958 16959 16960 16961 16962 16963 16964 16965 16966 16967 16968 16969 16970 16971 16972 16973 16974 16975 16976 16977 16978 16979 16980 16981 16982 16983 16984 16985 16986 16987 16988 16989 16990 16991 16992 16993 16994 16995 16996 16997 16998 16999 17000 17001 17002 17003 17004 17005 17006 17007 17008 17009 17010 17011 17012 17013 17014 17015 17016 17017 17018 17019 17020 17021 17022 17023 17024 17025 17026 17027 17028 17029 17030 17031 17032 17033 17034 17035 17036 17037 17038 17039 17040 17041 17042 17043 17044 17045 17046 17047 17048 17049 17050 17051 17052 17053 17054 17055 17056 17057 17058 17059 17060 17061 17062 17063 17064 17065 17066 17067 17068 17069 17070 17071 17072 17073 17074 17075 17076 17077 17078 17079 17080 17081 17082 17083 17084 17085 17086 17087 17088 17089 17090 17091 17092 17093 17094 17095 17096 17097 17098 17099 17100 17101 17102 17103 17104 17105 17106 17107 17108 17109 17110 17111 17112 17113 17114 17115 17116 17117 17118 17119 17120 17121 17122 17123 17124 17125 17126 17127 17128 17129 17130 17131 17132 17133 17134 17135 17136 17137 17138 17139 17140 17141 17142 17143 17144 17145 17146 17147 17148 17149 17150 17151 17152 17153 17154 17155 17156 17157 17158 17159 17160 17161 17162 17163 17164 17165 17166 17167 17168 17169 17170 17171 17172 17173 17174 17175 17176 17177 17178 17179 17180 17181 17182 17183 17184 17185 17186 17187 17188 17189 17190 17191 17192 17193 17194 17195 17196 17197 17198 17199 17200 17201 17202 17203 17204 17205 17206 17207 17208 17209 17210 17211 17212 17213 17214 17215 17216 17217 17218 17219 17220 17221 17222 17223 17224 17225 17226 17227 17228 17229 17230 17231 17232 17233 17234 17235 17236 17237 17238 17239 17240 17241 17242 17243 17244 17245 17246 17247 17248 17249 17250 17251 17252 17253 17254 17255 17256 17257 17258 17259 17260 17261 17262 17263 17264 17265 17266 17267 17268 17269 17270 17271 17272 17273 17274 17275 17276 17277 17278 17279 17280 17281 17282 17283 17284 17285 17286 17287 17288 17289 17290 17291 17292 17293 17294 17295 17296 17297 17298 17299 17300 17301 17302 17303 17304 17305 17306 17307 17308 17309 17310 17311 17312 17313 17314 17315 17316 17317 17318 17319 17320 17321 17322 17323 17324 17325 17326 17327 17328 17329 17330 17331 17332 17333 17334 17335 17336 17337 17338 17339 17340 17341 17342 17343 17344 17345 17346 17347 17348 17349 17350 17351 17352 17353 17354 17355 17356 17357 17358 17359 17360 17361 17362 17363 17364 17365 17366 17367 17368 17369 17370 17371 17372 17373 17374 17375 17376 17377 17378 17379 17380 17381 17382 17383 17384 17385 17386 17387 17388 17389 17390 17391 17392 17393 17394 17395 17396 17397 17398 17399 17400 17401 17402 17403 17404 17405 17406 17407 17408 17409 17410 17411 17412 17413 17414 17415 17416 17417 17418 17419 17420 17421 17422 17423 17424 17425 17426 17427 17428 17429 17430 17431 17432 17433 17434 17435 17436 17437 17438 17439 17440 17441 17442 17443 17444 17445 17446 17447 17448 17449 17450 17451 17452 17453 17454 17455 17456 17457 17458 17459 17460 17461 17462 17463 17464 17465 17466 17467 17468 17469 17470 17471 17472 17473 17474 17475 17476 17477 17478 17479 17480 17481 17482 17483 17484 17485 17486 17487 17488 17489 17490 17491 17492 17493 17494 17495 17496 17497 17498 17499 17500 17501 17502 17503 17504 17505 17506 17507 17508 17509 17510 17511 17512 17513 17514 17515 17516 17517 17518 17519 17520 17521 17522 17523 17524 17525 17526 17527 17528 17529 17530 17531 17532 17533 17534 17535 17536 17537 17538 17539 17540 17541 17542 17543 17544 17545 17546 17547 17548 17549 17550 17551 17552 17553 17554 17555 17556 17557 17558 17559 17560 17561 17562 17563 17564 17565 17566 17567 17568 17569 17570 17571 17572 17573 17574 17575 17576 17577 17578 17579 17580 17581 17582 17583 17584 17585 17586 17587 17588 17589 17590 17591 17592 17593 17594 17595 17596 17597 17598 17599 17600 17601 17602 17603 17604 17605 17606 17607 17608 17609 17610 17611 17612 17613 17614 17615 17616 17617 17618 17619 17620 17621 17622 17623 17624 17625 17626 17627 17628 17629 17630 17631 17632 17633 17634 17635 17636 17637 17638 17639 17640 17641 17642 17643 17644 17645 17646 17647 17648 17649 17650 17651 17652 17653 17654 17655 17656 17657 17658 17659 17660 17661 17662 17663 17664 17665 17666 17667 17668 17669 17670 17671 17672 17673 17674 17675 17676 17677 17678 17679 17680 17681 17682 17683 17684 17685 17686 17687 17688 17689 17690 17691 17692 17693 17694 17695 17696 17697 17698 17699 17700 17701 17702 17703 17704 17705 17706 17707 17708 17709 17710 17711 17712 17713 17714 17715 17716 17717 17718 17719 17720 17721 17722 17723 17724 17725 17726 17727 17728 17729 17730 17731 17732 17733 17734 17735 17736 17737 17738 17739 17740 17741 17742 17743 17744 17745 17746 17747 17748 17749 17750 17751 17752 17753 17754 17755 17756 17757 17758 17759 17760 17761 17762 17763 17764 17765 17766 17767 17768 17769 17770 17771 17772 17773 17774 17775 17776 17777 17778 17779 17780 17781 17782 17783 17784 17785 17786 17787 17788 17789 17790 17791 17792 17793 17794 17795 17796 17797 17798 17799 17800 17801 17802 17803 17804 17805 17806 17807 17808 17809 17810 17811 17812 17813 17814 17815 17816 17817 17818 17819 17820 17821 17822 17823 17824 17825 17826 17827 17828 17829 17830 17831 17832 17833 17834 17835 17836 17837 17838 17839 17840 17841 17842 17843 17844 17845 17846 17847 17848 17849 17850 17851 17852 17853 17854 17855 17856 17857 17858 17859 17860 17861 17862 17863 17864 17865 17866 17867 17868 17869 17870 17871 17872 17873 17874 17875 17876 17877 17878 17879 17880 17881 17882 17883 17884 17885 17886 17887 17888 17889 17890 17891 17892 17893 17894 17895 17896 17897 17898 17899 17900 17901 17902 17903 17904 17905 17906 17907 17908 17909 17910 17911 17912 17913 17914 17915 17916 17917 17918 17919 17920 17921 17922 17923 17924 17925 17926 17927 17928 17929 17930 17931 17932 17933 17934 17935 17936 17937 17938 17939 17940 17941 17942 17943 17944 17945 17946 17947 17948 17949 17950 17951 17952 17953 17954 17955 17956 17957 17958 17959 17960 17961 17962 17963 17964 17965 17966 17967 17968 17969 17970 17971 17972 17973 17974 17975 17976 17977 17978 17979 17980 17981 17982 17983 17984 17985 17986 17987 17988 17989 17990 17991 17992 17993 17994 17995 17996 17997 17998 17999 18000 18001 18002 18003 18004 18005 18006 18007 18008 18009 18010 18011 18012 18013 18014 18015 18016 18017 18018 18019 18020 18021 18022 18023 18024 18025 18026 18027 18028 18029 18030 18031 18032 18033 18034 18035 18036 18037 18038 18039 18040 18041 18042 18043 18044 18045 18046 18047 18048 18049 18050 18051 18052 18053 18054 18055 18056 18057 18058 18059 18060 18061 18062 18063 18064 18065 18066 18067 18068 18069 18070 18071 18072 18073 18074 18075 18076 18077 18078 18079 18080 18081 18082 18083 18084 18085 18086 18087 18088 18089 18090 18091 18092 18093 18094 18095 18096 18097 18098 18099 18100 18101 18102 18103 18104 18105 18106 18107 18108 18109 18110 18111 18112 18113 18114 18115 18116 18117 18118 18119 18120 18121 18122 18123 18124 18125 18126 18127 18128 18129 18130 18131 18132 18133 18134 18135 18136 18137 18138 18139 18140 18141 18142 18143 18144 18145 18146 18147 18148 18149 18150 18151 18152 18153 18154 18155 18156 18157 18158 18159 18160 18161 18162 18163 18164 18165 18166 18167 18168 18169 18170 18171 18172 18173 18174 18175 18176 18177 18178 18179 18180 18181 18182 18183 18184 18185 18186 18187 18188 18189 18190 18191 18192 18193 18194 18195 18196 18197 18198 18199 18200 18201 18202 18203 18204 18205 18206 18207 18208 18209 18210 18211 18212 18213 18214 18215 18216 18217 18218 18219 18220 18221 18222 18223 18224 18225 18226 18227 18228 18229 18230 18231 18232 18233 18234 18235 18236 18237 18238 18239 18240 18241 18242 18243 18244 18245 18246 18247 18248 18249 18250 18251 18252 18253 18254 18255 18256 18257 18258 18259 18260 18261 18262 18263 18264 18265 18266 18267 18268 18269 18270 18271 18272 18273 18274 18275 18276 18277 18278 18279 18280 18281 18282 18283 18284 18285 18286 18287 18288 18289 18290 18291 18292 18293 18294 18295 18296 18297 18298 18299 18300 18301 18302 18303 18304 18305 18306 18307 18308 18309 18310 18311 18312 18313 18314 18315 18316 18317 18318 18319 18320 18321 18322 18323 18324 18325 18326 18327 18328 18329 18330 18331 18332 18333 18334 18335 18336 18337 18338 18339 18340 18341 18342 18343 18344 18345 18346 18347 18348 18349 18350 18351 18352 18353 18354 18355 18356 18357 18358 18359 18360 18361 18362 18363 18364 18365 18366 18367 18368 18369 18370 18371 18372 18373 18374 18375 18376 18377 18378 18379 18380 18381 18382 18383 18384 18385 18386 18387 18388 18389 18390 18391 18392 18393 18394 18395 18396 18397 18398 18399 18400 18401 18402 18403 18404 18405 18406 18407 18408 18409 18410 18411 18412 18413 18414 18415 18416 18417 18418 18419 18420 18421 18422 18423 18424 18425 18426 18427 18428 18429 18430 18431 18432 18433 18434 18435 18436 18437 18438 18439 18440 18441 18442 18443 18444 18445 18446 18447 18448 18449 18450 18451 18452 18453 18454 18455 18456 18457 18458 18459 18460 18461 18462 18463 18464 18465 18466 18467 18468 18469 18470 18471 18472 18473 18474 18475 18476 18477 18478 18479 18480 18481 18482 18483 18484 18485 18486 18487 18488 18489 18490 18491 18492 18493 18494 18495 18496 18497 18498 18499 18500 18501 18502 18503 18504 18505 18506 18507 18508 18509 18510 18511 18512 18513 18514 18515 18516 18517 18518 18519 18520 18521 18522 18523 18524 18525 18526 18527 18528 18529 18530 18531 18532 18533 18534 18535 18536 18537 18538 18539 18540 18541 18542 18543 18544 18545 18546 18547 18548 18549 18550 18551 18552 18553 18554 18555 18556 18557 18558 18559 18560 18561 18562 18563 18564 18565 18566 18567 18568 18569 18570 18571 18572 18573 18574 18575 18576 18577 18578 18579 18580 18581 18582 18583 18584 18585 18586 18587 18588 18589 18590 18591 18592 18593 18594 18595 18596 18597 18598 18599 18600 18601 18602 18603 18604 18605 18606 18607 18608 18609 18610 18611 18612 18613 18614 18615 18616 18617 18618 18619 18620 18621 18622 18623 18624 18625 18626 18627 18628 18629 18630 18631 18632 18633 18634 18635 18636 18637 18638 18639 18640 18641 18642 18643 18644 18645 18646 18647 18648 18649 18650 18651 18652 18653 18654 18655 18656 18657 18658 18659 18660 18661 18662 18663 18664 18665 18666 18667 18668 18669 18670 18671 18672 18673 18674 18675 18676 18677 18678 18679 18680 18681 18682 18683 18684 18685 18686 18687 18688 18689 18690 18691 18692 18693 18694 18695 18696 18697 18698 18699 18700 18701 18702 18703 18704 18705 18706 18707 18708 18709 18710 18711 18712 18713 18714 18715 18716 18717 18718 18719 18720 18721 18722 18723 18724 18725 18726 18727 18728 18729 18730 18731 18732 18733 18734 18735 18736 18737 18738 18739 18740 18741 18742 18743 18744 18745 18746 18747 18748 18749 18750 18751 18752 18753 18754 18755 18756 18757 18758 18759 18760 18761 18762 18763 18764 18765 18766 18767 18768 18769 18770 18771 18772 18773 18774 18775 18776 18777 18778 18779 18780 18781 18782 18783 18784 18785 18786 18787 18788 18789 18790 18791 18792 18793 18794 18795 18796 18797 18798 18799 18800 18801 18802 18803 18804 18805 18806 18807 18808 18809 18810 18811 18812 18813 18814 18815 18816 18817 18818 18819 18820 18821 18822 18823 18824 18825 18826 18827 18828 18829 18830 18831 18832 18833 18834 18835 18836 18837 18838 18839 18840 18841 18842 18843 18844 18845 18846 18847 18848 18849 18850 18851 18852 18853 18854 18855 18856 18857 18858 18859 18860 18861 18862 18863 18864 18865 18866 18867 18868 18869 18870 18871 18872 18873 18874 18875 18876 18877 18878 18879 18880 18881 18882 18883 18884 18885 18886 18887 18888 18889 18890 18891 18892 18893 18894 18895 18896 18897 18898 18899 18900 18901 18902 18903 18904 18905 18906 18907 18908 18909 18910 18911 18912 18913 18914 18915 18916 18917 18918 18919 18920 18921 18922 18923 18924 18925 18926 18927 18928 18929 18930 18931 18932 18933 18934 18935 18936 18937 18938 18939 18940 18941 18942 18943 18944 18945 18946 18947 18948 18949 18950 18951 18952 18953 18954 18955 18956 18957 18958 18959 18960 18961 18962 18963 18964 18965 18966 18967 18968 18969 18970 18971 18972 18973 18974 18975 18976 18977 18978 18979 18980 18981 18982 18983 18984 18985 18986 18987 18988 18989 18990 18991 18992 18993 18994 18995 18996 18997 18998 18999 19000 19001 19002 19003 19004 19005 19006 19007 19008 19009 19010 19011 19012 19013 19014 19015 19016 19017 19018 19019 19020 19021 19022 19023 19024 19025 19026 19027 19028 19029 19030 19031 19032 19033 19034 19035 19036 19037 19038 19039 19040 19041 19042 19043 19044 19045 19046 19047 19048 19049 19050 19051 19052 19053 19054 19055 19056 19057 19058 19059 19060 19061 19062 19063 19064 19065 19066 19067 19068 19069 19070 19071 19072 19073 19074 19075 19076 19077 19078 19079 19080 19081 19082 19083 19084 19085 19086 19087 19088 19089 19090 19091 19092 19093 19094 19095 19096 19097 19098 19099 19100 19101 19102 19103 19104 19105 19106 19107 19108 19109 19110 19111 19112 19113 19114 19115 19116 19117 19118 19119 19120 19121 19122 19123 19124 19125 19126 19127 19128 19129 19130 19131 19132 19133 19134 19135 19136 19137 19138 19139 19140 19141 19142 19143 19144 19145 19146 19147 19148 19149 19150 19151 19152 19153 19154 19155 19156 19157 19158 19159 19160 19161 19162 19163 19164 19165 19166 19167 19168 19169 19170 19171 19172 19173 19174 19175 19176 19177 19178 19179 19180 19181 19182 19183 19184 19185 19186 19187 19188 19189 19190 19191 19192 19193 19194 19195 19196 19197 19198 19199 19200 19201 19202 19203 19204 19205 19206 19207 19208 19209 19210 19211 19212 19213 19214 19215 19216 19217 19218 19219 19220 19221 19222 19223 19224 19225 19226 19227 19228 19229 19230 19231 19232 19233 19234 19235 19236 19237 19238 19239 19240 19241 19242 19243 19244 19245 19246 19247 19248 19249 19250 19251 19252 19253 19254 19255 19256 19257 19258 19259 19260 19261 19262 19263 19264 19265 19266 19267 19268 19269 19270 19271 19272 19273 19274 19275 19276 19277 19278 19279 19280 19281 19282 19283 19284 19285 19286 19287 19288 19289 19290 19291 19292 19293 19294 19295 19296 19297 19298 19299 19300 19301 19302 19303 19304 19305 19306 19307 19308 19309 19310 19311 19312 19313 19314 19315 19316 19317 19318 19319 19320 19321 19322 19323 19324 19325 19326 19327 19328 19329 19330 19331 19332 19333 19334 19335 19336 19337 19338 19339 19340 19341 19342 19343 19344 19345 19346 19347 19348 19349 19350 19351 19352 19353 19354 19355 19356 19357 19358 19359 19360 19361 19362 19363 19364 19365 19366 19367 19368 19369 19370 19371 19372 19373 19374 19375 19376 19377 19378 19379 19380 19381 19382 19383 19384 19385 19386 19387 19388 19389 19390 19391 19392 19393 19394 19395 19396 19397 19398 19399 19400 19401 19402 19403 19404 19405 19406 19407 19408 19409 19410 19411 19412 19413 19414 19415 19416 19417 19418 19419 19420 19421 19422 19423 19424 19425 19426 19427 19428 19429 19430 19431 19432 19433 19434 19435 19436 19437 19438 19439 19440 19441 19442 19443 19444 19445 19446 19447 19448 19449 19450 19451 19452 19453 19454 19455 19456 19457 19458 19459 19460 19461 19462 19463 19464 19465 19466 19467 19468 19469 19470 19471 19472 19473 19474 19475 19476 19477 19478 19479 19480 19481 19482 19483 19484 19485 19486 19487 19488 19489 19490 19491 19492 19493 19494 19495 19496 19497 19498 19499 19500 19501 19502 19503 19504 19505 19506 19507 19508 19509 19510 19511 19512 19513 19514 19515 19516 19517 19518 19519 19520 19521 19522 19523 19524 19525 19526 19527 19528 19529 19530 19531 19532 19533 19534 19535 19536 19537 19538 19539 19540 19541 19542 19543 19544 19545 19546 19547 19548 19549 19550 19551 19552 19553 19554 19555 19556 19557 19558 19559 19560 19561 19562 19563 19564 19565 19566 19567 19568 19569 19570 19571 19572 19573 19574 19575 19576 19577 19578 19579 19580 19581 19582 19583 19584 19585 19586 19587 19588 19589 19590 19591 19592 19593 19594 19595 19596 19597 19598 19599 19600 19601 19602 19603 19604 19605 19606 19607 19608 19609 19610 19611 19612 19613 19614 19615 19616 19617 19618 19619 19620 19621 19622 19623 19624 19625 19626 19627 19628 19629 19630 19631 19632 19633 19634 19635 19636 19637 19638 19639 19640 19641 19642 19643 19644 19645 19646 19647 19648 19649 19650 19651 19652 19653 19654 19655 19656 19657 19658 19659 19660 19661 19662 19663 19664 19665 19666 19667 19668 19669 19670 19671 19672 19673 19674 19675 19676 19677 19678 19679 19680 19681 19682 19683 19684 19685 19686 19687 19688 19689 19690 19691 19692 19693 19694 19695 19696 19697 19698 19699 19700 19701 19702 19703 19704 19705 19706 19707 19708 19709 19710 19711 19712 19713 19714 19715 19716 19717 19718 19719 19720 19721 19722 19723 19724 19725 19726 19727 19728 19729 19730 19731 19732 19733 19734 19735 19736 19737 19738 19739 19740 19741 19742 19743 19744 19745 19746 19747 19748 19749 19750 19751 19752 19753 19754 19755 19756 19757 19758 19759 19760 19761 19762 19763 19764 19765 19766 19767 19768 19769 19770 19771 19772 19773 19774 19775 19776 19777 19778 19779 19780 19781 19782 19783 19784 19785 19786 19787 19788 19789 19790 19791 19792 19793 19794 19795 19796 19797 19798 19799 19800 19801 19802 19803 19804 19805 19806 19807 19808 19809 19810 19811 19812 19813 19814 19815 19816 19817 19818 19819 19820 19821 19822 19823 19824 19825 19826 19827 19828 19829 19830 19831 19832 19833 19834 19835 19836 19837 19838 19839 19840 19841 19842 19843 19844 19845 19846 19847 19848 19849 19850 19851 19852 19853 19854 19855 19856 19857 19858 19859 19860 19861 19862 19863 19864 19865 19866 19867 19868 19869 19870 19871 19872 19873 19874 19875 19876 19877 19878 19879 19880 19881 19882 19883 19884 19885 19886 19887 19888 19889 19890 19891 19892 19893 19894 19895 19896 19897 19898 19899 19900 19901 19902 19903 19904 19905 19906 19907 19908 19909 19910 19911 19912 19913 19914 19915 19916 19917 19918 19919 19920 19921 19922 19923 19924 19925 19926 19927 19928 19929 19930 19931 19932 19933 19934 19935 19936 19937 19938 19939 19940 19941 19942 19943 19944 19945 19946 19947 19948 19949 19950 19951 19952 19953 19954 19955 19956 19957 19958 19959 19960 19961 19962 19963 19964 19965 19966 19967 19968 19969 19970 19971 19972 19973 19974 19975 19976 19977 19978 19979 19980 19981 19982 19983 19984 19985 19986 19987 19988 19989 19990 19991 19992 19993 19994 19995 19996 19997 19998 19999 20000 20001 20002 20003 20004 20005 20006 20007 20008 20009 20010 20011 20012 20013 20014 20015 20016 20017 20018 20019 20020 20021 20022 20023 20024 20025 20026 20027 20028 20029 20030 20031 20032 20033 20034 20035 20036 20037 20038 20039 20040 20041 20042 20043 20044 20045 20046 20047 20048 20049 20050 20051 20052 20053 20054 20055 20056 20057 20058 20059 20060 20061 20062 20063 20064 20065 20066 20067 20068 20069 20070 20071 20072 20073 20074 20075 20076 20077 20078 20079 20080 20081 20082 20083 20084 20085 20086 20087 20088 20089 20090 20091 20092 20093 20094 20095 20096 20097 20098 20099 20100 20101 20102 20103 20104 20105 20106 20107 20108 20109 20110 20111 20112 20113 20114 20115 20116 20117 20118 20119 20120 20121 20122 20123 20124 20125 20126 20127 20128 20129 20130 20131 20132 20133 20134 20135 20136 20137 20138 20139 20140 20141 20142 20143 20144 20145 20146 20147 20148 20149 20150 20151 20152 20153 20154 20155 20156 20157 20158 20159 20160 20161 20162 20163 20164 20165 20166 20167 20168 20169 20170 20171 20172 20173 20174 20175 20176 20177 20178 20179 20180 20181 20182 20183 20184 20185 20186 20187 20188 20189 20190 20191 20192 20193 20194 20195 20196 20197 20198 20199 20200 20201 20202 20203 20204 20205 20206 20207 20208 20209 20210 20211 20212 20213 20214 20215 20216 20217 20218 20219 20220 20221 20222 20223 20224 20225 20226 20227 20228 20229 20230 20231 20232 20233 20234 20235 20236 20237 20238 20239 20240 20241 20242 20243 20244 20245 20246 20247 20248 20249 20250 20251 20252 20253 20254 20255 20256 20257 20258 20259 20260 20261 20262 20263 20264 20265 20266 20267 20268 20269 20270 20271 20272 20273 20274 20275 20276 20277 20278 20279 20280 20281 20282 20283 20284 20285 20286 20287 20288 20289 20290 20291 20292 20293 20294 20295 20296 20297 20298 20299 20300 20301 20302 20303 20304 20305 20306 20307 20308 20309 20310 20311 20312 20313 20314 20315 20316 20317 20318 20319 20320 20321 20322 20323 20324 20325 20326 20327 20328 20329 20330 20331 20332 20333 20334 20335 20336 20337 20338 20339 20340 20341 20342 20343 20344 20345 20346 20347 20348 20349 20350 20351 20352 20353 20354 20355 20356 20357 20358 20359 20360 20361 20362 20363 20364 20365 20366 20367 20368 20369 20370 20371 20372 20373 20374 20375 20376 20377 20378 20379 20380 20381 20382 20383 20384 20385 20386 20387 20388 20389 20390 20391 20392 20393 20394 20395 20396 20397 20398 20399 20400 20401 20402 20403 20404 20405 20406 20407 20408 20409 20410 20411 20412 20413 20414 20415 20416 20417 20418 20419 20420 20421 20422 20423 20424 20425 20426 20427 20428 20429 20430 20431 20432 20433 20434 20435 20436 20437 20438 20439 20440 20441 20442 20443 20444 20445 20446 20447 20448 20449 20450 20451 20452 20453 20454 20455 20456 20457 20458 20459 20460 20461 20462 20463 20464 20465 20466 20467 20468 20469 20470 20471 20472 20473 20474 20475 20476 20477 20478 20479 20480 20481 20482 20483 20484 20485 20486 20487 20488 20489 20490 20491 20492 20493 20494 20495 20496 20497 20498 20499 20500 20501 20502 20503 20504 20505 20506 20507 20508 20509 20510 20511 20512 20513 20514 20515 20516 20517 20518 20519 20520 20521 20522 20523 20524 20525 20526 20527 20528 20529 20530 20531 20532 20533 20534 20535 20536 20537 20538 20539 20540 20541 20542 20543 20544 20545 20546 20547 20548 20549 20550 20551 20552 20553 20554 20555 20556 20557 20558 20559 20560 20561 20562 20563 20564 20565 20566 20567 20568 20569 20570 20571 20572 20573 20574 20575 20576 20577 20578 20579 20580 20581 20582 20583 20584 20585 20586 20587 20588 20589 20590 20591 20592 20593 20594 20595 20596 20597 20598 20599 20600 20601 20602 20603 20604 20605 20606 20607 20608 20609 20610 20611 20612 20613 20614 20615 20616 20617 20618 20619 20620 20621 20622 20623 20624 20625 20626 20627 20628 20629 20630 20631 20632 20633 20634 20635 20636 20637 20638 20639 20640 20641 20642 20643 20644 20645 20646 20647 20648 20649 20650 20651 20652 20653 20654 20655 20656 20657 20658 20659 20660 20661 20662 20663 20664 20665 20666 20667 20668 20669 20670 20671 20672 20673 20674 20675 20676 20677 20678 20679 20680 20681 20682 20683 20684 20685 20686 20687 20688 20689 20690 20691 20692 20693 20694 20695 20696 20697 20698 20699 20700 20701 20702 20703 20704 20705 20706 20707 20708 20709 20710 20711 20712 20713 20714 20715 20716 20717 20718 20719 20720 20721 20722 20723 20724 20725 20726 20727 20728 20729 20730 20731 20732 20733 20734 20735 20736 20737 20738 20739 20740 20741 20742 20743 20744 20745 20746 20747 20748 20749 20750 20751 20752 20753 20754 20755 20756 20757 20758 20759 20760 20761 20762 20763 20764 20765 20766 20767 20768 20769 20770 20771 20772 20773 20774 20775 20776 20777 20778 20779 20780 20781 20782 20783 20784 20785 20786 20787 20788 20789 20790 20791 20792 20793 20794 20795 20796 20797 20798 20799 20800 20801 20802 20803 20804 20805 20806 20807 20808 20809 20810 20811 20812 20813 20814 20815 20816 20817 20818 20819 20820 20821 20822 20823 20824 20825 20826 20827 20828 20829 20830 20831 20832 20833 20834 20835 20836 20837 20838 20839 20840 20841 20842 20843 20844 20845 20846 20847 20848 20849 20850 20851 20852 20853 20854 20855 20856 20857 20858 20859 20860 20861 20862 20863 20864 20865 20866 20867 20868 20869 20870 20871 20872 20873 20874 20875 20876 20877 20878 20879 20880 20881 20882 20883 20884 20885 20886 20887 20888 20889 20890 20891 20892 20893 20894 20895 20896 20897 20898 20899 20900 20901 20902 20903 20904 20905 20906 20907 20908 20909 20910 20911 20912 20913 20914 20915 20916 20917 20918 20919 20920 20921 20922 20923 20924 20925 20926 20927 20928 20929 20930 20931 20932 20933 20934 20935 20936 20937 20938 20939 20940 20941 20942 20943 20944 20945 20946 20947 20948 20949 20950 20951 20952 20953 20954 20955 20956 20957 20958 20959 20960 20961 20962 20963 20964 20965 20966 20967 20968 20969 20970 20971 20972 20973 20974 20975 20976 20977 20978 20979 20980 20981 20982 20983 20984 20985 20986 20987 20988 20989 20990 20991 20992 20993 20994 20995 20996 20997 20998 20999 21000 21001 21002 21003 21004 21005 21006 21007 21008 21009 21010 21011 21012 21013 21014 21015 21016 21017 21018 21019 21020 21021 21022 21023 21024 21025 21026 21027 21028 21029 21030 21031 21032 21033 21034 21035 21036 21037 21038 21039 21040 21041 21042 21043 21044 21045 21046 21047 21048 21049 21050 21051 21052 21053 21054 21055 21056 21057 21058 21059 21060 21061 21062 21063 21064 21065 21066 21067 21068 21069 21070 21071 21072 21073 21074 21075 21076 21077 21078 21079 21080 21081 21082 21083 21084 21085 21086 21087 21088 21089 21090 21091 21092 21093 21094 21095 21096 21097 21098 21099 21100 21101 21102 21103 21104 21105 21106 21107 21108 21109 21110 21111 21112 21113 21114 21115 21116 21117 21118 21119 21120 21121 21122 21123 21124 21125 21126 21127 21128 21129 21130 21131 21132 21133 21134 21135 21136 21137 21138 21139 21140 21141 21142 21143 21144 21145 21146 21147 21148 21149 21150 21151 21152 21153 21154 21155 21156 21157 21158 21159 21160 21161 21162 21163 21164 21165 21166 21167 21168 21169 21170 21171 21172 21173 21174 21175 21176 21177 21178 21179 21180 21181 21182 21183 21184 21185 21186 21187 21188 21189 21190 21191 21192 21193 21194 21195 21196 21197 21198 21199 21200 21201 21202 21203 21204 21205 21206 21207 21208 21209 21210 21211 21212 21213 21214 21215 21216 21217 21218 21219 21220 21221 21222 21223 21224 21225 21226 21227 21228 21229 21230 21231 21232 21233 21234 21235 21236 21237 21238 21239 21240 21241 21242 21243 21244 21245 21246 21247 21248 21249 21250 21251 21252 21253 21254 21255 21256 21257 21258 21259 21260 21261 21262 21263 21264 21265 21266 21267 21268 21269 21270 21271 21272 21273 21274 21275 21276 21277 21278 21279 21280 21281 21282 21283 21284 21285 21286 21287 21288 21289 21290 21291 21292 21293 21294 21295 21296 21297 21298 21299 21300 21301 21302 21303 21304 21305 21306 21307 21308 21309 21310 21311 21312 21313 21314 21315 21316 21317 21318 21319 21320 21321 21322 21323 21324 21325 21326 21327 21328 21329 21330 21331 21332 21333 21334 21335 21336 21337 21338 21339 21340 21341 21342 21343 21344 21345 21346 21347 21348 21349 21350 21351 21352 21353 21354 21355 21356 21357 21358 21359 21360 21361 21362 21363 21364 21365 21366 21367 21368 21369 21370 21371 21372 21373 21374 21375 21376 21377 21378 21379 21380 21381 21382 21383 21384 21385 21386 21387 21388 21389 21390 21391 21392 21393 21394 21395 21396 21397 21398 21399 21400 21401 21402 21403 21404 21405 21406 21407 21408 21409 21410 21411 21412 21413 21414 21415 21416 21417 21418 21419 21420 21421 21422 21423 21424 21425 21426 21427 21428 21429 21430 21431 21432 21433 21434 21435 21436 21437 21438 21439 21440 21441 21442 21443 21444 21445 21446 21447 21448 21449 21450 21451 21452 21453 21454 21455 21456 21457 21458 21459 21460 21461 21462 21463 21464 21465 21466 21467 21468 21469 21470 21471 21472 21473 21474 21475 21476 21477 21478 21479 21480 21481 21482 21483 21484 21485 21486 21487 21488 21489 21490 21491 21492 21493 21494 21495 21496 21497 21498 21499 21500 21501 21502 21503 21504 21505 21506 21507 21508 21509 21510 21511 21512 21513 21514 21515 21516 21517 21518 21519 21520 21521 21522 21523 21524 21525 21526 21527 21528 21529 21530 21531 21532 21533 21534 21535 21536 21537 21538 21539 21540 21541 21542 21543 21544 21545 21546 21547 21548 21549 21550 21551 21552 21553 21554 21555 21556 21557 21558 21559 21560 21561 21562 21563 21564 21565 21566 21567 21568 21569 21570 21571 21572 21573 21574 21575 21576 21577 21578 21579 21580 21581 21582 21583 21584 21585 21586 21587 21588 21589 21590 21591 21592 21593 21594 21595 21596 21597 21598 21599 21600 21601 21602 21603 21604 21605 21606 21607 21608 21609 21610 21611 21612 21613 21614 21615 21616 21617 21618 21619 21620 21621 21622 21623 21624 21625 21626 21627 21628 21629 21630 21631 21632 21633 21634 21635 21636 21637 21638 21639 21640 21641 21642 21643 21644 21645 21646 21647 21648 21649 21650 21651 21652 21653 21654 21655 21656 21657 21658 21659 21660 21661 21662 21663 21664 21665 21666 21667 21668 21669 21670 21671 21672 21673 21674 21675 21676 21677 21678 21679 21680 21681 21682 21683 21684 21685 21686 21687 21688 21689 21690 21691 21692 21693 21694 21695 21696 21697 21698 21699 21700 21701 21702 21703 21704 21705 21706 21707 21708 21709 21710 21711 21712 21713 21714 21715 21716 21717 21718 21719 21720 21721 21722 21723 21724 21725 21726 21727 21728 21729 21730 21731 21732 21733 21734 21735 21736 21737 21738 21739 21740 21741 21742 21743 21744 21745 21746 21747 21748 21749 21750 21751 21752 21753 21754 21755 21756 21757 21758 21759 21760 21761 21762 21763 21764 21765 21766 21767 21768 21769 21770 21771 21772 21773 21774 21775 21776 21777 21778 21779 21780 21781 21782 21783 21784 21785 21786 21787 21788 21789 21790 21791 21792 21793 21794 21795 21796 21797 21798 21799 21800 21801 21802 21803 21804 21805 21806 21807 21808 21809 21810 21811 21812 21813 21814 21815 21816 21817 21818 21819 21820 21821 21822 21823 21824 21825 21826 21827 21828 21829 21830 21831 21832 21833 21834 21835 21836 21837 21838 21839 21840 21841 21842 21843 21844 21845 21846 21847 21848 21849 21850 21851 21852 21853 21854 21855 21856 21857 21858 21859 21860 21861 21862 21863 21864 21865 21866 21867 21868 21869 21870 21871 21872 21873 21874 21875 21876 21877 21878 21879 21880 21881 21882 21883 21884 21885 21886 21887 21888 21889 21890 21891 21892 21893 21894 21895 21896 21897 21898 21899 21900 21901 21902 21903 21904 21905 21906 21907 21908 21909 21910 21911 21912 21913 21914 21915 21916 21917 21918 21919 21920 21921 21922 21923 21924 21925 21926 21927 21928 21929 21930 21931 21932 21933 21934 21935 21936 21937 21938 21939 21940 21941 21942 21943 21944 21945 21946 21947 21948 21949 21950 21951 21952 21953 21954 21955 21956 21957 21958 21959 21960 21961 21962 21963 21964 21965 21966 21967 21968 21969 21970 21971 21972 21973 21974 21975 21976 21977 21978 21979 21980 21981 21982 21983 21984 21985 21986 21987 21988 21989 21990 21991 21992 21993 21994 21995 21996 21997 21998 21999 22000 22001 22002 22003 22004 22005 22006 22007 22008 22009 22010 22011 22012 22013 22014 22015 22016 22017 22018 22019 22020 22021 22022 22023 22024 22025 22026 22027 22028 22029 22030 22031 22032 22033 22034 22035 22036 22037 22038 22039 22040 22041 22042 22043 22044 22045 22046 22047 22048 22049 22050 22051 22052 22053 22054 22055 22056 22057 22058 22059 22060 22061 22062 22063 22064 22065 22066 22067 22068 22069 22070 22071 22072 22073 22074 22075 22076 22077 22078 22079 22080 22081 22082 22083 22084 22085 22086 22087 22088 22089 22090 22091 22092 22093 22094 22095 22096 22097 22098 22099 22100 22101 22102 22103 22104 22105 22106 22107 22108 22109 22110 22111 22112 22113 22114 22115 22116 22117 22118 22119 22120 22121 22122 22123 22124 22125 22126 22127 22128 22129 22130 22131 22132 22133 22134 22135 22136 22137 22138 22139 22140 22141 22142 22143 22144 22145 22146 22147 22148 22149 22150 22151 22152 22153 22154 22155 22156 22157 22158 22159 22160 22161 22162 22163 22164 22165 22166 22167 22168 22169 22170 22171 22172 22173 22174 22175 22176 22177 22178 22179 22180 22181 22182 22183 22184 22185 22186 22187 22188 22189 22190 22191 22192 22193 22194 22195 22196 22197 22198 22199 22200 22201 22202 22203 22204 22205 22206 22207 22208 22209 22210 22211 22212 22213 22214 22215 22216 22217 22218 22219 22220 22221 22222 22223 22224 22225 22226 22227 22228 22229 22230 22231 22232 22233 22234 22235 22236 22237 22238 22239 22240 22241 22242 22243 22244 22245 22246 22247 22248 22249 22250 22251 22252 22253 22254 22255 22256 22257 22258 22259 22260 22261 22262 22263 22264 22265 22266 22267 22268 22269 22270 22271 22272 22273 22274 22275 22276 22277 22278 22279 22280 22281 22282 22283 22284 22285 22286 22287 22288 22289 22290 22291 22292 22293 22294 22295 22296 22297 22298 22299 22300 22301 22302 22303 22304 22305 22306 22307 22308 22309 22310 22311 22312 22313 22314 22315 22316 22317 22318 22319 22320 22321 22322 22323 22324 22325 22326 22327 22328 22329 22330 22331 22332 22333 22334 22335 22336 22337 22338 22339 22340 22341 22342 22343 22344 22345 22346 22347 22348 22349 22350 22351 22352 22353 22354 22355 22356 22357 22358 22359 22360 22361 22362 22363 22364 22365 22366 22367 22368 22369 22370 22371 22372 22373 22374 22375 22376 22377 22378 22379 22380 22381 22382 22383 22384 22385 22386 22387 22388 22389 22390 22391 22392 22393 22394 22395 22396 22397 22398 22399 22400 22401 22402 22403 22404 22405 22406 22407 22408 22409 22410 22411 22412 22413 22414 22415 22416 22417 22418 22419 22420 22421 22422 22423 22424 22425 22426 22427 22428 22429 22430 22431 22432 22433 22434 22435 22436 22437 22438 22439 22440 22441 22442 22443 22444 22445 22446 22447 22448 22449 22450 22451 22452 22453 22454 22455 22456 22457 22458 22459 22460 22461 22462 22463 22464 22465 22466 22467 22468 22469 22470 22471 22472 22473 22474 22475 22476 22477 22478 22479 22480 22481 22482 22483 22484 22485 22486 22487 22488 22489 22490 22491 22492 22493 22494 22495 22496 22497 22498 22499 22500 22501 22502 22503 22504 22505 22506 22507 22508 22509 22510 22511 22512 22513 22514 22515 22516 22517 22518 22519 22520 22521 22522 22523 22524 22525 22526 22527 22528 22529 22530 22531 22532 22533 22534 22535 22536 22537 22538 22539 22540 22541 22542 22543 22544 22545 22546 22547 22548 22549 22550 22551 22552 22553 22554 22555 22556 22557 22558 22559 22560 22561 22562 22563 22564 22565 22566 22567 22568 22569 22570 22571 22572 22573 22574 22575 22576 22577 22578 22579 22580 22581 22582 22583 22584 22585 22586 22587 22588 22589 22590 22591 22592 22593 22594 22595 22596 22597 22598 22599 22600 22601 22602 22603 22604 22605 22606 22607 22608 22609 22610 22611 22612 22613 22614 22615 22616 22617 22618 22619 22620 22621 22622 22623 22624 22625 22626 22627 22628 22629 22630 22631 22632 22633 22634 22635 22636 22637 22638 22639 22640 22641 22642 22643 22644 22645 22646 22647 22648 22649 22650 22651 22652 22653 22654 22655 22656 22657 22658 22659 22660 22661 22662 22663 22664 22665 22666 22667 22668 22669 22670 22671 22672 22673 22674 22675 22676 22677 22678 22679 22680 22681 22682 22683 22684 22685 22686 22687 22688 22689 22690 22691 22692 22693 22694 22695 22696 22697 22698 22699 22700 22701 22702 22703 22704 22705 22706 22707 22708 22709 22710 22711 22712 22713 22714 22715 22716 22717 22718 22719 22720 22721 22722 22723 22724 22725 22726 22727 22728 22729 22730 22731 22732 22733 22734 22735 22736 22737 22738 22739 22740 22741 22742 22743 22744 22745 22746 22747 22748 22749 22750 22751 22752 22753 22754 22755 22756 22757 22758 22759 22760 22761 22762 22763 22764 22765 22766 22767 22768 22769 22770 22771 22772 22773 22774 22775 22776 22777 22778 22779 22780 22781 22782 22783 22784 22785 22786 22787 22788 22789 22790 22791 22792 22793 22794 22795 22796 22797 22798 22799 22800 22801 22802 22803 22804 22805 22806 22807 22808 22809 22810 22811 22812 22813 22814 22815 22816 22817 22818 22819 22820 22821 22822 22823 22824 22825 22826 22827 22828 22829 22830 22831 22832 22833 22834 22835 22836 22837 22838 22839 22840 22841 22842 22843 22844 22845 22846 22847 22848 22849 22850 22851 22852 22853 22854 22855 22856 22857 22858 22859 22860 22861 22862 22863 22864 22865 22866 22867 22868 22869 22870 22871 22872 22873 22874 22875 22876 22877 22878 22879 22880 22881 22882 22883 22884 22885 22886 22887 22888 22889 22890 22891 22892 22893 22894 22895 22896 22897 22898 22899 22900 22901 22902 22903 22904 22905 22906 22907 22908 22909 22910 22911 22912 22913 22914 22915 22916 22917 22918 22919 22920 22921 22922 22923 22924 22925 22926 22927 22928 22929 22930 22931 22932 22933 22934 22935 22936 22937 22938 22939 22940 22941 22942 22943 22944 22945 22946 22947 22948 22949 22950 22951 22952 22953 22954 22955 22956 22957 22958 22959 22960 22961 22962 22963 22964 22965 22966 22967 22968 22969 22970 22971 22972 22973 22974 22975 22976 22977 22978 22979 22980 22981 22982 22983 22984 22985 22986 22987 22988 22989 22990 22991 22992 22993 22994 22995 22996 22997 22998 22999 23000 23001 23002 23003 23004 23005 23006 23007 23008 23009 23010 23011 23012 23013 23014 23015 23016 23017 23018 23019 23020 23021 23022 23023 23024 23025 23026 23027 23028 23029 23030 23031 23032 23033 23034 23035 23036 23037 23038 23039 23040 23041 23042 23043 23044 23045 23046 23047 23048 23049 23050 23051 23052 23053 23054 23055 23056 23057 23058 23059 23060 23061 23062 23063 23064 23065 23066 23067 23068 23069 23070 23071 23072 23073 23074 23075 23076 23077 23078 23079 23080 23081 23082 23083 23084 23085 23086 23087 23088 23089 23090 23091 23092 23093 23094 23095 23096 23097 23098 23099 23100 23101 23102 23103 23104 23105 23106 23107 23108 23109 23110 23111 23112 23113 23114 23115 23116 23117 23118 23119 23120 23121 23122 23123 23124 23125 23126 23127 23128 23129 23130 23131 23132 23133 23134 23135 23136 23137 23138 23139 23140 23141 23142 23143 23144 23145 23146 23147 23148 23149 23150 23151 23152 23153 23154 23155 23156 23157 23158 23159 23160 23161 23162 23163 23164 23165 23166 23167 23168 23169 23170 23171 23172 23173 23174 23175 23176 23177 23178 23179 23180 23181 23182 23183 23184 23185 23186 23187 23188 23189 23190 23191 23192 23193 23194 23195 23196 23197 23198 23199 23200 23201 23202 23203 23204 23205 23206 23207 23208 23209 23210 23211 23212 23213 23214 23215 23216 23217 23218 23219 23220 23221 23222 23223 23224 23225 23226 23227 23228 23229 23230 23231 23232 23233 23234 23235 23236 23237 23238 23239 23240 23241 23242 23243 23244 23245 23246 23247 23248 23249 23250 23251 23252 23253 23254 23255 23256 23257 23258 23259 23260 23261 23262 23263 23264 23265 23266 23267 23268 23269 23270 23271 23272 23273 23274 23275 23276 23277 23278 23279 23280 23281 23282 23283 23284 23285 23286 23287 23288 23289 23290 23291 23292 23293 23294 23295 23296 23297 23298 23299 23300 23301 23302 23303 23304 23305 23306 23307 23308 23309 23310 23311 23312 23313 23314 23315 23316 23317 23318 23319 23320 23321 23322 23323 23324 23325 23326 23327 23328 23329 23330 23331 23332 23333 23334 23335 23336 23337 23338 23339 23340 23341 23342 23343 23344 23345 23346 23347 23348 23349 23350 23351 23352 23353 23354 23355 23356 23357 23358 23359 23360 23361 23362 23363 23364 23365 23366 23367 23368 23369 23370 23371 23372 23373 23374 23375 23376 23377 23378 23379 23380 23381 23382 23383 23384 23385 23386 23387 23388 23389 23390 23391 23392 23393 23394 23395 23396 23397 23398 23399 23400 23401 23402 23403 23404 23405 23406 23407 23408 23409 23410 23411 23412 23413 23414 23415 23416 23417 23418 23419 23420 23421 23422 23423 23424 23425 23426 23427 23428 23429 23430 23431 23432 23433 23434 23435 23436 23437 23438 23439 23440 23441 23442 23443 23444 23445 23446 23447 23448 23449 23450 23451 23452 23453 23454 23455 23456 23457 23458 23459 23460 23461 23462 23463 23464 23465 23466 23467 23468 23469 23470 23471 23472 23473 23474 23475 23476 23477 23478 23479 23480 23481 23482 23483 23484 23485 23486 23487 23488 23489 23490 23491 23492 23493 23494 23495 23496 23497 23498 23499 23500 23501 23502 23503 23504 23505 23506 23507 23508 23509 23510 23511 23512 23513 23514 23515 23516 23517 23518 23519 23520 23521 23522 23523 23524 23525 23526 23527 23528 23529 23530 23531 23532 23533 23534 23535 23536 23537 23538 23539 23540 23541 23542 23543 23544 23545 23546 23547 23548 23549 23550 23551 23552 23553 23554 23555 23556 23557 23558 23559 23560 23561 23562 23563 23564 23565 23566 23567 23568 23569 23570 23571 23572 23573 23574 23575 23576 23577 23578 23579 23580 23581 23582 23583 23584 23585 23586 23587 23588 23589 23590 23591 23592 23593 23594 23595 23596 23597 23598 23599 23600 23601 23602 23603 23604 23605 23606 23607 23608 23609 23610 23611 23612 23613 23614 23615 23616 23617 23618 23619 23620 23621 23622 23623 23624 23625 23626 23627 23628 23629 23630 23631 23632 23633 23634 23635 23636 23637 23638 23639 23640 23641 23642 23643 23644 23645 23646 23647 23648 23649 23650 23651 23652 23653 23654 23655 23656 23657 23658 23659 23660 23661 23662 23663 23664 23665 23666 23667 23668 23669 23670 23671 23672 23673 23674 23675 23676 23677 23678 23679 23680 23681 23682 23683 23684 23685 23686 23687 23688 23689 23690 23691 23692 23693 23694 23695 23696 23697 23698 23699 23700 23701 23702 23703 23704 23705 23706 23707 23708 23709 23710 23711 23712 23713 23714 23715 23716 23717 23718 23719 23720 23721 23722 23723 23724 23725 23726 23727 23728 23729 23730 23731 23732 23733 23734 23735 23736 23737 23738 23739 23740 23741 23742 23743 23744 23745 23746 23747 23748 23749 23750 23751 23752 23753 23754 23755 23756 23757 23758 23759 23760 23761 23762 23763 23764 23765 23766 23767 23768 23769 23770 23771 23772 23773 23774 23775 23776 23777 23778 23779 23780 23781 23782 23783 23784 23785 23786 23787 23788 23789 23790 23791 23792 23793 23794 23795 23796 23797 23798 23799 23800 23801 23802 23803 23804 23805 23806 23807 23808 23809 23810 23811 23812 23813 23814 23815 23816 23817 23818 23819 23820 23821 23822 23823 23824 23825 23826 23827 23828 23829 23830 23831 23832 23833 23834 23835 23836 23837 23838 23839 23840 23841 23842 23843 23844 23845 23846 23847 23848 23849 23850 23851 23852 23853 23854 23855 23856 23857 23858 23859 23860 23861 23862 23863 23864 23865 23866 23867 23868 23869 23870 23871 23872 23873 23874 23875 23876 23877 23878 23879 23880 23881 23882 23883 23884 23885 23886 23887 23888 23889 23890 23891 23892 23893 23894 23895 23896 23897 23898 23899 23900 23901 23902 23903 23904 23905 23906 23907 23908 23909 23910 23911 23912 23913 23914 23915 23916 23917 23918 23919 23920 23921 23922 23923 23924 23925 23926 23927 23928 23929 23930 23931 23932 23933 23934 23935 23936 23937 23938 23939 23940 23941 23942 23943 23944 23945 23946 23947 23948 23949 23950 23951 23952 23953 23954 23955 23956 23957 23958 23959 23960 23961 23962 23963 23964 23965 23966 23967 23968 23969 23970 23971 23972 23973 23974 23975 23976 23977 23978 23979 23980 23981 23982 23983 23984 23985 23986 23987 23988 23989 23990 23991 23992 23993 23994 23995 23996 23997 23998 23999 24000 24001 24002 24003 24004 24005 24006 24007 24008 24009 24010 24011 24012 24013 24014 24015 24016 24017 24018 24019 24020 24021 24022 24023 24024 24025 24026 24027 24028 24029 24030 24031 24032 24033 24034 24035 24036 24037 24038 24039 24040 24041 24042 24043 24044 24045 24046 24047 24048 24049 24050 24051 24052 24053 24054 24055 24056 24057 24058 24059 24060 24061 24062 24063 24064 24065 24066 24067 24068 24069 24070 24071 24072 24073 24074 24075 24076 24077 24078 24079 24080 24081 24082 24083 24084 24085 24086 24087 24088 24089 24090 24091 24092 24093 24094 24095 24096 24097 24098 24099 24100 24101 24102 24103 24104 24105 24106 24107 24108 24109 24110 24111 24112 24113 24114 24115 24116 24117 24118 24119 24120 24121 24122 24123 24124 24125 24126 24127 24128 24129 24130 24131 24132 24133 24134 24135 24136 24137 24138 24139 24140 24141 24142 24143 24144 24145 24146 24147 24148 24149 24150 24151 24152 24153 24154 24155 24156 24157 24158 24159 24160 24161 24162 24163 24164 24165 24166 24167 24168 24169 24170 24171 24172 24173 24174 24175 24176 24177 24178 24179 24180 24181 24182 24183 24184 24185 24186 24187 24188 24189 24190 24191 24192 24193 24194 24195 24196 24197 24198 24199 24200 24201 24202 24203 24204 24205 24206 24207 24208 24209 24210 24211 24212 24213 24214 24215 24216 24217 24218 24219 24220 24221 24222 24223 24224 24225 24226 24227 24228 24229 24230 24231 24232 24233 24234 24235 24236 24237 24238 24239 24240 24241 24242 24243 24244 24245 24246 24247 24248 24249 24250 24251 24252 24253 24254 24255 24256 24257 24258 24259 24260 24261 24262 24263 24264 24265 24266 24267 24268 24269 24270 24271 24272 24273 24274 24275 24276 24277 24278 24279 24280 24281 24282 24283 24284 24285 24286 24287 24288 24289 24290 24291 24292 24293 24294 24295 24296 24297 24298 24299 24300 24301 24302 24303 24304 24305 24306 24307 24308 24309 24310 24311 24312 24313 24314 24315 24316 24317 24318 24319 24320 24321 24322 24323 24324 24325 24326 24327 24328 24329 24330 24331 24332 24333 24334 24335 24336 24337 24338 24339 24340 24341 24342 24343 24344 24345 24346 24347 24348 24349 24350 24351 24352 24353 24354 24355 24356 24357 24358 24359 24360 24361 24362 24363 24364 24365 24366 24367 24368 24369 24370 24371 24372 24373 24374 24375 24376 24377 24378 24379 24380 24381 24382 24383 24384 24385 24386 24387 24388 24389 24390 24391 24392 24393 24394 24395 24396 24397 24398 24399 24400 24401 24402 24403 24404 24405 24406 24407 24408 24409 24410 24411 24412 24413 24414 24415 24416 24417 24418 24419 24420 24421 24422 24423 24424 24425 24426 24427 24428 24429 24430 24431 24432 24433 24434 24435 24436 24437 24438 24439 24440 24441 24442 24443 24444 24445 24446 24447 24448 24449 24450 24451 24452 24453 24454 24455 24456 24457 24458 24459 24460 24461 24462 24463 24464 24465 24466 24467 24468 24469 24470 24471 24472 24473 24474 24475 24476 24477 24478 24479 24480 24481 24482 24483 24484 24485 24486 24487 24488 24489 24490 24491 24492 24493 24494 24495 24496 24497 24498 24499 24500 24501 24502 24503 24504 24505 24506 24507 24508 24509 24510 24511 24512 24513 24514 24515 24516 24517 24518 24519 24520 24521 24522 24523 24524 24525 24526 24527 24528 24529 24530 24531 24532 24533 24534 24535 24536 24537 24538 24539 24540 24541 24542 24543 24544 24545 24546 24547 24548 24549 24550 24551 24552 24553 24554 24555 24556 24557 24558 24559 24560 24561 24562 24563 24564 24565 24566 24567 24568 24569 24570 24571 24572 24573 24574 24575 24576 24577 24578 24579 24580 24581 24582 24583 24584 24585 24586 24587 24588 24589 24590 24591 24592 24593 24594 24595 24596 24597 24598 24599 24600 24601 24602 24603 24604 24605 24606 24607 24608 24609 24610 24611 24612 24613 24614 24615 24616 24617 24618 24619 24620 24621 24622 24623 24624 24625 24626 24627 24628 24629 24630 24631 24632 24633 24634 24635 24636 24637 24638 24639 24640 24641 24642 24643 24644 24645 24646 24647 24648 24649 24650 24651 24652 24653 24654 24655 24656 24657 24658 24659 24660 24661 24662 24663 24664 24665 24666 24667 24668 24669 24670 24671 24672 24673 24674 24675 24676 24677 24678 24679 24680 24681 24682 24683 24684 24685 24686 24687 24688 24689 24690 24691 24692 24693 24694 24695 24696 24697 24698 24699 24700 24701 24702 24703 24704 24705 24706 24707 24708 24709 24710 24711 24712 24713 24714 24715 24716 24717 24718 24719 24720 24721 24722 24723 24724 24725 24726 24727 24728 24729 24730 24731 24732 24733 24734 24735 24736 24737 24738 24739 24740 24741 24742 24743 24744 24745 24746 24747 24748 24749 24750 24751 24752 24753 24754 24755 24756 24757 24758 24759 24760 24761 24762 24763 24764 24765 24766 24767 24768 24769 24770 24771 24772 24773 24774 24775 24776 24777 24778 24779 24780 24781 24782 24783 24784 24785 24786 24787 24788 24789 24790 24791 24792 24793 24794 24795 24796 24797 24798 24799 24800 24801 24802 24803 24804 24805 24806 24807 24808 24809 24810 24811 24812 24813 24814 24815 24816 24817 24818 24819 24820 24821 24822 24823 24824 24825 24826 24827 24828 24829 24830 24831 24832 24833 24834 24835 24836 24837 24838 24839 24840 24841 24842 24843 24844 24845 24846 24847 24848 24849 24850 24851 24852 24853 24854 24855 24856 24857 24858 24859 24860 24861 24862 24863 24864 24865 24866 24867 24868 24869 24870 24871 24872 24873 24874 24875 24876 24877 24878 24879 24880 24881 24882 24883 24884 24885 24886 24887 24888 24889 24890 24891 24892 24893 24894 24895 24896 24897 24898 24899 24900 24901 24902 24903 24904 24905 24906 24907 24908 24909 24910 24911 24912 24913 24914 24915 24916 24917 24918 24919 24920 24921 24922 24923 24924 24925 24926 24927 24928 24929 24930 24931 24932 24933 24934 24935 24936 24937 24938 24939 24940 24941 24942 24943 24944 24945 24946 24947 24948 24949 24950 24951 24952 24953 24954 24955 24956 24957 24958 24959 24960 24961 24962 24963 24964 24965 24966 24967 24968 24969 24970 24971 24972 24973 24974 24975 24976 24977 24978 24979 24980 24981 24982 24983 24984 24985 24986 24987 24988 24989 24990 24991 24992 24993 24994 24995 24996 24997 24998 24999 25000 25001 25002 25003 25004 25005 25006 25007 25008 25009 25010 25011 25012 25013 25014 25015 25016 25017 25018 25019 25020 25021 25022 25023 25024 25025 25026 25027 25028 25029 25030 25031 25032 25033 25034 25035 25036 25037 25038 25039 25040 25041 25042 25043 25044 25045 25046 25047 25048 25049 25050 25051 25052 25053 25054 25055 25056 25057 25058 25059 25060 25061 25062 25063 25064 25065 25066 25067 25068 25069 25070 25071 25072 25073 25074 25075 25076 25077 25078 25079 25080 25081 25082 25083 25084 25085 25086 25087 25088 25089 25090 25091 25092 25093 25094 25095 25096 25097 25098 25099 25100 25101 25102 25103 25104 25105 25106 25107 25108 25109 25110 25111 25112 25113 25114 25115 25116 25117 25118 25119 25120 25121 25122 25123 25124 25125 25126 25127 25128 25129 25130 25131 25132 25133 25134 25135 25136 25137 25138 25139 25140 25141 25142 25143 25144 25145 25146 25147 25148 25149 25150 25151 25152 25153 25154 25155 25156 25157 25158 25159 25160 25161 25162 25163 25164 25165 25166 25167 25168 25169 25170 25171 25172 25173 25174 25175 25176 25177 25178 25179 25180 25181 25182 25183 25184 25185 25186 25187 25188 25189 25190 25191 25192 25193 25194 25195 25196 25197 25198 25199 25200 25201 25202 25203 25204 25205 25206 25207 25208 25209 25210 25211 25212 25213 25214 25215 25216 25217 25218 25219 25220 25221 25222 25223 25224 25225 25226 25227 25228 25229 25230 25231 25232 25233 25234 25235 25236 25237 25238 25239 25240 25241 25242 25243 25244 25245 25246 25247 25248 25249 25250 25251 25252 25253 25254 25255 25256 25257 25258 25259 25260 25261 25262 25263 25264 25265 25266 25267 25268 25269 25270 25271 25272 25273 25274 25275 25276 25277 25278 25279 25280 25281 25282 25283 25284 25285 25286 25287 25288 25289 25290 25291 25292 25293 25294 25295 25296 25297 25298 25299 25300 25301 25302 25303 25304 25305 25306 25307 25308 25309 25310 25311 25312 25313 25314 25315 25316 25317 25318 25319 25320 25321 25322 25323 25324 25325 25326 25327 25328 25329 25330 25331 25332 25333 25334 25335 25336 25337 25338 25339 25340 25341 25342 25343 25344 25345 25346 25347 25348 25349 25350 25351 25352 25353 25354 25355 25356 25357 25358 25359 25360 25361 25362 25363 25364 25365 25366 25367 25368 25369 25370 25371 25372 25373 25374 25375 25376 25377 25378 25379 25380 25381 25382 25383 25384 25385 25386 25387 25388 25389 25390 25391 25392 25393 25394 25395 25396 25397 25398 25399 25400 25401 25402 25403 25404 25405 25406 25407 25408 25409 25410 25411 25412 25413 25414 25415 25416 25417 25418 25419 25420 25421 25422 25423 25424 25425 25426 25427 25428 25429 25430 25431 25432 25433 25434 25435 25436 25437 25438 25439 25440 25441 25442 25443 25444 25445 25446 25447 25448 25449 25450 25451 25452 25453 25454 25455 25456 25457 25458 25459 25460 25461 25462 25463 25464 25465 25466 25467 25468 25469 25470 25471 25472 25473 25474 25475 25476 25477 25478 25479 25480 25481 25482 25483 25484 25485 25486 25487 25488 25489 25490 25491 25492 25493 25494 25495 25496 25497 25498 25499 25500 25501 25502 25503 25504 25505 25506 25507 25508 25509 25510 25511 25512 25513 25514 25515 25516 25517 25518 25519 25520 25521 25522 25523 25524 25525 25526 25527 25528 25529 25530 25531 25532 25533 25534 25535 25536 25537 25538 25539 25540 25541 25542 25543 25544 25545 25546 25547 25548 25549 25550 25551 25552 25553 25554 25555 25556 25557 25558 25559 25560 25561 25562 25563 25564 25565 25566 25567 25568 25569 25570 25571 25572 25573 25574 25575 25576 25577 25578 25579 25580 25581 25582 25583 25584 25585 25586 25587 25588 25589 25590 25591 25592 25593 25594 25595 25596 25597 25598 25599 25600 25601 25602 25603 25604 25605 25606 25607 25608 25609 25610 25611 25612 25613 25614 25615 25616 25617 25618 25619 25620 25621 25622 25623 25624 25625 25626 25627 25628 25629 25630 25631 25632 25633 25634 25635 25636 25637 25638 25639 25640 25641 25642 25643 25644 25645 25646 25647 25648 25649 25650 25651 25652 25653 25654 25655 25656 25657 25658 25659 25660 25661 25662 25663 25664 25665 25666 25667 25668 25669 25670 25671 25672 25673 25674 25675 25676 25677 25678 25679 25680 25681 25682 25683 25684 25685 25686 25687 25688 25689 25690 25691 25692 25693 25694 25695 25696 25697 25698 25699 25700 25701 25702 25703 25704 25705 25706 25707 25708 25709 25710 25711 25712 25713 25714 25715 25716 25717 25718 25719 25720 25721 25722 25723 25724 25725 25726 25727 25728 25729 25730 25731 25732 25733 25734 25735 25736 25737 25738 25739 25740 25741 25742 25743 25744 25745 25746 25747 25748 25749 25750 25751 25752 25753 25754 25755 25756 25757 25758 25759 25760 25761 25762 25763 25764 25765 25766 25767 25768 25769 25770 25771 25772 25773 25774 25775 25776 25777 25778 25779 25780 25781 25782 25783 25784 25785 25786 25787 25788 25789 25790 25791 25792 25793 25794 25795 25796 25797 25798 25799 25800 25801 25802 25803 25804 25805 25806 25807 25808 25809 25810 25811 25812 25813 25814 25815 25816 25817 25818 25819 25820 25821 25822 25823 25824 25825 25826 25827 25828 25829 25830 25831 25832 25833 25834 25835 25836 25837 25838 25839 25840 25841 25842 25843 25844 25845 25846 25847 25848 25849 25850 25851 25852 25853 25854 25855 25856 25857 25858 25859 25860 25861 25862 25863 25864 25865 25866 25867 25868 25869 25870 25871 25872 25873 25874 25875 25876 25877 25878 25879 25880 25881 25882 25883 25884 25885 25886 25887 25888 25889 25890 25891 25892 25893 25894 25895 25896 25897 25898 25899 25900 25901 25902 25903 25904 25905 25906 25907 25908 25909 25910 25911 25912 25913 25914 25915 25916 25917 25918 25919 25920 25921 25922 25923 25924 25925 25926 25927 25928 25929 25930 25931 25932 25933 25934 25935 25936 25937 25938 25939 25940 25941 25942 25943 25944 25945 25946 25947 25948 25949 25950 25951 25952 25953 25954 25955 25956 25957 25958 25959 25960 25961 25962 25963 25964 25965 25966 25967 25968 25969 25970 25971 25972 25973 25974 25975 25976 25977 25978 25979 25980 25981 25982 25983 25984 25985 25986 25987 25988 25989 25990 25991 25992 25993 25994 25995 25996 25997 25998 25999 26000 26001 26002 26003 26004 26005 26006 26007 26008 26009 26010 26011 26012 26013 26014 26015 26016 26017 26018 26019 26020 26021 26022 26023 26024 26025 26026 26027 26028 26029 26030 26031 26032 26033 26034 26035 26036 26037 26038 26039 26040 26041 26042 26043 26044 26045 26046 26047 26048 26049 26050 26051 26052 26053 26054 26055 26056 26057 26058 26059 26060 26061 26062 26063 26064 26065 26066 26067 26068 26069 26070 26071 26072 26073 26074 26075 26076 26077 26078 26079 26080 26081 26082 26083 26084 26085 26086 26087 26088 26089 26090 26091 26092 26093 26094 26095 26096 26097 26098 26099 26100 26101 26102 26103 26104 26105 26106 26107 26108 26109 26110 26111 26112 26113 26114 26115 26116 26117 26118 26119 26120 26121 26122 26123 26124 26125 26126 26127 26128 26129 26130 26131 26132 26133 26134 26135 26136 26137 26138 26139 26140 26141 26142 26143 26144 26145 26146 26147 26148 26149 26150 26151 26152 26153 26154 26155 26156 26157 26158 26159 26160 26161 26162 26163 26164 26165 26166 26167 26168 26169 26170 26171 26172 26173 26174 26175 26176 26177 26178 26179 26180 26181 26182 26183 26184 26185 26186 26187 26188 26189 26190 26191 26192 26193 26194 26195 26196 26197 26198 26199 26200 26201 26202 26203 26204 26205 26206 26207 26208 26209 26210 26211 26212 26213 26214 26215 26216 26217 26218 26219 26220 26221 26222 26223 26224 26225 26226 26227 26228 26229 26230 26231 26232 26233 26234 26235 26236 26237 26238 26239 26240 26241 26242 26243 26244 26245 26246 26247 26248 26249 26250 26251 26252 26253 26254 26255 26256 26257 26258 26259 26260 26261 26262 26263 26264 26265 26266 26267 26268 26269 26270 26271 26272 26273 26274 26275 26276 26277 26278 26279 26280 26281 26282 26283 26284 26285 26286 26287 26288 26289 26290 26291 26292 26293 26294 26295 26296 26297 26298 26299 26300 26301 26302 26303 26304 26305 26306 26307 26308 26309 26310 26311 26312 26313 26314 26315 26316 26317 26318 26319 26320 26321 26322 26323 26324 26325 26326 26327 26328 26329 26330 26331 26332 26333 26334 26335 26336 26337 26338 26339 26340 26341 26342 26343 26344 26345 26346 26347 26348 26349 26350 26351 26352 26353 26354 26355 26356 26357 26358 26359 26360 26361 26362 26363 26364 26365 26366 26367 26368 26369 26370 26371 26372 26373 26374 26375 26376 26377 26378 26379 26380 26381 26382 26383 26384 26385 26386 26387 26388 26389 26390 26391 26392 26393 26394 26395 26396 26397 26398 26399 26400 26401 26402 26403 26404 26405 26406 26407 26408 26409 26410 26411 26412 26413 26414 26415 26416 26417 26418 26419 26420 26421 26422 26423 26424 26425 26426 26427 26428 26429 26430 26431 26432 26433 26434 26435 26436 26437 26438 26439 26440 26441 26442 26443 26444 26445 26446 26447 26448 26449 26450 26451 26452 26453 26454 26455 26456 26457 26458 26459 26460 26461 26462 26463 26464 26465 26466 26467 26468 26469 26470 26471 26472 26473 26474 26475 26476 26477 26478 26479 26480 26481 26482 26483 26484 26485 26486 26487 26488 26489 26490 26491 26492 26493 26494 26495 26496 26497 26498 26499 26500 26501 26502 26503 26504 26505 26506 26507 26508 26509 26510 26511 26512 26513 26514 26515 26516 26517 26518 26519 26520 26521 26522 26523 26524 26525 26526 26527 26528 26529 26530 26531 26532 26533 26534 26535 26536 26537 26538 26539 26540 26541 26542 26543 26544 26545 26546 26547 26548 26549 26550 26551 26552 26553 26554 26555 26556 26557 26558 26559 26560 26561 26562 26563 26564 26565 26566 26567 26568 26569 26570 26571 26572 26573 26574 26575 26576 26577 26578 26579 26580 26581 26582 26583 26584 26585 26586 26587 26588 26589 26590 26591 26592 26593 26594 26595 26596 26597 26598 26599 26600 26601 26602 26603 26604 26605 26606 26607 26608 26609 26610 26611 26612 26613 26614 26615 26616 26617 26618 26619 26620 26621 26622 26623 26624 26625 26626 26627 26628 26629 26630 26631 26632 26633 26634 26635 26636 26637 26638 26639 26640 26641 26642 26643 26644 26645 26646 26647 26648 26649 26650 26651 26652 26653 26654 26655 26656 26657 26658 26659 26660 26661 26662 26663 26664 26665 26666 26667 26668 26669 26670 26671 26672 26673 26674 26675 26676 26677 26678 26679 26680 26681 26682 26683 26684 26685 26686 26687 26688 26689 26690 26691 26692 26693 26694 26695 26696 26697 26698 26699 26700 26701 26702 26703 26704 26705 26706 26707 26708 26709 26710 26711 26712 26713 26714 26715 26716 26717 26718 26719 26720 26721 26722 26723 26724 26725 26726 26727 26728 26729 26730 26731 26732 26733 26734 26735 26736 26737 26738 26739 26740 26741 26742 26743 26744 26745 26746 26747 26748 26749 26750 26751 26752 26753 26754 26755 26756 26757 26758 26759 26760 26761 26762 26763 26764 26765 26766 26767 26768 26769 26770 26771 26772 26773 26774 26775 26776 26777 26778 26779 26780 26781 26782 26783 26784 26785 26786 26787 26788 26789 26790 26791 26792 26793 26794 26795 26796 26797 26798 26799 26800 26801 26802 26803 26804 26805 26806 26807 26808 26809 26810 26811 26812 26813 26814 26815 26816 26817 26818 26819 26820 26821 26822 26823 26824 26825 26826 26827 26828 26829 26830 26831 26832 26833 26834 26835 26836 26837 26838 26839 26840 26841 26842 26843 26844 26845 26846 26847 26848 26849 26850 26851 26852 26853 26854 26855 26856 26857 26858 26859 26860 26861 26862 26863 26864 26865 26866 26867 26868 26869 26870 26871 26872 26873 26874 26875 26876 26877 26878 26879 26880 26881 26882 26883 26884 26885 26886 26887 26888 26889 26890 26891 26892 26893 26894 26895 26896 26897 26898 26899 26900 26901 26902 26903 26904 26905 26906 26907 26908 26909 26910 26911 26912 26913 26914 26915 26916 26917 26918 26919 26920 26921 26922 26923 26924 26925 26926 26927 26928 26929 26930 26931 26932 26933 26934 26935 26936 26937 26938 26939 26940 26941 26942 26943 26944 26945 26946 26947 26948 26949 26950 26951 26952 26953 26954 26955 26956 26957 26958 26959 26960 26961 26962 26963 26964 26965 26966 26967 26968 26969 26970 26971 26972 26973 26974 26975 26976 26977 26978 26979 26980 26981 26982 26983 26984 26985 26986 26987 26988 26989 26990 26991 26992 26993 26994 26995 26996 26997 26998 26999 27000 27001 27002 27003 27004 27005 27006 27007 27008 27009 27010 27011 27012 27013 27014 27015 27016 27017 27018 27019 27020 27021 27022 27023 27024 27025 27026 27027 27028 27029 27030 27031 27032 27033 27034 27035 27036 27037 27038 27039 27040 27041 27042 27043 27044 27045 27046 27047 27048 27049 27050 27051 27052 27053 27054 27055 27056 27057 27058 27059 27060 27061 27062 27063 27064 27065 27066 27067 27068 27069 27070 27071 27072 27073 27074 27075 27076 27077 27078 27079 27080 27081 27082 27083 27084 27085 27086 27087 27088 27089 27090 27091 27092 27093 27094 27095 27096 27097 27098 27099 27100 27101 27102 27103 27104 27105 27106 27107 27108 27109 27110 27111 27112 27113 27114 27115 27116 27117 27118 27119 27120 27121 27122 27123 27124 27125 27126 27127 27128 27129 27130 27131 27132 27133 27134 27135 27136 27137 27138 27139 27140 27141 27142 27143 27144 27145 27146 27147 27148 27149 27150 27151 27152 27153 27154 27155 27156 27157 27158 27159 27160 27161 27162 27163 27164 27165 27166 27167 27168 27169 27170 27171 27172 27173 27174 27175 27176 27177 27178 27179 27180 27181 27182 27183 27184 27185 27186 27187 27188 27189 27190 27191 27192 27193 27194 27195 27196 27197 27198 27199 27200 27201 27202 27203 27204 27205 27206 27207 27208 27209 27210 27211 27212 27213 27214 27215 27216 27217 27218 27219 27220 27221 27222 27223 27224 27225 27226 27227 27228 27229 27230 27231 27232 27233 27234 27235 27236 27237 27238 27239 27240 27241 27242 27243 27244 27245 27246 27247 27248 27249 27250 27251 27252 27253 27254 27255 27256 27257 27258 27259 27260 27261 27262 27263 27264 27265 27266 27267 27268 27269 27270 27271 27272 27273 27274 27275 27276 27277 27278 27279 27280 27281 27282 27283 27284 27285 27286 27287 27288 27289 27290 27291 27292 27293 27294 27295 27296 27297 27298 27299 27300 27301 27302 27303 27304 27305 27306 27307 27308 27309 27310 27311 27312 27313 27314 27315 27316 27317 27318 27319 27320 27321 27322 27323 27324 27325 27326 27327 27328 27329 27330 27331 27332 27333 27334 27335 27336 27337 27338 27339 27340 27341 27342 27343 27344 27345 27346 27347 27348 27349 27350 27351 27352 27353 27354 27355 27356 27357 27358 27359 27360 27361 27362 27363 27364 27365 27366 27367 27368 27369 27370 27371 27372 27373 27374 27375 27376 27377 27378 27379 27380 27381 27382 27383 27384 27385 27386 27387 27388 27389 27390 27391 27392 27393 27394 27395 27396 27397 27398 27399 27400 27401 27402 27403 27404 27405 27406 27407 27408 27409 27410 27411 27412 27413 27414 27415 27416 27417 27418 27419 27420 27421 27422 27423 27424 27425 27426 27427 27428 27429 27430 27431 27432 27433 27434 27435 27436 27437 27438 27439 27440 27441 27442 27443 27444 27445 27446 27447 27448 27449 27450 27451 27452 27453 27454 27455 27456 27457 27458 27459 27460 27461 27462 27463 27464 27465 27466 27467 27468 27469 27470 27471 27472 27473 27474 27475 27476 27477 27478 27479 27480 27481 27482 27483 27484 27485 27486 27487 27488 27489 27490 27491 27492 27493 27494 27495 27496 27497 27498 27499 27500 27501 27502 27503 27504 27505 27506 27507 27508 27509 27510 27511 27512 27513 27514 27515 27516 27517 27518 27519 27520 27521 27522 27523 27524 27525 27526 27527 27528 27529 27530 27531 27532 27533 27534 27535 27536 27537 27538 27539 27540 27541 27542 27543 27544 27545 27546 27547 27548 27549 27550 27551 27552 27553 27554 27555 27556 27557 27558 27559 27560 27561 27562 27563 27564 27565 27566 27567 27568 27569 27570 27571 27572 27573 27574 27575 27576 27577 27578 27579 27580 27581 27582 27583 27584 27585 27586 27587 27588 27589 27590 27591 27592 27593 27594 27595 27596 27597 27598 27599 27600 27601 27602 27603 27604 27605 27606 27607 27608 27609 27610 27611 27612 27613 27614 27615 27616 27617 27618 27619 27620 27621 27622 27623 27624 27625 27626 27627 27628 27629 27630 27631 27632 27633 27634 27635 27636 27637 27638 27639 27640 27641 27642 27643 27644 27645 27646 27647 27648 27649 27650 27651 27652 27653 27654 27655 27656 27657 27658 27659 27660 27661 27662 27663 27664 27665 27666 27667 27668 27669 27670 27671 27672 27673 27674 27675 27676 27677 27678 27679 27680 27681 27682 27683 27684 27685 27686 27687 27688 27689 27690 27691 27692 27693 27694 27695 27696 27697 27698 27699 27700 27701 27702 27703 27704 27705 27706 27707 27708 27709 27710 27711 27712 27713 27714 27715 27716 27717 27718 27719 27720 27721 27722 27723 27724 27725 27726 27727 27728 27729 27730 27731 27732 27733 27734 27735 27736 27737 27738 27739 27740 27741 27742 27743 27744 27745 27746 27747 27748 27749 27750 27751 27752 27753 27754 27755 27756 27757 27758 27759 27760 27761 27762 27763 27764 27765 27766 27767 27768 27769 27770 27771 27772 27773 27774 27775 27776 27777 27778 27779 27780 27781 27782 27783 27784 27785 27786 27787 27788 27789 27790 27791 27792 27793 27794 27795 27796 27797 27798 27799 27800 27801 27802 27803 27804 27805 27806 27807 27808 27809 27810 27811 27812 27813 27814 27815 27816 27817 27818 27819 27820 27821 27822 27823 27824 27825 27826 27827 27828 27829 27830 27831 27832 27833 27834 27835 27836 27837 27838 27839 27840 27841 27842 27843 27844 27845 27846 27847 27848 27849 27850 27851 27852 27853 27854 27855 27856 27857 27858 27859 27860 27861 27862 27863 27864 27865 27866 27867 27868 27869 27870 27871 27872 27873 27874 27875 27876 27877 27878 27879 27880 27881 27882 27883 27884 27885 27886 27887 27888 27889 27890 27891 27892 27893 27894 27895 27896 27897 27898 27899 27900 27901 27902 27903 27904 27905 27906 27907 27908 27909 27910 27911 27912 27913 27914 27915 27916 27917 27918 27919 27920 27921 27922 27923 27924 27925 27926 27927 27928 27929 27930 27931 27932 27933 27934 27935 27936 27937 27938 27939 27940 27941 27942 27943 27944 27945 27946 27947 27948 27949 27950 27951 27952 27953 27954 27955 27956 27957 27958 27959 27960 27961 27962 27963 27964 27965 27966 27967 27968 27969 27970 27971 27972 27973 27974 27975 27976 27977 27978 27979 27980 27981 27982 27983 27984 27985 27986 27987 27988 27989 27990 27991 27992 27993 27994 27995 27996 27997 27998 27999 28000 28001 28002 28003 28004 28005 28006 28007 28008 28009 28010 28011 28012 28013 28014 28015 28016 28017 28018 28019 28020 28021 28022 28023 28024 28025 28026 28027 28028 28029 28030 28031 28032 28033 28034 28035 28036 28037 28038 28039 28040 28041 28042 28043 28044 28045 28046 28047 28048 28049 28050 28051 28052 28053 28054 28055 28056 28057 28058 28059 28060 28061 28062 28063 28064 28065 28066 28067 28068 28069 28070 28071 28072 28073 28074 28075 28076 28077 28078 28079 28080 28081 28082 28083 28084 28085 28086 28087 28088 28089 28090 28091 28092 28093 28094 28095 28096 28097 28098 28099 28100 28101 28102 28103 28104 28105 28106 28107 28108 28109 28110 28111 28112 28113 28114 28115 28116 28117 28118 28119 28120 28121 28122 28123 28124 28125 28126 28127 28128 28129 28130 28131 28132 28133 28134 28135 28136 28137 28138 28139 28140 28141 28142 28143 28144 28145 28146 28147 28148 28149 28150 28151 28152 28153 28154 28155 28156 28157 28158 28159 28160 28161 28162 28163 28164 28165 28166 28167 28168 28169 28170 28171 28172 28173 28174 28175 28176 28177 28178 28179 28180 28181 28182 28183 28184 28185 28186 28187 28188 28189 28190 28191 28192 28193 28194 28195 28196 28197 28198 28199 28200 28201 28202 28203 28204 28205 28206 28207 28208 28209 28210 28211 28212 28213 28214 28215 28216 28217 28218 28219 28220 28221 28222 28223 28224 28225 28226 28227 28228 28229 28230 28231 28232 28233 28234 28235 28236 28237 28238 28239 28240 28241 28242 28243 28244 28245 28246 28247 28248 28249 28250 28251 28252 28253 28254 28255 28256 28257 28258 28259 28260 28261 28262 28263 28264 28265 28266 28267 28268 28269 28270 28271 28272 28273 28274 28275 28276 28277 28278 28279 28280 28281 28282 28283 28284 28285 28286 28287 28288 28289 28290 28291 28292 28293 28294 28295 28296 28297 28298 28299 28300 28301 28302 28303 28304 28305 28306 28307 28308 28309 28310 28311 28312 28313 28314 28315 28316 28317 28318 28319 28320 28321 28322 28323 28324 28325 28326 28327 28328 28329 28330 28331 28332 28333 28334 28335 28336 28337 28338 28339 28340 28341 28342 28343 28344 28345 28346 28347 28348 28349 28350 28351 28352 28353 28354 28355 28356 28357 28358 28359 28360 28361 28362 28363 28364 28365 28366 28367 28368 28369 28370 28371 28372 28373 28374 28375 28376 28377 28378 28379 28380 28381 28382 28383 28384 28385 28386 28387 28388 28389 28390 28391 28392 28393 28394 28395 28396 28397 28398 28399 28400 28401 28402 28403 28404 28405 28406 28407 28408 28409 28410 28411 28412 28413 28414 28415 28416 28417 28418 28419 28420 28421 28422 28423 28424 28425 28426 28427 28428 28429 28430 28431 28432 28433 28434 28435 28436 28437 28438 28439 28440 28441 28442 28443 28444 28445 28446 28447 28448 28449 28450 28451 28452 28453 28454 28455 28456 28457 28458 28459 28460 28461 28462 28463 28464 28465 28466 28467 28468 28469 28470 28471 28472 28473 28474 28475 28476 28477 28478 28479 28480 28481 28482 28483 28484 28485 28486 28487 28488 28489 28490 28491 28492 28493 28494 28495 28496 28497 28498 28499 28500 28501 28502 28503 28504 28505 28506 28507 28508 28509 28510 28511 28512 28513 28514 28515 28516 28517 28518 28519 28520 28521 28522 28523 28524 28525 28526 28527 28528 28529 28530 28531 28532 28533 28534 28535 28536 28537 28538 28539 28540 28541 28542 28543 28544 28545 28546 28547 28548 28549 28550 28551 28552 28553 28554 28555 28556 28557 28558 28559 28560 28561 28562 28563 28564 28565 28566 28567 28568 28569 28570 28571 28572 28573 28574 28575 28576 28577 28578 28579 28580 28581 28582 28583 28584 28585 28586 28587 28588 28589 28590 28591 28592 28593 28594 28595 28596 28597 28598 28599 28600 28601 28602 28603 28604 28605 28606 28607 28608 28609 28610 28611 28612 28613 28614 28615 28616 28617 28618 28619 28620 28621 28622 28623 28624 28625 28626 28627 28628 28629 28630 28631 28632 28633 28634 28635 28636 28637 28638 28639 28640 28641 28642 28643 28644 28645 28646 28647 28648 28649 28650 28651 28652 28653 28654 28655 28656 28657 28658 28659 28660 28661 28662 28663 28664 28665 28666 28667 28668 28669 28670 28671 28672 28673 28674 28675 28676 28677 28678 28679 28680 28681 28682 28683 28684 28685 28686 28687 28688 28689 28690 28691 28692 28693 28694 28695 28696 28697 28698 28699 28700 28701 28702 28703 28704 28705 28706 28707 28708 28709 28710 28711 28712 28713 28714 28715 28716 28717 28718 28719 28720 28721 28722 28723 28724 28725 28726 28727 28728 28729 28730 28731 28732 28733 28734 28735 28736 28737 28738 28739 28740 28741 28742 28743 28744 28745 28746 28747 28748 28749 28750 28751 28752 28753 28754 28755 28756 28757 28758 28759 28760 28761 28762 28763 28764 28765 28766 28767 28768 28769 28770 28771 28772 28773 28774 28775 28776 28777 28778 28779 28780 28781 28782 28783 28784 28785 28786 28787 28788 28789 28790 28791 28792 28793 28794 28795 28796 28797 28798 28799 28800 28801 28802 28803 28804 28805 28806 28807 28808 28809 28810 28811 28812 28813 28814 28815 28816 28817 28818 28819 28820 28821 28822 28823 28824 28825 28826 28827 28828 28829 28830 28831 28832 28833 28834 28835 28836 28837 28838 28839 28840 28841 28842 28843 28844 28845 28846 28847 28848 28849 28850 28851 28852 28853 28854 28855 28856 28857 28858 28859 28860 28861 28862 28863 28864 28865 28866 28867 28868 28869 28870 28871 28872 28873 28874 28875 28876 28877 28878 28879 28880 28881 28882 28883 28884 28885 28886 28887 28888 28889 28890 28891 28892 28893 28894 28895 28896 28897 28898 28899 28900 28901 28902 28903 28904 28905 28906 28907 28908 28909 28910 28911 28912 28913 28914 28915 28916 28917 28918 28919 28920 28921 28922 28923 28924 28925 28926 28927 28928 28929 28930 28931 28932 28933 28934 28935 28936 28937 28938 28939 28940 28941 28942 28943 28944 28945 28946 28947 28948 28949 28950 28951 28952 28953 28954 28955 28956 28957 28958 28959 28960 28961 28962 28963 28964 28965 28966 28967 28968 28969 28970 28971 28972 28973 28974 28975 28976 28977 28978 28979 28980 28981 28982 28983 28984 28985 28986 28987 28988 28989 28990 28991 28992 28993 28994 28995 28996 28997 28998 28999 29000 29001 29002 29003 29004 29005 29006 29007 29008 29009 29010 29011 29012 29013 29014 29015 29016 29017 29018 29019 29020 29021 29022 29023 29024 29025 29026 29027 29028 29029 29030 29031 29032 29033 29034 29035 29036 29037 29038 29039 29040 29041 29042 29043 29044 29045 29046 29047 29048 29049 29050 29051 29052 29053 29054 29055 29056 29057 29058 29059 29060 29061 29062 29063 29064 29065 29066 29067 29068 29069 29070 29071 29072 29073 29074 29075 29076 29077 29078 29079 29080 29081 29082 29083 29084 29085 29086 29087 29088 29089 29090 29091 29092 29093 29094 29095 29096 29097 29098 29099 29100 29101 29102 29103 29104 29105 29106 29107 29108 29109 29110 29111 29112 29113 29114 29115 29116 29117 29118 29119 29120 29121 29122 29123 29124 29125 29126 29127 29128 29129 29130 29131 29132 29133 29134 29135 29136 29137 29138 29139 29140 29141 29142 29143 29144 29145 29146 29147 29148 29149 29150 29151 29152 29153 29154 29155 29156 29157 29158 29159 29160 29161 29162 29163 29164 29165 29166 29167 29168 29169 29170 29171 29172 29173 29174 29175 29176 29177 29178 29179 29180 29181 29182 29183 29184 29185 29186 29187 29188 29189 29190 29191 29192 29193 29194 29195 29196 29197 29198 29199 29200 29201 29202 29203 29204 29205 29206 29207 29208 29209 29210 29211 29212 29213 29214 29215 29216 29217 29218 29219 29220 29221 29222 29223 29224 29225 29226 29227 29228 29229 29230 29231 29232 29233 29234 29235 29236 29237 29238 29239 29240 29241 29242 29243 29244 29245 29246 29247 29248 29249 29250 29251 29252 29253 29254 29255 29256 29257 29258 29259 29260 29261 29262 29263 29264 29265 29266 29267 29268 29269 29270 29271 29272 29273 29274 29275 29276 29277 29278 29279 29280 29281 29282 29283 29284 29285 29286 29287 29288 29289 29290 29291 29292 29293 29294 29295 29296 29297 29298 29299 29300 29301 29302 29303 29304 29305 29306 29307 29308 29309 29310 29311 29312 29313 29314 29315 29316 29317 29318 29319 29320 29321 29322 29323 29324 29325 29326 29327 29328 29329 29330 29331 29332 29333 29334 29335 29336 29337 29338 29339 29340 29341 29342 29343 29344 29345 29346 29347 29348 29349 29350 29351 29352 29353 29354 29355 29356 29357 29358 29359 29360 29361 29362 29363 29364 29365 29366 29367 29368 29369 29370 29371 29372 29373 29374 29375 29376 29377 29378 29379 29380 29381 29382 29383 29384 29385 29386 29387 29388 29389 29390 29391 29392 29393 29394 29395 29396 29397 29398 29399 29400 29401 29402 29403 29404 29405 29406 29407 29408 29409 29410 29411 29412 29413 29414 29415 29416 29417 29418 29419 29420 29421 29422 29423 29424 29425 29426 29427 29428 29429 29430 29431 29432 29433 29434 29435 29436 29437 29438 29439 29440 29441 29442 29443 29444 29445 29446 29447 29448 29449 29450 29451 29452 29453 29454 29455 29456 29457 29458 29459 29460 29461 29462 29463 29464 29465 29466 29467 29468 29469 29470 29471 29472 29473 29474 29475 29476 29477 29478 29479 29480 29481 29482 29483 29484 29485 29486 29487 29488 29489 29490 29491 29492 29493 29494 29495 29496 29497 29498 29499 29500 29501 29502 29503 29504 29505 29506 29507 29508 29509 29510 29511 29512 29513 29514 29515 29516 29517 29518 29519 29520 29521 29522 29523 29524 29525 29526 29527 29528 29529 29530 29531 29532 29533 29534 29535 29536 29537 29538 29539 29540 29541 29542 29543 29544 29545 29546 29547 29548 29549 29550 29551 29552 29553 29554 29555 29556 29557 29558 29559 29560 29561 29562 29563 29564 29565 29566 29567 29568 29569 29570 29571 29572 29573 29574 29575 29576 29577 29578 29579 29580 29581 29582 29583 29584 29585 29586 29587 29588 29589 29590 29591 29592 29593 29594 29595 29596 29597 29598 29599 29600 29601 29602 29603 29604 29605 29606 29607 29608 29609 29610 29611 29612 29613 29614 29615 29616 29617 29618 29619 29620 29621 29622 29623 29624 29625 29626 29627 29628 29629 29630 29631 29632 29633 29634 29635 29636 29637 29638 29639 29640 29641 29642 29643 29644 29645 29646 29647 29648 29649 29650 29651 29652 29653 29654 29655 29656 29657 29658 29659 29660 29661 29662 29663 29664 29665 29666 29667 29668 29669 29670 29671 29672 29673 29674 29675 29676 29677 29678 29679 29680 29681 29682 29683 29684 29685 29686 29687 29688 29689 29690 29691 29692 29693 29694 29695 29696 29697 29698 29699 29700 29701 29702 29703 29704 29705 29706 29707 29708 29709 29710 29711 29712 29713 29714 29715 29716 29717 29718 29719 29720 29721 29722 29723 29724 29725 29726 29727 29728 29729 29730 29731 29732 29733 29734 29735 29736 29737 29738 29739 29740 29741 29742 29743 29744 29745 29746 29747 29748 29749 29750 29751 29752 29753 29754 29755 29756 29757 29758 29759 29760 29761 29762 29763 29764 29765 29766 29767 29768 29769 29770 29771 29772 29773 29774 29775 29776 29777 29778 29779 29780 29781 29782 29783 29784 29785 29786 29787 29788 29789 29790 29791 29792 29793 29794 29795 29796 29797 29798 29799 29800 29801 29802 29803 29804 29805 29806 29807 29808 29809 29810 29811 29812 29813 29814 29815 29816 29817 29818 29819 29820 29821 29822 29823 29824 29825 29826 29827 29828 29829 29830 29831 29832 29833 29834 29835 29836 29837 29838 29839 29840 29841 29842 29843 29844 29845 29846 29847 29848 29849 29850 29851 29852 29853 29854 29855 29856 29857 29858 29859 29860 29861 29862 29863 29864 29865 29866 29867 29868 29869 29870 29871 29872 29873 29874 29875 29876 29877 29878 29879 29880 29881 29882 29883 29884 29885 29886 29887 29888 29889 29890 29891 29892 29893 29894 29895 29896 29897 29898 29899 29900 29901 29902 29903 29904 29905 29906 29907 29908 29909 29910 29911 29912 29913 29914 29915 29916 29917 29918 29919 29920 29921 29922 29923 29924 29925 29926 29927 29928 29929 29930 29931 29932 29933 29934 29935 29936 29937 29938 29939 29940 29941 29942 29943 29944 29945 29946 29947 29948 29949 29950 29951 29952 29953 29954 29955 29956 29957 29958 29959 29960 29961 29962 29963 29964 29965 29966 29967 29968 29969 29970 29971 29972 29973 29974 29975 29976 29977 29978 29979 29980 29981 29982 29983 29984 29985 29986 29987 29988 29989 29990 29991 29992 29993 29994 29995 29996 29997 29998 29999 30000 30001 30002 30003 30004 30005 30006 30007 30008 30009 30010 30011 30012 30013 30014 30015 30016 30017 30018 30019 30020 30021 30022 30023 30024 30025 30026 30027 30028 30029 30030 30031 30032 30033 30034 30035 30036 30037 30038 30039 30040 30041 30042 30043 30044 30045 30046 30047 30048 30049 30050 30051 30052 30053 30054 30055 30056 30057 30058 30059 30060 30061 30062 30063 30064 30065 30066 30067 30068 30069 30070 30071 30072 30073 30074 30075 30076 30077 30078 30079 30080 30081 30082 30083 30084 30085 30086 30087 30088 30089 30090 30091 30092 30093 30094 30095 30096 30097 30098 30099 30100 30101 30102 30103 30104 30105 30106 30107 30108 30109 30110 30111 30112 30113 30114 30115 30116 30117 30118 30119 30120 30121 30122 30123 30124 30125 30126 30127 30128 30129 30130 30131 30132 30133 30134 30135 30136 30137 30138 30139 30140 30141 30142 30143 30144 30145 30146 30147 30148 30149 30150 30151 30152 30153 30154 30155 30156 30157 30158 30159 30160 30161 30162 30163 30164 30165 30166 30167 30168 30169 30170 30171 30172 30173 30174 30175 30176 30177 30178 30179 30180 30181 30182 30183 30184 30185 30186 30187 30188 30189 30190 30191 30192 30193 30194 30195 30196 30197 30198 30199 30200 30201 30202 30203 30204 30205 30206 30207 30208 30209 30210 30211 30212 30213 30214 30215 30216 30217 30218 30219 30220 30221 30222 30223 30224 30225 30226 30227 30228 30229 30230 30231 30232 30233 30234 30235 30236 30237 30238 30239 30240 30241 30242 30243 30244 30245 30246 30247 30248 30249 30250 30251 30252 30253 30254 30255 30256 30257 30258 30259 30260 30261 30262 30263 30264 30265 30266 30267 30268 30269 30270 30271 30272 30273 30274 30275 30276 30277 30278 30279 30280 30281 30282 30283 30284 30285 30286 30287 30288 30289 30290 30291 30292 30293 30294 30295 30296 30297 30298 30299 30300 30301 30302 30303 30304 30305 30306 30307 30308 30309 30310 30311 30312 30313 30314 30315 30316 30317 30318 30319 30320 30321 30322 30323 30324 30325 30326 30327 30328 30329 30330 30331 30332 30333 30334 30335 30336 30337 30338 30339 30340 30341 30342 30343 30344 30345 30346 30347 30348 30349 30350 30351 30352 30353 30354 30355 30356 30357 30358 30359 30360 30361 30362 30363 30364 30365 30366 30367 30368 30369 30370 30371 30372 30373 30374 30375 30376 30377 30378 30379 30380 30381 30382 30383 30384 30385 30386 30387 30388 30389 30390 30391 30392 30393 30394 30395 30396 30397 30398 30399 30400 30401 30402 30403 30404 30405 30406 30407 30408 30409 30410 30411 30412 30413 30414 30415 30416 30417 30418 30419 30420 30421 30422 30423 30424 30425 30426 30427 30428 30429 30430 30431 30432 30433 30434 30435 30436 30437 30438 30439 30440 30441 30442 30443 30444 30445 30446 30447 30448 30449 30450 30451 30452 30453 30454 30455 30456 30457 30458 30459 30460 30461 30462 30463 30464 30465 30466 30467 30468 30469 30470 30471 30472 30473 30474 30475 30476 30477 30478 30479 30480 30481 30482 30483 30484 30485 30486 30487 30488 30489 30490 30491 30492 30493 30494 30495 30496 30497 30498 30499 30500 30501 30502 30503 30504 30505 30506 30507 30508 30509 30510 30511 30512 30513 30514 30515 30516 30517 30518 30519 30520 30521 30522 30523 30524 30525 30526 30527 30528 30529 30530 30531 30532 30533 30534 30535 30536 30537 30538 30539 30540 30541 30542 30543 30544 30545 30546 30547 30548 30549 30550 30551 30552 30553 30554 30555 30556 30557 30558 30559 30560 30561 30562 30563 30564 30565 30566 30567 30568 30569 30570 30571 30572 30573 30574 30575 30576 30577 30578 30579 30580 30581 30582 30583 30584 30585 30586 30587 30588 30589 30590 30591 30592 30593 30594 30595 30596 30597 30598 30599 30600 30601 30602 30603 30604 30605 30606 30607 30608 30609 30610 30611 30612 30613 30614 30615 30616 30617 30618 30619 30620 30621 30622 30623 30624 30625 30626 30627 30628 30629 30630 30631 30632 30633 30634 30635 30636 30637 30638 30639 30640 30641 30642 30643 30644 30645 30646 30647 30648 30649 30650 30651 30652 30653 30654 30655 30656 30657 30658 30659 30660 30661 30662 30663 30664 30665 30666 30667 30668 30669 30670 30671 30672 30673 30674 30675 30676 30677 30678 30679 30680 30681 30682 30683 30684 30685 30686 30687 30688 30689 30690 30691 30692 30693 30694 30695 30696 30697 30698 30699 30700 30701 30702 30703 30704 30705 30706 30707 30708 30709 30710 30711 30712 30713 30714 30715 30716 30717 30718 30719 30720 30721 30722 30723 30724 30725 30726 30727 30728 30729 30730 30731 30732 30733 30734 30735 30736 30737 30738 30739 30740 30741 30742 30743 30744 30745 30746 30747 30748 30749 30750 30751 30752 30753 30754 30755 30756 30757 30758 30759 30760 30761 30762 30763 30764 30765 30766 30767 30768 30769 30770 30771 30772 30773 30774 30775 30776 30777 30778 30779 30780 30781 30782 30783 30784 30785 30786 30787 30788 30789 30790 30791 30792 30793 30794 30795 30796 30797 30798 30799 30800 30801 30802 30803 30804 30805 30806 30807 30808 30809 30810 30811 30812 30813 30814 30815 30816 30817 30818 30819 30820 30821 30822 30823 30824 30825 30826 30827 30828 30829 30830 30831 30832 30833 30834 30835 30836 30837 30838 30839 30840 30841 30842 30843 30844 30845 30846 30847 30848 30849 30850 30851 30852 30853 30854 30855 30856 30857 30858 30859 30860 30861 30862 30863 30864 30865 30866 30867 30868 30869 30870 30871 30872 30873 30874 30875 30876 30877 30878 30879 30880 
</DataArray>
<DataArray type="UInt32" Name="offsets" format="ascii">
3 6 8 11 14 17 20 22 25 28 31 34 37 40 43 46 49 52 55 58 60 63 66 69 72 74 77 80 83 86 89 92 95 97 100 103 106 109 112 115 118 121 123 126 129 132 135 138 141 144 147 150 153 156 158 160 163 166 169 172 175 178 181 184 186 189 192 195 198 201 204 207 210 213 216 219 222 225 228 231 234 237 240 243 246 249 252 254 257 260 263 266 269 272 275 278 281 284 287 289 292 295 298 300 303 306 309 312 315 318 321 324 327 330 333 336 339 342 345 348 351 354 357 360 363 366 369 372 375 378 381 384 387 390 393 396 399 402 405 408 411 414 417 420 423 426 429 432 435 437 440 442 445 448 451 454 457 460 463 466 469 472 475 478 481 484 487 490 493 496 499 502 505 508 511 514 517 520 522 525 528 530 533 535 538 541 544 547 550 553 556 559 562 565 568 571 574 577 579 582 584 587 590 593 596 599 602 605 607 610 612 615 618 621 624 627 630 632 635 638 640 643 646 649 652 655 658 660 662 665 668 670 673 675 678 680 682 685 688 691 693 696 699 702 705 708 711 714 717 720 723 726 729 732 734 737 740 743 746 749 752 755 757 760 763 766 769 772 775 778 780 783 786 789 792 794 797 800 803 806 809 812 814 817 820 823 825 828 831 834 837 840 843 846 848 851 854 857 860 863 866 868 871 874 877 880 883 886 888 891 894 897 900 903 906 909 911 914 917 920 923 926 929 932 935 938 941 944 947 950 953 956 959 962 965 968 971 974 976 978 981 984 987 990 993 995 998 1001 1004 1007 1010 1013 1016 1018 1021 1023 1026 1029 1032 1034 1037 1040 1043 1045 1048 1050 1053 1056 1059 1062 1065 1068 1071 1073 1076 1079 1082 1085 1088 1091 1094 1096 1099 1102 1105 1107 1110 1113 1116 1119 1122 1125 1128 1131 1134 1137 1140 1143 1146 1149 1152 1155 1158 1161 1164 1167 1170 1173 1176 1179 1182 1185 1188 1191 1194 1197 1200 1203 1205 1208 1211 1214 1217 1220 1223 1226 1229 1232 1235 1238 1241 1244 1247 1250 1253 1256 1259 1262 1265 1268 1271 1274 1277 1280 1283 1286 1289 1292 1295 1298 1301 1303 1306 1309 1312 1315 1318 1321 1324 1327 1330 1333 1336 1339 1342 1345 1348 1351 1354 1357 1360 1363 1365 1368 1371 1374 1377 1380 1383 1386 1388 1391 1394 1397 1400 1403 1405 1408 1411 1413 1416 1418 1421 1424 1427 1430 1432 1435 1438 1440 1443 1446 1449 1452 1455 1458 1460 1463 1466 1469 1472 1475 1478 1481 1484 1487 1490 1493 1496 1499 1502 1505 1508 1511 1514 1517 1519 1522 1525 1528 1531 1534 1537 1540 1543 1546 1549 1552 1554 1556 1559 1562 1565 1568 1571 1574 1577 1580 1583 1586 1589 1592 1595 1598 1601 1604 1607 1610 1613 1616 1619 1621 1624 1626 1628 1631 1634 1636 1639 1642 1645 1648 1651 1654 1657 1660 1663 1666 1669 1672 1675 1677 1680 1683 1686 1689 1692 1695 1698 1700 1702 1705 1708 1711 1714 1717 1720 1723 1726 1728 1730 1733 1736 1739 1741 1744 1747 1750 1753 1756 1759 1762 1765 1768 1771 1774 1777 1780 1783 1786 1789 1792 1795 1798 1801 1804 1807 1810 1813 1816 1819 1822 1825 1828 1831 1834 1837 1840 1843 1846 1848 1851 1854 1856 1859 1862 1865 1868 1870 1873 1876 1879 1881 1884 1887 1890 1892 1895 1898 1900 1903 1906 1909 1912 1915 1918 1921 1924 1927 1930 1933 1936 1939 1942 1945 1948 1951 1954 1957 1960 1963 1965 1968 1971 1974 1976 1979 1982 1985 1988 1991 1993 1996 1999 2002 2005 2008 2011 2013 2016 2019 2022 2025 2028 2031 2034 2037 2040 2043 2046 2049 2052 2055 2058 2061 2064 2067 2069 2072 2075 2078 2081 2084 2087 2090 2093 2096 2099 2102 2105 2108 2111 2114 2117 2120 2123 2126 2129 2132 2134 2137 2140 2143 2146 2149 2152 2155 2158 2161 2164 2167 2170 2173 2176 2179 2181 2184 2187 2190 2193 2196 2199 2202 2205 2208 2211 2214 2217 2220 2223 2226 2229 2232 2235 2237 2240 2243 2246 2249 2252 2255 2258 2260 2263 2266 2269 2272 2275 2278 2281 2284 2287 2290 2293 2296 2299 2302 2305 2308 2311 2314 2317 2320 2323 2325 2328 2331 2334 2337 2340 2343 2346 2349 2352 2354 2357 2360 2363 2366 2369 2372 2375 2378 2380 2383 2386 2389 2392 2395 2398 2401 2404 2407 2410 2413 2416 2419 2422 2425 2428 2431 2434 2437 2439 2442 2445 2448 2451 2454 2456 2459 2462 2465 2467 2470 2473 2476 2479 2482 2485 2487 2490 2493 2496 2499 2502 2505 2508 2511 2514 2517 2519 2522 2525 2528 2531 2534 2537 2540 2543 2546 2549 2552 2555 2557 2560 2562 2565 2568 2571 2574 2577 2580 2583 2585 2588 2590 2593 2596 2599 2602 2605 2608 2611 2614 2617 2620 2623 2626 2629 2632 2635 2638 2641 2644 2647 2650 2653 2656 2659 2662 2665 2668 2671 2674 2677 2680 2683 2686 2689 2692 2695 2698 2701 2704 2707 2710 2713 2716 2719 2722 2725 2727 2729 2732 2735 2737 2740 2743 2746 2749 2752 2755 2758 2761 2764 2767 2770 2773 2776 2779 2782 2785 2787 2790 2793 2796 2799 2801 2804 2807 2809 2812 2815 2818 2821 2824 2827 2829 2832 2834 2837 2840 2842 2845 2848 2851 2854 2857 2860 2863 2866 2869 2872 2874 2877 2880 2883 2886 2889 2891 2893 2896 2899 2902 2905 2907 2910 2913 2915 2918 2920 2923 2926 2929 2932 2935 2937 2940 2943 2945 2948 2951 2954 2957 2960 2963 2966 2969 2972 2975 2978 2981 2983 2986 2989 2992 2995 2998 3001 3004 3007 3010 3013 3016 3019 3022 3025 3028 3030 3033 3035 3038 3040 3042 3045 3047 3050 3053 3055 3058 3061 3064 3067 3070 3073 3075 3078 3080 3083 3086 3088 3091 3094 3097 3099 3102 3105 3107 3110 3113 3116 3119 3122 3124 3127 3130 3132 3135 3138 3141 3144 3147 3149 3152 3154 3157 3160 3162 3165 3168 3170 3173 3176 3179 3182 3185 3188 3191 3194 3196 3199 3202 3205 3208 3211 3214 3217 3220 3223 3226 3228 3231 3234 3237 3240 3242 3245 3248 3250 3253 3256 3259 3262 3265 3267 3270 3273 3276 3279 3282 3284 3287 3289 3292 3295 3298 3301 3304 3307 3309 3312 3315 3318 3321 3324 3327 3330 3333 3335 3337 3339 3342 3345 3348 3351 3353 3356 3358 3361 3364 3367 3369 3371 3374 3377 3380 3382 3385 3388 3391 3393 3396 3398 3401 3403 3405 3408 3410 3413 3416 3419 3422 3424 3427 3430 3433 3435 3438 3440 3443 3445 3448 3451 3454 3457 3460 3463 3466 3468 3471 3474 3477 3480 3482 3485 3488 3491 3494 3497 3500 3503 3506 3508 3511 3513 3515 3518 3521 3524 3526 3529 3532 3535 3538 3540 3542 3545 3548 3550 3552 3555 3558 3561 3564 3567 3569 3572 3575 3578 3581 3584 3587 3590 3593 3595 3598 3600 3603 3606 3609 3612 3615 3618 3621 3624 3627 3630 3633 3636 3639 3642 3645 3648 3651 3653 3656 3659 3662 3665 3668 3671 3674 3677 3680 3683 3686 3689 3692 3695 3698 3701 3704 3707 3710 3713 3716 3719 3722 3725 3728 3730 3733 3735 3738 3741 3744 3747 3750 3752 3754 3757 3760 3763 3766 3768 3770 3773 3775 3778 3781 3783 3786 3789 3791 3794 3797 3800 3803 3805 3807 3810 3813 3816 3819 3822 3825 3828 3831 3833 3836 3839 3841 3844 3847 3850 3852 3855 3858 3860 3863 3866 3869 3872 3875 3878 3880 3883 3886 3889 3892 3895 3898 3900 3903 3906 3909 3912 3915 3917 3920 3923 3925 3927 3930 3933 3935 3938 3941 3943 3946 3949 3952 3955 3958 3961 3964 3967 3970 3973 3976 3979 3981 3984 3986 3989 3992 3994 3997 4000 4003 4006 4009 4012 4014 4017 4020 4023 4025 4027 4029 4032 4035 4038 4040 4042 4045 4047 4049 4052 4055 4057 4060 4063 4065 4068 4070 4073 4075 4078 4081 4084 4086 4088 4091 4094 4096 4098 4100 4102 4105 4108 4111 4113 4115 4118 4121 4123 4125 4127 4130 4132 4134 4137 4140 4142 4145 4147 4149 4152 4154 4157 4160 4162 4165 4167 4169 4172 4175 4178 4181 4183 4185 4188 4191 4193 4196 4199 4202 4204 4207 4210 4213 4216 4219 4222 4225 4228 4231 4234 4237 4240 4243 4246 4249 4252 4255 4258 4261 4264 4267 4270 4273 4276 4279 4282 4285 4288 4291 4294 4297 4300 4303 4306 4309 4312 4315 4318 4321 4324 4327 4330 4333 4336 4339 4342 4345 4348 4351 4354 4357 4360 4363 4366 4369 4372 4375 4378 4380 4383 4385 4388 4391 4394 4397 4400 4403 4406 4409 4412 4415 4418 4421 4424 4427 4429 4432 4435 4438 4441 4444 4447 4450 4453 4456 4459 4461 4464 4467 4470 4473 4476 4479 4482 4485 4488 4491 4494 4497 4500 4503 4506 4509 4512 4515 4518 4521 4524 4527 4530 4533 4536 4539 4542 4545 4548 4551 4554 4557 4560 4563 4566 4569 4572 4575 4578 4581 4584 4587 4590 4593 4596 4599 4601 4604 4607 4610 4612 4615 4617 4620 4623 4626 4629 4632 4634 4637 4639 4642 4645 4648 4651 4654 4657 4660 4663 4666 4669 4672 4675 4678 4681 4684 4687 4690 4693 4696 4699 4702 4705 4708 4711 4714 4716 4719 4722 4725 4728 4731 4734 4736 4739 4741 4744 4747 4750 4752 4755 4758 4760 4763 4766 4769 4772 4775 4778 4781 4784 4787 4790 4793 4796 4799 4802 4805 4808 4811 4814 4817 4820 4823 4826 4829 4832 4835 4838 4841 4844 4847 4850 4853 4856 4859 4862 4865 4868 4871 4873 4876 4878 4881 4884 4887 4890 4893 4896 4899 4902 4905 4908 4910 4913 4916 4919 4922 4925 4928 4931 4934 4937 4940 4943 4946 4949 4952 4955 4958 4961 4963 4966 4969 4972 4974 4976 4979 4981 4984 4987 4990 4993 4996 4999 5002 5005 5007 5010 5013 5016 5019 5021 5024 5027 5030 5033 5036 5039 5042 5044 5047 5050 5052 5055 5057 5060 5063 5065 5068 5071 5073 5075 5078 5081 5084 5087 5090 5093 5096 5099 5102 5105 5108 5111 5114 5117 5120 5122 5125 5127 5130 5133 5136 5138 5141 5143 5146 5149 5152 5155 5158 5161 5164 5167 5170 5173 5176 5179 5181 5184 5186 5189 5192 5195 5198 5201 5204 5207 5210 5212 5215 5218 5220 5223 5226 5229 5231 5233 5236 5239 5242 5245 5248 5251 5254 5257 5260 5263 5266 5269 5272 5275 5278 5281 5284 5287 5290 5293 5296 5298 5301 5304 5307 5310 5313 5315 5318 5320 5323 5326 5329 5332 5334 5337 5340 5342 5345 5348 5351 5354 5357 5359 5362 5365 5368 5371 5373 5376 5379 5382 5385 5388 5391 5394 5396 5399 5402 5405 5407 5410 5413 5416 5419 5422 5425 5428 5431 5434 5437 5440 5442 5445 5448 5451 5454 5457 5460 5463 5466 5468 5471 5474 5477 5480 5483 5486 5488 5491 5494 5497 5500 5503 5506 5508 5511 5514 5517 5520 5523 5526 5529 5532 5535 5538 5541 5543 5546 5549 5552 5554 5557 5560 5563 5565 5568 5570 5573 5576 5579 5582 5585 5588 5590 5593 5596 5599 5602 5605 5608 5611 5614 5617 5620 5623 5626 5629 5632 5635 5637 5640 5643 5646 5649 5652 5654 5657 5660 5663 5666 5669 5672 5675 5678 5680 5683 5686 5689 5692 5695 5698 5701 5704 5707 5710 5713 5716 5719 5722 5725 5728 5730 5733 5736 5739 5742 5744 5747 5750 5753 5756 5759 5762 5765 5768 5771 5774 5777 5780 5783 5786 5789 5792 5795 5798 5801 5804 5807 5810 5813 5816 5819 5822 5824 5827 5830 5833 5835 5838 5840 5843 5846 5849 5852 5854 5857 5859 5862 5865 5868 5871 5874 5876 5879 5882 5885 5888 5891 5894 5897 5900 5903 5905 5908 5911 5914 5917 5920 5923 5926 5929 5932 5935 5938 5941 5944 5947 5950 5953 5956 5959 5962 5965 5968 5971 5974 5977 5979 5981 5984 5987 5990 5993 5996 5998 6001 6004 6007 6009 6012 6015 6018 6020 6023 6026 6028 6031 6033 6036 6039 6042 6045 6047 6050 6053 6056 6059 6061 6063 6066 6069 6072 6075 6078 6081 6084 6087 6090 6093 6096 6099 6101 6104 6107 6110 6113 6115 6118 6121 6124 6127 6130 6132 6135 6138 6140 6143 6146 6149 6152 6155 6158 6161 6164 6167 6170 6173 6176 6179 6182 6185 6188 6190 6193 6196 6198 6201 6204 6207 6209 6212 6215 6218 6221 6224 6227 6230 6233 6236 6239 6242 6244 6247 6250 6253 6256 6259 6262 6265 6268 6271 6274 6277 6280 6283 6286 6289 6292 6294 6297 6300 6302 6305 6307 6310 6313 6315 6318 6320 6323 6325 6328 6331 6334 6337 6340 6343 6346 6349 6352 6355 6358 6361 6364 6366 6369 6371 6373 6376 6379 6381 6383 6386 6389 6391 6393 6396 6399 6402 6404 6407 6409 6412 6415 6417 6420 6423 6426 6429 6431 6433 6436 6438 6441 6444 6446 6448 6451 6454 6456 6459 6462 6465 6467 6470 6473 6476 6478 6480 6482 6485 6488 6490 6493 6495 6497 6500 6503 6506 6509 6512 6515 6518 6521 6524 6527 6530 6532 6534 6537 6539 6542 6544 6547 6549 6552 6555 6558 6560 6563 6566 6569 6572 6575 6577 6580 6583 6586 6589 6592 6595 6598 6601 6604 6607 6610 6613 6616 6619 6622 6625 6628 6631 6634 6637 6640 6643 6646 6649 6651 6654 6657 6660 6663 6666 6669 6672 6675 6678 6681 6684 6687 6690 6693 6696 6699 6702 6705 6707 6710 6713 6716 6719 6722 6725 6728 6731 6734 6737 6740 6742 6745 6748 6751 6754 6757 6759 6762 6765 6768 6771 6774 6777 6780 6783 6786 6789 6792 6795 6798 6801 6803 6806 6809 6812 6815 6818 6821 6824 6827 6830 6833 6836 6839 6842 6845 6847 6850 6852 6855 6858 6861 6864 6866 6869 6872 6875 6878 6881 6884 6887 6890 6893 6896 6899 6902 6904 6907 6909 6912 6915 6918 6921 6923 6926 6929 6932 6935 6938 6941 6944 6946 6949 6952 6955 6958 6961 6964 6967 6969 6972 6975 6978 6980 6983 6985 6988 6991 6994 6997 7000 7003 7006 7009 7012 7014 7017 7020 7023 7026 7029 7032 7035 7038 7041 7044 7047 7050 7053 7056 7059 7062 7065 7068 7071 7074 7077 7080 7083 7086 7089 7092 7095 7098 7101 7104 7107 7110 7113 7116 7119 7122 7125 7128 7131 7134 7137 7140 7143 7145 7148 7151 7153 7156 7159 7162 7165 7168 7171 7174 7177 7180 7183 7185 7188 7191 7194 7197 7200 7202 7205 7208 7210 7213 7216 7219 7222 7225 7228 7230 7233 7236 7239 7242 7244 7247 7250 7252 7255 7257 7260 7263 7266 7269 7272 7275 7278 7281 7284 7287 7290 7292 7295 7297 7300 7303 7306 7309 7311 7314 7317 7320 7323 7326 7329 7332 7335 7338 7341 7344 7347 7350 7353 7356 7359 7362 7365 7368 7371 7374 7376 7379 7382 7385 7388 7390 7393 7396 7399 7402 7405 7408 7411 7413 7416 7419 7422 7425 7428 7430 7433 7436 7439 7441 7444 7447 7450 7452 7455 7458 7460 7463 7466 7469 7471 7474 7477 7479 7482 7485 7488 7491 7494 7497 7500 7503 7506 7509 7512 7515 7518 7521 7524 7527 7530 7533 7536 7539 7542 7545 7548 7551 7554 7557 7560 7563 7566 7569 7572 7574 7577 7580 7583 7586 7589 7592 7595 7598 7601 7604 7607 7609 7612 7615 7618 7621 7624 7627 7630 7633 7636 7639 7642 7645 7648 7651 7654 7656 7658 7661 7664 7667 7669 7672 7675 7678 7681 7683 7686 7689 7691 7694 7697 7700 7703 7706 7709 7712 7715 7718 7721 7724 7727 7730 7732 7734 7737 7740 7743 7746 7749 7752 7755 7758 7761 7764 7767 7769 7772 7775 7777 7780 7783 7786 7789 7792 7795 7798 7801 7804 7807 7810 7813 7816 7819 7822 7825 7828 7831 7834 7836 7839 7842 7845 7847 7850 7853 7856 7859 7862 7864 7867 7870 7873 7876 7879 7882 7885 7888 7891 7894 7897 7900 7903 7906 7909 7912 7915 7918 7921 7924 7926 7929 7932 7934 7937 7940 7943 7946 7949 7952 7955 7958 7961 7964 7967 7970 7973 7976 7979 7982 7985 7988 7991 7993 7996 7999 8002 8005 8008 8011 8014 8017 8020 8023 8026 8029 8032 8035 8038 8041 8044 8047 8050 8053 8056 8059 8062 8065 8068 8071 8074 8077 8080 8083 8086 8089 8091 8094 8097 8100 8103 8106 8109 8111 8114 8117 8120 8123 8126 8128 8131 8134 8137 8140 8142 8145 8148 8151 8154 8157 8160 8163 8166 8169 8172 8175 8178 8181 8184 8187 8190 8193 8196 8199 8202 8205 8208 8210 8213 8216 8219 8222 8225 8228 8231 8233 8236 8239 8241 8244 8247 8249 8252 8255 8258 8261 8264 8267 8269 8272 8275 8278 8281 8284 8287 8290 8293 8296 8299 8301 8304 8306 8309 8312 8315 8318 8321 8324 8327 8330 8332 8335 8338 8340 8343 8346 8349 8351 8354 8357 8360 8362 8365 8368 8371 8373 8375 8378 8381 8383 8386 8389 8391 8394 8397 8399 8402 8405 8408 8411 8414 8417 8420 8423 8426 8428 8431 8434 8437 8439 8442 8445 8448 8450 8453 8456 8459 8461 8464 8466 8469 8472 8474 8477 8480 8483 8486 8489 8492 8495 8498 8500 8503 8506 8508 8511 8514 8517 8520 8523 8526 8529 8532 8535 8538 8541 8544 8547 8549 8552 8554 8557 8560 8563 8565 8567 8570 8572 8575 8578 8581 8584 8586 8589 8591 8594 8597 8600 8603 8606 8609 8612 8615 8618 8620 8623 8626 8629 8632 8635 8638 8641 8644 8647 8650 8653 8656 8659 8662 8665 8668 8671 8674 8677 8680 8683 8686 8689 8692 8695 8698 8701 8704 8706 8709 8712 8715 8718 8721 8724 8726 8729 8732 8735 8738 8741 8744 8746 8749 8752 8755 8758 8761 8764 8766 8769 8772 8775 8777 8780 8783 8786 8788 8791 8794 8796 8799 8802 8805 8808 8811 8814 8816 8819 8822 8825 8827 8829 8832 8835 8838 8841 8844 8847 8850 8853 8856 8859 8862 8865 8868 8871 8874 8877 8880 8882 8885 8888 8891 8894 8897 8900 8903 8905 8908 8911 8914 8917 8920 8922 8925 8928 8931 8934 8937 8939 8942 8945 8947 8950 8953 8956 8959 8961 8964 8967 8970 8973 8976 8979 8981 8984 8986 8989 8991 8993 8996 8998 9001 9004 9007 9009 9012 9015 9018 9021 9024 9026 9029 9032 9035 9037 9040 9043 9046 9049 9051 9053 9055 9058 9061 9064 9067 9069 9071 9074 9076 9079 9082 9085 9088 9091 9094 9096 9099 9101 9104 9107 9109 9112 9115 9118 9120 9123 9126 9128 9131 9134 9137 9140 9143 9146 9149 9152 9155 9158 9161 9164 9166 9169 9172 9175 9178 9180 9183 9186 9189 9192 9194 9197 9200 9203 9206 9209 9212 9215 9218 9221 9223 9225 9227 9230 9233 9236 9238 9240 9243 9246 9248 9251 9253 9256 9259 9262 9265 9268 9271 9274 9276 9279 9282 9285 9288 9291 9294 9297 9300 9303 9306 9309 9312 9315 9318 9321 9324 9326 9329 9332 9335 9338 9341 9344 9347 9350 9353 9355 9358 9361 9363 9366 9368 9371 9373 9376 9379 9381 9384 9387 9390 9392 9394 9397 9400 9402 9405 9408 9411 9413 9416 9419 9422 9425 9427 9430 9433 9436 9439 9442 9445 9448 9451 9454 9457 9460 9462 9464 9467 9470 9473 9476 9479 9482 9485 9488 9491 9494 9497 9500 9503 9506 9509 9512 9515 9518 9521 9524 9527 9530 9533 9536 9539 9542 9545 9548 9551 9554 9557 9560 9562 9565 9568 9571 9574 9577 9580 9583 9586 9589 9592 9595 9598 9601 9604 9607 9610 9613 9616 9619 9621 9624 9627 9630 9633 9636 9639 9641 9643 9646 9649 9651 9653 9656 9659 9662 9664 9667 9670 9673 9676 9679 9682 9685 9688 9691 9694 9697 9700 9703 9706 9709 9712 9715 9718 9721 9724 9727 9730 9733 9735 9738 9740 9743 9745 9748 9751 9754 9757 9760 9763 9765 9768 9770 9772 9775 9778 9780 9783 9786 9789 9792 9795 9798 9800 9802 9805 9808 9810 9812 9815 9818 9820 9822 9825 9828 9831 9834 9837 9840 9843 9846 9848 9851 9854 9857 9860 9863 9865 9868 9871 9873 9876 9879 9882 9884 9887 9890 9893 9896 9899 9902 9905 9908 9911 9914 9917 9920 9923 9926 9929 9932 9935 9938 9941 9944 9947 9950 9953 9956 9959 9962 9965 9968 9971 9974 9977 9980 9983 9986 9988 9991 9994 9996 9999 10001 10003 10006 10009 10012 10015 10018 10021 10024 10027 10030 10032 10035 10038 10041 10044 10047 10049 10052 10055 10058 10061 10064 10067 10070 10072 10075 10078 10081 10084 10087 10090 10093 10096 10098 10101 10104 10107 10110 10113 10115 10118 10121 10124 10127 10130 10133 10136 10139 10142 10145 10148 10151 10154 10157 10160 10163 10166 10169 10172 10175 10178 10181 10184 10187 10190 10193 10196 10199 10202 10205 10207 10209 10212 10215 10218 10221 10224 10227 10230 10232 10235 10238 10241 10243 10246 10248 10251 10254 10257 10260 10263 10266 10269 10272 10275 10278 10281 10284 10287 10290 10293 10296 10299 10302 10305 10308 10311 10313 10316 10319 10322 10325 10328 10331 10333 10336 10339 10342 10345 10348 10351 10354 10356 10359 10362 10364 10367 10370 10373 10376 10379 10382 10384 10387 10390 10393 10395 10398 10401 10403 10405 10408 10411 10414 10417 10420 10423 10426 10429 10432 10435 10438 10441 10444 10447 10450 10453 10456 10459 10462 10465 10468 10471 10474 10477 10480 10483 10486 10489 10491 10494 10497 10500 10503 10506 10509 10512 10515 10518 10521 10524 10527 10530 10533 10536 10539 10542 10545 10548 10550 10553 10556 10559 10561 10563 10566 10569 10572 10575 10578 10580 10583 10586 10589 10591 10594 10597 10600 10603 10606 10608 10611 10614 10617 10620 10623 10626 10629 10632 10635 10638 10641 10644 10647 10650 10653 10656 10659 10662 10665 10668 10671 10673 10676 10679 10682 10685 10688 10691 10693 10696 10699 10702 10705 10708 10711 10714 10717 10720 10723 10726 10729 10731 10734 10737 10740 10743 10745 10748 10750 10753 10756 10759 10762 10765 10768 10771 10774 10777 10780 10783 10786 10789 10791 10794 10797 10800 10803 10806 10808 10811 10814 10817 10820 10823 10826 10828 10831 10834 10837 10840 10843 10846 10849 10852 10855 10858 10861 10864 10866 10869 10872 10874 10877 10880 10882 10885 10888 10890 10893 10896 10899 10902 10905 10908 10911 10914 10917 10920 10922 10925 10928 10931 10934 10937 10940 10943 10946 10948 10951 10954 10957 10959 10962 10965 10968 10970 10973 10976 10978 10981 10984 10987 10989 10992 10995 10998 11001 11004 11006 11009 11011 11014 11017 11020 11023 11025 11027 11030 11033 11036 11038 11041 11044 11047 11050 11052 11055 11058 11061 11064 11067 11070 11073 11076 11079 11082 11085 11088 11091 11094 11097 11099 11102 11105 11107 11109 11112 11115 11118 11121 11123 11126 11129 11132 11135 11138 11141 11143 11146 11149 11152 11155 11158 11161 11163 11166 11169 11172 11175 11178 11181 11184 11187 11189 11192 11195 11198 11201 11204 11207 11210 11213 11216 11219 11221 11224 11227 11229 11232 11235 11237 11240 11243 11246 11249 11252 11254 11256 11259 11262 11264 11266 11269 11271 11274 11276 11279 11281 11283 11286 11289 11291 11294 11296 11299 11301 11304 11306 11309 11311 11314 11317 11319 11322 11324 11327 11329 11332 11335 11338 11341 11344 11347 11349 11352 11355 11358 11360 11363 11366 11369 11372 11375 11378 11381 11384 11387 11389 11392 11395 11397 11400 11402 11405 11407 11410 11413 11416 11418 11420 11423 11426 11429 11432 11435 11438 11441 11444 11447 11450 11453 11455 11458 11461 11464 11467 11470 11472 11475 11478 11481 11484 11487 11490 11493 11496 11499 11502 11505 11508 11511 11514 11517 11520 11523 11525 11528 11531 11534 11537 11540 11543 11545 11548 11551 11554 11556 11559 11562 11564 11567 11570 11573 11575 11578 11580 11582 11585 11588 11591 11594 11597 11600 11603 11606 11609 11611 11614 11617 11620 11623 11626 11629 11632 11634 11637 11639 11642 11644 11647 11650 11653 11656 11659 11662 11665 11668 11671 11674 11677 11680 11683 11686 11689 11692 11695 11698 11701 11704 11707 11710 11713 11716 11719 11722 11725 11728 11731 11734 11737 11740 11743 11746 11749 11752 11755 11757 11760 11763 11765 11767 11770 11773 11776 11779 11781 11784 11787 11790 11793 11796 11798 11801 11804 11806 11808 11811 11814 11817 11820 11823 11826 11828 11831 11833 11836 11839 11841 11843 11846 11848 11851 11854 11857 11859 11862 11865 11868 11871 11873 11876 11879 11882 11884 11887 11890 11892 11894 11897 11900 11903 11905 11908 11911 11914 11917 11919 11922 11925 11927 11930 11933 11936 11938 11941 11944 11946 11949 11952 11955 11957 11960 11962 11965 11968 11970 11973 11976 11978 11980 11983 11986 11988 11991 11993 11995 11998 12001 12004 12007 12009 12012 12015 12018 12021 12023 12026 12029 12032 12035 12038 12041 12044 12047 12050 12053 12056 12059 12061 12064 12067 12070 12073 12075 12078 12080 12083 12086 12089 12092 12095 12097 12099 12101 12104 12107 12110 12113 12116 12119 12122 12125 12127 12130 12133 12136 12139 12142 12145 12147 12150 12153 12156 12159 12161 12164 12167 12170 12173 12176 12179 12182 12185 12188 12191 12194 12197 12200 12203 12206 12209 12212 12215 12217 12220 12222 12225 12228 12230 12232 12235 12237 12240 12243 12245 12248 12250 12253 12255 12258 12260 12263 12266 12269 12272 12274 12277 12280 12283 12285 12288 12291 12294 12297 12300 12303 12306 12309 12312 12315 12318 12321 12324 12327 12330 12333 12336 12339 12342 12345 12348 12351 12354 12357 12360 12362 12365 12368 12371 12374 12377 12379 12382 12385 12388 12391 12394 12397 12400 12403 12406 12409 12412 12414 12417 12420 12423 12426 12429 12431 12434 12437 12439 12441 12444 12447 12450 12452 12455 12458 12460 12462 12465 12467 12470 12473 12476 12479 12482 12485 12488 12491 12494 12497 12500 12503 12506 12509 12512 12515 12517 12520 12523 12526 12529 12531 12534 12537 12540 12543 12546 12549 12552 12555 12557 12559 12562 12565 12567 12570 12573 12576 12579 12582 12585 12588 12591 12594 12596 12598 12601 12604 12606 12609 12612 12615 12617 12620 12623 12626 12629 12632 12635 12638 12641 12644 12647 12650 12653 12656 12659 12662 12665 12668 12671 12674 12677 12680 12683 12686 12689 12692 12695 12697 12700 12703 12706 12709 12712 12715 12718 12721 12724 12727 12730 12733 12736 12739 12742 12745 12748 12751 12754 12757 12759 12762 12765 12768 12770 12772 12775 12778 12781 12783 12786 12789 12791 12794 12797 12800 12803 12806 12808 12811 12813 12816 12819 12822 12825 12828 12831 12834 12837 12839 12842 12845 12848 12850 12853 12856 12858 12861 12863 12866 12869 12872 12874 12877 12880 12883 12885 12888 12891 12894 12897 12900 12903 12906 12909 12912 12915 12918 12921 12924 12927 12930 12933 12936 12938 12941 12944 12947 12950 12953 12956 12959 12962 12965 12967 12970 12973 12976 12979 12982 12985 12988 12991 12993 12996 12999 13002 13005 13008 13011 13014 13017 13020 13023 13026 13029 13032 13034 13037 13040 13043 13045 13048 13051 13054 13057 13060 13063 13066 13069 13072 13075 13078 13081 13084 13087 13090 13093 13096 13099 13102 13104 13107 13110 13113 13115 13118 13120 13123 13126 13129 13131 13134 13137 13140 13142 13144 13147 13150 13153 13156 13159 13162 13165 13168 13171 13174 13177 13180 13183 13186 13189 13192 13195 13198 13201 13204 13207 13210 13212 13215 13218 13221 13224 13226 13229 13232 13235 13238 13240 13243 13246 13249 13252 13255 13258 13261 13263 13266 13269 13272 13275 13277 13280 13283 13286 13289 13292 13295 13297 13300 13303 13306 13309 13312 13315 13317 13320 13323 13326 13328 13331 13334 13337 13340 13343 13346 13349 13352 13355 13357 13360 13363 13366 13369 13372 13375 13377 13380 13383 13386 13389 13392 13395 13398 13401 13404 13407 13410 13412 13415 13418 13420 13423 13426 13429 13432 13435 13437 13440 13443 13445 13448 13451 13454 13457 13460 13463 13466 13468 13470 13473 13476 13479 13482 13484 13487 13490 13493 13496 13499 13502 13504 13507 13510 13513 13516 13519 13522 13525 13528 13531 13534 13536 13539 13542 13545 13548 13551 13554 13557 13560 13563 13566 13569 13572 13574 13577 13579 13582 13585 13588 13590 13593 13596 13598 13601 13604 13607 13610 13612 13615 13618 13621 13624 13627 13629 13632 13635 13638 13641 13644 13647 13650 13653 13655 13658 13661 13664 13667 13669 13672 13675 13678 13681 13684 13687 13690 13692 13695 13698 13701 13704 13707 13710 13713 13716 13719 13722 13724 13727 13730 13733 13735 13738 13740 13743 13746 13749 13752 13755 13758 13760 13763 13765 13768 13770 13773 13776 13779 13782 13784 13787 13790 13793 13796 13799 13802 13805 13808 13811 13814 13817 13820 13823 13826 13828 13831 13833 13836 13839 13842 13845 13848 13851 13854 13856 13859 13862 13865 13868 13871 13874 13877 13880 13883 13886 13889 13892 13895 13897 13900 13903 13906 13909 13911 13914 13917 13920 13923 13926 13929 13932 13935 13938 13941 13944 13947 13950 13953 13956 13959 13962 13965 13968 13971 13974 13977 13980 13983 13985 13988 13991 13994 13997 13999 14002 14005 14008 14010 14013 14016 14018 14021 14024 14026 14029 14032 14035 14038 14041 14044 14047 14050 14053 14056 14059 14062 14065 14068 14071 14073 14076 14079 14081 14084 14087 14090 14093 14096 14099 14102 14104 14107 14110 14113 14116 14119 14121 14124 14127 14130 14132 14135 14138 14141 14143 14146 14149 14152 14155 14158 14161 14164 14166 14169 14172 14175 14177 14180 14182 14184 14187 14190 14193 14196 14199 14201 14204 14207 14210 14213 14216 14219 14222 14225 14228 14231 14233 14236 14239 14242 14245 14248 14251 14254 14257 14260 14263 14266 14269 14272 14275 14278 14281 14284 14287 14290 14293 14296 14299 14302 14305 14308 14311 14314 14317 14320 14323 14326 14329 14332 14335 14338 14341 14344 14346 14349 14352 14355 14358 14361 14364 14367 14370 14373 14376 14379 14382 14385 14388 14391 14394 14396 14399 14402 14405 14408 14411 14414 14417 14420 14423 14425 14428 14431 14434 14437 14440 14443 14446 14448 14451 14454 14457 14460 14463 14466 14469 14472 14475 14478 14481 14484 14487 14490 14493 14496 14499 14502 14505 14508 14511 14513 14516 14519 14522 14525 14528 14531 14534 14537 14540 14543 14546 14549 14552 14555 14558 14561 14564 14566 14569 14572 14575 14578 14581 14584 14587 14590 14593 14596 14599 14602 14605 14608 14611 14614 14617 14620 14623 14626 14629 14632 14635 14638 14641 14644 14647 14650 14653 14656 14659 14662 14665 14668 14671 14674 14677 14680 14683 14686 14689 14692 14695 14698 14701 14704 14706 14709 14712 14715 14718 14721 14724 14727 14730 14733 14736 14739 14742 14745 14747 14750 14752 14755 14758 14761 14764 14767 14769 14772 14775 14778 14781 14784 14786 14788 14791 14794 14797 14800 14803 14806 14809 14812 14815 14818 14821 14824 14827 14830 14833 14836 14839 14841 14843 14846 14849 14852 14855 14858 14861 14863 14866 14868 14871 14874 14877 14880 14883 14886 14889 14892 14895 14897 14900 14903 14906 14909 14912 14915 14918 14921 14924 14927 14930 14933 14936 14939 14942 14945 14948 14951 14954 14956 14959 14962 14965 14968 14971 14973 14976 14978 14981 14984 14987 14990 14993 14996 14999 15001 15004 15007 15010 15012 15015 15018 15021 15023 15026 15029 15031 15034 15037 15040 15042 15045 15048 15050 15053 15055 15058 15060 15063 15066 15068 15071 15074 15077 15080 15083 15086 15089 15092 15095 15098 15101 15104 15107 15110 15113 15116 15119 15122 15125 15128 15131 15133 15136 15138 15141 15144 15147 15150 15153 15156 15159 15161 15164 15167 15170 15173 15176 15179 15182 15185 15188 15191 15194 15197 15200 15203 15206 15209 15212 15215 15218 15220 15223 15226 15229 15231 15234 15237 15240 15243 15246 15249 15252 15255 15258 15261 15263 15266 15269 15272 15275 15277 15280 15283 15285 15288 15291 15294 15297 15300 15302 15305 15308 15311 15314 15316 15319 15321 15324 15327 15329 15332 15335 15338 15341 15344 15347 15350 15352 15355 15358 15360 15363 15365 15368 15371 15374 15377 15380 15383 15386 15389 15392 15395 15398 15401 15404 15407 15410 15413 15416 15419 15421 15424 15427 15430 15433 15436 15439 15442 15444 15447 15450 15453 15456 15458 15461 15464 15467 15470 15473 15476 15479 15482 15485 15487 15490 15493 15496 15499 15501 15504 15507 15510 15513 15516 15519 15522 15525 15528 15531 15534 15537 15539 15542 15545 15548 15551 15554 15557 15560 15563 15566 15568 15571 15574 15577 15580 15583 15586 15589 15592 15595 15598 15601 15604 15606 15609 15612 15614 15617 15620 15623 15626 15629 15632 15635 15638 15641 15643 15645 15647 15650 15653 15656 15658 15661 15664 15667 15670 15673 15676 15678 15681 15684 15687 15689 15691 15694 15697 15700 15703 15706 15709 15712 15715 15718 15721 15724 15727 15729 15732 15735 15738 15740 15742 15745 15748 15751 15754 15757 15759 15762 15765 15768 15771 15773 15776 15779 15782 15785 15787 15790 15793 15796 15799 15802 15804 15806 15808 15811 15814 15817 15819 15821 15824 15827 15830 15833 15836 15839 15842 15845 15848 15850 15852 15855 15858 15861 15863 15865 15868 15871 15874 15877 15880 15883 15886 15889 15892 15895 15898 15901 15904 15907 15910 15913 15916 15918 15921 15923 15926 15929 15932 15935 15937 15940 15943 15946 15949 15952 15955 15958 15960 15963 15966 15969 15972 15975 15978 15981 15983 15986 15989 15991 15994 15996 15998 16001 16004 16007 16009 16011 16014 16017 16020 16022 16024 16027 16030 16033 16036 16039 16042 16045 16048 16051 16054 16056 16059 16062 16065 16068 16071 16074 16077 16079 16082 16085 16088 16091 16093 16096 16099 16102 16105 16108 16111 16113 16116 16119 16122 16125 16127 16130 16132 16135 16138 16141 16144 16147 16150 16153 16156 16159 16162 16165 16168 16171 16174 16176 16179 16182 16185 16188 16191 16194 16197 16199 16202 16205 16208 16211 16213 16216 16219 16222 16224 16227 16230 16233 16236 16239 16242 16245 16248 16251 16254 16257 16260 16263 16266 16269 16272 16275 16278 16281 16284 16287 16290 16292 16295 16297 16300 16303 16305 16308 16311 16314 16316 16319 16322 16324 16327 16330 16333 16336 16339 16342 16345 16348 16351 16354 16357 16360 16363 16366 16369 16372 16375 16378 16381 16384 16386 16388 16390 16393 16396 16399 16402 16405 16408 16411 16414 16417 16420 16423 16426 16429 16431 16434 16437 16440 16442 16445 16448 16450 16453 16456 16459 16462 16464 16467 16470 16472 16474 16477 16480 16483 16486 16488 16491 16494 16496 16499 16501 16504 16507 16510 16513 16516 16519 16522 16525 16528 16531 16534 16537 16539 16542 16545 16548 16551 16554 16557 16560 16562 16565 16567 16570 16573 16576 16579 16581 16584 16587 16590 16593 16596 16599 16602 16605 16608 16611 16614 16617 16620 16623 16626 16629 16632 16635 16638 16641 16644 16647 16650 16652 16655 16658 16661 16663 16666 16668 16671 16674 16677 16679 16682 16685 16688 16691 16694 16696 16699 16702 16704 16707 16710 16713 16716 16719 16722 16725 16728 16730 16733 16736 16739 16742 16745 16747 16750 16753 16756 16759 16762 16765 16768 16771 16774 16777 16780 16783 16786 16789 16791 16794 16797 16800 16803 16805 16808 16811 16814 16817 16820 16823 16826 16829 16832 16835 16838 16841 16843 16846 16849 16852 16855 16857 16860 16863 16866 16869 16872 16875 16878 16881 16884 16887 16890 16893 16896 16898 16901 16904 16906 16909 16912 16915 16917 16920 16923 16926 16929 16932 16935 16938 16941 16944 16947 16950 16953 16956 16958 16960 16963 16965 16967 16970 16973 16976 16978 16980 16983 16985 16988 16990 16993 16995 16998 17001 17004 17006 17009 17011 17014 17017 17020 17023 17025 17028 17031 17034 17037 17040 17043 17045 17048 17051 17054 17057 17060 17062 17065 17068 17070 17073 17076 17078 17081 17084 17086 17089 17092 17095 17098 17101 17103 17106 17108 17111 17114 17117 17120 17123 17126 17129 17132 17135 17138 17141 17144 17147 17149 17152 17155 17157 17160 17163 17166 17169 17172 17175 17178 17181 17184 17186 17189 17192 17195 17198 17201 17204 17207 17210 17213 17215 17218 17221 17223 17226 17228 17231 17234 17237 17240 17243 17246 17249 17251 17254 17257 17260 17263 17266 17269 17272 17274 17277 17279 17282 17285 17287 17290 17293 17296 17298 17301 17304 17307 17310 17312 17315 17318 17321 17324 17327 17329 17332 17335 17338 17341 17344 17347 17350 17353 17356 17359 17362 17365 17368 17371 17374 17377 17380 17383 17386 17389 17392 17394 17397 17400 17402 17405 17408 17411 17413 17416 17419 17422 17425 17427 17430 17433 17436 17439 17442 17445 17448 17451 17454 17457 17460 17463 17466 17469 17472 17475 17478 17481 17484 17487 17490 17493 17496 17498 17501 17504 17507 17510 17513 17516 17518 17521 17524 17527 17530 17533 17536 17539 17542 17545 17548 17551 17554 17557 17559 17562 17564 17567 17570 17572 17575 17578 17581 17584 17586 17588 17591 17593 17596 17598 17601 17604 17607 17610 17613 17615 17618 17621 17623 17625 17628 17631 17634 17637 17640 17642 17645 17648 17650 17653 17656 17659 17662 17665 17668 17671 17674 17676 17678 17681 17684 17687 17689 17692 17694 17697 17700 17703 17706 17709 17711 17714 17716 17719 17722 17725 17728 17731 17733 17735 17738 17741 17744 17747 17749 17752 17755 17758 17761 17763 17766 17769 17772 17775 17778 17781 17784 17787 17790 17793 17796 17799 17802 17805 17808 17811 17814 17816 17819 17822 17824 17827 17830 17833 17835 17838 17841 17844 17847 17850 17853 17856 17859 17862 17865 17868 17871 17874 17877 17880 17883 17886 17889 17892 17894 17897 17900 17903 17906 17909 17912 17915 17918 17921 17924 17927 17930 17933 17936 17938 17940 17943 17946 17949 17951 17954 17957 17960 17963 17966 17968 17971 17974 17977 17980 17983 17986 17989 17992 17995 17998 18001 18003 18006 18009 18011 18014 18017 18020 18023 18026 18029 18032 18035 18038 18041 18043 18046 18049 18052 18054 18057 18059 18062 18064 18067 18070 18073 18075 18077 18080 18082 18085 18088 18090 18093 18096 18098 18100 18103 18106 18109 18111 18114 18117 18119 18122 18124 18127 18130 18133 18135 18138 18141 18143 18145 18148 18150 18153 18156 18158 18161 18163 18166 18169 18172 18175 18178 18181 18184 18187 18190 18192 18195 18198 18201 18204 18207 18209 18212 18215 18218 18221 18224 18227 18230 18233 18236 18239 18241 18244 18247 18250 18253 18255 18257 18260 18263 18265 18268 18270 18273 18276 18279 18282 18285 18287 18290 18293 18295 18298 18300 18303 18306 18309 18312 18315 18318 18321 18323 18326 18329 18332 18335 18338 18341 18344 18347 18350 18352 18355 18357 18360 18362 18365 18367 18370 18373 18376 18379 18381 18384 18387 18390 18393 18396 18398 18400 18403 18406 18409 18412 18415 18418 18420 18423 18426 18429 18432 18435 18437 18440 18443 18446 18449 18451 18454 18457 18459 18462 18464 18467 18470 18473 18475 18478 18480 18483 18486 18488 18490 18492 18495 18498 18501 18504 18507 18510 18512 18514 18516 18519 18522 18525 18528 18530 18533 18535 18538 18540 18543 18546 18549 18552 18555 18558 18560 18563 18566 18569 18572 18575 18578 18581 18584 18587 18590 18593 18596 18599 18602 18605 18608 18611 18614 18617 18620 18623 18626 18629 18632 18635 18638 18641 18644 18647 18650 18653 18656 18659 18662 18665 18668 18671 18674 18677 18680 18683 18686 18689 18692 18695 18698 18701 18704 18707 18709 18712 18715 18718 18720 18722 18725 18728 18731 18734 18737 18740 18743 18746 18749 18752 18755 18758 18761 18764 18767 18770 18773 18776 18779 18781 18784 18787 18790 18793 18796 18799 18802 18804 18807 18810 18812 18815 18818 18820 18823 18826 18828 18831 18833 18836 18839 18841 18844 18847 18850 18852 18855 18857 18860 18862 18864 18867 18870 18873 18875 18877 18880 18883 18885 18888 18891 18893 18896 18899 18902 18905 18908 18911 18914 18917 18920 18923 18926 18929 18931 18934 18937 18940 18943 18945 18948 18951 18954 18957 18959 18962 18965 18968 18971 18974 18977 18980 18983 18986 18988 18991 18993 18996 18999 19002 19005 19007 19010 19013 19016 19018 19021 19024 19027 19030 19033 19036 19038 19041 19044 19046 19049 19052 19055 19057 19060 19063 19066 19069 19072 19075 19078 19080 19083 19086 19089 19092 19095 19097 19100 19103 19106 19109 19112 19115 19118 19121 19124 19127 19130 19133 19136 19139 19142 19144 19147 19150 19153 19156 19159 19161 19164 19167 19169 19172 19174 19177 19180 19183 19186 19188 19190 19193 19196 19198 19201 19204 19207 19210 19213 19216 19219 19222 19225 19228 19231 19233 19236 19238 19241 19244 19247 19250 19253 19255 19258 19261 19264 19266 19269 19272 19275 19277 19280 19283 19286 19289 19292 19295 19298 19301 19304 19307 19310 19313 19316 19318 19321 19324 19327 19330 19333 19336 19339 19341 19344 19346 19349 19352 19355 19358 19361 19364 19367 19369 19371 19374 19377 19380 19383 19386 19389 19392 19395 19398 19400 19403 19406 19409 19412 19415 19418 19420 19422 19424 19427 19429 19432 19435 19438 19441 19444 19447 19449 19452 19454 19457 19459 19462 19464 19467 19470 19473 19476 19479 19482 19484 19487 19490 19492 19495 19498 19501 19504 19506 19509 19512 19515 19518 19521 19524 19527 19530 19533 19536 19539 19542 19545 19548 19551 19554 19557 19560 19563 19566 19569 19571 19574 19576 19579 19582 19585 19588 19591 19594 19597 19600 19603 19606 19609 19612 19615 19618 19621 19624 19627 19630 19633 19636 19639 19642 19645 19648 19651 19654 19657 19660 19663 19666 19669 19672 19675 19678 19681 19684 19687 19690 19693 19696 19699 19702 19705 19708 19711 19714 19717 19720 19723 19726 19729 19732 19735 19738 19741 19744 19747 19750 19752 19755 19758 19761 19764 19767 19770 19773 19776 19779 19782 19785 19788 19791 19794 19797 19800 19803 19806 19809 19812 19815 19818 19821 19823 19826 19829 19832 19834 19837 19839 19842 19845 19848 19851 19854 19857 19860 19863 19866 19869 19872 19875 19878 19881 19884 19887 19890 19893 19896 19899 19902 19905 19908 19911 19914 19917 19920 19923 19926 19929 19932 19935 19938 19941 19944 19947 19950 19953 19956 19958 19961 19963 19966 19969 19972 19975 19978 19981 19984 19987 19990 19993 19996 19999 20002 20005 20008 20011 20014 20017 20020 20023 20026 20029 20032 20035 20038 20040 20043 20046 20049 20052 20055 20058 20061 20064 20067 20070 20073 20076 20079 20082 20085 20088 20091 20094 20097 20100 20103 20106 20109 20112 20115 20118 20121 20124 20127 20130 20133 20136 20139 20142 20145 20148 20151 20154 20157 20160 20163 20166 20169 20172 20175 20178 20181 20184 20187 20190 20193 20196 20199 20202 20205 20208 20211 20214 20217 20220 20223 20226 20229 20232 20235 20238 20241 20244 20247 20249 20252 20255 20258 20261 20264 20267 20270 20272 20275 20278 20280 20283 20286 20289 20292 20295 20298 20301 20304 20307 20310 20313 20316 20319 20322 20325 20328 20331 20334 20337 20340 20342 20345 20348 20351 20354 20357 20360 20363 20366 20369 20372 20375 20378 20381 20384 20387 20390 20393 20396 20399 20402 20405 20408 20411 20414 20417 20420 20423 20426 20429 20432 20435 20438 20440 20443 20446 20449 20452 20454 20457 20459 20462 20465 20468 20471 20474 20477 20479 20482 20485 20487 20490 20493 20495 20497 20500 20502 20505 20508 20511 20513 20516 20519 20522 20525 20528 20531 20534 20537 20540 20543 20546 20549 20552 20555 20558 20560 20563 20566 20569 20572 20575 20578 20581 20584 20586 20589 20592 20595 20598 20601 20604 20607 20610 20613 20616 20619 20622 20625 20628 20631 20634 20637 20640 20643 20646 20649 20652 20655 20658 20661 20664 20667 20670 20673 20676 20679 20682 20685 20688 20691 20694 20696 20699 20702 20705 20708 20711 20714 20717 20719 20722 20725 20727 20730 20732 20735 20738 20741 20744 20747 20750 20753 20756 20759 20762 20765 20767 20769 20772 20775 20777 20780 20783 20785 20787 20790 20793 20796 20799 20801 20804 20806 20809 20812 20814 20817 20819 20821 20824 20826 20829 20831 20834 20837 20840 20843 20846 20849 20852 20854 20857 20859 20862 20865 20868 20871 20874 20876 20879 20882 20885 20887 20890 20893 20895 20898 20900 20903 20905 20907 20910 20913 20915 20918 20921 20924 20927 20930 20933 20935 20938 20941 20944 20947 20950 20953 20956 20959 20961 20963 20966 20969 20972 20974 20977 20980 20983 20986 20988 20990 20993 20995 20998 21001 21004 21006 21009 21012 21015 21018 21021 21024 21027 21030 21033 21036 21039 21042 21045 21048 21051 21054 21056 21059 21062 21065 21068 21071 21074 21076 21079 21081 21084 21087 21090 21092 21094 21097 21100 21102 21105 21107 21110 21113 21116 21119 21122 21125 21128 21131 21134 21137 21140 21143 21145 21147 21150 21153 21156 21159 21162 21164 21167 21170 21173 21176 21179 21182 21185 21187 21190 21193 21196 21198 21201 21203 21206 21209 21211 21214 21217 21220 21223 21226 21229 21232 21235 21238 21240 21243 21246 21248 21251 21254 21257 21260 21263 21266 21269 21272 21275 21278 21281 21283 21286 21289 21292 21295 21298 21301 21304 21307 21310 21313 21316 21319 21322 21325 21328 21331 21334 21337 21340 21343 21346 21349 21351 21354 21357 21360 21363 21366 21369 21372 21375 21378 21381 21384 21386 21389 21392 21395 21398 21400 21403 21406 21409 21412 21415 21418 21421 21424 21427 21430 21433 21435 21438 21441 21444 21447 21450 21452 21455 21457 21460 21463 21466 21469 21472 21475 21478 21481 21484 21486 21489 21492 21494 21497 21500 21502 21505 21508 21511 21514 21516 21519 21522 21525 21528 21531 21534 21537 21540 21543 21546 21549 21552 21555 21558 21561 21564 21567 21570 21573 21576 21579 21581 21584 21587 21589 21592 21594 21597 21600 21603 21606 21609 21612 21615 21618 21621 21623 21626 21629 21631 21633 21635 21638 21641 21644 21646 21649 21652 21655 21658 21661 21664 21666 21668 21671 21673 21676 21679 21681 21684 21687 21689 21692 21695 21698 21701 21703 21706 21709 21712 21715 21717 21720 21723 21726 21729 21732 21735 21738 21741 21744 21747 21750 21752 21755 21758 21760 21763 21765 21767 21770 21773 21775 21777 21779 21782 21785 21788 21791 21794 21797 21800 21803 21806 21809 21811 21814 21817 21820 21823 21826 21829 21832 21835 21838 21840 21843 21846 21849 21852 21855 21857 21860 21863 21866 21869 21872 21875 21878 21881 21884 21887 21889 21892 21895 21898 21901 21904 21907 21910 21913 21916 21919 21922 21925 21928 21931 21934 21937 21940 21943 21946 21949 21952 21955 21958 21961 21963 21965 21968 21971 21974 21977 21980 21983 21986 21989 21991 21994 21997 22000 22003 22006 22009 22012 22015 22018 22021 22024 22027 22030 22033 22036 22039 22041 22044 22047 22050 22053 22055 22058 22061 22064 22066 22068 22071 22074 22077 22080 22083 22086 22088 22091 22093 22096 22099 22102 22104 22107 22110 22113 22116 22119 22122 22125 22128 22130 22133 22135 22137 22140 22143 22146 22149 22152 22155 22158 22161 22164 22167 22170 22173 22175 22178 22181 22183 22186 22188 22191 22194 22197 22200 22203 22206 22209 22212 22215 22218 22221 22224 22227 22230 22233 22236 22239 22242 22245 22248 22251 22254 22257 22259 22262 22265 22268 22271 22274 22276 22279 22282 22285 22288 22291 22294 22297 22300 22303 22306 22308 22311 22314 22317 22319 22322 22325 22328 22331 22334 22337 22340 22343 22346 22349 22352 22354 22356 22359 22362 22365 22368 22371 22373 22376 22379 22382 22384 22387 22390 22393 22396 22399 22402 22405 22408 22411 22414 22416 22419 22422 22425 22428 22431 22434 22437 22439 22441 22444 22446 22449 22452 22455 22458 22460 22463 22466 22469 22472 22475 22477 22480 22483 22486 22489 22492 22495 22498 22501 22504 22507 22509 22512 22515 22518 22521 22524 22527 22530 22533 22536 22539 22541 22544 22547 22550 22553 22556 22559 22562 22564 22567 22570 22573 22576 22579 22582 22585 22588 22591 22594 22597 22600 22603 22606 22609 22612 22615 22618 22621 22624 22626 22629 22632 22635 22637 22640 22643 22646 22649 22652 22655 22658 22661 22664 22667 22670 22673 22676 22678 22681 22683 22685 22688 22690 22692 22695 22698 22701 22704 22707 22709 22712 22715 22718 22721 22724 22727 22730 22732 22735 22738 22740 22743 22746 22748 22751 22754 22756 22759 22762 22764 22766 22768 22770 22773 22776 22778 22780 22783 22786 22788 22791 22794 22796 22799 22802 22805 22808 22810 22812 22814 22816 22819 22822 22825 22827 22830 22832 22835 22837 22840 22842 22844 22847 22850 22853 22856 22859 22862 22865 22867 22870 22873 22875 22878 22880 22883 22886 22888 22890 22893 22896 22899 22902 22905 22908 22911 22914 22917 22920 22923 22926 22929 22932 22935 22938 22941 22943 22946 22949 22952 22955 22958 22961 22964 22967 22970 22973 22976 22979 22982 22985 22988 22991 22994 22996 22999 23002 23005 23008 23011 23014 23017 23020 23023 23026 23029 23032 23035 23038 23040 23042 23045 23048 23051 23054 23056 23059 23061 23064 23067 23070 23072 23074 23077 23079 23082 23085 23088 23091 23094 23097 23100 23103 23106 23109 23112 23115 23118 23121 23124 23127 23130 23133 23136 23138 23141 23143 23146 23149 23152 23155 23157 23160 23163 23166 23169 23172 23175 23178 23181 23184 23187 23190 23193 23196 23199 23202 23205 23208 23211 23214 23217 23219 23222 23225 23228 23231 23234 23237 23240 23243 23246 23249 23252 23255 23258 23261 23263 23266 23269 23272 23275 23278 23281 23284 23287 23290 23293 23296 23299 23302 23305 23308 23311 23314 23317 23320 23323 23326 23329 23332 23335 23338 23341 23344 23347 23350 23353 23356 23359 23362 23365 23368 23371 23374 23377 23380 23383 23386 23389 23392 23395 23398 23401 23404 23407 23410 23413 23416 23419 23422 23425 23428 23431 23434 23437 23440 23443 23446 23449 23451 23454 23457 23460 23462 23465 23468 23470 23473 23476 23479 23482 23485 23488 23491 23494 23497 23500 23503 23505 23508 23511 23514 23517 23519 23522 23525 23528 23531 23534 23537 23540 23543 23546 23549 23552 23555 23558 23561 23564 23567 23570 23573 23576 23579 23582 23585 23588 23591 23594 23597 23600 23603 23606 23608 23611 23614 23617 23620 23622 23625 23628 23631 23634 23637 23640 23643 23646 23649 23652 23654 23657 23660 23662 23665 23668 23671 23674 23677 23680 23683 23686 23689 23692 23695 23698 23700 23703 23706 23709 23712 23715 23718 23721 23724 23726 23729 23732 23735 23738 23741 23744 23747 23750 23753 23756 23758 23761 23763 23766 23769 23772 23774 23777 23780 23783 23785 23788 23790 23793 23795 23797 23800 23803 23806 23809 23812 23814 23817 23820 23823 23826 23829 23832 23835 23838 23841 23844 23847 23850 23853 23856 23859 23862 23865 23868 23871 23874 23877 23880 23883 23885 23888 23891 23893 23896 23899 23902 23904 23907 23909 23912 23915 23918 23921 23924 23927 23930 23933 23936 23939 23942 23945 23947 23950 23953 23956 23959 23962 23965 23968 23971 23974 23977 23980 23983 23986 23989 23992 23995 23998 24001 24004 24006 24009 24012 24015 24018 24021 24024 24027 24030 24033 24036 24039 24042 24045 24048 24051 24054 24057 24060 24063 24066 24069 24072 24075 24078 24081 24084 24087 24089 24092 24095 24098 24101 24104 24107 24110 24113 24116 24119 24122 24125 24128 24131 24134 24137 24140 24143 24145 24148 24151 24154 24156 24159 24162 24165 24167 24169 24172 24175 24178 24181 24184 24186 24189 24192 24195 24198 24201 24204 24207 24209 24211 24214 24217 24220 24222 24225 24227 24230 24233 24236 24239 24242 24245 24247 24249 24252 24255 24257 24259 24262 24265 24268 24271 24274 24277 24280 24283 24286 24289 24291 24294 24297 24300 24303 24306 24309 24311 24314 24317 24320 24323 24326 24329 24332 24335 24338 24341 24344 24347 24350 24353 24356 24359 24362 24364 24367 24370 24373 24376 24378 24381 24384 24386 24389 24392 24395 24398 24401 24404 24407 24410 24413 24416 24419 24421 24424 24426 24429 24431 24434 24437 24440 24443 24446 24449 24452 24455 24458 24461 24464 24467 24470 24473 24476 24479 24482 24485 24488 24490 24493 24496 24498 24501 24504 24507 24509 24512 24515 24517 24520 24523 24526 24529 24531 24534 24537 24540 24543 24546 24549 24552 24554 24557 24560 24563 24566 24569 24572 24575 24578 24581 24584 24587 24590 24593 24596 24599 24602 24605 24608 24611 24614 24617 24620 24623 24626 24629 24632 24635 24638 24641 24643 24646 24649 24652 24655 24658 24661 24664 24667 24670 24673 24676 24679 24682 24685 24688 24691 24694 24697 24700 24703 24706 24709 24712 24715 24718 24721 24724 24727 24730 24733 24736 24739 24742 24745 24748 24751 24754 24756 24758 24760 24763 24766 24768 24771 24774 24777 24779 24782 24784 24787 24790 24793 24796 24799 24801 24804 24807 24810 24813 24816 24819 24822 24824 24827 24830 24833 24836 24839 24842 24845 24848 24851 24854 24857 24860 24863 24866 24868 24871 24874 24877 24879 24882 24884 24887 24890 24893 24896 24899 24902 24905 24908 24910 24913 24916 24919 24922 24925 24928 24931 24933 24936 24938 24941 24943 24946 24949 24952 24955 24958 24961 24964 24967 24969 24972 24975 24977 24979 24981 24984 24986 24989 24991 24994 24997 25000 25003 25006 25009 25012 25015 25018 25021 25024 25027 25030 25033 25036 25039 25042 25045 25048 25051 25054 25056 25059 25062 25064 25066 25069 25072 25075 25077 25080 25083 25086 25089 25092 25095 25098 25100 25103 25105 25108 25111 25114 25117 25119 25122 25125 25127 25130 25133 25136 25139 25142 25145 25148 25150 25153 25156 25158 25161 25164 25167 25169 25172 25175 25178 25181 25184 25187 25190 25193 25196 25198 25201 25204 25207 25210 25213 25216 25218 25221 25224 25226 25229 25232 25235 25238 25240 25243 25246 25249 25252 25255 25258 25260 25262 25264 25267 25270 25273 25275 25278 25280 25283 25285 25288 25291 25294 25297 25300 25303 25305 25308 25311 25314 25316 25319 25322 25325 25327 25330 25333 25336 25339 25342 25345 25348 25351 25354 25357 25360 25363 25365 25368 25371 25374 25376 25379 25382 25385 25388 25391 25393 25395 25398 25401 25403 25406 25408 25410 25412 25415 25418 25421 25423 25426 25429 25432 25435 25438 25440 25443 25446 25449 25452 25455 25458 25461 25464 25467 25470 25473 25476 25478 25481 25484 25487 25490 25493 25496 25498 25501 25504 25506 25509 25512 25514 25517 25520 25523 25526 25529 25531 25534 25537 25539 25542 25544 25547 25549 25552 25555 25558 25561 25564 25567 25569 25572 25575 25578 25581 25583 25586 25589 25592 25595 25598 25601 25604 25607 25610 25613 25615 25618 25621 25624 25627 25630 25632 25635 25638 25641 25644 25647 25650 25653 25656 25659 25662 25665 25668 25671 25674 25677 25679 25682 25685 25688 25691 25694 25696 25699 25701 25704 25707 25710 25713 25716 25718 25721 25724 25727 25730 25733 25735 25738 25741 25744 25747 25750 25752 25755 25758 25761 25764 25767 25770 25773 25776 25779 25782 25784 25787 25789 25792 25794 25797 25800 25802 25805 25808 25811 25814 25817 25820 25823 25826 25828 25831 25833 25836 25839 25842 25845 25848 25851 25854 25857 25860 25863 25865 25868 25871 25874 25877 25880 25883 25886 25889 25892 25895 25897 25900 25903 25906 25908 25911 25913 25915 25918 25921 25924 25926 25929 25932 25935 25937 25939 25942 25945 25948 25951 25954 25957 25960 25963 25966 25969 25971 25973 25976 25979 25982 25985 25988 25990 25993 25996 25999 26002 26005 26008 26011 26014 26017 26020 26022 26025 26027 26029 26031 26034 26037 26040 26043 26046 26049 26052 26055 26057 26060 26063 26066 26069 26072 26075 26078 26081 26084 26087 26090 26093 26096 26099 26102 26105 26108 26111 26114 26117 26120 26123 26126 26129 26132 26135 26138 26141 26144 26146 26149 26152 26155 26158 26160 26163 26166 26169 26172 26175 26178 26181 26184 26186 26189 26192 26195 26198 26201 26204 26207 26210 26212 26215 26218 26221 26224 26227 26230 26233 26236 26239 26242 26245 26248 26251 26254 26257 26260 26263 26266 26269 26272 26275 26278 26281 26284 26287 26290 26292 26295 26298 26301 26304 26307 26310 26312 26315 26317 26320 26323 26325 26328 26331 26334 26336 26339 26341 26344 26347 26350 26352 26355 26358 26361 26363 26366 26369 26372 26375 26378 26381 26383 26386 26389 26392 26395 26398 26401 26404 26407 26410 26413 26416 26419 26422 26425 26428 26431 26434 26437 26440 26443 26446 26449 26452 26455 26458 26461 26464 26466 26469 26471 26474 26477 26480 26483 26485 26488 26491 26494 26497 26500 26503 26506 26509 26512 26515 26518 26521 26524 26526 26529 26532 26534 26537 26540 26542 26545 26548 26551 26554 26557 26559 26562 26565 26568 26571 26574 26577 26580 26583 26585 26588 26590 26593 26596 26599 26602 26605 26607 26609 26612 26615 26617 26620 26623 26626 26628 26631 26634 26637 26640 26643 26646 26649 26651 26654 26657 26660 26663 26666 26669 26672 26675 26678 26681 26684 26687 26690 26693 26696 26699 26701 26704 26707 26710 26713 26716 26718 26721 26723 26726 26729 26732 26735 26738 26741 26744 26747 26750 26753 26756 26759 26761 26764 26766 26769 26772 26775 26778 26781 26784 26786 26788 26791 26794 26797 26800 26803 26806 26809 26812 26815 26818 26821 26824 26827 26830 26833 26836 26839 26842 26845 26848 26851 26853 26856 26859 26861 26864 26867 26870 26873 26876 26878 26881 26884 26887 26890 26893 26896 26898 26901 26904 26907 26910 26913 26916 26919 26922 26925 26928 26931 26934 26937 26940 26943 26946 26948 26951 26954 26956 26959 26962 26965 26968 26970 26973 26976 26979 26982 26985 26988 26991 26994 26997 27000 27003 27005 27008 27011 27014 27017 27020 27023 27026 27029 27032 27035 27038 27041 27044 27047 27050 27053 27056 27059 27062 27064 27067 27070 27073 27076 27079 27082 27085 27088 27091 27094 27097 27100 27102 27105 27108 27111 27114 27117 27120 27123 27126 27129 27132 27135 27138 27141 27143 27145 27148 27151 27154 27157 27160 27163 27165 27168 27171 27174 27177 27180 27183 27186 27189 27192 27195 27198 27201 27204 27207 27210 27213 27216 27219 27222 27225 27228 27231 27234 27237 27240 27243 27246 27249 27252 27255 27258 27261 27264 27267 27270 27272 27275 27278 27281 27284 27287 27290 27293 27296 27298 27301 27304 27307 27310 27313 27316 27319 27322 27325 27328 27331 27334 27336 27339 27342 27345 27348 27350 27353 27355 27358 27361 27364 27367 27370 27373 27376 27379 27381 27384 27387 27390 27393 27396 27399 27402 27405 27408 27411 27413 27416 27419 27422 27424 27427 27430 27432 27435 27438 27441 27444 27446 27449 27452 27454 27457 27460 27463 27466 27469 27472 27475 27478 27480 27483 27486 27489 27491 27494 27497 27500 27503 27506 27509 27512 27514 27517 27519 27522 27524 27527 27529 27531 27534 27537 27540 27542 27544 27546 27549 27552 27554 27557 27560 27563 27565 27568 27571 27574 27577 27579 27582 27585 27588 27591 27594 27597 27600 27603 27606 27609 27612 27615 27618 27621 27624 27627 27630 27633 27636 27639 27642 27645 27648 27651 27654 27657 27660 27663 27666 27669 27672 27675 27678 27681 27684 27687 27690 27693 27695 27698 27701 27704 27707 27710 27713 27716 27719 27721 27724 27727 27730 27733 27735 27738 27741 27743 27746 27749 27751 27754 27757 27760 27763 27765 27768 27771 27774 27777 27780 27782 27785 27788 27791 27794 27797 27800 27803 27806 27809 27812 27815 27818 27821 27823 27825 27828 27831 27834 27836 27839 27842 27845 27848 27851 27854 27857 27860 27863 27866 27869 27872 27875 27878 27880 27883 27886 27889 27892 27895 27898 27900 27903 27906 27908 27911 27914 27917 27920 27923 27926 27929 27932 27935 27938 27940 27943 27946 27949 27952 27955 27957 27960 27963 27966 27969 27972 27975 27978 27981 27984 27987 27989 27992 27995 27998 28001 28004 28007 28010 28013 28016 28019 28022 28025 28028 28031 28034 28036 28039 28042 28045 28048 28051 28054 28057 28060 28063 28066 28069 28072 28075 28078 28081 28084 28087 28090 28093 28096 28099 28102 28105 28107 28110 28112 28115 28118 28121 28123 28126 28129 28132 28135 28138 28141 28144 28147 28150 28152 28155 28158 28161 28163 28166 28169 28172 28175 28178 28181 28184 28187 28190 28193 28196 28199 28202 28205 28208 28211 28213 28216 28219 28222 28225 28228 28230 28233 28236 28239 28241 28244 28246 28249 28252 28255 28258 28261 28264 28266 28269 28272 28275 28278 28281 28284 28287 28290 28293 28296 28299 28302 28305 28308 28311 28314 28317 28320 28323 28326 28329 28332 28335 28338 28341 28344 28347 28349 28352 28355 28357 28360 28363 28366 28369 28372 28375 28378 28380 28383 28386 28389 28392 28394 28397 28400 28402 28405 28408 28411 28414 28417 28420 28422 28425 28428 28431 28433 28436 28439 28442 28444 28447 28450 28453 28456 28459 28461 28464 28467 28470 28473 28476 28478 28481 28484 28487 28490 28493 28496 28499 28502 28504 28507 28510 28512 28515 28518 28521 28524 28526 28529 28532 28535 28538 28540 28543 28546 28549 28552 28554 28557 28560 28563 28565 28568 28570 28573 28576 28579 28582 28585 28588 28591 28594 28597 28600 28602 28605 28608 28611 28614 28617 28620 28623 28625 28627 28630 28633 28636 28639 28642 28644 28647 28650 28653 28656 28659 28661 28664 28667 28670 28672 28675 28678 28680 28683 28686 28688 28691 28694 28697 28699 28702 28705 28708 28711 28714 28717 28719 28722 28725 28728 28731 28734 28736 28739 28742 28745 28748 28751 28753 28756 28759 28762 28765 28768 28771 28773 28776 28779 28782 28785 28787 28790 28793 28796 28799 28802 28804 28807 28810 28813 28816 28819 28822 28825 28828 28831 28834 28836 28839 28842 28845 28848 28851 28854 28857 28859 28862 28865 28868 28871 28873 28875 28878 28881 28883 28886 28889 28892 28895 28898 28901 28904 28906 28909 28912 28915 28918 28921 28924 28927 28929 28932 28934 28937 28940 28942 28945 28948 28951 28954 28956 28959 28961 28964 28967 28970 28973 28976 28979 28982 28985 28988 28991 28993 28996 28999 29002 29005 29008 29010 29013 29016 29019 29021 29024 29027 29030 29033 29035 29038 29041 29043 29046 29049 29052 29055 29058 29060 29063 29065 29068 29070 29072 29075 29078 29081 29084 29086 29088 29091 29094 29097 29100 29103 29106 29109 29112 29115 29118 29121 29124 29127 29129 29132 29135 29138 29141 29144 29147 29149 29151 29154 29157 29160 29163 29166 29169 29172 29175 29178 29181 29184 29187 29190 29192 29195 29198 29201 29204 29207 29210 29213 29216 29219 29222 29225 29228 29231 29234 29237 29240 29243 29246 29249 29252 29255 29258 29261 29264 29267 29270 29273 29276 29279 29282 29285 29288 29291 29293 29296 29299 29301 29304 29307 29310 29313 29316 29319 29322 29324 29327 29330 29333 29335 29338 29341 29343 29346 29349 29352 29354 29356 29359 29362 29365 29368 29370 29372 29375 29378 29381 29384 29387 29390 29393 29396 29399 29402 29405 29408 29411 29414 29416 29419 29422 29424 29427 29430 29433 29435 29438 29441 29444 29447 29449 29452 29455 29457 29460 29463 29466 29469 29472 29475 29478 29481 29484 29487 29490 29492 29495 29498 29501 29504 29507 29510 29513 29515 29518 29521 29524 29527 29530 29533 29536 29539 29542 29545 29548 29551 29554 29557 29560 29563 29566 29569 29571 29574 29577 29580 29583 29586 29589 29591 29594 29596 29599 29602 29605 29608 29611 29613 29616 29619 29621 29624 29627 29630 29632 29635 29638 29641 29643 29646 29649 29652 29655 29658 29661 29664 29667 29670 29673 29676 29679 29682 29685 29687 29690 29693 29696 29699 29701 29703 29706 29709 29712 29715 29718 29721 29724 29727 29730 29733 29736 29739 29742 29745 29748 29751 29754 29757 29760 29762 29765 29768 29771 29774 29777 29780 29783 29786 29788 29791 29793 29796 29799 29802 29805 29808 29811 29814 29816 29819 29821 29824 29827 29830 29833 29836 29838 29841 29844 29847 29850 29853 29856 29858 29861 29864 29867 29870 29873 29875 29877 29880 29883 29886 29888 29890 29892 29895 29898 29901 29904 29907 29909 29912 29915 29918 29921 29924 29926 29929 29932 29935 29938 29940 29943 29945 29947 29950 29952 29954 29957 29960 29963 29965 29968 29971 29974 29976 29979 29982 29985 29987 29990 29993 29996 29998 30001 30004 30007 30010 30013 30016 30019 30022 30024 30027 30030 30033 30035 30038 30041 30044 30047 30050 30053 30055 30058 30061 30064 30067 30070 30073 30075 30078 30081 30084 30087 30090 30093 30096 30099 30102 30105 30108 30111 30114 30117 30119 30122 30124 30127 30130 30133 30135 30138 30141 30143 30146 30148 30151 30153 30156 30159 30161 30164 30167 30170 30173 30176 30179 30181 30184 30187 30190 30193 30195 30198 30201 30204 30207 30210 30213 30215 30218 30221 30224 30227 30230 30233 30236 30239 30242 30245 30247 30250 30253 30256 30259 30262 30265 30268 30271 30274 30277 30280 30283 30286 30289 30292 30295 30298 30301 30304 30306 30308 30311 30314 30317 30319 30322 30325 30327 30330 30333 30335 30338 30341 30343 30346 30349 30351 30353 30356 30359 30362 30365 30367 30370 30373 30376 30379 30382 30385 30388 30391 30394 30397 30400 30402 30404 30407 30410 30413 30415 30418 30420 30423 30425 30428 30431 30434 30437 30440 30442 30445 30448 30450 30453 30455 30458 30461 30463 30465 30467 30470 30473 30476 30479 30481 30484 30487 30489 30492 30494 30497 30500 30502 30505 30508 30511 30514 30517 30520 30523 30526 30528 30531 30533 30535 30538 30541 30544 30547 30550 30552 30554 30557 30560 30563 30565 30567 30570 30573 30576 30579 30582 30585 30588 30591 30593 30596 30598 30601 30604 30607 30610 30613 30616 30619 30622 30625 30628 30631 30634 30637 30640 30643 30646 30649 30652 30655 30658 30661 30664 30667 30670 30673 30676 30679 30682 30685 30687 30690 30693 30696 30699 30702 30705 30708 30711 30714 30717 30720 30723 30726 30729 30732 30734 30737 30740 30742 30745 30748 30751 30754 30757 30759 30762 30765 30768 30771 30774 30777 30780 30783 30786 30789 30792 30795 30798 30800 30803 30806 30809 30812 30815 30818 30821 30824 30827 30829 30832 30835 30837 30840 30843 30846 30849 30851 30853 30855 30858 30861 30864 30867 30870 30872 30875 30878 30881 
</DataArray>
<DataArray type="UInt32" Name="types" format="ascii">
5 5 3 5 5 5 5 3 5 5 5 5 5 5 5 5 5 5 5 5 3 5 5 5 5 3 5 5 5 5 5 5 5 3 5 5 5 5 5 5 5 5 3 5 5 5 5 5 5 5 5 5 5 5 3 3 5 5 5 5 5 5 5 5 3 5 5 5 5 5 5 5 5 5 5 5 5 5 5 5 5 5 5 5 5 5 5 3 5 5 5 5 5 5 5 5 5 5 5 3 5 5 5 3 5 5 5 5 5 5 5 5 5 5 5 5 5 5 5 5 5 5 5 5 5 5 5 5 5 5 5 5 5 5 5 5 5 5 5 5 5 5 5 5 5 5 5 5 5 3 5 3 5 5 5 5 5 5 5 5 5 5 5 5 5 5 5 5 5 5 5 5 5 5 5 5 5 5 3 5 5 3 5 3 5 5 5 5 5 5 5 5 5 5 5 5 5 5 3 5 3 5 5 5 5 5 5 5 3 5 3 5 5 5 5 5 5 3 5 5 3 5 5 5 5 5 5 3 3 5 5 3 5 3 5 3 3 5 5 5 3 5 5 5 5 5 5 5 5 5 5 5 5 5 3 5 5 5 5 5 5 5 3 5 5 5 5 5 5 5 3 5 5 5 5 3 5 5 5 5 5 5 3 5 5 5 3 5 5 5 5 5 5 5 3 5 5 5 5 5 5 3 5 5 5 5 5 5 3 5 5 5 5 5 5 5 3 5 5 5 5 5 5 5 5 5 5 5 5 5 5 5 5 5 5 5 5 5 3 3 5 5 5 5 5 3 5 5 5 5 5 5 5 3 5 3 5 5 5 3 5 5 5 3 5 3 5 5 5 5 5 5 5 3 5 5 5 5 5 5 5 3 5 5 5 3 5 5 5 5 5 5 5 5 5 5 5 5 5 5 5 5 5 5 5 5 5 5 5 5 5 5 5 5 5 5 5 5 3 5 5 5 5 5 5 5 5 5 5 5 5 5 5 5 5 5 5 5 5 5 5 5 5 5 5 5 5 5 5 5 5 3 5 5 5 5 5 5 5 5 5 5 5 5 5 5 5 5 5 5 5 5 3 5 5 5 5 5 5 5 3 5 5 5 5 5 3 5 5 3 5 3 5 5 5 5 3 5 5 3 5 5 5 5 5 5 3 5 5 5 5 5 5 5 5 5 5 5 5 5 5 5 5 5 5 5 3 5 5 5 5 5 5 5 5 5 5 5 3 3 5 5 5 5 5 5 5 5 5 5 5 5 5 5 5 5 5 5 5 5 5 3 5 3 3 5 5 3 5 5 5 5 5 5 5 5 5 5 5 5 5 3 5 5 5 5 5 5 5 3 3 5 5 5 5 5 5 5 5 3 3 5 5 5 3 5 5 5 5 5 5 5 5 5 5 5 5 5 5 5 5 5 5 5 5 5 5 5 5 5 5 5 5 5 5 5 5 5 5 5 3 5 5 3 5 5 5 5 3 5 5 5 3 5 5 5 3 5 5 3 5 5 5 5 5 5 5 5 5 5 5 5 5 5 5 5 5 5 5 5 5 3 5 5 5 3 5 5 5 5 5 3 5 5 5 5 5 5 3 5 5 5 5 5 5 5 5 5 5 5 5 5 5 5 5 5 5 3 5 5 5 5 5 5 5 5 5 5 5 5 5 5 5 5 5 5 5 5 5 3 5 5 5 5 5 5 5 5 5 5 5 5 5 5 5 3 5 5 5 5 5 5 5 5 5 5 5 5 5 5 5 5 5 5 3 5 5 5 5 5 5 5 3 5 5 5 5 5 5 5 5 5 5 5 5 5 5 5 5 5 5 5 5 5 3 5 5 5 5 5 5 5 5 5 3 5 5 5 5 5 5 5 5 3 5 5 5 5 5 5 5 5 5 5 5 5 5 5 5 5 5 5 5 3 5 5 5 5 5 3 5 5 5 3 5 5 5 5 5 5 3 5 5 5 5 5 5 5 5 5 5 3 5 5 5 5 5 5 5 5 5 5 5 5 3 5 3 5 5 5 5 5 5 5 3 5 3 5 5 5 5 5 5 5 5 5 5 5 5 5 5 5 5 5 5 5 5 5 5 5 5 5 5 5 5 5 5 5 5 5 5 5 5 5 5 5 5 5 5 5 5 5 3 3 5 5 3 5 5 5 5 5 5 5 5 5 5 5 5 5 5 5 5 3 5 5 5 5 3 5 5 3 5 5 5 5 5 5 3 5 3 5 5 3 5 5 5 5 5 5 5 5 5 5 3 5 5 5 5 5 3 3 5 5 5 5 3 5 5 3 5 3 5 5 5 5 5 3 5 5 3 5 5 5 5 5 5 5 5 5 5 5 5 3 5 5 5 5 5 5 5 5 5 5 5 5 5 5 5 3 5 3 5 3 3 5 3 5 5 3 5 5 5 5 5 5 3 5 3 5 5 3 5 5 5 3 5 5 3 5 5 5 5 5 3 5 5 3 5 5 5 5 5 3 5 3 5 5 3 5 5 3 5 5 5 5 5 5 5 5 3 5 5 5 5 5 5 5 5 5 5 3 5 5 5 5 3 5 5 3 5 5 5 5 5 3 5 5 5 5 5 3 5 3 5 5 5 5 5 5 3 5 5 5 5 5 5 5 5 3 3 3 5 5 5 5 3 5 3 5 5 5 3 3 5 5 5 3 5 5 5 3 5 3 5 3 3 5 3 5 5 5 5 3 5 5 5 3 5 3 5 3 5 5 5 5 5 5 5 3 5 5 5 5 3 5 5 5 5 5 5 5 5 3 5 3 3 5 5 5 3 5 5 5 5 3 3 5 5 3 3 5 5 5 5 5 3 5 5 5 5 5 5 5 5 3 5 3 5 5 5 5 5 5 5 5 5 5 5 5 5 5 5 5 5 3 5 5 5 5 5 5 5 5 5 5 5 5 5 5 5 5 5 5 5 5 5 5 5 5 5 3 5 3 5 5 5 5 5 3 3 5 5 5 5 3 3 5 3 5 5 3 5 5 3 5 5 5 5 3 3 5 5 5 5 5 5 5 5 3 5 5 3 5 5 5 3 5 5 3 5 5 5 5 5 5 3 5 5 5 5 5 5 3 5 5 5 5 5 3 5 5 3 3 5 5 3 5 5 3 5 5 5 5 5 5 5 5 5 5 5 5 3 5 3 5 5 3 5 5 5 5 5 5 3 5 5 5 3 3 3 5 5 5 3 3 5 3 3 5 5 3 5 5 3 5 3 5 3 5 5 5 3 3 5 5 3 3 3 3 5 5 5 3 3 5 5 3 3 3 5 3 3 5 5 3 5 3 3 5 3 5 5 3 5 3 3 5 5 5 5 3 3 5 5 3 5 5 5 3 5 5 5 5 5 5 5 5 5 5 5 5 5 5 5 5 5 5 5 5 5 5 5 5 5 5 5 5 5 5 5 5 5 5 5 5 5 5 5 5 5 5 5 5 5 5 5 5 5 5 5 5 5 5 5 5 5 5 3 5 3 5 5 5 5 5 5 5 5 5 5 5 5 5 5 3 5 5 5 5 5 5 5 5 5 5 3 5 5 5 5 5 5 5 5 5 5 5 5 5 5 5 5 5 5 5 5 5 5 5 5 5 5 5 5 5 5 5 5 5 5 5 5 5 5 5 5 5 5 5 5 5 5 3 5 5 5 3 5 3 5 5 5 5 5 3 5 3 5 5 5 5 5 5 5 5 5 5 5 5 5 5 5 5 5 5 5 5 5 5 5 5 5 3 5 5 5 5 5 5 3 5 3 5 5 5 3 5 5 3 5 5 5 5 5 5 5 5 5 5 5 5 5 5 5 5 5 5 5 5 5 5 5 5 5 5 5 5 5 5 5 5 5 5 5 5 5 3 5 3 5 5 5 5 5 5 5 5 5 5 3 5 5 5 5 5 5 5 5 5 5 5 5 5 5 5 5 5 3 5 5 5 3 3 5 3 5 5 5 5 5 5 5 5 3 5 5 5 5 3 5 5 5 5 5 5 5 3 5 5 3 5 3 5 5 3 5 5 3 3 5 5 5 5 5 5 5 5 5 5 5 5 5 5 5 3 5 3 5 5 5 3 5 3 5 5 5 5 5 5 5 5 5 5 5 5 3 5 3 5 5 5 5 5 5 5 5 3 5 5 3 5 5 5 3 3 5 5 5 5 5 5 5 5 5 5 5 5 5 5 5 5 5 5 5 5 5 3 5 5 5 5 5 3 5 3 5 5 5 5 3 5 5 3 5 5 5 5 5 3 5 5 5 5 3 5 5 5 5 5 5 5 3 5 5 5 3 5 5 5 5 5 5 5 5 5 5 5 3 5 5 5 5 5 5 5 5 3 5 5 5 5 5 5 3 5 5 5 5 5 5 3 5 5 5 5 5 5 5 5 5 5 5 3 5 5 5 3 5 5 5 3 5 3 5 5 5 5 5 5 3 5 5 5 5 5 5 5 5 5 5 5 5 5 5 5 3 5 5 5 5 5 3 5 5 5 5 5 5 5 5 3 5 5 5 5 5 5 5 5 5 5 5 5 5 5 5 5 3 5 5 5 5 3 5 5 5 5 5 5 5 5 5 5 5 5 5 5 5 5 5 5 5 5 5 5 5 5 5 5 3 5 5 5 3 5 3 5 5 5 5 3 5 3 5 5 5 5 5 3 5 5 5 5 5 5 5 5 5 3 5 5 5 5 5 5 5 5 5 5 5 5 5 5 5 5 5 5 5 5 5 5 5 5 3 3 5 5 5 5 5 3 5 5 5 3 5 5 5 3 5 5 3 5 3 5 5 5 5 3 5 5 5 5 3 3 5 5 5 5 5 5 5 5 5 5 5 5 3 5 5 5 5 3 5 5 5 5 5 3 5 5 3 5 5 5 5 5 5 5 5 5 5 5 5 5 5 5 5 3 5 5 3 5 5 5 3 5 5 5 5 5 5 5 5 5 5 5 3 5 5 5 5 5 5 5 5 5 5 5 5 5 5 5 5 3 5 5 3 5 3 5 5 3 5 3 5 3 5 5 5 5 5 5 5 5 5 5 5 5 5 3 5 3 3 5 5 3 3 5 5 3 3 5 5 5 3 5 3 5 5 3 5 5 5 5 3 3 5 3 5 5 3 3 5 5 3 5 5 5 3 5 5 5 3 3 3 5 5 3 5 3 3 5 5 5 5 5 5 5 5 5 5 5 3 3 5 3 5 3 5 3 5 5 5 3 5 5 5 5 5 3 5 5 5 5 5 5 5 5 5 5 5 5 5 5 5 5 5 5 5 5 5 5 5 5 3 5 5 5 5 5 5 5 5 5 5 5 5 5 5 5 5 5 5 3 5 5 5 5 5 5 5 5 5 5 5 3 5 5 5 5 5 3 5 5 5 5 5 5 5 5 5 5 5 5 5 5 3 5 5 5 5 5 5 5 5 5 5 5 5 5 5 3 5 3 5 5 5 5 3 5 5 5 5 5 5 5 5 5 5 5 5 3 5 3 5 5 5 5 3 5 5 5 5 5 5 5 3 5 5 5 5 5 5 5 3 5 5 5 3 5 3 5 5 5 5 5 5 5 5 5 3 5 5 5 5 5 5 5 5 5 5 5 5 5 5 5 5 5 5 5 5 5 5 5 5 5 5 5 5 5 5 5 5 5 5 5 5 5 5 5 5 5 5 5 3 5 5 3 5 5 5 5 5 5 5 5 5 5 3 5 5 5 5 5 3 5 5 3 5 5 5 5 5 5 3 5 5 5 5 3 5 5 3 5 3 5 5 5 5 5 5 5 5 5 5 5 3 5 3 5 5 5 5 3 5 5 5 5 5 5 5 5 5 5 5 5 5 5 5 5 5 5 5 5 5 3 5 5 5 5 3 5 5 5 5 5 5 5 3 5 5 5 5 5 3 5 5 5 3 5 5 5 3 5 5 3 5 5 5 3 5 5 3 5 5 5 5 5 5 5 5 5 5 5 5 5 5 5 5 5 5 5 5 5 5 5 5 5 5 5 5 5 5 5 3 5 5 5 5 5 5 5 5 5 5 5 3 5 5 5 5 5 5 5 5 5 5 5 5 5 5 5 3 3 5 5 5 3 5 5 5 5 3 5 5 3 5 5 5 5 5 5 5 5 5 5 5 5 5 3 3 5 5 5 5 5 5 5 5 5 5 5 3 5 5 3 5 5 5 5 5 5 5 5 5 5 5 5 5 5 5 5 5 5 5 3 5 5 5 3 5 5 5 5 5 3 5 5 5 5 5 5 5 5 5 5 5 5 5 5 5 5 5 5 5 5 3 5 5 3 5 5 5 5 5 5 5 5 5 5 5 5 5 5 5 5 5 5 5 3 5 5 5 5 5 5 5 5 5 5 5 5 5 5 5 5 5 5 5 5 5 5 5 5 5 5 5 5 5 5 5 5 3 5 5 5 5 5 5 3 5 5 5 5 5 3 5 5 5 5 3 5 5 5 5 5 5 5 5 5 5 5 5 5 5 5 5 5 5 5 5 5 5 3 5 5 5 5 5 5 5 3 5 5 3 5 5 3 5 5 5 5 5 5 3 5 5 5 5 5 5 5 5 5 5 3 5 3 5 5 5 5 5 5 5 5 3 5 5 3 5 5 5 3 5 5 5 3 5 5 5 3 3 5 5 3 5 5 3 5 5 3 5 5 5 5 5 5 5 5 5 3 5 5 5 3 5 5 5 3 5 5 5 3 5 3 5 5 3 5 5 5 5 5 5 5 5 3 5 5 3 5 5 5 5 5 5 5 5 5 5 5 5 5 3 5 3 5 5 5 3 3 5 3 5 5 5 5 3 5 3 5 5 5 5 5 5 5 5 5 3 5 5 5 5 5 5 5 5 5 5 5 5 5 5 5 5 5 5 5 5 5 5 5 5 5 5 5 5 3 5 5 5 5 5 5 3 5 5 5 5 5 5 3 5 5 5 5 5 5 3 5 5 5 3 5 5 5 3 5 5 3 5 5 5 5 5 5 3 5 5 5 3 3 5 5 5 5 5 5 5 5 5 5 5 5 5 5 5 5 5 3 5 5 5 5 5 5 5 3 5 5 5 5 5 3 5 5 5 5 5 3 5 5 3 5 5 5 5 3 5 5 5 5 5 5 3 5 3 5 3 3 5 3 5 5 5 3 5 5 5 5 5 3 5 5 5 3 5 5 5 5 3 3 3 5 5 5 5 3 3 5 3 5 5 5 5 5 5 3 5 3 5 5 3 5 5 5 3 5 5 3 5 5 5 5 5 5 5 5 5 5 5 5 3 5 5 5 5 3 5 5 5 5 3 5 5 5 5 5 5 5 5 5 3 3 3 5 5 5 3 3 5 5 3 5 3 5 5 5 5 5 5 5 3 5 5 5 5 5 5 5 5 5 5 5 5 5 5 5 5 3 5 5 5 5 5 5 5 5 5 3 5 5 3 5 3 5 3 5 5 3 5 5 5 3 3 5 5 3 5 5 5 3 5 5 5 5 3 5 5 5 5 5 5 5 5 5 5 5 3 3 5 5 5 5 5 5 5 5 5 5 5 5 5 5 5 5 5 5 5 5 5 5 5 5 5 5 5 5 5 5 5 5 3 5 5 5 5 5 5 5 5 5 5 5 5 5 5 5 5 5 5 5 3 5 5 5 5 5 5 3 3 5 5 3 3 5 5 5 3 5 5 5 5 5 5 5 5 5 5 5 5 5 5 5 5 5 5 5 5 5 5 5 3 5 3 5 3 5 5 5 5 5 5 3 5 3 3 5 5 3 5 5 5 5 5 5 3 3 5 5 3 3 5 5 3 3 5 5 5 5 5 5 5 5 3 5 5 5 5 5 3 5 5 3 5 5 5 3 5 5 5 5 5 5 5 5 5 5 5 5 5 5 5 5 5 5 5 5 5 5 5 5 5 5 5 5 5 5 5 5 5 5 3 5 5 3 5 3 3 5 5 5 5 5 5 5 5 5 3 5 5 5 5 5 3 5 5 5 5 5 5 5 3 5 5 5 5 5 5 5 5 3 5 5 5 5 5 3 5 5 5 5 5 5 5 5 5 5 5 5 5 5 5 5 5 5 5 5 5 5 5 5 5 5 5 5 5 5 3 3 5 5 5 5 5 5 5 3 5 5 5 3 5 3 5 5 5 5 5 5 5 5 5 5 5 5 5 5 5 5 5 5 5 5 5 3 5 5 5 5 5 5 3 5 5 5 5 5 5 5 3 5 5 3 5 5 5 5 5 5 3 5 5 5 3 5 5 3 3 5 5 5 5 5 5 5 5 5 5 5 5 5 5 5 5 5 5 5 5 5 5 5 5 5 5 5 5 3 5 5 5 5 5 5 5 5 5 5 5 5 5 5 5 5 5 5 5 3 5 5 5 3 3 5 5 5 5 5 3 5 5 5 3 5 5 5 5 5 3 5 5 5 5 5 5 5 5 5 5 5 5 5 5 5 5 5 5 5 5 5 3 5 5 5 5 5 5 3 5 5 5 5 5 5 5 5 5 5 5 5 3 5 5 5 5 3 5 3 5 5 5 5 5 5 5 5 5 5 5 5 5 3 5 5 5 5 5 3 5 5 5 5 5 5 3 5 5 5 5 5 5 5 5 5 5 5 5 3 5 5 3 5 5 3 5 5 3 5 5 5 5 5 5 5 5 5 5 3 5 5 5 5 5 5 5 5 3 5 5 5 3 5 5 5 3 5 5 3 5 5 5 3 5 5 5 5 5 3 5 3 5 5 5 5 3 3 5 5 5 3 5 5 5 5 3 5 5 5 5 5 5 5 5 5 5 5 5 5 5 5 3 5 5 3 3 5 5 5 5 3 5 5 5 5 5 5 3 5 5 5 5 5 5 3 5 5 5 5 5 5 5 5 3 5 5 5 5 5 5 5 5 5 5 3 5 5 3 5 5 3 5 5 5 5 5 3 3 5 5 3 3 5 3 5 3 5 3 3 5 5 3 5 3 5 3 5 3 5 3 5 5 3 5 3 5 3 5 5 5 5 5 5 3 5 5 5 3 5 5 5 5 5 5 5 5 5 3 5 5 3 5 3 5 3 5 5 5 3 3 5 5 5 5 5 5 5 5 5 5 5 3 5 5 5 5 5 3 5 5 5 5 5 5 5 5 5 5 5 5 5 5 5 5 5 3 5 5 5 5 5 5 3 5 5 5 3 5 5 3 5 5 5 3 5 3 3 5 5 5 5 5 5 5 5 5 3 5 5 5 5 5 5 5 3 5 3 5 3 5 5 5 5 5 5 5 5 5 5 5 5 5 5 5 5 5 5 5 5 5 5 5 5 5 5 5 5 5 5 5 5 5 5 5 5 5 3 5 5 3 3 5 5 5 5 3 5 5 5 5 5 3 5 5 3 3 5 5 5 5 5 5 3 5 3 5 5 3 3 5 3 5 5 5 3 5 5 5 5 3 5 5 5 3 5 5 3 3 5 5 5 3 5 5 5 5 3 5 5 3 5 5 5 3 5 5 3 5 5 5 3 5 3 5 5 3 5 5 3 3 5 5 3 5 3 3 5 5 5 5 3 5 5 5 5 3 5 5 5 5 5 5 5 5 5 5 5 5 3 5 5 5 5 3 5 3 5 5 5 5 5 3 3 3 5 5 5 5 5 5 5 5 3 5 5 5 5 5 5 3 5 5 5 5 3 5 5 5 5 5 5 5 5 5 5 5 5 5 5 5 5 5 5 3 5 3 5 5 3 3 5 3 5 5 3 5 3 5 3 5 3 5 5 5 5 3 5 5 5 3 5 5 5 5 5 5 5 5 5 5 5 5 5 5 5 5 5 5 5 5 5 5 5 5 5 3 5 5 5 5 5 3 5 5 5 5 5 5 5 5 5 5 5 3 5 5 5 5 5 3 5 5 3 3 5 5 5 3 5 5 3 3 5 3 5 5 5 5 5 5 5 5 5 5 5 5 5 5 5 5 3 5 5 5 5 3 5 5 5 5 5 5 5 5 3 3 5 5 3 5 5 5 5 5 5 5 5 5 3 3 5 5 3 5 5 5 3 5 5 5 5 5 5 5 5 5 5 5 5 5 5 5 5 5 5 5 5 5 5 5 5 5 5 3 5 5 5 5 5 5 5 5 5 5 5 5 5 5 5 5 5 5 5 5 3 5 5 5 3 3 5 5 5 3 5 5 3 5 5 5 5 5 3 5 3 5 5 5 5 5 5 5 5 3 5 5 5 3 5 5 3 5 3 5 5 5 3 5 5 5 3 5 5 5 5 5 5 5 5 5 5 5 5 5 5 5 5 5 3 5 5 5 5 5 5 5 5 5 3 5 5 5 5 5 5 5 5 3 5 5 5 5 5 5 5 5 5 5 5 5 5 3 5 5 5 3 5 5 5 5 5 5 5 5 5 5 5 5 5 5 5 5 5 5 5 3 5 5 5 3 5 3 5 5 5 3 5 5 5 3 3 5 5 5 5 5 5 5 5 5 5 5 5 5 5 5 5 5 5 5 5 5 5 3 5 5 5 5 3 5 5 5 5 3 5 5 5 5 5 5 5 3 5 5 5 5 3 5 5 5 5 5 5 3 5 5 5 5 5 5 3 5 5 5 3 5 5 5 5 5 5 5 5 5 3 5 5 5 5 5 5 3 5 5 5 5 5 5 5 5 5 5 5 3 5 5 3 5 5 5 5 5 3 5 5 3 5 5 5 5 5 5 5 3 3 5 5 5 5 3 5 5 5 5 5 5 3 5 5 5 5 5 5 5 5 5 5 3 5 5 5 5 5 5 5 5 5 5 5 5 3 5 3 5 5 5 3 5 5 3 5 5 5 5 3 5 5 5 5 5 3 5 5 5 5 5 5 5 5 3 5 5 5 5 3 5 5 5 5 5 5 5 3 5 5 5 5 5 5 5 5 5 5 3 5 5 5 3 5 3 5 5 5 5 5 5 3 5 3 5 3 5 5 5 5 3 5 5 5 5 5 5 5 5 5 5 5 5 5 5 3 5 3 5 5 5 5 5 5 5 3 5 5 5 5 5 5 5 5 5 5 5 5 5 3 5 5 5 5 3 5 5 5 5 5 5 5 5 5 5 5 5 5 5 5 5 5 5 5 5 5 5 5 5 3 5 5 5 5 3 5 5 5 3 5 5 3 5 5 3 5 5 5 5 5 5 5 5 5 5 5 5 5 5 5 3 5 5 3 5 5 5 5 5 5 5 3 5 5 5 5 5 3 5 5 5 3 5 5 5 3 5 5 5 5 5 5 5 3 5 5 5 3 5 3 3 5 5 5 5 5 3 5 5 5 5 5 5 5 5 5 5 3 5 5 5 5 5 5 5 5 5 5 5 5 5 5 5 5 5 5 5 5 5 5 5 5 5 5 5 5 5 5 5 5 5 5 5 5 5 3 5 5 5 5 5 5 5 5 5 5 5 5 5 5 5 5 3 5 5 5 5 5 5 5 5 5 3 5 5 5 5 5 5 5 3 5 5 5 5 5 5 5 5 5 5 5 5 5 5 5 5 5 5 5 5 5 3 5 5 5 5 5 5 5 5 5 5 5 5 5 5 5 5 5 3 5 5 5 5 5 5 5 5 5 5 5 5 5 5 5 5 5 5 5 5 5 5 5 5 5 5 5 5 5 5 5 5 5 5 5 5 5 5 5 5 5 5 5 5 5 5 3 5 5 5 5 5 5 5 5 5 5 5 5 5 3 5 3 5 5 5 5 5 3 5 5 5 5 5 3 3 5 5 5 5 5 5 5 5 5 5 5 5 5 5 5 5 5 3 3 5 5 5 5 5 5 3 5 3 5 5 5 5 5 5 5 5 5 3 5 5 5 5 5 5 5 5 5 5 5 5 5 5 5 5 5 5 5 3 5 5 5 5 5 3 5 3 5 5 5 5 5 5 5 3 5 5 5 3 5 5 5 3 5 5 3 5 5 5 3 5 5 3 5 3 5 3 5 5 3 5 5 5 5 5 5 5 5 5 5 5 5 5 5 5 5 5 5 5 5 5 3 5 3 5 5 5 5 5 5 5 3 5 5 5 5 5 5 5 5 5 5 5 5 5 5 5 5 5 5 5 3 5 5 5 3 5 5 5 5 5 5 5 5 5 5 3 5 5 5 5 3 5 5 3 5 5 5 5 5 3 5 5 5 5 3 5 3 5 5 3 5 5 5 5 5 5 5 3 5 5 3 5 3 5 5 5 5 5 5 5 5 5 5 5 5 5 5 5 5 5 5 3 5 5 5 5 5 5 5 3 5 5 5 5 3 5 5 5 5 5 5 5 5 5 3 5 5 5 5 3 5 5 5 5 5 5 5 5 5 5 5 5 3 5 5 5 5 5 5 5 5 5 3 5 5 5 5 5 5 5 5 5 5 5 5 3 5 5 3 5 5 5 5 5 5 5 5 5 3 3 3 5 5 5 3 5 5 5 5 5 5 3 5 5 5 3 3 5 5 5 5 5 5 5 5 5 5 5 5 3 5 5 5 3 3 5 5 5 5 5 3 5 5 5 5 3 5 5 5 5 3 5 5 5 5 5 3 3 3 5 5 5 3 3 5 5 5 5 5 5 5 5 5 3 3 5 5 5 3 3 5 5 5 5 5 5 5 5 5 5 5 5 5 5 5 5 5 3 5 3 5 5 5 5 3 5 5 5 5 5 5 5 3 5 5 5 5 5 5 5 3 5 5 3 5 3 3 5 5 5 3 3 5 5 5 3 3 5 5 5 5 5 5 5 5 5 5 3 5 5 5 5 5 5 5 3 5 5 5 5 3 5 5 5 5 5 5 3 5 5 5 5 3 5 3 5 5 5 5 5 5 5 5 5 5 5 5 5 5 3 5 5 5 5 5 5 5 3 5 5 5 5 3 5 5 5 3 5 5 5 5 5 5 5 5 5 5 5 5 5 5 5 5 5 5 5 5 5 5 3 5 3 5 5 3 5 5 5 3 5 5 3 5 5 5 5 5 5 5 5 5 5 5 5 5 5 5 5 5 5 5 5 3 3 3 5 5 5 5 5 5 5 5 5 5 5 5 5 3 5 5 5 3 5 5 3 5 5 5 5 3 5 5 3 3 5 5 5 5 3 5 5 3 5 3 5 5 5 5 5 5 5 5 5 5 5 5 3 5 5 5 5 5 5 5 3 5 3 5 5 5 5 3 5 5 5 5 5 5 5 5 5 5 5 5 5 5 5 5 5 5 5 5 5 5 5 3 5 5 5 3 5 3 5 5 5 3 5 5 5 5 5 3 5 5 3 5 5 5 5 5 5 5 5 3 5 5 5 5 5 3 5 5 5 5 5 5 5 5 5 5 5 5 5 5 3 5 5 5 5 3 5 5 5 5 5 5 5 5 5 5 5 5 3 5 5 5 5 3 5 5 5 5 5 5 5 5 5 5 5 5 5 3 5 5 3 5 5 5 3 5 5 5 5 5 5 5 5 5 5 5 5 5 3 3 5 3 3 5 5 5 3 3 5 3 5 3 5 3 5 5 5 3 5 3 5 5 5 5 3 5 5 5 5 5 5 3 5 5 5 5 5 3 5 5 3 5 5 3 5 5 3 5 5 5 5 5 3 5 3 5 5 5 5 5 5 5 5 5 5 5 5 5 3 5 5 3 5 5 5 5 5 5 5 5 5 3 5 5 5 5 5 5 5 5 5 3 5 5 3 5 3 5 5 5 5 5 5 5 3 5 5 5 5 5 5 5 3 5 3 5 5 3 5 5 5 3 5 5 5 5 3 5 5 5 5 5 3 5 5 5 5 5 5 5 5 5 5 5 5 5 5 5 5 5 5 5 5 5 3 5 5 3 5 5 5 3 5 5 5 5 3 5 5 5 5 5 5 5 5 5 5 5 5 5 5 5 5 5 5 5 5 5 5 5 3 5 5 5 5 5 5 3 5 5 5 5 5 5 5 5 5 5 5 5 5 3 5 3 5 5 3 5 5 5 5 3 3 5 3 5 3 5 5 5 5 5 3 5 5 3 3 5 5 5 5 5 3 5 5 3 5 5 5 5 5 5 5 5 3 3 5 5 5 3 5 3 5 5 5 5 5 3 5 3 5 5 5 5 5 3 3 5 5 5 5 3 5 5 5 5 3 5 5 5 5 5 5 5 5 5 5 5 5 5 5 5 5 5 3 5 5 3 5 5 5 3 5 5 5 5 5 5 5 5 5 5 5 5 5 5 5 5 5 5 5 3 5 5 5 5 5 5 5 5 5 5 5 5 5 5 3 3 5 5 5 3 5 5 5 5 5 3 5 5 5 5 5 5 5 5 5 5 5 3 5 5 3 5 5 5 5 5 5 5 5 5 5 3 5 5 5 3 5 3 5 3 5 5 5 3 3 5 3 5 5 3 5 5 3 3 5 5 5 3 5 5 3 5 3 5 5 5 3 5 5 3 3 5 3 5 5 3 5 3 5 5 5 5 5 5 5 5 5 3 5 5 5 5 5 3 5 5 5 5 5 5 5 5 5 5 3 5 5 5 5 3 3 5 5 3 5 3 5 5 5 5 5 3 5 5 3 5 3 5 5 5 5 5 5 5 3 5 5 5 5 5 5 5 5 5 3 5 3 5 3 5 3 5 5 5 5 3 5 5 5 5 5 3 3 5 5 5 5 5 5 3 5 5 5 5 5 3 5 5 5 5 3 5 5 3 5 3 5 5 5 3 5 3 5 5 3 3 3 5 5 5 5 5 5 3 3 3 5 5 5 5 3 5 3 5 3 5 5 5 5 5 5 3 5 5 5 5 5 5 5 5 5 5 5 5 5 5 5 5 5 5 5 5 5 5 5 5 5 5 5 5 5 5 5 5 5 5 5 5 5 5 5 5 5 5 5 5 5 5 5 5 5 3 5 5 5 3 3 5 5 5 5 5 5 5 5 5 5 5 5 5 5 5 5 5 5 5 3 5 5 5 5 5 5 5 3 5 5 3 5 5 3 5 5 3 5 3 5 5 3 5 5 5 3 5 3 5 3 3 5 5 5 3 3 5 5 3 5 5 3 5 5 5 5 5 5 5 5 5 5 5 5 3 5 5 5 5 3 5 5 5 5 3 5 5 5 5 5 5 5 5 5 3 5 3 5 5 5 5 3 5 5 5 3 5 5 5 5 5 5 3 5 5 3 5 5 5 3 5 5 5 5 5 5 5 3 5 5 5 5 5 3 5 5 5 5 5 5 5 5 5 5 5 5 5 5 5 3 5 5 5 5 5 3 5 5 3 5 3 5 5 5 5 3 3 5 5 3 5 5 5 5 5 5 5 5 5 5 5 3 5 3 5 5 5 5 5 3 5 5 5 3 5 5 5 3 5 5 5 5 5 5 5 5 5 5 5 5 5 3 5 5 5 5 5 5 5 3 5 3 5 5 5 5 5 5 5 3 3 5 5 5 5 5 5 5 5 5 3 5 5 5 5 5 5 3 3 3 5 3 5 5 5 5 5 5 3 5 3 5 3 5 3 5 5 5 5 5 5 3 5 5 3 5 5 5 5 3 5 5 5 5 5 5 5 5 5 5 5 5 5 5 5 5 5 5 5 5 5 3 5 3 5 5 5 5 5 5 5 5 5 5 5 5 5 5 5 5 5 5 5 5 5 5 5 5 5 5 5 5 5 5 5 5 5 5 5 5 5 5 5 5 5 5 5 5 5 5 5 5 5 5 5 5 5 5 5 5 5 5 3 5 5 5 5 5 5 5 5 5 5 5 5 5 5 5 5 5 5 5 5 5 5 5 3 5 5 5 3 5 3 5 5 5 5 5 5 5 5 5 5 5 5 5 5 5 5 5 5 5 5 5 5 5 5 5 5 5 5 5 5 5 5 5 5 5 5 5 5 5 3 5 3 5 5 5 5 5 5 5 5 5 5 5 5 5 5 5 5 5 5 5 5 5 5 5 5 5 3 5 5 5 5 5 5 5 5 5 5 5 5 5 5 5 5 5 5 5 5 5 5 5 5 5 5 5 5 5 5 5 5 5 5 5 5 5 5 5 5 5 5 5 5 5 5 5 5 5 5 5 5 5 5 5 5 5 5 5 5 5 5 5 5 5 5 5 5 5 3 5 5 5 5 5 5 5 3 5 5 3 5 5 5 5 5 5 5 5 5 5 5 5 5 5 5 5 5 5 5 5 3 5 5 5 5 5 5 5 5 5 5 5 5 5 5 5 5 5 5 5 5 5 5 5 5 5 5 5 5 5 5 5 5 3 5 5 5 5 3 5 3 5 5 5 5 5 5 3 5 5 3 5 5 3 3 5 3 5 5 5 3 5 5 5 5 5 5 5 5 5 5 5 5 5 5 5 3 5 5 5 5 5 5 5 5 3 5 5 5 5 5 5 5 5 5 5 5 5 5 5 5 5 5 5 5 5 5 5 5 5 5 5 5 5 5 5 5 5 5 5 5 5 3 5 5 5 5 5 5 5 3 5 5 3 5 3 5 5 5 5 5 5 5 5 5 5 5 3 3 5 5 3 5 5 3 3 5 5 5 5 3 5 3 5 5 3 5 3 3 5 3 5 3 5 5 5 5 5 5 5 3 5 3 5 5 5 5 5 3 5 5 5 3 5 5 3 5 3 5 3 3 5 5 3 5 5 5 5 5 5 3 5 5 5 5 5 5 5 5 3 3 5 5 5 3 5 5 5 5 3 3 5 3 5 5 5 3 5 5 5 5 5 5 5 5 5 5 5 5 5 5 5 5 3 5 5 5 5 5 5 3 5 3 5 5 5 3 3 5 5 3 5 3 5 5 5 5 5 5 5 5 5 5 5 5 3 3 5 5 5 5 5 3 5 5 5 5 5 5 5 3 5 5 5 3 5 3 5 5 3 5 5 5 5 5 5 5 5 5 3 5 5 3 5 5 5 5 5 5 5 5 5 5 5 3 5 5 5 5 5 5 5 5 5 5 5 5 5 5 5 5 5 5 5 5 5 5 3 5 5 5 5 5 5 5 5 5 5 5 3 5 5 5 5 3 5 5 5 5 5 5 5 5 5 5 5 3 5 5 5 5 5 3 5 3 5 5 5 5 5 5 5 5 5 3 5 5 3 5 5 3 5 5 5 5 3 5 5 5 5 5 5 5 5 5 5 5 5 5 5 5 5 5 5 5 5 5 3 5 5 3 5 3 5 5 5 5 5 5 5 5 5 3 5 5 3 3 3 5 5 5 3 5 5 5 5 5 5 3 3 5 3 5 5 3 5 5 3 5 5 5 5 3 5 5 5 5 3 5 5 5 5 5 5 5 5 5 5 5 3 5 5 3 5 3 3 5 5 3 3 3 5 5 5 5 5 5 5 5 5 5 3 5 5 5 5 5 5 5 5 5 3 5 5 5 5 5 3 5 5 5 5 5 5 5 5 5 5 3 5 5 5 5 5 5 5 5 5 5 5 5 5 5 5 5 5 5 5 5 5 5 5 5 3 3 5 5 5 5 5 5 5 5 3 5 5 5 5 5 5 5 5 5 5 5 5 5 5 5 5 3 5 5 5 5 3 5 5 5 3 3 5 5 5 5 5 5 3 5 3 5 5 5 3 5 5 5 5 5 5 5 5 3 5 3 3 5 5 5 5 5 5 5 5 5 5 5 5 3 5 5 3 5 3 5 5 5 5 5 5 5 5 5 5 5 5 5 5 5 5 5 5 5 5 5 5 5 3 5 5 5 5 5 3 5 5 5 5 5 5 5 5 5 5 3 5 5 5 3 5 5 5 5 5 5 5 5 5 5 5 3 3 5 5 5 5 5 3 5 5 5 3 5 5 5 5 5 5 5 5 5 5 3 5 5 5 5 5 5 5 3 3 5 3 5 5 5 5 3 5 5 5 5 5 3 5 5 5 5 5 5 5 5 5 5 3 5 5 5 5 5 5 5 5 5 5 3 5 5 5 5 5 5 5 3 5 5 5 5 5 5 5 5 5 5 5 5 5 5 5 5 5 5 5 5 3 5 5 5 3 5 5 5 5 5 5 5 5 5 5 5 5 5 3 5 3 3 5 3 3 5 5 5 5 5 3 5 5 5 5 5 5 5 3 5 5 3 5 5 3 5 5 3 5 5 3 3 3 3 5 5 3 3 5 5 3 5 5 3 5 5 5 5 3 3 3 3 5 5 5 3 5 3 5 3 5 3 3 5 5 5 5 5 5 5 3 5 5 3 5 3 5 5 3 3 5 5 5 5 5 5 5 5 5 5 5 5 5 5 5 5 5 3 5 5 5 5 5 5 5 5 5 5 5 5 5 5 5 5 5 3 5 5 5 5 5 5 5 5 5 5 5 5 5 5 3 3 5 5 5 5 3 5 3 5 5 5 3 3 5 3 5 5 5 5 5 5 5 5 5 5 5 5 5 5 5 5 5 5 5 3 5 3 5 5 5 5 3 5 5 5 5 5 5 5 5 5 5 5 5 5 5 5 5 5 5 5 5 3 5 5 5 5 5 5 5 5 5 5 5 5 5 5 3 5 5 5 5 5 5 5 5 5 5 5 5 5 5 5 5 5 5 5 5 5 5 5 5 5 5 5 5 5 5 5 5 5 5 5 5 5 5 5 5 5 5 5 5 5 5 5 5 5 5 5 5 5 5 5 5 5 5 5 5 5 5 3 5 5 5 3 5 5 3 5 5 5 5 5 5 5 5 5 5 5 3 5 5 5 5 3 5 5 5 5 5 5 5 5 5 5 5 5 5 5 5 5 5 5 5 5 5 5 5 5 5 5 5 5 5 3 5 5 5 5 3 5 5 5 5 5 5 5 5 5 5 3 5 5 3 5 5 5 5 5 5 5 5 5 5 5 5 3 5 5 5 5 5 5 5 5 3 5 5 5 5 5 5 5 5 5 5 3 5 3 5 5 5 3 5 5 5 3 5 3 5 3 3 5 5 5 5 5 3 5 5 5 5 5 5 5 5 5 5 5 5 5 5 5 5 5 5 5 5 5 5 5 3 5 5 3 5 5 5 3 5 3 5 5 5 5 5 5 5 5 5 5 5 5 3 5 5 5 5 5 5 5 5 5 5 5 5 5 5 5 5 5 5 5 3 5 5 5 5 5 5 5 5 5 5 5 5 5 5 5 5 5 5 5 5 5 5 5 5 5 5 5 3 5 5 5 5 5 5 5 5 5 5 5 5 5 5 5 5 5 5 3 5 5 5 3 5 5 5 3 3 5 5 5 5 5 3 5 5 5 5 5 5 5 3 3 5 5 5 3 5 3 5 5 5 5 5 5 3 3 5 5 3 3 5 5 5 5 5 5 5 5 5 5 3 5 5 5 5 5 5 3 5 5 5 5 5 5 5 5 5 5 5 5 5 5 5 5 5 3 5 5 5 5 3 5 5 3 5 5 5 5 5 5 5 5 5 5 5 3 5 3 5 3 5 5 5 5 5 5 5 5 5 5 5 5 5 5 5 5 5 5 5 3 5 5 3 5 5 5 3 5 5 3 5 5 5 5 3 5 5 5 5 5 5 5 3 5 5 5 5 5 5 5 5 5 5 5 5 5 5 5 5 5 5 5 5 5 5 5 5 5 5 5 5 5 3 5 5 5 5 5 5 5 5 5 5 5 5 5 5 5 5 5 5 5 5 5 5 5 5 5 5 5 5 5 5 5 5 5 5 5 5 5 3 3 3 5 5 3 5 5 5 3 5 3 5 5 5 5 5 3 5 5 5 5 5 5 5 3 5 5 5 5 5 5 5 5 5 5 5 5 5 5 3 5 5 5 3 5 3 5 5 5 5 5 5 5 5 3 5 5 5 5 5 5 5 3 5 3 5 3 5 5 5 5 5 5 5 5 3 5 5 3 3 3 5 3 5 3 5 5 5 5 5 5 5 5 5 5 5 5 5 5 5 5 5 5 5 5 5 3 5 5 3 3 5 5 5 3 5 5 5 5 5 5 5 3 5 3 5 5 5 5 3 5 5 3 5 5 5 5 5 5 5 3 5 5 3 5 5 5 3 5 5 5 5 5 5 5 5 5 3 5 5 5 5 5 5 3 5 5 3 5 5 5 5 3 5 5 5 5 5 5 3 3 3 5 5 5 3 5 3 5 3 5 5 5 5 5 5 3 5 5 5 3 5 5 5 3 5 5 5 5 5 5 5 5 5 5 5 5 3 5 5 5 3 5 5 5 5 5 3 3 5 5 3 5 3 3 3 5 5 5 3 5 5 5 5 5 3 5 5 5 5 5 5 5 5 5 5 5 5 3 5 5 5 5 5 5 3 5 5 3 5 5 3 5 5 5 5 5 3 5 5 3 5 3 5 3 5 5 5 5 5 5 3 5 5 5 5 3 5 5 5 5 5 5 5 5 5 5 3 5 5 5 5 5 3 5 5 5 5 5 5 5 5 5 5 5 5 5 5 5 3 5 5 5 5 5 3 5 3 5 5 5 5 5 3 5 5 5 5 5 3 5 5 5 5 5 3 5 5 5 5 5 5 5 5 5 5 3 5 3 5 3 5 5 3 5 5 5 5 5 5 5 5 3 5 3 5 5 5 5 5 5 5 5 5 5 3 5 5 5 5 5 5 5 5 5 5 3 5 5 5 3 5 3 3 5 5 5 3 5 5 5 3 3 5 5 5 5 5 5 5 5 5 5 3 3 5 5 5 5 5 3 5 5 5 5 5 5 5 5 5 5 3 5 3 3 3 5 5 5 5 5 5 5 5 3 5 5 5 5 5 5 5 5 5 5 5 5 5 5 5 5 5 5 5 5 5 5 5 5 5 5 5 5 5 3 5 5 5 5 3 5 5 5 5 5 5 5 5 3 5 5 5 5 5 5 5 5 3 5 5 5 5 5 5 5 5 5 5 5 5 5 5 5 5 5 5 5 5 5 5 5 5 5 5 3 5 5 5 5 5 5 3 5 3 5 5 3 5 5 5 3 5 3 5 5 5 3 5 5 5 3 5 5 5 5 5 5 3 5 5 5 5 5 5 5 5 5 5 5 5 5 5 5 5 5 5 5 5 5 5 5 5 5 5 5 3 5 3 5 5 5 5 3 5 5 5 5 5 5 5 5 5 5 5 5 5 3 5 5 3 5 5 3 5 5 5 5 5 3 5 5 5 5 5 5 5 5 3 5 3 5 5 5 5 5 3 3 5 5 3 5 5 5 3 5 5 5 5 5 5 5 3 5 5 5 5 5 5 5 5 5 5 5 5 5 5 5 5 3 5 5 5 5 5 3 5 3 5 5 5 5 5 5 5 5 5 5 5 5 3 5 3 5 5 5 5 5 5 3 3 5 5 5 5 5 5 5 5 5 5 5 5 5 5 5 5 5 5 5 5 5 3 5 5 3 5 5 5 5 5 3 5 5 5 5 5 5 3 5 5 5 5 5 5 5 5 5 5 5 5 5 5 5 5 3 5 5 3 5 5 5 5 3 5 5 5 5 5 5 5 5 5 5 5 3 5 5 5 5 5 5 5 5 5 5 5 5 5 5 5 5 5 5 5 3 5 5 5 5 5 5 5 5 5 5 5 5 3 5 5 5 5 5 5 5 5 5 5 5 5 5 3 3 5 5 5 5 5 5 3 5 5 5 5 5 5 5 5 5 5 5 5 5 5 5 5 5 5 5 5 5 5 5 5 5 5 5 5 5 5 5 5 5 5 5 3 5 5 5 5 5 5 5 5 3 5 5 5 5 5 5 5 5 5 5 5 5 3 5 5 5 5 3 5 3 5 5 5 5 5 5 5 5 3 5 5 5 5 5 5 5 5 5 5 3 5 5 5 3 5 5 3 5 5 5 5 3 5 5 3 5 5 5 5 5 5 5 5 3 5 5 5 3 5 5 5 5 5 5 5 3 5 3 5 3 5 3 3 5 5 5 3 3 3 5 5 3 5 5 5 3 5 5 5 5 3 5 5 5 5 5 5 5 5 5 5 5 5 5 5 5 5 5 5 5 5 5 5 5 5 5 5 5 5 5 5 5 5 5 5 5 5 5 5 3 5 5 5 5 5 5 5 5 3 5 5 5 5 3 5 5 3 5 5 3 5 5 5 5 3 5 5 5 5 5 3 5 5 5 5 5 5 5 5 5 5 5 5 5 3 3 5 5 5 3 5 5 5 5 5 5 5 5 5 5 5 5 5 5 3 5 5 5 5 5 5 3 5 5 3 5 5 5 5 5 5 5 5 5 5 3 5 5 5 5 5 3 5 5 5 5 5 5 5 5 5 5 3 5 5 5 5 5 5 5 5 5 5 5 5 5 5 5 3 5 5 5 5 5 5 5 5 5 5 5 5 5 5 5 5 5 5 5 5 5 5 5 3 5 3 5 5 5 3 5 5 5 5 5 5 5 5 5 3 5 5 5 3 5 5 5 5 5 5 5 5 5 5 5 5 5 5 5 5 3 5 5 5 5 5 3 5 5 5 3 5 3 5 5 5 5 5 5 3 5 5 5 5 5 5 5 5 5 5 5 5 5 5 5 5 5 5 5 5 5 5 5 5 5 5 5 3 5 5 3 5 5 5 5 5 5 5 3 5 5 5 5 3 5 5 3 5 5 5 5 5 5 3 5 5 5 3 5 5 5 3 5 5 5 5 5 3 5 5 5 5 5 3 5 5 5 5 5 5 5 5 3 5 5 3 5 5 5 5 3 5 5 5 5 3 5 5 5 5 3 5 5 5 3 5 3 5 5 5 5 5 5 5 5 5 5 3 5 5 5 5 5 5 5 3 3 5 5 5 5 5 3 5 5 5 5 5 3 5 5 5 3 5 5 3 5 5 3 5 5 5 3 5 5 5 5 5 5 3 5 5 5 5 5 3 5 5 5 5 5 3 5 5 5 5 5 5 3 5 5 5 5 3 5 5 5 5 5 3 5 5 5 5 5 5 5 5 5 5 3 5 5 5 5 5 5 5 3 5 5 5 5 3 3 5 5 3 5 5 5 5 5 5 5 3 5 5 5 5 5 5 5 3 5 3 5 5 3 5 5 5 5 3 5 3 5 5 5 5 5 5 5 5 5 5 3 5 5 5 5 5 3 5 5 5 3 5 5 5 5 3 5 5 3 5 5 5 5 5 3 5 3 5 3 3 5 5 5 5 3 3 5 5 5 5 5 5 5 5 5 5 5 5 5 3 5 5 5 5 5 5 3 3 5 5 5 5 5 5 5 5 5 5 5 5 5 3 5 5 5 5 5 5 5 5 5 5 5 5 5 5 5 5 5 5 5 5 5 5 5 5 5 5 5 5 5 5 5 5 5 3 5 5 3 5 5 5 5 5 5 5 3 5 5 5 3 5 5 3 5 5 5 3 3 5 5 5 5 3 3 5 5 5 5 5 5 5 5 5 5 5 5 5 5 3 5 5 3 5 5 5 3 5 5 5 5 3 5 5 3 5 5 5 5 5 5 5 5 5 5 5 3 5 5 5 5 5 5 5 3 5 5 5 5 5 5 5 5 5 5 5 5 5 5 5 5 5 5 3 5 5 5 5 5 5 3 5 3 5 5 5 5 5 3 5 5 3 5 5 5 3 5 5 5 3 5 5 5 5 5 5 5 5 5 5 5 5 5 5 3 5 5 5 5 3 3 5 5 5 5 5 5 5 5 5 5 5 5 5 5 5 5 5 5 5 3 5 5 5 5 5 5 5 5 3 5 3 5 5 5 5 5 5 5 3 5 3 5 5 5 5 5 3 5 5 5 5 5 5 3 5 5 5 5 5 3 3 5 5 5 3 3 3 5 5 5 5 5 3 5 5 5 5 5 3 5 5 5 5 3 5 3 3 5 3 3 5 5 5 3 5 5 5 3 5 5 5 3 5 5 5 3 5 5 5 5 5 5 5 5 3 5 5 5 3 5 5 5 5 5 5 3 5 5 5 5 5 5 3 5 5 5 5 5 5 5 5 5 5 5 5 5 5 3 5 3 5 5 5 3 5 5 3 5 3 5 3 5 5 3 5 5 5 5 5 5 3 5 5 5 5 3 5 5 5 5 5 5 3 5 5 5 5 5 5 5 5 5 5 3 5 5 5 5 5 5 5 5 5 5 5 5 5 5 5 5 5 5 5 3 3 5 5 5 3 5 5 3 5 5 3 5 5 3 5 5 3 3 5 5 5 5 3 5 5 5 5 5 5 5 5 5 5 5 3 3 5 5 5 3 5 3 5 3 5 5 5 5 5 3 5 5 3 5 3 5 5 3 3 3 5 5 5 5 3 5 5 3 5 3 5 5 3 5 5 5 5 5 5 5 5 3 5 3 3 5 5 5 5 5 3 3 5 5 5 3 3 5 5 5 5 5 5 5 5 3 5 3 5 5 5 5 5 5 5 5 5 5 5 5 5 5 5 5 5 5 5 5 5 5 5 5 5 5 5 5 5 3 5 5 5 5 5 5 5 5 5 5 5 5 5 5 5 3 5 5 3 5 5 5 5 5 3 5 5 5 5 5 5 5 5 5 5 5 5 5 3 5 5 5 5 5 5 5 5 5 3 5 5 3 5 5 5 5 3 3 3 5 5 5 5 5 3 5 5 5 
</DataArray>
</Cells>
<PointData Scalars="" Vectors="displacement," Tensors="">
<DataArray type="Float64" Name="displacement" NumberOfComponents="3" format="ascii">
-0.063286872163814914 -0.064998922753235627 0 -0.06499657887539971 -0.064999739481097787 0 -0.065513337238878935 -0.062853824076847767 0 -0.06499657887539971 -0.064999739481097787 0 -0.065513337238878935 -0.062853824076847767 0 -0.065000974686698923 -0.060137731136783099 0 -0.063283680408516785 -0.064995527308634782 0 -0.064104195066177608 -0.062520837223353817 0 -0.063275786365496273 -0.064997243245815337 0 -0.061956033636484234 -0.06290978078685619 0 -0.062275746303232717 -0.062051148944203133 0 -0.063275786365496273 -0.064997243245815337 0 -0.061956033636484234 -0.06290978078685619 0 -0.060579985784442382 -0.06499778522579551 0 -0.061956033636484234 -0.06290978078685619 0 -0.062720969323828507 -0.060871142596904682 0 -0.061729970159061238 -0.060808562390461611 0 -0.061956033636484234 -0.06290978078685619 0 -0.062275746303232717 -0.062051148944203133 0 -0.062720969323828507 -0.060871142596904682 0 -0.064104195066177608 -0.062520837223353817 0 -0.064997130771445422 -0.060140448089835409 0 -0.062275746303232717 -0.062051148944203133 0 -0.064991154453946001 -0.06013454172649102 0 -0.062720969323828507 -0.060871142596904682 0 -0.064991154453946001 -0.06013454172649102 0 -0.062720969323828507 -0.060871142596904682 0 -0.063395184218924122 -0.059288866859429995 0 -0.062720969323828507 -0.060871142596904682 0 -0.063395184218924122 -0.059288866859429995 0 -0.061729970159061238 -0.060808562390461611 0 -0.062330377957944896 -0.059200495897257802 0 -0.063395184218924122 -0.059288866859429995 0 -0.061729970159061238 -0.060808562390461611 0 -0.062330377957944896 -0.059200495897257802 0 -0.063395184218924122 -0.059288866859429995 0 -0.063443646736508361 -0.057654927564788329 0 -0.063395184218924122 -0.059288866859429995 0 -0.064998749462894495 -0.056261157486273479 0 -0.063443646736508361 -0.057654927564788329 0 -0.064991154453946001 -0.06013454172649102 0 -0.063395184218924122 -0.059288866859429995 0 -0.064998749462894495 -0.056261157486273479 0 -0.061190499074114821 -0.059865655293934908 0 -0.058960820140247873 -0.060791306240239644 0 -0.060262230402253446 -0.059502908965787013 0 -0.062330377957944896 -0.059200495897257802 0 -0.061190499074114821 -0.059865655293934908 0 -0.061729970159061238 -0.060808562390461611 0 -0.062330377957944896 -0.059200495897257802 0 -0.061190499074114821 -0.059865655293934908 0 -0.061593129912776337 -0.058528357660790217 0 -0.061190499074114821 -0.059865655293934908 0 -0.061729970159061238 -0.060808562390461611 0 -0.061368756904492887 -0.061455678656777139 0 -0.061190499074114821 -0.059865655293934908 0 -0.061368756904492887 -0.061455678656777139 0 -0.058960820140247873 -0.060791306240239644 0 -0.058373083025904847 -0.063405800976579163 0 -0.058528914089472805 -0.062833073550340166 0 -0.061729970159061238 -0.060808562390461611 0 -0.061368756904492887 -0.061455678656777139 0 -0.060645259362066384 -0.063272987147313442 0 -0.061956033636484234 -0.06290978078685619 0 -0.061729970159061238 -0.060808562390461611 0 -0.060645259362066384 -0.063272987147313442 0 -0.061956033636484234 -0.06290978078685619 0 -0.060645259362066384 -0.063272987147313442 0 -0.060579985784442382 -0.06499778522579551 0 -0.060645259362066384 -0.063272987147313442 0 -0.060579985784442382 -0.06499778522579551 0 -0.057886154171371371 -0.064997847964263208 0 -0.058373083025904847 -0.063405800976579163 0 -0.057878658722024863 -0.064997526234215411 0 -0.056069401528192633 -0.065346259255492312 0 -0.057873992703275208 -0.064999559342980656 0 -0.055900080563705414 -0.065450043802577046 0 -0.061368756904492887 -0.061455678656777139 0 -0.060645259362066384 -0.063272987147313442 0 -0.057886154171371371 -0.064997847964263208 0 -0.057873992703275208 -0.064999559342980656 0 -0.055900080563705414 -0.065450043802577046 0 -0.054072132397607345 -0.064998722011660279 0 -0.055900080563705414 -0.065450043802577046 0 -0.054072132397607345 -0.064998722011660279 0 -0.055646494267147746 -0.065450676213346631 0 -0.054072132397607345 -0.064998722011660279 0 -0.055646494267147746 -0.065450676213346631 0 -0.05323206565120521 -0.065444645196531745 0 -0.056069401528192633 -0.065346259255492312 0 -0.055900080563705414 -0.065450043802577046 0 -0.055646494267147746 -0.065450676213346631 0 -0.050263645552680619 -0.064999012719584234 0 -0.052683464064919194 -0.066226035558585902 0 -0.048850591610676307 -0.065534956035449815 0 -0.052544226651331162 -0.065085184957043518 0 -0.051469672629390929 -0.064751055554675904 0 -0.050263645552680619 -0.064999012719584234 0 -0.05323206565120521 -0.065444645196531745 0 -0.052683464064919194 -0.066226035558585902 0 -0.054072132397607345 -0.064998722011660279 0 -0.050263645552680619 -0.064999012719584234 0 -0.05323206565120521 -0.065444645196531745 0 -0.055646494267147746 -0.065450676213346631 0 -0.05323206565120521 -0.065444645196531745 0 -0.052683464064919194 -0.066226035558585902 0 -0.055646494267147746 -0.065450676213346631 0 -0.052683464064919194 -0.066226035558585902 0 -0.056508792647031125 -0.064727926430576857 0 -0.051308901178681664 -0.06770643228158317 0 -0.049209951595171268 -0.06709347753276905 0 -0.050089235130810553 -0.068289071041476176 0 -0.051308901178681664 -0.06770643228158317 0 -0.048850591610676307 -0.065534956035449815 0 -0.049209951595171268 -0.06709347753276905 0 -0.051332001838809531 -0.069056784406120744 0 -0.050089235130810553 -0.068289071041476176 0 -0.050488499421752986 -0.069040570464054554 0 -0.051308901178681664 -0.06770643228158317 0 -0.051332001838809531 -0.069056784406120744 0 -0.050089235130810553 -0.068289071041476176 0 -0.052544226651331162 -0.065085184957043518 0 -0.054394232535049408 -0.064892861414178299 0 -0.051308901178681664 -0.06770643228158317 0 -0.051332001838809531 -0.069056784406120744 0 -0.051813854236307681 -0.069041223043291702 0 -0.051679377499673558 -0.069238010795699551 0 -0.051403327525603802 -0.069337814396245701 0 -0.051643874039129213 -0.068930570226823432 0 -0.051332001838809531 -0.069056784406120744 0 -0.051679377499673558 -0.069238010795699551 0 -0.05194413791246906 -0.069201282457503718 0 -0.051332001838809531 -0.069056784406120744 0 -0.051679377499673558 -0.069238010795699551 0 -0.051813854236307681 -0.069041223043291702 0 -0.051332001838809531 -0.069056784406120744 0 -0.052013647537324501 -0.069382401133298452 0 -0.05194413791246906 -0.069201282457503718 0 -0.051332001838809531 -0.069056784406120744 0 -0.052013647537324501 -0.069382401133298452 0 -0.050488499421752986 -0.069040570464054554 0 -0.056069401528192633 -0.065346259255492312 0 -0.057565935397309816 -0.063594195947216645 0 -0.058960820140247873 -0.060791306240239644 0 -0.056069401528192633 -0.065346259255492312 0 -0.055646494267147746 -0.065450676213346631 0 -0.057565935397309816 -0.063594195947216645 0 -0.057565935397309816 -0.063594195947216645 0 -0.056508792647031125 -0.064727926430576857 0 -0.058081552400430003 -0.062821638855165882 0 -0.055646494267147746 -0.065450676213346631 0 -0.057565935397309816 -0.063594195947216645 0 -0.056508792647031125 -0.064727926430576857 0 -0.051679377499673558 -0.069238010795699551 0 -0.051813854236307681 -0.069041223043291702 0 -0.051403327525603802 -0.069337814396245701 0 -0.054394232535049408 -0.064892861414178299 0 -0.055619561059779409 -0.064563322097948961 0 -0.055619561059779409 -0.064563322097948961 0 -0.055638802241874633 -0.064188960153276339 0 -0.057565935397309816 -0.063594195947216645 0 -0.0590834863635189 -0.060800643211788893 0 -0.058960820140247873 -0.060791306240239644 0 -0.057565935397309816 -0.063594195947216645 0 -0.058081552400430003 -0.062821638855165882 0 -0.0590834863635189 -0.060800643211788893 0 -0.0590834863635189 -0.060800643211788893 0 -0.058960820140247873 -0.060791306240239644 0 -0.059305960332727663 -0.059874445543373678 0 -0.059305960332727663 -0.059874445543373678 0 -0.059315094935405495 -0.059598309339498376 0 -0.059617672170251351 -0.058997510104235831 0 -0.0590834863635189 -0.060800643211788893 0 -0.059305960332727663 -0.059874445543373678 0 -0.059315094935405495 -0.059598309339498376 0 -0.051403327525603802 -0.069337814396245701 0 -0.05056546628490436 -0.06810699559638099 0 -0.051643874039129213 -0.068930570226823432 0 -0.059878324230520717 -0.061505494803664004 0 -0.0590834863635189 -0.060800643211788893 0 -0.059315094935405495 -0.059598309339498376 0 -0.059878324230520717 -0.061505494803664004 0 -0.059315094935405495 -0.059598309339498376 0 -0.059700553111069324 -0.058870228646906032 0 -0.055619561059779409 -0.064563322097948961 0 -0.055172743243812571 -0.063327764694331587 0 -0.059315094935405495 -0.059598309339498376 0 -0.059700553111069324 -0.058870228646906032 0 -0.059283280132441774 -0.058859508559102512 0 -0.059700553111069324 -0.058870228646906032 0 -0.059283280132441774 -0.058859508559102512 0 -0.05894168901401179 -0.058371101824309442 0 -0.059283280132441774 -0.058859508559102512 0 -0.05894168901401179 -0.058371101824309442 0 -0.059617672170251351 -0.058997510104235831 0 -0.059315094935405495 -0.059598309339498376 0 -0.059283280132441774 -0.058859508559102512 0 -0.059617672170251351 -0.058997510104235831 0 -0.052013647537324501 -0.069382401133298452 0 -0.052501801888330105 -0.068866627544646494 0 -0.053465099231357442 -0.068694589782708357 0 -0.052013647537324501 -0.069382401133298452 0 -0.052501801888330105 -0.068866627544646494 0 -0.05194413791246906 -0.069201282457503718 0 -0.052501801888330105 -0.068866627544646494 0 -0.05194413791246906 -0.069201282457503718 0 -0.051643874039129213 -0.068930570226823432 0 -0.051679377499673558 -0.069238010795699551 0 -0.05194413791246906 -0.069201282457503718 0 -0.051643874039129213 -0.068930570226823432 0 -0.05056546628490436 -0.06810699559638099 0 -0.052883025924825154 -0.067376729920794645 0 -0.052707639144952328 -0.064716308343321191 0 -0.052501801888330105 -0.068866627544646494 0 -0.051643874039129213 -0.068930570226823432 0 -0.052883025924825154 -0.067376729920794645 0 -0.05056546628490436 -0.06810699559638099 0 -0.051643874039129213 -0.068930570226823432 0 -0.052883025924825154 -0.067376729920794645 0 -0.052501801888330105 -0.068866627544646494 0 -0.052883025924825154 -0.067376729920794645 0 -0.053465099231357442 -0.068694589782708357 0 -0.052883025924825154 -0.067376729920794645 0 -0.053465099231357442 -0.068694589782708357 0 -0.054550139005093319 -0.066963936741184699 0 -0.054741596132044039 -0.064826129869148263 0 -0.054550139005093319 -0.066963936741184699 0 -0.056461453350540085 -0.065512863431803792 0 -0.052883025924825154 -0.067376729920794645 0 -0.054741596132044039 -0.064826129869148263 0 -0.054550139005093319 -0.066963936741184699 0 -0.052883025924825154 -0.067376729920794645 0 -0.054741596132044039 -0.064826129869148263 0 -0.052707639144952328 -0.064716308343321191 0 -0.052707639144952328 -0.064716308343321191 0 -0.050802273960896371 -0.063110446026630448 0 -0.05364292103611714 -0.060644217841701716 0 -0.052707639144952328 -0.064716308343321191 0 -0.055691001070940958 -0.060653394437050534 0 -0.05364292103611714 -0.060644217841701716 0 -0.054741596132044039 -0.064826129869148263 0 -0.052707639144952328 -0.064716308343321191 0 -0.055691001070940958 -0.060653394437050534 0 -0.054741596132044039 -0.064826129869148263 0 -0.055691001070940958 -0.060653394437050534 0 -0.057112702507042978 -0.062921260016813654 0 -0.059700553111069324 -0.058870228646906032 0 -0.05894168901401179 -0.058371101824309442 0 -0.058096003428434816 -0.058070715181480083 0 -0.05056546628490436 -0.06810699559638099 0 -0.052707639144952328 -0.064716308343321191 0 -0.050802273960896371 -0.063110446026630448 0 -0.055172743243812571 -0.063327764694331587 0 -0.054856110220529455 -0.061700087686113861 0 -0.058096003428434816 -0.058070715181480083 0 -0.058258622218152964 -0.058299550028317042 0 -0.056755393559597515 -0.058385272094996395 0 -0.058258622218152964 -0.058299550028317042 0 -0.059358416191388749 -0.058531890502494188 0 -0.058114767593916219 -0.058626315023424115 0 -0.05894168901401179 -0.058371101824309442 0 -0.058258622218152964 -0.058299550028317042 0 -0.059358416191388749 -0.058531890502494188 0 -0.05894168901401179 -0.058371101824309442 0 -0.058096003428434816 -0.058070715181480083 0 -0.058258622218152964 -0.058299550028317042 0 -0.059358416191388749 -0.058531890502494188 0 -0.060136572439759256 -0.058366441343741249 0 -0.060905309725889992 -0.058549394910793577 0 -0.05894168901401179 -0.058371101824309442 0 -0.059358416191388749 -0.058531890502494188 0 -0.060136572439759256 -0.058366441343741249 0 -0.060136572439759256 -0.058366441343741249 0 -0.060905309725889992 -0.058549394910793577 0 -0.061728073870847652 -0.057907386846923405 0 -0.059358416191388749 -0.058531890502494188 0 -0.060905309725889992 -0.058549394910793577 0 -0.060484524348311988 -0.059173300683151547 0 -0.060905309725889992 -0.058549394910793577 0 -0.062035670699095533 -0.059112419669315637 0 -0.060484524348311988 -0.059173300683151547 0 -0.062035670699095533 -0.059112419669315637 0 -0.063732497425713866 -0.058532380523270623 0 -0.062195749701048783 -0.058295459005763904 0 -0.060905309725889992 -0.058549394910793577 0 -0.062035670699095533 -0.059112419669315637 0 -0.062195749701048783 -0.058295459005763904 0 -0.064411312709658441 -0.052916401107207647 0 -0.06406920305890465 -0.049721015331412842 0 -0.06599603745782319 -0.050880856935479189 0 -0.064997990995191379 -0.052383044379437728 0 -0.065001168808733578 -0.04849871685722093 0 -0.06599603745782319 -0.050880856935479189 0 -0.065731324048048323 -0.048176873632962358 0 -0.065001168808733578 -0.04849871685722093 0 -0.062035670699095533 -0.059112419669315637 0 -0.063732497425713866 -0.058532380523270623 0 -0.063345524393208064 -0.059826196301950192 0 -0.064411312709658441 -0.052916401107207647 0 -0.064498842969479081 -0.053548294041546408 0 -0.063732497425713866 -0.058532380523270623 0 -0.062195749701048783 -0.058295459005763904 0 -0.062906453461361825 -0.057263122704655882 0 -0.06599603745782319 -0.050880856935479189 0 -0.064997990995191379 -0.052383044379437728 0 -0.064841565489959258 -0.055084867474830032 0 -0.063732497425713866 -0.058532380523270623 0 -0.062906453461361825 -0.057263122704655882 0 -0.064841565489959258 -0.055084867474830032 0 -0.060905309725889992 -0.058549394910793577 0 -0.062195749701048783 -0.058295459005763904 0 -0.061728073870847652 -0.057907386846923405 0 -0.062195749701048783 -0.058295459005763904 0 -0.062906453461361825 -0.057263122704655882 0 -0.061728073870847652 -0.057907386846923405 0 -0.061728073870847652 -0.057907386846923405 0 -0.062656854597874262 -0.057092417617522442 0 -0.061214015965466585 -0.05804522138968711 0 -0.062906453461361825 -0.057263122704655882 0 -0.062656854597874262 -0.057092417617522442 0 -0.064841565489959258 -0.055084867474830032 0 -0.062906453461361825 -0.057263122704655882 0 -0.061728073870847652 -0.057907386846923405 0 -0.062656854597874262 -0.057092417617522442 0 -0.062656854597874262 -0.057092417617522442 0 -0.064841565489959258 -0.055084867474830032 0 -0.06409587755912563 -0.056476109065906811 0 -0.064997990995191379 -0.052383044379437728 0 -0.064841565489959258 -0.055084867474830032 0 -0.064998749462894495 -0.056261157486273479 0 -0.064841565489959258 -0.055084867474830032 0 -0.06409587755912563 -0.056476109065906811 0 -0.064998749462894495 -0.056261157486273479 0 -0.06409587755912563 -0.056476109065906811 0 -0.064998749462894495 -0.056261157486273479 0 -0.063443646736508361 -0.057654927564788329 0 -0.062330377957944896 -0.059200495897257802 0 -0.063443646736508361 -0.057654927564788329 0 -0.061593129912776337 -0.058528357660790217 0 -0.062656854597874262 -0.057092417617522442 0 -0.063443646736508361 -0.057654927564788329 0 -0.061593129912776337 -0.058528357660790217 0 -0.062656854597874262 -0.057092417617522442 0 -0.06409587755912563 -0.056476109065906811 0 -0.063443646736508361 -0.057654927564788329 0 -0.061190499074114821 -0.059865655293934908 0 -0.061593129912776337 -0.058528357660790217 0 -0.060262230402253446 -0.059502908965787013 0 -0.061593129912776337 -0.058528357660790217 0 -0.060474323047216831 -0.058661915127265485 0 -0.061214015965466585 -0.05804522138968711 0 -0.061593129912776337 -0.058528357660790217 0 -0.060262230402253446 -0.059502908965787013 0 -0.060474323047216831 -0.058661915127265485 0 -0.058960820140247873 -0.060791306240239644 0 -0.059305960332727663 -0.059874445543373678 0 -0.060262230402253446 -0.059502908965787013 0 -0.059305960332727663 -0.059874445543373678 0 -0.060262230402253446 -0.059502908965787013 0 -0.059617672170251351 -0.058997510104235831 0 -0.060262230402253446 -0.059502908965787013 0 -0.060474323047216831 -0.058661915127265485 0 -0.059617672170251351 -0.058997510104235831 0 -0.05894168901401179 -0.058371101824309442 0 -0.060136572439759256 -0.058366441343741249 0 -0.059617672170251351 -0.058997510104235831 0 -0.060136572439759256 -0.058366441343741249 0 -0.060474323047216831 -0.058661915127265485 0 -0.059617672170251351 -0.058997510104235831 0 -0.060136572439759256 -0.058366441343741249 0 -0.060474323047216831 -0.058661915127265485 0 -0.061214015965466585 -0.05804522138968711 0 -0.060136572439759256 -0.058366441343741249 0 -0.061728073870847652 -0.057907386846923405 0 -0.061214015965466585 -0.05804522138968711 0 -0.062656854597874262 -0.057092417617522442 0 -0.061593129912776337 -0.058528357660790217 0 -0.061214015965466585 -0.05804522138968711 0 -0.033157049914670722 -0.071662952128208252 0 -0.033859351799916997 -0.074529617423067102 0 -0.03179860689676569 -0.073671296701105893 0 -0.033157049914670722 -0.071662952128208252 0 -0.035696544470754342 -0.073417994516771057 0 -0.033859351799916997 -0.074529617423067102 0 -0.033157049914670722 -0.071662952128208252 0 -0.03179860689676569 -0.073671296701105893 0 -0.031759652189804338 -0.071524557380305887 0 -0.033157049914670722 -0.071662952128208252 0 -0.035696544470754342 -0.073417994516771057 0 -0.035314563792266759 -0.069939102065569095 0 -0.035696544470754342 -0.073417994516771057 0 -0.035314563792266759 -0.069939102065569095 0 -0.038342734707929864 -0.071945706264804468 0 -0.035314563792266759 -0.069939102065569095 0 -0.033011280521454182 -0.067346455243561754 0 -0.031938243509402046 -0.06988431389432033 0 -0.033157049914670722 -0.071662952128208252 0 -0.035314563792266759 -0.069939102065569095 0 -0.031938243509402046 -0.06988431389432033 0 -0.033157049914670722 -0.071662952128208252 0 -0.031938243509402046 -0.06988431389432033 0 -0.031759652189804338 -0.071524557380305887 0 -0.033011280521454182 -0.067346455243561754 0 -0.035028531565228185 -0.065000021759903756 0 -0.031218689669853875 -0.064999180696877545 0 -0.033011280521454182 -0.067346455243561754 0 -0.035028531565228185 -0.065000021759903756 0 -0.036548158972615999 -0.067146387308355732 0 -0.035314563792266759 -0.069939102065569095 0 -0.033011280521454182 -0.067346455243561754 0 -0.036548158972615999 -0.067146387308355732 0 -0.035314563792266759 -0.069939102065569095 0 -0.036548158972615999 -0.067146387308355732 0 -0.039063395486447015 -0.068772753025693176 0 -0.036548158972615999 -0.067146387308355732 0 -0.038836811965213651 -0.064999638085235081 0 -0.039063395486447015 -0.068772753025693176 0 -0.035028531565228185 -0.065000021759903756 0 -0.036548158972615999 -0.067146387308355732 0 -0.038836811965213651 -0.064999638085235081 0 -0.038836811965213651 -0.064999638085235081 0 -0.039063395486447015 -0.068772753025693176 0 -0.042589824718644941 -0.067598706763384642 0 -0.039063395486447015 -0.068772753025693176 0 -0.038342734707929864 -0.071945706264804468 0 -0.042859936409844215 -0.071450499993947605 0 -0.035314563792266759 -0.069939102065569095 0 -0.039063395486447015 -0.068772753025693176 0 -0.038342734707929864 -0.071945706264804468 0 -0.035696544470754342 -0.073417994516771057 0 -0.038342734707929864 -0.071945706264804468 0 -0.037960983242065961 -0.074183815760794081 0 -0.038342734707929864 -0.071945706264804468 0 -0.042859936409844215 -0.071450499993947605 0 -0.040177684074011372 -0.074345173261024466 0 -0.039814717828830434 -0.070348273050116233 0 -0.039243221924202806 -0.069726423600924514 0 -0.042859936409844215 -0.071450499993947605 0 -0.046716039287708906 -0.069123815877810857 0 -0.045779561628827396 -0.074003495729389634 0 -0.050028350872311715 -0.069798490645911621 0 -0.050947957351634807 -0.070026451864823147 0 -0.042859936409844215 -0.071450499993947605 0 -0.046716039287708906 -0.069123815877810857 0 -0.042589824718644941 -0.067598706763384642 0 -0.039063395486447015 -0.068772753025693176 0 -0.042859936409844215 -0.071450499993947605 0 -0.042589824718644941 -0.067598706763384642 0 -0.038836811965213651 -0.064999638085235081 0 -0.042589824718644941 -0.067598706763384642 0 -0.042646160105339691 -0.064999458796322435 0 -0.042589824718644941 -0.067598706763384642 0 -0.042646160105339691 -0.064999458796322435 0 -0.045511765817805271 -0.066492539081175903 0 -0.042646160105339691 -0.064999458796322435 0 -0.046454589198105731 -0.064999827285833797 0 -0.045511765817805271 -0.066492539081175903 0 -0.046716039287708906 -0.069123815877810857 0 -0.042589824718644941 -0.067598706763384642 0 -0.045511765817805271 -0.066492539081175903 0 -0.046716039287708906 -0.069123815877810857 0 -0.047984716438534122 -0.067519578818821188 0 -0.045511765817805271 -0.066492539081175903 0 -0.047984716438534122 -0.067519578818821188 0 -0.045511765817805271 -0.066492539081175903 0 -0.047642903394823445 -0.066315307847316013 0 -0.046454589198105731 -0.064999827285833797 0 -0.045511765817805271 -0.066492539081175903 0 -0.047642903394823445 -0.066315307847316013 0 -0.046454589198105731 -0.064999827285833797 0 -0.048850591610676307 -0.065534956035449815 0 -0.047642903394823445 -0.066315307847316013 0 -0.050263645552680619 -0.064999012719584234 0 -0.046454589198105731 -0.064999827285833797 0 -0.048850591610676307 -0.065534956035449815 0 -0.048850591610676307 -0.065534956035449815 0 -0.047642903394823445 -0.066315307847316013 0 -0.049209951595171268 -0.06709347753276905 0 -0.047984716438534122 -0.067519578818821188 0 -0.049209951595171268 -0.06709347753276905 0 -0.050089235130810553 -0.068289071041476176 0 -0.047984716438534122 -0.067519578818821188 0 -0.047642903394823445 -0.066315307847316013 0 -0.049209951595171268 -0.06709347753276905 0 -0.050089235130810553 -0.068289071041476176 0 -0.04897901371367272 -0.068774601025500259 0 -0.050488499421752986 -0.069040570464054554 0 -0.047984716438534122 -0.067519578818821188 0 -0.050089235130810553 -0.068289071041476176 0 -0.04897901371367272 -0.068774601025500259 0 -0.046716039287708906 -0.069123815877810857 0 -0.047984716438534122 -0.067519578818821188 0 -0.04897901371367272 -0.068774601025500259 0 -0.046716039287708906 -0.069123815877810857 0 -0.04897901371367272 -0.068774601025500259 0 -0.050128449054962977 -0.069298430256593949 0 -0.046716039287708906 -0.069123815877810857 0 -0.050128449054962977 -0.069298430256593949 0 -0.049125014507060229 -0.069475518268977354 0 -0.052013647537324501 -0.069382401133298452 0 -0.050128449054962977 -0.069298430256593949 0 -0.050488499421752986 -0.069040570464054554 0 -0.04897901371367272 -0.068774601025500259 0 -0.050128449054962977 -0.069298430256593949 0 -0.050488499421752986 -0.069040570464054554 0 -0.052013647537324501 -0.069382401133298452 0 -0.053465099231357442 -0.068694589782708357 0 -0.052752150769996967 -0.069656829869436887 0 -0.052013647537324501 -0.069382401133298452 0 -0.050128449054962977 -0.069298430256593949 0 -0.052752150769996967 -0.069656829869436887 0 -0.050128449054962977 -0.069298430256593949 0 -0.052752150769996967 -0.069656829869436887 0 -0.050369497011064759 -0.070292624598921202 0 -0.050128449054962977 -0.069298430256593949 0 -0.050369497011064759 -0.070292624598921202 0 -0.049125014507060229 -0.069475518268977354 0 -0.052752150769996967 -0.069656829869436887 0 -0.050369497011064759 -0.070292624598921202 0 -0.051681057667407333 -0.071987950600362033 0 -0.056340441851500105 -0.064398946150216491 0 -0.054862249321846669 -0.063691381586153312 0 -0.050369497011064759 -0.070292624598921202 0 -0.051681057667407333 -0.071987950600362033 0 -0.048980227545746637 -0.071466467781180307 0 -0.052752150769996967 -0.069656829869436887 0 -0.056020277334262486 -0.067911210180073872 0 -0.055731416989468395 -0.067801968263924942 0 -0.056340441851500105 -0.064398946150216491 0 -0.056357785390171597 -0.064482764527586792 0 -0.053465099231357442 -0.068694589782708357 0 -0.052752150769996967 -0.069656829869436887 0 -0.055731416989468395 -0.067801968263924942 0 -0.055690519577208095 -0.065909499850690945 0 -0.056340441851500105 -0.064398946150216491 0 -0.053465099231357442 -0.068694589782708357 0 -0.054550139005093319 -0.066963936741184699 0 -0.055731416989468395 -0.067801968263924942 0 -0.054550139005093319 -0.066963936741184699 0 -0.055731416989468395 -0.067801968263924942 0 -0.056461453350540085 -0.065512863431803792 0 -0.058911213844780895 -0.068164845277829914 0 -0.057504648477814953 -0.066340085907171734 0 -0.059135694721653358 -0.064180854317112956 0 -0.055731416989468395 -0.067801968263924942 0 -0.057504648477814953 -0.066340085907171734 0 -0.056461453350540085 -0.065512863431803792 0 -0.058911213844780895 -0.068164845277829914 0 -0.055731416989468395 -0.067801968263924942 0 -0.057504648477814953 -0.066340085907171734 0 -0.059135694721653358 -0.064180854317112956 0 -0.056461453350540085 -0.065512863431803792 0 -0.057112702507042978 -0.062921260016813654 0 -0.057504648477814953 -0.066340085907171734 0 -0.059135694721653358 -0.064180854317112956 0 -0.056461453350540085 -0.065512863431803792 0 -0.054741596132044039 -0.064826129869148263 0 -0.056461453350540085 -0.065512863431803792 0 -0.057112702507042978 -0.062921260016813654 0 -0.059135694721653358 -0.064180854317112956 0 -0.057112702507042978 -0.062921260016813654 0 -0.058902952678856459 -0.060492427587982872 0 -0.055691001070940958 -0.060653394437050534 0 -0.057112702507042978 -0.062921260016813654 0 -0.058902952678856459 -0.060492427587982872 0 -0.059135694721653358 -0.064180854317112956 0 -0.058902952678856459 -0.060492427587982872 0 -0.063282828337901442 -0.061567141825524238 0 -0.058911213844780895 -0.068164845277829914 0 -0.059135694721653358 -0.064180854317112956 0 -0.063282828337901442 -0.061567141825524238 0 -0.062567718795383073 -0.059432237699208898 0 -0.064129071257354175 -0.054980165818492126 0 -0.065045497946450079 -0.057492883564634757 0 -0.062567718795383073 -0.059432237699208898 0 -0.065045497946450079 -0.057492883564634757 0 -0.066483463398419471 -0.059750589621699747 0 -0.056340441851500105 -0.064398946150216491 0 -0.06152844835635235 -0.05768147602353333 0 -0.065045497946450079 -0.057492883564634757 0 -0.066994776321721364 -0.055820575411882019 0 -0.066483463398419471 -0.059750589621699747 0 -0.061189966012987214 -0.054232853963606512 0 -0.054862249321846669 -0.063691381586153312 0 -0.064129071257354175 -0.054980165818492126 0 -0.065045497946450079 -0.057492883564634757 0 -0.066994776321721364 -0.055820575411882019 0 -0.064129071257354175 -0.054980165818492126 0 -0.066994776321721364 -0.055820575411882019 0 -0.066075134773648278 -0.053369915795579363 0 -0.066503305948125466 -0.049200581860633773 0 -0.067019502756729674 -0.048805948370382261 0 -0.067164956703033588 -0.049502972165553612 0 -0.067019502756729674 -0.048805948370382261 0 -0.067164956703033588 -0.049502972165553612 0 -0.06751817059241666 -0.048821528687228215 0 -0.066503305948125466 -0.049200581860633773 0 -0.067164956703033588 -0.049502972165553612 0 -0.066347403151075762 -0.050176161564764982 0 -0.067164956703033588 -0.049502972165553612 0 -0.066347403151075762 -0.050176161564764982 0 -0.067280813799615993 -0.050224101683666117 0 -0.045139958061841179 -0.078214912344725662 0 -0.043117224950813098 -0.075531918161716907 0 -0.041348925849595264 -0.077857865751396693 0 -0.054862249321846669 -0.063691381586153312 0 -0.051908124327938593 -0.062959506602616899 0 -0.050369497011064759 -0.070292624598921202 0 -0.048980227545746637 -0.071466467781180307 0 -0.049125014507060229 -0.069475518268977354 0 -0.054862249321846669 -0.063691381586153312 0 -0.050947957351634807 -0.070026451864823147 0 -0.045139958061841179 -0.078214912344725662 0 -0.045779561628827396 -0.074003495729389634 0 -0.043117224950813098 -0.075531918161716907 0 -0.043117224950813098 -0.075531918161716907 0 -0.040287119892060297 -0.074549501814325916 0 -0.041348925849595264 -0.077857865751396693 0 -0.042859936409844215 -0.071450499993947605 0 -0.045779561628827396 -0.074003495729389634 0 -0.043117224950813098 -0.075531918161716907 0 -0.042859936409844215 -0.071450499993947605 0 -0.043117224950813098 -0.075531918161716907 0 -0.040287119892060297 -0.074549501814325916 0 -0.038342734707929864 -0.071945706264804468 0 -0.040177684074011372 -0.074345173261024466 0 -0.037960983242065961 -0.074183815760794081 0 -0.040177684074011372 -0.074345173261024466 0 -0.037960983242065961 -0.074183815760794081 0 -0.037657935406861756 -0.076999761871450662 0 -0.039243221924202806 -0.069726423600924514 0 -0.042808201039401014 -0.061299946651416019 0 -0.035696544470754342 -0.073417994516771057 0 -0.037960983242065961 -0.074183815760794081 0 -0.037657935406861756 -0.076999761871450662 0 -0.040287119892060297 -0.074549501814325916 0 -0.037635325583020379 -0.077491055311455559 0 -0.041348925849595264 -0.077857865751396693 0 -0.042808201039401014 -0.061299946651416019 0 -0.051908124327938593 -0.062959506602616899 0 -0.068157291163596992 -0.05028291080516048 0 -0.067280813799615993 -0.050224101683666117 0 -0.067954204991843431 -0.049467793753394336 0 -0.067164956703033588 -0.049502972165553612 0 -0.067280813799615993 -0.050224101683666117 0 -0.067954204991843431 -0.049467793753394336 0 -0.067164956703033588 -0.049502972165553612 0 -0.06751817059241666 -0.048821528687228215 0 -0.067954204991843431 -0.049467793753394336 0 -0.067954204991843431 -0.049467793753394336 0 -0.068841854850774431 -0.049489181951619741 0 -0.068458502283276323 -0.04857862448181368 0 -0.06751817059241666 -0.048821528687228215 0 -0.067954204991843431 -0.049467793753394336 0 -0.068458502283276323 -0.04857862448181368 0 -0.068157291163596992 -0.05028291080516048 0 -0.067954204991843431 -0.049467793753394336 0 -0.068841854850774431 -0.049489181951619741 0 -0.042808201039401014 -0.061299946651416019 0 -0.031933448122046168 -0.053567810542305007 0 -0.031933448122046168 -0.053567810542305007 0 -0.035592109792041374 -0.048722037575324652 0 -0.011229023978920867 -0.051769838809417074 0 -0.01499837754470925 -0.047554039861200513 0 -0.0083453776656139608 -0.046332062601554466 0 -0.012527216567013817 -0.050671839595726027 0 -0.01499837754470925 -0.047554039861200513 0 -0.016112186755265549 -0.051802604597772209 0 -0.031933448122046168 -0.053567810542305007 0 -0.026418301847018696 -0.054912216907248367 0 -0.012527216567013817 -0.050671839595726027 0 -0.016112186755265549 -0.051802604597772209 0 -0.0152779191035323 -0.056112961619650771 0 -0.031933448122046168 -0.053567810542305007 0 -0.03044504997537166 -0.059959508002318272 0 -0.016112186755265549 -0.051802604597772209 0 -0.0152779191035323 -0.056112961619650771 0 -0.018817465291029702 -0.056473466241203037 0 -0.03044504997537166 -0.059959508002318272 0 -0.028074586978488577 -0.059632392451054991 0 -0.042808201039401014 -0.061299946651416019 0 -0.03044504997537166 -0.059959508002318272 0 -0.037657935406861756 -0.076999761871450662 0 -0.033358779330480724 -0.076609840006563609 0 -0.033859351799916997 -0.074529617423067102 0 -0.035312217291497583 -0.060015288475747254 0 -0.03414371080059285 -0.061280931405681305 0 -0.033385187566042543 -0.059857104412056175 0 -0.035696544470754342 -0.073417994516771057 0 -0.037657935406861756 -0.076999761871450662 0 -0.033859351799916997 -0.074529617423067102 0 -0.03044504997537166 -0.059959508002318272 0 -0.028851621035021195 -0.064039217111957522 0 -0.033358779330480724 -0.076609840006563609 0 -0.033859351799916997 -0.074529617423067102 0 -0.03179860689676569 -0.073671296701105893 0 -0.016667627785085865 -0.056299400741450782 0 -0.019451623109370552 -0.060218421145284987 0 -0.018817465291029702 -0.056473466241203037 0 -0.01337815659665605 -0.034530466448053007 0 -0.01438531283334718 -0.038446176838100601 0 -0.01628048368035049 -0.035125607470719335 0 -0.01337815659665605 -0.034530466448053007 0 -0.010146151511406919 -0.033040789865262855 0 -0.012900547896692937 -0.03129234773815117 0 -0.01337815659665605 -0.034530466448053007 0 -0.010146151511406919 -0.033040789865262855 0 -0.010466470036806454 -0.037485918624012009 0 -0.010146151511406919 -0.033040789865262855 0 -0.010466470036806454 -0.037485918624012009 0 -0.0071317154859500088 -0.035011604351528926 0 -0.010466470036806454 -0.037485918624012009 0 -0.01438531283334718 -0.038446176838100601 0 -0.012133264554248645 -0.042356640733544837 0 -0.01337815659665605 -0.034530466448053007 0 -0.010466470036806454 -0.037485918624012009 0 -0.01438531283334718 -0.038446176838100601 0 -0.01438531283334718 -0.038446176838100601 0 -0.012133264554248645 -0.042356640733544837 0 -0.016392614580869887 -0.042536664393099367 0 -0.01499837754470925 -0.047554039861200513 0 -0.012133264554248645 -0.042356640733544837 0 -0.016392614580869887 -0.042536664393099367 0 -0.01499837754470925 -0.047554039861200513 0 -0.012133264554248645 -0.042356640733544837 0 -0.0083453776656139608 -0.046332062601554466 0 -0.012133264554248645 -0.042356640733544837 0 -0.0057110894854137438 -0.041006957567567948 0 -0.0083453776656139608 -0.046332062601554466 0 -0.010466470036806454 -0.037485918624012009 0 -0.012133264554248645 -0.042356640733544837 0 -0.0057110894854137438 -0.041006957567567948 0 -0.037439554308694639 -0.044149680260242678 0 -0.035592109792041374 -0.048722037575324652 0 -0.06751817059241666 -0.048821528687228215 0 -0.068458502283276323 -0.04857862448181368 0 -0.067777316565882664 -0.048240269038220075 0 -0.06811319429257312 -0.047641824579359324 0 -0.068458502283276323 -0.04857862448181368 0 -0.067777316565882664 -0.048240269038220075 0 -0.06751817059241666 -0.048821528687228215 0 -0.067777316565882664 -0.048240269038220075 0 -0.06726544811744295 -0.04835112889199137 0 -0.067777316565882664 -0.048240269038220075 0 -0.067399966694757563 -0.047805460365708596 0 -0.06726544811744295 -0.04835112889199137 0 -0.06811319429257312 -0.047641824579359324 0 -0.067507953131129478 -0.047247040462883284 0 -0.067399966694757563 -0.047805460365708596 0 -0.06811319429257312 -0.047641824579359324 0 -0.067777316565882664 -0.048240269038220075 0 -0.067399966694757563 -0.047805460365708596 0 -0.06811319429257312 -0.047641824579359324 0 -0.067868087359574142 -0.046703493808279539 0 -0.067507953131129478 -0.047247040462883284 0 -0.037439554308694639 -0.044149680260242678 0 -0.039625159141825725 -0.039587541998829925 0 -0.067868087359574142 -0.046703493808279539 0 -0.067454893712189337 -0.046837176853578411 0 -0.067507953131129478 -0.047247040462883284 0 -0.010466470036806454 -0.037485918624012009 0 -0.0057110894854137438 -0.041006957567567948 0 -0.0071317154859500088 -0.035011604351528926 0 -0.0057110894854137438 -0.041006957567567948 0 -0.0071317154859500088 -0.035011604351528926 0 -0.0033347065046910383 -0.035812631442534971 0 -0.0071317154859500088 -0.035011604351528926 0 -0.004726160585382418 -0.032857229014752604 0 -0.0071333018221777554 -0.031204763966755096 0 -0.010146151511406919 -0.033040789865262855 0 -0.0071317154859500088 -0.035011604351528926 0 -0.0071333018221777554 -0.031204763966755096 0 -0.0033347065046910383 -0.035812631442534971 0 -0.0011449486978218734 -0.030871517717640667 0 -0.004726160585382418 -0.032857229014752604 0 -0.0071317154859500088 -0.035011604351528926 0 -0.0033347065046910383 -0.035812631442534971 0 -0.004726160585382418 -0.032857229014752604 0 -0.039625159141825725 -0.039587541998829925 0 -0.044491982113969965 -0.034936673494713161 0 -0.067446882530919683 -0.046209998870536874 0 -0.067185745870443514 -0.047404234105604265 0 -0.067803474495509081 -0.048700528480925896 0 -0.067868087359574142 -0.046703493808279539 0 -0.067446882530919683 -0.046209998870536874 0 -0.067742832884457607 -0.04554583980042138 0 -0.067446882530919683 -0.046209998870536874 0 -0.066966511307168339 -0.047218423286285033 0 -0.067454893712189337 -0.046837176853578411 0 -0.067868087359574142 -0.046703493808279539 0 -0.067446882530919683 -0.046209998870536874 0 -0.067454893712189337 -0.046837176853578411 0 -0.066018417931209106 -0.047603944331597703 0 -0.065589805271210402 -0.048475051967788389 0 -0.067446882530919683 -0.046209998870536874 0 -0.066538542800677822 -0.046195550801229314 0 -0.067185745870443514 -0.047404234105604265 0 -0.067185745870443514 -0.047404234105604265 0 -0.064753148264122651 -0.047592996310399996 0 -0.065524043195314144 -0.046493100320640676 0 -0.066538542800677822 -0.046195550801229314 0 -0.067185745870443514 -0.047404234105604265 0 -0.065524043195314144 -0.046493100320640676 0 -0.066538542800677822 -0.046195550801229314 0 -0.065524043195314144 -0.046493100320640676 0 -0.065603499210686145 -0.045823728229664344 0 -0.067185745870443514 -0.047404234105604265 0 -0.067803474495509081 -0.048700528480925896 0 -0.065768397101697434 -0.050758033514708208 0 -0.067185745870443514 -0.047404234105604265 0 -0.066942690212150893 -0.053248220998391847 0 -0.065475261798770723 -0.049396135815405216 0 -0.065640512143962798 -0.050231575185810277 0 -0.06452348654199512 -0.052654994312324607 0 -0.067185745870443514 -0.047404234105604265 0 -0.065475261798770723 -0.049396135815405216 0 -0.064753148264122651 -0.047592996310399996 0 -0.066966511307168339 -0.047218423286285033 0 -0.067454893712189337 -0.046837176853578411 0 -0.067507953131129478 -0.047247040462883284 0 -0.066966511307168339 -0.047218423286285033 0 -0.067507953131129478 -0.047247040462883284 0 -0.067399966694757563 -0.047805460365708596 0 -0.065589805271210402 -0.048475051967788389 0 -0.064184111479411804 -0.050536724302731727 0 -0.066966511307168339 -0.047218423286285033 0 -0.067399966694757563 -0.047805460365708596 0 -0.066699157992310715 -0.048214239496235448 0 -0.066503305948125466 -0.049200581860633773 0 -0.067019502756729674 -0.048805948370382261 0 -0.066699157992310715 -0.048214239496235448 0 -0.067399966694757563 -0.047805460365708596 0 -0.06726544811744295 -0.04835112889199137 0 -0.066699157992310715 -0.048214239496235448 0 -0.067019502756729674 -0.048805948370382261 0 -0.06726544811744295 -0.04835112889199137 0 -0.066699157992310715 -0.048214239496235448 0 -0.067019502756729674 -0.048805948370382261 0 -0.06751817059241666 -0.048821528687228215 0 -0.06726544811744295 -0.04835112889199137 0 -0.066994776321721364 -0.055820575411882019 0 -0.066075134773648278 -0.053369915795579363 0 -0.067442037452432976 -0.052000620186813153 0 -0.066075134773648278 -0.053369915795579363 0 -0.067442037452432976 -0.052000620186813153 0 -0.065768397101697434 -0.050758033514708208 0 -0.061189966012987214 -0.054232853963606512 0 -0.064184111479411804 -0.050536724302731727 0 -0.064129071257354175 -0.054980165818492126 0 -0.066075134773648278 -0.053369915795579363 0 -0.065768397101697434 -0.050758033514708208 0 -0.067803474495509081 -0.048700528480925896 0 -0.067442037452432976 -0.052000620186813153 0 -0.065768397101697434 -0.050758033514708208 0 -0.066942690212150893 -0.053248220998391847 0 -0.061799358577843369 -0.056625563559582585 0 -0.062853653727052594 -0.049834723384118318 0 -0.066942690212150893 -0.053248220998391847 0 -0.062853653727052594 -0.049834723384118318 0 -0.065475261798770723 -0.049396135815405216 0 -0.058902952678856459 -0.060492427587982872 0 -0.063282828337901442 -0.061567141825524238 0 -0.061799358577843369 -0.056625563559582585 0 -0.063282828337901442 -0.061567141825524238 0 -0.066942690212150893 -0.053248220998391847 0 -0.061799358577843369 -0.056625563559582585 0 -0.06152844835635235 -0.05768147602353333 0 -0.06452348654199512 -0.052654994312324607 0 -0.055691001070940958 -0.060653394437050534 0 -0.058902952678856459 -0.060492427587982872 0 -0.057515136486257036 -0.056975503106633636 0 -0.058902952678856459 -0.060492427587982872 0 -0.061799358577843369 -0.056625563559582585 0 -0.057515136486257036 -0.056975503106633636 0 -0.061799358577843369 -0.056625563559582585 0 -0.057515136486257036 -0.056975503106633636 0 -0.062853653727052594 -0.049834723384118318 0 -0.057515136486257036 -0.056975503106633636 0 -0.062853653727052594 -0.049834723384118318 0 -0.055702386922118811 -0.054140538873113826 0 -0.062853653727052594 -0.049834723384118318 0 -0.064753148264122651 -0.047592996310399996 0 -0.063993490884861531 -0.046532933037667978 0 -0.062853653727052594 -0.049834723384118318 0 -0.063993490884861531 -0.046532933037667978 0 -0.064869243615262057 -0.045264864002799186 0 -0.063867367795595556 -0.049386375907840882 0 -0.063258312169369155 -0.049279112169273692 0 -0.062853653727052594 -0.049834723384118318 0 -0.065475261798770723 -0.049396135815405216 0 -0.064753148264122651 -0.047592996310399996 0 -0.064753148264122651 -0.047592996310399996 0 -0.064615114883070118 -0.046466856401078213 0 -0.063993490884861531 -0.046532933037667978 0 -0.064753148264122651 -0.047592996310399996 0 -0.065524043195314144 -0.046493100320640676 0 -0.064615114883070118 -0.046466856401078213 0 -0.065524043195314144 -0.046493100320640676 0 -0.064615114883070118 -0.046466856401078213 0 -0.064971178986400424 -0.04588017210738473 0 -0.064615114883070118 -0.046466856401078213 0 -0.063993490884861531 -0.046532933037667978 0 -0.064421807418840349 -0.045807543978958302 0 -0.063993490884861531 -0.046532933037667978 0 -0.064017654139809213 -0.045108434798334526 0 -0.064421807418840349 -0.045807543978958302 0 -0.063993490884861531 -0.046532933037667978 0 -0.064391881034805309 -0.04745175820138979 0 -0.064868513457967805 -0.046778502838364211 0 -0.06567766265542703 -0.04573181881466399 0 -0.066421142867690477 -0.044399935050050819 0 -0.064017654139809213 -0.045108434798334526 0 -0.064482559343685519 -0.045220141274649198 0 -0.064421807418840349 -0.045807543978958302 0 -0.064391881034805309 -0.04745175820138979 0 -0.064852979724468296 -0.047536968678143075 0 -0.064868513457967805 -0.046778502838364211 0 -0.064615114883070118 -0.046466856401078213 0 -0.064421807418840349 -0.045807543978958302 0 -0.064971178986400424 -0.04588017210738473 0 -0.064421807418840349 -0.045807543978958302 0 -0.064971178986400424 -0.04588017210738473 0 -0.064795672495854606 -0.045437427301411974 0 -0.065524043195314144 -0.046493100320640676 0 -0.064971178986400424 -0.04588017210738473 0 -0.065603499210686145 -0.045823728229664344 0 -0.064971178986400424 -0.04588017210738473 0 -0.065603499210686145 -0.045823728229664344 0 -0.065404670231412915 -0.045259389498835192 0 -0.065603499210686145 -0.045823728229664344 0 -0.065404670231412915 -0.045259389498835192 0 -0.066095765354800357 -0.045484524729756469 0 -0.064971178986400424 -0.04588017210738473 0 -0.065404670231412915 -0.045259389498835192 0 -0.064795672495854606 -0.045437427301411974 0 -0.064482559343685519 -0.045220141274649198 0 -0.064421807418840349 -0.045807543978958302 0 -0.064795672495854606 -0.045437427301411974 0 -0.065404670231412915 -0.045259389498835192 0 -0.064795672495854606 -0.045437427301411974 0 -0.064986076788674546 -0.045011568879778731 0 -0.064482559343685519 -0.045220141274649198 0 -0.064795672495854606 -0.045437427301411974 0 -0.064986076788674546 -0.045011568879778731 0 -0.064482559343685519 -0.045220141274649198 0 -0.064986076788674546 -0.045011568879778731 0 -0.064731410530372235 -0.044480727357539801 0 -0.064731410530372235 -0.044480727357539801 0 -0.065205170470153437 -0.04386007594605483 0 -0.064417973294076294 -0.042931830138668574 0 -0.064986076788674546 -0.045011568879778731 0 -0.064731410530372235 -0.044480727357539801 0 -0.065296577744278869 -0.044642344105336969 0 -0.065296577744278869 -0.044642344105336969 0 -0.065827623858120618 -0.044113565928777132 0 -0.066021423005199628 -0.044902408885116429 0 -0.065404670231412915 -0.045259389498835192 0 -0.064986076788674546 -0.045011568879778731 0 -0.065296577744278869 -0.044642344105336969 0 -0.065404670231412915 -0.045259389498835192 0 -0.065296577744278869 -0.044642344105336969 0 -0.066021423005199628 -0.044902408885116429 0 -0.065296577744278869 -0.044642344105336969 0 -0.065205170470153437 -0.04386007594605483 0 -0.065827623858120618 -0.044113565928777132 0 -0.065205170470153437 -0.04386007594605483 0 -0.06558515390584907 -0.043350507706501784 0 -0.065827623858120618 -0.044113565928777132 0 -0.064731410530372235 -0.044480727357539801 0 -0.065296577744278869 -0.044642344105336969 0 -0.065205170470153437 -0.04386007594605483 0 -0.064411138055635642 -0.047685325665213697 0 -0.064128279380947728 -0.048544694658084628 0 -0.065115918089180241 -0.048051132887652358 0 -0.066421142867690477 -0.044399935050050819 0 -0.069888736768579526 -0.03599804935218414 0 -0.069014463229941855 -0.040623799069080278 0 -0.069664870513725899 -0.039606371510392674 0 -0.064411138055635642 -0.047685325665213697 0 -0.064852979724468296 -0.047536968678143075 0 -0.065459632374150908 -0.048653092642747316 0 -0.064017654139809213 -0.045108434798334526 0 -0.064731410530372235 -0.044480727357539801 0 -0.064417973294076294 -0.042931830138668574 0 -0.064391881034805309 -0.04745175820138979 0 -0.064411138055635642 -0.047685325665213697 0 -0.064128279380947728 -0.048544694658084628 0 -0.064017654139809213 -0.045108434798334526 0 -0.064482559343685519 -0.045220141274649198 0 -0.064731410530372235 -0.044480727357539801 0 -0.064391881034805309 -0.04745175820138979 0 -0.064411138055635642 -0.047685325665213697 0 -0.064852979724468296 -0.047536968678143075 0 -0.069888736768579526 -0.03599804935218414 0 -0.069664870513725899 -0.039606371510392674 0 -0.076502934351376242 -0.031205589830916768 0 -0.07491095053812713 -0.031982266857901905 0 -0.075088714593849124 -0.030410864862392094 0 -0.076502934351376242 -0.031205589830916768 0 -0.076081790507172994 -0.030172614776734306 0 -0.075088714593849124 -0.030410864862392094 0 -0.076502934351376242 -0.031205589830916768 0 -0.076081790507172994 -0.030172614776734306 0 -0.076930029690754465 -0.029540008628386627 0 -0.076081790507172994 -0.030172614776734306 0 -0.075822282057839543 -0.029523352396854771 0 -0.076930029690754465 -0.029540008628386627 0 -0.076081790507172994 -0.030172614776734306 0 -0.075088714593849124 -0.030410864862392094 0 -0.075822282057839543 -0.029523352396854771 0 -0.076349270181089543 -0.024852536250551636 0 -0.076662230087716082 -0.024503558637757678 0 -0.076486742509306094 -0.024427370442397008 0 -0.076349270181089543 -0.024852536250551636 0 -0.076725679604449884 -0.024638014287478339 0 -0.076662230087716082 -0.024503558637757678 0 -0.069888736768579526 -0.03599804935218414 0 -0.073926805190154904 -0.028556526934117303 0 -0.064417973294076294 -0.042931830138668574 0 -0.06558515390584907 -0.043350507706501784 0 -0.066125291665759769 -0.042060841676991131 0 -0.069888736768579526 -0.03599804935218414 0 -0.06848654948567838 -0.031470337681947035 0 -0.065205170470153437 -0.04386007594605483 0 -0.064417973294076294 -0.042931830138668574 0 -0.06558515390584907 -0.043350507706501784 0 -0.06558515390584907 -0.043350507706501784 0 -0.066205830251713269 -0.043493390044061796 0 -0.065827623858120618 -0.044113565928777132 0 -0.06558515390584907 -0.043350507706501784 0 -0.066205830251713269 -0.043493390044061796 0 -0.066125291665759769 -0.042060841676991131 0 -0.057201496314785209 -0.03263954118941749 0 -0.06848654948567838 -0.031470337681947035 0 -0.073974875536256784 -0.02892238248145269 0 -0.07268642885143016 -0.02640851921801993 0 -0.074236626571418551 -0.027178839539160702 0 -0.066205830251713269 -0.043493390044061796 0 -0.066946666624588327 -0.043675602639235388 0 -0.066125291665759769 -0.042060841676991131 0 -0.07268642885143016 -0.02640851921801993 0 -0.074762623920804017 -0.02632973739395035 0 -0.074236626571418551 -0.027178839539160702 0 -0.06848654948567838 -0.031470337681947035 0 -0.073682118221507345 -0.028009464263721272 0 -0.076685751466969168 -0.024532824612685078 0 -0.076724829084941895 -0.024443640086502093 0 -0.076783092969491554 -0.024404158015895738 0 -0.06848654948567838 -0.031470337681947035 0 -0.06860354161125877 -0.031177168748882066 0 -0.076724829084941895 -0.024443640086502093 0 -0.076662230087716082 -0.024503558637757678 0 -0.07670683142871991 -0.024397730505058852 0 -0.076685751466969168 -0.024532824612685078 0 -0.076724829084941895 -0.024443640086502093 0 -0.076662230087716082 -0.024503558637757678 0 -0.07486263100978012 -0.025401489780518267 0 -0.075723466773946937 -0.026274223805232002 0 -0.076705882488252247 -0.024598360587918922 0 -0.07268642885143016 -0.02640851921801993 0 -0.07486263100978012 -0.025401489780518267 0 -0.074762623920804017 -0.02632973739395035 0 -0.074762623920804017 -0.02632973739395035 0 -0.075723466773946937 -0.026274223805232002 0 -0.074236626571418551 -0.027178839539160702 0 -0.07486263100978012 -0.025401489780518267 0 -0.074762623920804017 -0.02632973739395035 0 -0.075723466773946937 -0.026274223805232002 0 0.0011077721257767438 -0.026162732829984055 0 -0.001829508702422363 -0.021905171744762003 0 -0.0014712757119189953 -0.024813987354441309 0 -0.057201496314785209 -0.03263954118941749 0 -0.046861632819442341 -0.028065576153352628 0 -0.001829508702422363 -0.021905171744762003 0 -0.0014712757119189953 -0.024813987354441309 0 -0.0028048537729964819 -0.023451562778337886 0 -0.073974875536256784 -0.02892238248145269 0 -0.075723466773946937 -0.026274223805232002 0 -0.074236626571418551 -0.027178839539160702 0 0.0011077721257767438 -0.026162732829984055 0 -0.0014712757119189953 -0.024813987354441309 0 -0.00073182779951801917 -0.026235297771597704 0 -0.0014712757119189953 -0.024813987354441309 0 -0.0021997094380671271 -0.026494067481171453 0 -0.00073182779951801917 -0.026235297771597704 0 -0.0021997094380671271 -0.026494067481171453 0 -0.0012271347817999908 -0.027701990811107396 0 -0.0028980057765617771 -0.028756644078139319 0 0.0011077721257767438 -0.026162732829984055 0 -0.0012271347817999908 -0.027701990811107396 0 -0.0011449486978218734 -0.030871517717640667 0 -0.066929795187871594 -0.043689669510280346 0 -0.066810640932590384 -0.044798146420283021 0 -0.067742832884457607 -0.04554583980042138 0 -0.057201496314785209 -0.03263954118941749 0 -0.044491982113969965 -0.034936673494713161 0 -0.0021997094380671271 -0.026494067481171453 0 -0.00073182779951801917 -0.026235297771597704 0 -0.0012271347817999908 -0.027701990811107396 0 -0.0012271347817999908 -0.027701990811107396 0 -0.0011449486978218734 -0.030871517717640667 0 -0.0028980057765617771 -0.028756644078139319 0 0.0011077721257767438 -0.026162732829984055 0 -0.00073182779951801917 -0.026235297771597704 0 -0.0012271347817999908 -0.027701990811107396 0 -0.057201496314785209 -0.03263954118941749 0 -0.057287703116192856 -0.033234840811121866 0 -0.066205830251713269 -0.043493390044061796 0 -0.066946666624588327 -0.043675602639235388 0 -0.066543868312696916 -0.04425785492805899 0 -0.066929795187871594 -0.043689669510280346 0 -0.066543868312696916 -0.04425785492805899 0 -0.066810640932590384 -0.044798146420283021 0 -0.066205830251713269 -0.043493390044061796 0 -0.066543868312696916 -0.04425785492805899 0 -0.065827623858120618 -0.044113565928777132 0 -0.066543868312696916 -0.04425785492805899 0 -0.065827623858120618 -0.044113565928777132 0 -0.066021423005199628 -0.044902408885116429 0 -0.066543868312696916 -0.04425785492805899 0 -0.066021423005199628 -0.044902408885116429 0 -0.066810640932590384 -0.044798146420283021 0 -0.066021423005199628 -0.044902408885116429 0 -0.066810640932590384 -0.044798146420283021 0 -0.066776236462685781 -0.045545101642047336 0 -0.065404670231412915 -0.045259389498835192 0 -0.066021423005199628 -0.044902408885116429 0 -0.066095765354800357 -0.045484524729756469 0 -0.066021423005199628 -0.044902408885116429 0 -0.066776236462685781 -0.045545101642047336 0 -0.066095765354800357 -0.045484524729756469 0 -0.066538542800677822 -0.046195550801229314 0 -0.065603499210686145 -0.045823728229664344 0 -0.066095765354800357 -0.045484524729756469 0 -0.067446882530919683 -0.046209998870536874 0 -0.066538542800677822 -0.046195550801229314 0 -0.066776236462685781 -0.045545101642047336 0 -0.066538542800677822 -0.046195550801229314 0 -0.066776236462685781 -0.045545101642047336 0 -0.066095765354800357 -0.045484524729756469 0 -0.067446882530919683 -0.046209998870536874 0 -0.066776236462685781 -0.045545101642047336 0 -0.067742832884457607 -0.04554583980042138 0 -0.066810640932590384 -0.044798146420283021 0 -0.066776236462685781 -0.045545101642047336 0 -0.067742832884457607 -0.04554583980042138 0 -0.0011449486978218734 -0.030871517717640667 0 -0.0044129421851750953 -0.030332824719029278 0 -0.004726160585382418 -0.032857229014752604 0 -0.0011449486978218734 -0.030871517717640667 0 -0.0044129421851750953 -0.030332824719029278 0 -0.0028980057765617771 -0.028756644078139319 0 -0.0044129421851750953 -0.030332824719029278 0 -0.0071333018221777554 -0.031204763966755096 0 -0.0057762186976373139 -0.027785198581109085 0 -0.0044129421851750953 -0.030332824719029278 0 -0.004726160585382418 -0.032857229014752604 0 -0.0071333018221777554 -0.031204763966755096 0 -0.0057762186976373139 -0.027785198581109085 0 -0.0082923642766965962 -0.026015924254726167 0 -0.009918119910384748 -0.028889101193938987 0 -0.0071333018221777554 -0.031204763966755096 0 -0.0057762186976373139 -0.027785198581109085 0 -0.009918119910384748 -0.028889101193938987 0 -0.0057762186976373139 -0.027785198581109085 0 -0.0039750483348022997 -0.026567442769628979 0 -0.0058461739009319129 -0.024643313190244223 0 -0.0057762186976373139 -0.027785198581109085 0 -0.0039750483348022997 -0.026567442769628979 0 -0.0028980057765617771 -0.028756644078139319 0 -0.0044129421851750953 -0.030332824719029278 0 -0.0057762186976373139 -0.027785198581109085 0 -0.0028980057765617771 -0.028756644078139319 0 -0.0021997094380671271 -0.026494067481171453 0 -0.0039750483348022997 -0.026567442769628979 0 -0.0028980057765617771 -0.028756644078139319 0 -0.0014712757119189953 -0.024813987354441309 0 -0.0021997094380671271 -0.026494067481171453 0 -0.0031232700274680843 -0.02496531969526353 0 -0.0021997094380671271 -0.026494067481171453 0 -0.0039750483348022997 -0.026567442769628979 0 -0.0031232700274680843 -0.02496531969526353 0 -0.0039750483348022997 -0.026567442769628979 0 -0.0031232700274680843 -0.02496531969526353 0 -0.0058461739009319129 -0.024643313190244223 0 -0.0041301878375375502 -0.023471472438468938 0 -0.0054045327794612491 -0.02231640558334113 0 -0.0058461739009319129 -0.024643313190244223 0 -0.0031232700274680843 -0.02496531969526353 0 -0.0041301878375375502 -0.023471472438468938 0 -0.0058461739009319129 -0.024643313190244223 0 -0.0014712757119189953 -0.024813987354441309 0 -0.0031232700274680843 -0.02496531969526353 0 -0.0028048537729964819 -0.023451562778337886 0 -0.0031232700274680843 -0.02496531969526353 0 -0.0041301878375375502 -0.023471472438468938 0 -0.0028048537729964819 -0.023451562778337886 0 -0.0041301878375375502 -0.023471472438468938 0 -0.0028048537729964819 -0.023451562778337886 0 -0.0037751716378039914 -0.022380275876140526 0 -0.001829508702422363 -0.021905171744762003 0 -0.0046912016069050296 -0.02076149177048292 0 -0.0048416872014607178 -0.017780772313832089 0 -0.046861632819442341 -0.028065576153352628 0 -0.042615826493538553 -0.022912556172425928 0 -0.001829508702422363 -0.021905171744762003 0 -0.0037751716378039914 -0.022380275876140526 0 -0.0046912016069050296 -0.02076149177048292 0 -0.001829508702422363 -0.021905171744762003 0 -0.0028048537729964819 -0.023451562778337886 0 -0.0037751716378039914 -0.022380275876140526 0 -0.0037751716378039914 -0.022380275876140526 0 -0.0054045327794612491 -0.02231640558334113 0 -0.0046912016069050296 -0.02076149177048292 0 -0.0054045327794612491 -0.02231640558334113 0 -0.0046912016069050296 -0.02076149177048292 0 -0.0065474928171116633 -0.021128154761535931 0 -0.0041301878375375502 -0.023471472438468938 0 -0.0037751716378039914 -0.022380275876140526 0 -0.0054045327794612491 -0.02231640558334113 0 -0.0084592137752763884 -0.020982702844824324 0 -0.0065474928171116633 -0.021128154761535931 0 -0.0069898306821982448 -0.01924198861874192 0 -0.0046912016069050296 -0.02076149177048292 0 -0.0065474928171116633 -0.021128154761535931 0 -0.0069898306821982448 -0.01924198861874192 0 -0.0054045327794612491 -0.02231640558334113 0 -0.0065474928171116633 -0.021128154761535931 0 -0.0071553915940357447 -0.022495729697618448 0 -0.0084592137752763884 -0.020982702844824324 0 -0.0071553915940357447 -0.022495729697618448 0 -0.0088965536806450227 -0.023590701451619876 0 -0.0084592137752763884 -0.020982702844824324 0 -0.0065474928171116633 -0.021128154761535931 0 -0.0071553915940357447 -0.022495729697618448 0 -0.0071553915940357447 -0.022495729697618448 0 -0.0058461739009319129 -0.024643313190244223 0 -0.0088965536806450227 -0.023590701451619876 0 -0.0054045327794612491 -0.02231640558334113 0 -0.0071553915940357447 -0.022495729697618448 0 -0.0058461739009319129 -0.024643313190244223 0 -0.0057762186976373139 -0.027785198581109085 0 -0.0058461739009319129 -0.024643313190244223 0 -0.0082923642766965962 -0.026015924254726167 0 -0.0058461739009319129 -0.024643313190244223 0 -0.0082923642766965962 -0.026015924254726167 0 -0.0088965536806450227 -0.023590701451619876 0 -0.011458529636046913 -0.025237404977464704 0 -0.0088965536806450227 -0.023590701451619876 0 -0.01089276370349228 -0.021638889591111019 0 -0.0082923642766965962 -0.026015924254726167 0 -0.011458529636046913 -0.025237404977464704 0 -0.0088965536806450227 -0.023590701451619876 0 -0.0084592137752763884 -0.020982702844824324 0 -0.0088965536806450227 -0.023590701451619876 0 -0.01089276370349228 -0.021638889591111019 0 -0.0084592137752763884 -0.020982702844824324 0 -0.01089276370349228 -0.021638889591111019 0 -0.010053313406964748 -0.018698021182104885 0 -0.013795394730291725 -0.022378389979543459 0 -0.014442316269295369 -0.018838916832828116 0 -0.01688396210024825 -0.021429965608277163 0 -0.01089276370349228 -0.021638889591111019 0 -0.013795394730291725 -0.022378389979543459 0 -0.014442316269295369 -0.018838916832828116 0 -0.011458529636046913 -0.025237404977464704 0 -0.013795394730291725 -0.022378389979543459 0 -0.015183899814591808 -0.024827203803163566 0 -0.011458529636046913 -0.025237404977464704 0 -0.01089276370349228 -0.021638889591111019 0 -0.013795394730291725 -0.022378389979543459 0 -0.011458529636046913 -0.025237404977464704 0 -0.013608595357749652 -0.028021587467004231 0 -0.015183899814591808 -0.024827203803163566 0 -0.0082923642766965962 -0.026015924254726167 0 -0.011458529636046913 -0.025237404977464704 0 -0.009918119910384748 -0.028889101193938987 0 -0.011458529636046913 -0.025237404977464704 0 -0.013608595357749652 -0.028021587467004231 0 -0.009918119910384748 -0.028889101193938987 0 -0.010146151511406919 -0.033040789865262855 0 -0.009918119910384748 -0.028889101193938987 0 -0.012900547896692937 -0.03129234773815117 0 -0.010146151511406919 -0.033040789865262855 0 -0.0071333018221777554 -0.031204763966755096 0 -0.009918119910384748 -0.028889101193938987 0 -0.013608595357749652 -0.028021587467004231 0 -0.009918119910384748 -0.028889101193938987 0 -0.012900547896692937 -0.03129234773815117 0 -0.013608595357749652 -0.028021587467004231 0 -0.012900547896692937 -0.03129234773815117 0 -0.015877116595608497 -0.031685369786269658 0 -0.01337815659665605 -0.034530466448053007 0 -0.012900547896692937 -0.03129234773815117 0 -0.015877116595608497 -0.031685369786269658 0 -0.068912584899431431 -0.043992859307321962 0 -0.069340117141538316 -0.043281947596274843 0 -0.06870050313591565 -0.042768687243618854 0 -0.068912584899431431 -0.043992859307321962 0 -0.06870050313591565 -0.042768687243618854 0 -0.067546383938260707 -0.043193680225357842 0 -0.067586514564597897 -0.04570992204808081 0 -0.065734125006129046 -0.047481121887264499 0 -0.068912584899431431 -0.043992859307321962 0 -0.069819988640464861 -0.043404883198802202 0 -0.069340117141538316 -0.043281947596274843 0 -0.068912584899431431 -0.043992859307321962 0 -0.069819988640464861 -0.043404883198802202 0 -0.070226643540635139 -0.043474462754588557 0 -0.069819988640464861 -0.043404883198802202 0 -0.069340117141538316 -0.043281947596274843 0 -0.069639614382284179 -0.042913964137616806 0 -0.069819988640464861 -0.043404883198802202 0 -0.069639614382284179 -0.042913964137616806 0 -0.070140010010298542 -0.043330557523430541 0 -0.069639614382284179 -0.042913964137616806 0 -0.069959471231135925 -0.042556552592451086 0 -0.070140010010298542 -0.043330557523430541 0 -0.069639614382284179 -0.042913964137616806 0 -0.069959471231135925 -0.042556552592451086 0 -0.069250994214949152 -0.041724422947439811 0 -0.06870050313591565 -0.042768687243618854 0 -0.068132119422600904 -0.041464553920983201 0 -0.069250994214949152 -0.041724422947439811 0 -0.06870050313591565 -0.042768687243618854 0 -0.068132119422600904 -0.041464553920983201 0 -0.067324651422529205 -0.042176079417430505 0 -0.069639614382284179 -0.042913964137616806 0 -0.06870050313591565 -0.042768687243618854 0 -0.069250994214949152 -0.041724422947439811 0 -0.069340117141538316 -0.043281947596274843 0 -0.069639614382284179 -0.042913964137616806 0 -0.06870050313591565 -0.042768687243618854 0 -0.068132119422600904 -0.041464553920983201 0 -0.067324651422529205 -0.042176079417430505 0 -0.066753391270813936 -0.040085724502278666 0 -0.067324651422529205 -0.042176079417430505 0 -0.066236083479816174 -0.042082875918645582 0 -0.066753391270813936 -0.040085724502278666 0 -0.06870050313591565 -0.042768687243618854 0 -0.067324651422529205 -0.042176079417430505 0 -0.067546383938260707 -0.043193680225357842 0 -0.067324651422529205 -0.042176079417430505 0 -0.066236083479816174 -0.042082875918645582 0 -0.066563082132346921 -0.043029026215393291 0 -0.064999788391627483 -0.04160826095867045 0 -0.066236083479816174 -0.042082875918645582 0 -0.066753391270813936 -0.040085724502278666 0 -0.064999788391627483 -0.04160826095867045 0 -0.066236083479816174 -0.042082875918645582 0 -0.065474375946930022 -0.043594798800244611 0 -0.064999788391627483 -0.04160826095867045 0 -0.065474375946930022 -0.043594798800244611 0 -0.06499997894581612 -0.045054279216534383 0 -0.065474375946930022 -0.043594798800244611 0 -0.066035014384694363 -0.044107049903704024 0 -0.06566857689965977 -0.04485431468154373 0 -0.066236083479816174 -0.042082875918645582 0 -0.065474375946930022 -0.043594798800244611 0 -0.066563082132346921 -0.043029026215393291 0 -0.065474375946930022 -0.043594798800244611 0 -0.066563082132346921 -0.043029026215393291 0 -0.066035014384694363 -0.044107049903704024 0 -0.067586514564597897 -0.04570992204808081 0 -0.066953095707067367 -0.045246746861037135 0 -0.068912584899431431 -0.043992859307321962 0 -0.066035014384694363 -0.044107049903704024 0 -0.067546383938260707 -0.043193680225357842 0 -0.066563082132346921 -0.043029026215393291 0 -0.066035014384694363 -0.044107049903704024 0 -0.067546383938260707 -0.043193680225357842 0 -0.067324651422529205 -0.042176079417430505 0 -0.066563082132346921 -0.043029026215393291 0 -0.067546383938260707 -0.043193680225357842 0 -0.066035014384694363 -0.044107049903704024 0 -0.067038118739701669 -0.044656611882298476 0 -0.066381520957338278 -0.044833801981889368 0 -0.067652575502343784 -0.044259582335534599 0 -0.066035014384694363 -0.044107049903704024 0 -0.067038118739701669 -0.044656611882298476 0 -0.066381520957338278 -0.044833801981889368 0 -0.066191204941214762 -0.045206485346915758 0 -0.066963616671160603 -0.045273107493229707 0 -0.067038118739701669 -0.044656611882298476 0 -0.066381520957338278 -0.044833801981889368 0 -0.066963616671160603 -0.045273107493229707 0 -0.064493482329872703 -0.045914647738979943 0 -0.064402081621298762 -0.046919228301423997 0 -0.065474375946930022 -0.043594798800244611 0 -0.06499997894581612 -0.045054279216534383 0 -0.065628945928414811 -0.045902344621571729 0 -0.06499997894581612 -0.045054279216534383 0 -0.065628945928414811 -0.045902344621571729 0 -0.065000010629153004 -0.048500985233252185 0 -0.066035014384694363 -0.044107049903704024 0 -0.066381520957338278 -0.044833801981889368 0 -0.06566857689965977 -0.04485431468154373 0 -0.066381520957338278 -0.044833801981889368 0 -0.06566857689965977 -0.04485431468154373 0 -0.066191204941214762 -0.045206485346915758 0 -0.06566857689965977 -0.04485431468154373 0 -0.066191204941214762 -0.045206485346915758 0 -0.065737738713004326 -0.045854151595357391 0 -0.064402081621298762 -0.046919228301423997 0 -0.06406920305890465 -0.049721015331412842 0 -0.066191204941214762 -0.045206485346915758 0 -0.065737738713004326 -0.045854151595357391 0 -0.066963616671160603 -0.045273107493229707 0 -0.065628945928414811 -0.045902344621571729 0 -0.065744633754870482 -0.048173626519312993 0 -0.065000010629153004 -0.048500985233252185 0 -0.06406920305890465 -0.049721015331412842 0 -0.064997634900373386 -0.04850828787706607 0 -0.062035670699095533 -0.059112419669315637 0 -0.063345524393208064 -0.059826196301950192 0 -0.061554017198492995 -0.060160652120912546 0 -0.06406920305890465 -0.049721015331412842 0 -0.063809518802669676 -0.050488152716276324 0 -0.062035670699095533 -0.059112419669315637 0 -0.061554017198492995 -0.060160652120912546 0 -0.060484524348311988 -0.059173300683151547 0 -0.060484524348311988 -0.059173300683151547 0 -0.060257941063969797 -0.059700323732441475 0 -0.05924503927967583 -0.059292273160626317 0 -0.061554017198492995 -0.060160652120912546 0 -0.060484524348311988 -0.059173300683151547 0 -0.060257941063969797 -0.059700323732441475 0 -0.061554017198492995 -0.060160652120912546 0 -0.060257941063969797 -0.059700323732441475 0 -0.059716965687016454 -0.060255249140726351 0 -0.063809518802669676 -0.050488152716276324 0 -0.063949876639960185 -0.04994155875870513 0 -0.067038118739701669 -0.044656611882298476 0 -0.066963616671160603 -0.045273107493229707 0 -0.06806628113471537 -0.044741492698627011 0 -0.067652575502343784 -0.044259582335534599 0 -0.067038118739701669 -0.044656611882298476 0 -0.06806628113471537 -0.044741492698627011 0 -0.063949876639960185 -0.04994155875870513 0 -0.065734125006129046 -0.047481121887264499 0 -0.059716965687016454 -0.060255249140726351 0 -0.05924503927967583 -0.059292273160626317 0 -0.057528757763080196 -0.060264268083486679 0 -0.067652575502343784 -0.044259582335534599 0 -0.06806628113471537 -0.044741492698627011 0 -0.069083996916633736 -0.044299367176078269 0 -0.059358416191388749 -0.058531890502494188 0 -0.05924503927967583 -0.059292273160626317 0 -0.058114767593916219 -0.058626315023424115 0 -0.059358416191388749 -0.058531890502494188 0 -0.060484524348311988 -0.059173300683151547 0 -0.05924503927967583 -0.059292273160626317 0 -0.060257941063969797 -0.059700323732441475 0 -0.059716965687016454 -0.060255249140726351 0 -0.05924503927967583 -0.059292273160626317 0 -0.058258622218152964 -0.058299550028317042 0 -0.058114767593916219 -0.058626315023424115 0 -0.056755393559597515 -0.058385272094996395 0 -0.054856110220529455 -0.061700087686113861 0 -0.054770943907494429 -0.060799202218192093 0 -0.058096003428434816 -0.058070715181480083 0 -0.056755393559597515 -0.058385272094996395 0 -0.054539103342173004 -0.058222713023829475 0 -0.055920967523451784 -0.058994356742960781 0 -0.05464185648434873 -0.058520447954583679 0 -0.057528757763080196 -0.060264268083486679 0 -0.056755393559597515 -0.058385272094996395 0 -0.054539103342173004 -0.058222713023829475 0 -0.055920967523451784 -0.058994356742960781 0 -0.054539103342173004 -0.058222713023829475 0 -0.055920967523451784 -0.058994356742960781 0 -0.05464185648434873 -0.058520447954583679 0 -0.05924503927967583 -0.059292273160626317 0 -0.058114767593916219 -0.058626315023424115 0 -0.057528757763080196 -0.060264268083486679 0 -0.058114767593916219 -0.058626315023424115 0 -0.056755393559597515 -0.058385272094996395 0 -0.057528757763080196 -0.060264268083486679 0 -0.056755393559597515 -0.058385272094996395 0 -0.055920967523451784 -0.058994356742960781 0 -0.057528757763080196 -0.060264268083486679 0 -0.055691001070940958 -0.060653394437050534 0 -0.05364292103611714 -0.060644217841701716 0 -0.054901237788720039 -0.057758913356823864 0 -0.055691001070940958 -0.060653394437050534 0 -0.057515136486257036 -0.056975503106633636 0 -0.054901237788720039 -0.057758913356823864 0 -0.050802273960896371 -0.063110446026630448 0 -0.054539103342173004 -0.058222713023829475 0 -0.05364292103611714 -0.060644217841701716 0 -0.054539103342173004 -0.058222713023829475 0 -0.05364292103611714 -0.060644217841701716 0 -0.054901237788720039 -0.057758913356823864 0 -0.054539103342173004 -0.058222713023829475 0 -0.054706839727963252 -0.057283929166501935 0 -0.054901237788720039 -0.057758913356823864 0 -0.054706839727963252 -0.057283929166501935 0 -0.055702386922118811 -0.054140538873113826 0 -0.05464185648434873 -0.058520447954583679 0 -0.054539103342173004 -0.058222713023829475 0 -0.054706839727963252 -0.057283929166501935 0 -0.05464185648434873 -0.058520447954583679 0 -0.057515136486257036 -0.056975503106633636 0 -0.054901237788720039 -0.057758913356823864 0 -0.055702386922118811 -0.054140538873113826 0 -0.054706839727963252 -0.057283929166501935 0 -0.054901237788720039 -0.057758913356823864 0 -0.055702386922118811 -0.054140538873113826 0 -0.063993490884861531 -0.046532933037667978 0 -0.064869243615262057 -0.045264864002799186 0 -0.065431670801854983 -0.045784336177765922 0 -0.064869243615262057 -0.045264864002799186 0 -0.066672957779752323 -0.044795899295145963 0 -0.065431670801854983 -0.045784336177765922 0 -0.064869243615262057 -0.045264864002799186 0 -0.066672957779752323 -0.044795899295145963 0 -0.068290035228292842 -0.043103977073292103 0 -0.063258312169369155 -0.049279112169273692 0 -0.063518431245739457 -0.048855400447941948 0 -0.066672957779752323 -0.044795899295145963 0 -0.067863021477924751 -0.044620020805824598 0 -0.068776126207187954 -0.04383849899375114 0 -0.066672957779752323 -0.044795899295145963 0 -0.068290035228292842 -0.043103977073292103 0 -0.068776126207187954 -0.04383849899375114 0 -0.067863021477924751 -0.044620020805824598 0 -0.066748267895606811 -0.045552451836322179 0 -0.068462721403834789 -0.044728087764097861 0 -0.066748267895606811 -0.045552451836322179 0 -0.068462721403834789 -0.044728087764097861 0 -0.068053699958543615 -0.04559967316475054 0 -0.066672957779752323 -0.044795899295145963 0 -0.067863021477924751 -0.044620020805824598 0 -0.066748267895606811 -0.045552451836322179 0 -0.066672957779752323 -0.044795899295145963 0 -0.066748267895606811 -0.045552451836322179 0 -0.065431670801854983 -0.045784336177765922 0 -0.066748267895606811 -0.045552451836322179 0 -0.065431670801854983 -0.045784336177765922 0 -0.064868513457967805 -0.046778502838364211 0 -0.063993490884861531 -0.046532933037667978 0 -0.065431670801854983 -0.045784336177765922 0 -0.064868513457967805 -0.046778502838364211 0 -0.070226643540635139 -0.043474462754588557 0 -0.070170296545653543 -0.043729194075018261 0 -0.070140010010298542 -0.043330557523430541 0 -0.069819988640464861 -0.043404883198802202 0 -0.070226643540635139 -0.043474462754588557 0 -0.070140010010298542 -0.043330557523430541 0 -0.070226643540635139 -0.043474462754588557 0 -0.069437611881780895 -0.043997280067731855 0 -0.070170296545653543 -0.043729194075018261 0 -0.065734125006129046 -0.047481121887264499 0 -0.067847766249451644 -0.046153386599632078 0 -0.063518431245739457 -0.048855400447941948 0 -0.065734125006129046 -0.047481121887264499 0 -0.070226643540635139 -0.043474462754588557 0 -0.068776126207187954 -0.04383849899375114 0 -0.069437611881780895 -0.043997280067731855 0 -0.068290035228292842 -0.043103977073292103 0 -0.070478010237163727 -0.043103231649419649 0 -0.068776126207187954 -0.04383849899375114 0 -0.067863021477924751 -0.044620020805824598 0 -0.068776126207187954 -0.04383849899375114 0 -0.069437611881780895 -0.043997280067731855 0 -0.069437611881780895 -0.043997280067731855 0 -0.069676931831532271 -0.044303151499373257 0 -0.070170296545653543 -0.043729194075018261 0 -0.067863021477924751 -0.044620020805824598 0 -0.069437611881780895 -0.043997280067731855 0 -0.068462721403834789 -0.044728087764097861 0 -0.069437611881780895 -0.043997280067731855 0 -0.068462721403834789 -0.044728087764097861 0 -0.069676931831532271 -0.044303151499373257 0 -0.068462721403834789 -0.044728087764097861 0 -0.069676931831532271 -0.044303151499373257 0 -0.068053699958543615 -0.04559967316475054 0 -0.069676931831532271 -0.044303151499373257 0 -0.070170296545653543 -0.043729194075018261 0 -0.070603828823783493 -0.043815462596500578 0 -0.070170296545653543 -0.043729194075018261 0 -0.070523432511238257 -0.043055143600367343 0 -0.070603828823783493 -0.043815462596500578 0 -0.070170296545653543 -0.043729194075018261 0 -0.070140010010298542 -0.043330557523430541 0 -0.070523432511238257 -0.043055143600367343 0 -0.069959471231135925 -0.042556552592451086 0 -0.070140010010298542 -0.043330557523430541 0 -0.070523432511238257 -0.043055143600367343 0 -0.070523432511238257 -0.043055143600367343 0 -0.070797244057651754 -0.041485496453362469 0 -0.070000309735399446 -0.041477252140640866 0 -0.070523432511238257 -0.043055143600367343 0 -0.070797244057651754 -0.041485496453362469 0 -0.071386206475480107 -0.043326855853637027 0 -0.070797244057651754 -0.041485496453362469 0 -0.071386206475480107 -0.043326855853637027 0 -0.072240491188184153 -0.040054777312235439 0 -0.070523432511238257 -0.043055143600367343 0 -0.071386206475480107 -0.043326855853637027 0 -0.070603828823783493 -0.043815462596500578 0 -0.069676931831532271 -0.044303151499373257 0 -0.070603828823783493 -0.043815462596500578 0 -0.070045223504948823 -0.044750903135787244 0 -0.071386206475480107 -0.043326855853637027 0 -0.070603828823783493 -0.043815462596500578 0 -0.070045223504948823 -0.044750903135787244 0 -0.069676931831532271 -0.044303151499373257 0 -0.070045223504948823 -0.044750903135787244 0 -0.068053699958543615 -0.04559967316475054 0 -0.070045223504948823 -0.044750903135787244 0 -0.068053699958543615 -0.04559967316475054 0 -0.06842157308051415 -0.046468636617700856 0 -0.070045223504948823 -0.044750903135787244 0 -0.070010235740036175 -0.046687971644607057 0 -0.06842157308051415 -0.046468636617700856 0 -0.071386206475480107 -0.043326855853637027 0 -0.074029581621910659 -0.042063812009491851 0 -0.072240491188184153 -0.040054777312235439 0 -0.069696107985141267 -0.040799948279254691 0 -0.069656197116283972 -0.040695067962774681 0 -0.071386206475480107 -0.043326855853637027 0 -0.070045223504948823 -0.044750903135787244 0 -0.070141138260473745 -0.045060762350249681 0 -0.069658310690371789 -0.040990979057611149 0 -0.069656197116283972 -0.040695067962774681 0 -0.069656197116283972 -0.040695067962774681 0 -0.069102198224322467 -0.040757831573348814 0 -0.070351636393652606 -0.038897032273884073 0 -0.070354828419081888 -0.038796491947262937 0 -0.070442324462944558 -0.038847548928532059 0 -0.074029581621910659 -0.042063812009491851 0 -0.074239962911840013 -0.038491411784275745 0 -0.072240491188184153 -0.040054777312235439 0 -0.069656197116283972 -0.040695067962774681 0 -0.070426102203696148 -0.038290014841119352 0 -0.074239962911840013 -0.038491411784275745 0 -0.072240491188184153 -0.040054777312235439 0 -0.072172324568551313 -0.037242207827746704 0 -0.072240491188184153 -0.040054777312235439 0 -0.072172324568551313 -0.037242207827746704 0 -0.070285537222835939 -0.038973388565423053 0 -0.070797244057651754 -0.041485496453362469 0 -0.072240491188184153 -0.040054777312235439 0 -0.070285537222835939 -0.038973388565423053 0 -0.066748267895606811 -0.045552451836322179 0 -0.064868513457967805 -0.046778502838364211 0 -0.066295992446753549 -0.046710399196827117 0 -0.064852979724468296 -0.047536968678143075 0 -0.065382021941173971 -0.047462160507016134 0 -0.064868513457967805 -0.046778502838364211 0 -0.065382021941173971 -0.047462160507016134 0 -0.066295992446753549 -0.046710399196827117 0 -0.066127237459027294 -0.047712485690221913 0 -0.065382021941173971 -0.047462160507016134 0 -0.064868513457967805 -0.046778502838364211 0 -0.066295992446753549 -0.046710399196827117 0 -0.067238709170166722 -0.046884208654891062 0 -0.066295992446753549 -0.046710399196827117 0 -0.068053699958543615 -0.04559967316475054 0 -0.067238709170166722 -0.046884208654891062 0 -0.066295992446753549 -0.046710399196827117 0 -0.066127237459027294 -0.047712485690221913 0 -0.066748267895606811 -0.045552451836322179 0 -0.066295992446753549 -0.046710399196827117 0 -0.068053699958543615 -0.04559967316475054 0 -0.067238709170166722 -0.046884208654891062 0 -0.06842157308051415 -0.046468636617700856 0 -0.067194532274444149 -0.048131241776476819 0 -0.067238709170166722 -0.046884208654891062 0 -0.068053699958543615 -0.04559967316475054 0 -0.06842157308051415 -0.046468636617700856 0 -0.070010235740036175 -0.046687971644607057 0 -0.06842157308051415 -0.046468636617700856 0 -0.067194532274444149 -0.048131241776476819 0 -0.069102198224322467 -0.040757831573348814 0 -0.069664870513725899 -0.039606371510392674 0 -0.070442324462944558 -0.038847548928532059 0 -0.070530275879829379 -0.038801401321408635 0 -0.070445256552430419 -0.038750546477923767 0 -0.070354828419081888 -0.038796491947262937 0 -0.070442324462944558 -0.038847548928532059 0 -0.070445256552430419 -0.038750546477923767 0 -0.067238709170166722 -0.046884208654891062 0 -0.067194532274444149 -0.048131241776476819 0 -0.066127237459027294 -0.047712485690221913 0 -0.067194532274444149 -0.048131241776476819 0 -0.066127237459027294 -0.047712485690221913 0 -0.065459632374150908 -0.048653092642747316 0 -0.065382021941173971 -0.047462160507016134 0 -0.066127237459027294 -0.047712485690221913 0 -0.065459632374150908 -0.048653092642747316 0 -0.064852979724468296 -0.047536968678143075 0 -0.065382021941173971 -0.047462160507016134 0 -0.065459632374150908 -0.048653092642747316 0 -0.07491095053812713 -0.031982266857901905 0 -0.073870773597178141 -0.031378570220504463 0 -0.075088714593849124 -0.030410864862392094 0 -0.069664870513725899 -0.039606371510392674 0 -0.070556272939498024 -0.037336858836837392 0 -0.070556272939498024 -0.037336858836837392 0 -0.070790323083677886 -0.035509109884176271 0 -0.073870773597178141 -0.031378570220504463 0 -0.073703535869166503 -0.030438251168207062 0 -0.07286602515449575 -0.030789055737809823 0 -0.073703535869166503 -0.030438251168207062 0 -0.075088714593849124 -0.030410864862392094 0 -0.074043612218819069 -0.029622975073029779 0 -0.073870773597178141 -0.031378570220504463 0 -0.073703535869166503 -0.030438251168207062 0 -0.075088714593849124 -0.030410864862392094 0 -0.073703535869166503 -0.030438251168207062 0 -0.072934920230566205 -0.029517419073717584 0 -0.074043612218819069 -0.029622975073029779 0 -0.072172324568551313 -0.037242207827746704 0 -0.071338615280980261 -0.033858308385796836 0 -0.070780015411624625 -0.036377210112960065 0 -0.072172324568551313 -0.037242207827746704 0 -0.070780015411624625 -0.036377210112960065 0 -0.070285537222835939 -0.038973388565423053 0 -0.074239962911840013 -0.038491411784275745 0 -0.072172324568551313 -0.037242207827746704 0 -0.074322556387852429 -0.035946360110925182 0 -0.070354828419081888 -0.038796491947262937 0 -0.070445256552430419 -0.038750546477923767 0 -0.070357683604464358 -0.038695805362525343 0 -0.070426102203696148 -0.038290014841119352 0 -0.070790323083677886 -0.035509109884176271 0 -0.070790323083677886 -0.035509109884176271 0 -0.071502942037613329 -0.031897132078167217 0 -0.072987498524018188 -0.032888456339297684 0 -0.070620265749142722 -0.03158659106186866 0 -0.07303406083127692 -0.03095014681348203 0 -0.073703535869166503 -0.030438251168207062 0 -0.07286602515449575 -0.030789055737809823 0 -0.072934920230566205 -0.029517419073717584 0 -0.072172324568551313 -0.037242207827746704 0 -0.074322556387852429 -0.035946360110925182 0 -0.071338615280980261 -0.033858308385796836 0 -0.070790323083677886 -0.035509109884176271 0 -0.070179045574799565 -0.033785189145294589 0 -0.071338615280980261 -0.033858308385796836 0 -0.068409604432924237 -0.034150166955581797 0 -0.069303497790239407 -0.036328341199983696 0 -0.071338615280980261 -0.033858308385796836 0 -0.069303497790239407 -0.036328341199983696 0 -0.070780015411624625 -0.036377210112960065 0 -0.071338615280980261 -0.033858308385796836 0 -0.068409604432924237 -0.034150166955581797 0 -0.068583485595928292 -0.031162525708080206 0 -0.069303497790239407 -0.036328341199983696 0 -0.068706357898685261 -0.038459574157022058 0 -0.067761981462312909 -0.036475121937918666 0 -0.068409604432924237 -0.034150166955581797 0 -0.069303497790239407 -0.036328341199983696 0 -0.067761981462312909 -0.036475121937918666 0 -0.069303497790239407 -0.036328341199983696 0 -0.070780015411624625 -0.036377210112960065 0 -0.070285537222835939 -0.038973388565423053 0 -0.070285537222835939 -0.038973388565423053 0 -0.069258213357215603 -0.040124990103463126 0 -0.068706357898685261 -0.038459574157022058 0 -0.070285537222835939 -0.038973388565423053 0 -0.069258213357215603 -0.040124990103463126 0 -0.070000309735399446 -0.041477252140640866 0 -0.069303497790239407 -0.036328341199983696 0 -0.070285537222835939 -0.038973388565423053 0 -0.068706357898685261 -0.038459574157022058 0 -0.070797244057651754 -0.041485496453362469 0 -0.070285537222835939 -0.038973388565423053 0 -0.070000309735399446 -0.041477252140640866 0 -0.068706357898685261 -0.038459574157022058 0 -0.06752715709428965 -0.03837026660755017 0 -0.067761981462312909 -0.036475121937918666 0 -0.068706357898685261 -0.038459574157022058 0 -0.068301400405164872 -0.040086129067213414 0 -0.06752715709428965 -0.03837026660755017 0 -0.069258213357215603 -0.040124990103463126 0 -0.068706357898685261 -0.038459574157022058 0 -0.068301400405164872 -0.040086129067213414 0 -0.069258213357215603 -0.040124990103463126 0 -0.068301400405164872 -0.040086129067213414 0 -0.069250994214949152 -0.041724422947439811 0 -0.068132119422600904 -0.041464553920983201 0 -0.068301400405164872 -0.040086129067213414 0 -0.069250994214949152 -0.041724422947439811 0 -0.069959471231135925 -0.042556552592451086 0 -0.069250994214949152 -0.041724422947439811 0 -0.070000309735399446 -0.041477252140640866 0 -0.069959471231135925 -0.042556552592451086 0 -0.070523432511238257 -0.043055143600367343 0 -0.070000309735399446 -0.041477252140640866 0 -0.069258213357215603 -0.040124990103463126 0 -0.069250994214949152 -0.041724422947439811 0 -0.070000309735399446 -0.041477252140640866 0 -0.064999788391627483 -0.04160826095867045 0 -0.066753391270813936 -0.040085724502278666 0 -0.064999467198266242 -0.038162409358660027 0 -0.068301400405164872 -0.040086129067213414 0 -0.066753391270813936 -0.040085724502278666 0 -0.06752715709428965 -0.03837026660755017 0 -0.068132119422600904 -0.041464553920983201 0 -0.068301400405164872 -0.040086129067213414 0 -0.066753391270813936 -0.040085724502278666 0 -0.066753391270813936 -0.040085724502278666 0 -0.06752715709428965 -0.03837026660755017 0 -0.066158011854764415 -0.036643450529568182 0 -0.066753391270813936 -0.040085724502278666 0 -0.064999467198266242 -0.038162409358660027 0 -0.066158011854764415 -0.036643450529568182 0 -0.064999443698912487 -0.034715878886821323 0 -0.066158011854764415 -0.036643450529568182 0 -0.066638321817205248 -0.034610613621531817 0 -0.064999467198266242 -0.038162409358660027 0 -0.064999443698912487 -0.034715878886821323 0 -0.066158011854764415 -0.036643450529568182 0 -0.066158011854764415 -0.036643450529568182 0 -0.067761981462312909 -0.036475121937918666 0 -0.066638321817205248 -0.034610613621531817 0 -0.06752715709428965 -0.03837026660755017 0 -0.066158011854764415 -0.036643450529568182 0 -0.067761981462312909 -0.036475121937918666 0 -0.068409604432924237 -0.034150166955581797 0 -0.067761981462312909 -0.036475121937918666 0 -0.066638321817205248 -0.034610613621531817 0 -0.068409604432924237 -0.034150166955581797 0 -0.066638321817205248 -0.034610613621531817 0 -0.06707638918879047 -0.032415087480128099 0 -0.064999443698912487 -0.034715878886821323 0 -0.066638321817205248 -0.034610613621531817 0 -0.064999426093277801 -0.031268956733228645 0 -0.066638321817205248 -0.034610613621531817 0 -0.064999426093277801 -0.031268956733228645 0 -0.06707638918879047 -0.032415087480128099 0 -0.064999426093277801 -0.031268956733228645 0 -0.06707638918879047 -0.032415087480128099 0 -0.067193435982590755 -0.029151135469762609 0 -0.06707638918879047 -0.032415087480128099 0 -0.067193435982590755 -0.029151135469762609 0 -0.069658556637164373 -0.029223739213519725 0 -0.064999426093277801 -0.031268956733228645 0 -0.067193435982590755 -0.029151135469762609 0 -0.064999733957556871 -0.027823182649948028 0 -0.070620265749142722 -0.03158659106186866 0 -0.070035702478740455 -0.030193549124605045 0 -0.068583485595928292 -0.031162525708080206 0 -0.070179045574799565 -0.033785189145294589 0 -0.069147292492935622 -0.03280630540143889 0 -0.068409604432924237 -0.034150166955581797 0 -0.06707638918879047 -0.032415087480128099 0 -0.068583485595928292 -0.031162525708080206 0 -0.06707638918879047 -0.032415087480128099 0 -0.068583485595928292 -0.031162525708080206 0 -0.06866262009288375 -0.029189794455565875 0 -0.068042665358396953 -0.030483632132609066 0 -0.06917087833127801 -0.029002263019453915 0 -0.067193435982590755 -0.029151135469762609 0 -0.069658556637164373 -0.029223739213519725 0 -0.069200580876944431 -0.027413328331352602 0 -0.070035702478740455 -0.030193549124605045 0 -0.068583485595928292 -0.031162525708080206 0 -0.06866262009288375 -0.029189794455565875 0 -0.070035702478740455 -0.030193549124605045 0 -0.06866262009288375 -0.029189794455565875 0 -0.070839253830130858 -0.028841382726919204 0 -0.069658556637164373 -0.029223739213519725 0 -0.069200580876944431 -0.027413328331352602 0 -0.071393149600773392 -0.026350387074840789 0 -0.06917087833127801 -0.029002263019453915 0 -0.070838970890364755 -0.026761142446200894 0 -0.069200580876944431 -0.027413328331352602 0 -0.070103775944431859 -0.025940699512763999 0 -0.071393149600773392 -0.026350387074840789 0 -0.06866262009288375 -0.029189794455565875 0 -0.070501657893799155 -0.026341279110467786 0 -0.070839253830130858 -0.028841382726919204 0 -0.069200580876944431 -0.027413328331352602 0 -0.070103775944431859 -0.025940699512763999 0 -0.067529240098362239 -0.02699543949967673 0 -0.069704063390915699 -0.025907408251397583 0 -0.067478362742748488 -0.026811608433683236 0 -0.068623972052801699 -0.02489889574364627 0 -0.070034645661183337 -0.025332572364496271 0 -0.067788512683692653 -0.026469278347096534 0 -0.068623972052801699 -0.02489889574364627 0 -0.070034645661183337 -0.025332572364496271 0 -0.069650159385193117 -0.024219996748311837 0 -0.070103775944431859 -0.025940699512763999 0 -0.071393149600773392 -0.026350387074840789 0 -0.071924042497905252 -0.024839520179955495 0 -0.069704063390915699 -0.025907408251397583 0 -0.070803801004354863 -0.025468919975999104 0 -0.070034645661183337 -0.025332572364496271 0 -0.070615950826567589 -0.024503552294351482 0 -0.071924042497905252 -0.024839520179955495 0 -0.070034645661183337 -0.025332572364496271 0 -0.069650159385193117 -0.024219996748311837 0 -0.070615950826567589 -0.024503552294351482 0 -0.065002344224232012 -0.027821388458934559 0 -0.067478362742748488 -0.026811608433683236 0 -0.064999964197669347 -0.027821923820963317 0 -0.067788512683692653 -0.026469278347096534 0 -0.067024281270755243 -0.02487063140017676 0 -0.067193435982590755 -0.029151135469762609 0 -0.064999733957556871 -0.027823182649948028 0 -0.067529240098362239 -0.02699543949967673 0 -0.067193435982590755 -0.029151135469762609 0 -0.069200580876944431 -0.027413328331352602 0 -0.067529240098362239 -0.02699543949967673 0 -0.068623972052801699 -0.02489889574364627 0 -0.067788512683692653 -0.026469278347096534 0 -0.067024281270755243 -0.02487063140017676 0 -0.068623972052801699 -0.02489889574364627 0 -0.067024281270755243 -0.02487063140017676 0 -0.06841811581754953 -0.023622553201516263 0 -0.064999964197669347 -0.027821923820963317 0 -0.067024281270755243 -0.02487063140017676 0 -0.06499984247432615 -0.023945548870797122 0 -0.067024281270755243 -0.02487063140017676 0 -0.06499984247432615 -0.023945548870797122 0 -0.066884706628209736 -0.022652134834649236 0 -0.06499984247432615 -0.023945548870797122 0 -0.066884706628209736 -0.022652134834649236 0 -0.064999947544040731 -0.020069379532755355 0 -0.067623883135754875 -0.020963938945398664 0 -0.066884706628209736 -0.022652134834649236 0 -0.064999947544040731 -0.020069379532755355 0 -0.067623883135754875 -0.020963938945398664 0 -0.066884706628209736 -0.022652134834649236 0 -0.068498987760149926 -0.022384862006020526 0 -0.066884706628209736 -0.022652134834649236 0 -0.06841811581754953 -0.023622553201516263 0 -0.068498987760149926 -0.022384862006020526 0 -0.067024281270755243 -0.02487063140017676 0 -0.066884706628209736 -0.022652134834649236 0 -0.06841811581754953 -0.023622553201516263 0 -0.068623972052801699 -0.02489889574364627 0 -0.06841811581754953 -0.023622553201516263 0 -0.069650159385193117 -0.024219996748311837 0 -0.06841811581754953 -0.023622553201516263 0 -0.069650159385193117 -0.024219996748311837 0 -0.069558982753446658 -0.022970369839830893 0 -0.06841811581754953 -0.023622553201516263 0 -0.069558982753446658 -0.022970369839830893 0 -0.068498987760149926 -0.022384862006020526 0 -0.070615950826567589 -0.024503552294351482 0 -0.070511904995162522 -0.023694094452580191 0 -0.071183792246226729 -0.024129881694411968 0 -0.069650159385193117 -0.024219996748311837 0 -0.070615950826567589 -0.024503552294351482 0 -0.070511904995162522 -0.023694094452580191 0 -0.069558982753446658 -0.022970369839830893 0 -0.070511904995162522 -0.023694094452580191 0 -0.070658334591885516 -0.022867165251890652 0 -0.069650159385193117 -0.024219996748311837 0 -0.069558982753446658 -0.022970369839830893 0 -0.070511904995162522 -0.023694094452580191 0 -0.070511904995162522 -0.023694094452580191 0 -0.070658334591885516 -0.022867165251890652 0 -0.07169975555291426 -0.023495109074392669 0 -0.070585473948199848 -0.021282058272013089 0 -0.071230550196721698 -0.020816823753006749 0 -0.071823723661820604 -0.021852616013285836 0 -0.069771670396206159 -0.02130196776573378 0 -0.071426077111772193 -0.021731771936638784 0 -0.070658334591885516 -0.022867165251890652 0 -0.069806655965626505 -0.021784974217321656 0 -0.071591173803059974 -0.02237577219796847 0 -0.069558982753446658 -0.022970369839830893 0 -0.070658334591885516 -0.022867165251890652 0 -0.069806655965626505 -0.021784974217321656 0 -0.067623883135754875 -0.020963938945398664 0 -0.068498987760149926 -0.022384862006020526 0 -0.069806655965626505 -0.021784974217321656 0 -0.067539642462742133 -0.020726429688793419 0 -0.069771670396206159 -0.02130196776573378 0 -0.069558982753446658 -0.022970369839830893 0 -0.068498987760149926 -0.022384862006020526 0 -0.069806655965626505 -0.021784974217321656 0 -0.067995413412770364 -0.020808402344166779 0 -0.070585473948199848 -0.021282058272013089 0 -0.07005106019915365 -0.019994071203187976 0 -0.070585473948199848 -0.021282058272013089 0 -0.07005106019915365 -0.019994071203187976 0 -0.071230550196721698 -0.020816823753006749 0 -0.07005106019915365 -0.019994071203187976 0 -0.071230550196721698 -0.020816823753006749 0 -0.071434234262679919 -0.020169739787021083 0 -0.073100674302564297 -0.017513625937327856 0 -0.070104327534727548 -0.017368631485320637 0 -0.071448288444394867 -0.015301123314826855 0 -0.070489936455518293 -0.018458818880229756 0 -0.071286775331812324 -0.017469348827322682 0 -0.07005106019915365 -0.019994071203187976 0 -0.070104327534727548 -0.017368631485320637 0 -0.067531832102100481 -0.018148802907083938 0 -0.07005106019915365 -0.019994071203187976 0 -0.073100674302564297 -0.017513625937327856 0 -0.070104327534727548 -0.017368631485320637 0 -0.067531832102100481 -0.018148802907083938 0 -0.068587894843542191 -0.015926579991440051 0 -0.066722695982454144 -0.015780630841115927 0 -0.070104327534727548 -0.017368631485320637 0 -0.067531832102100481 -0.018148802907083938 0 -0.068587894843542191 -0.015926579991440051 0 -0.067531832102100481 -0.018148802907083938 0 -0.064999912458511652 -0.01704558433064142 0 -0.066722695982454144 -0.015780630841115927 0 -0.067995413412770364 -0.020808402344166779 0 -0.067531832102100481 -0.018148802907083938 0 -0.064999943756105918 -0.020068889461794245 0 -0.067539642462742133 -0.020726429688793419 0 -0.065002754955400213 -0.020069539806177164 0 -0.067531832102100481 -0.018148802907083938 0 -0.064999912458511652 -0.01704558433064142 0 -0.064999943756105918 -0.020068889461794245 0 -0.067995413412770364 -0.020808402344166779 0 -0.07005106019915365 -0.019994071203187976 0 -0.067531832102100481 -0.018148802907083938 0 -0.073834495872233646 -0.020837115578043207 0 -0.073027703313093759 -0.021508493744236089 0 -0.074499560060167322 -0.022302680534510209 0 -0.074832157492883328 -0.020975490388090601 0 -0.073834495872233646 -0.020837115578043207 0 -0.074499560060167322 -0.022302680534510209 0 -0.074832157492883328 -0.020975490388090601 0 -0.074499560060167322 -0.022302680534510209 0 -0.075766889707375593 -0.02175456219400914 0 -0.074832157492883328 -0.020975490388090601 0 -0.074193028899243688 -0.020170885800319605 0 -0.073834495872233646 -0.020837115578043207 0 -0.074832157492883328 -0.020975490388090601 0 -0.075762813122765657 -0.020708262690629288 0 -0.074941358122117371 -0.020042890522133316 0 -0.074832157492883328 -0.020975490388090601 0 -0.074193028899243688 -0.020170885800319605 0 -0.074941358122117371 -0.020042890522133316 0 -0.074193028899243688 -0.020170885800319605 0 -0.073834495872233646 -0.020837115578043207 0 -0.073398873633850809 -0.020132824531684627 0 -0.073834495872233646 -0.020837115578043207 0 -0.073398873633850809 -0.020132824531684627 0 -0.072735200811057485 -0.020532341404838169 0 -0.073834495872233646 -0.020837115578043207 0 -0.072735200811057485 -0.020532341404838169 0 -0.073027703313093759 -0.021508493744236089 0 -0.073398873633850809 -0.020132824531684627 0 -0.072735200811057485 -0.020532341404838169 0 -0.072576829054383743 -0.019569638385510266 0 -0.071434234262679919 -0.020169739787021083 0 -0.072735200811057485 -0.020532341404838169 0 -0.071990203685972323 -0.020920651477780293 0 -0.071434234262679919 -0.020169739787021083 0 -0.072735200811057485 -0.020532341404838169 0 -0.072576829054383743 -0.019569638385510266 0 -0.071230550196721698 -0.020816823753006749 0 -0.071990203685972323 -0.020920651477780293 0 -0.071823723661820604 -0.021852616013285836 0 -0.071230550196721698 -0.020816823753006749 0 -0.071434234262679919 -0.020169739787021083 0 -0.071990203685972323 -0.020920651477780293 0 -0.071990203685972323 -0.020920651477780293 0 -0.073027703313093759 -0.021508493744236089 0 -0.071823723661820604 -0.021852616013285836 0 -0.072735200811057485 -0.020532341404838169 0 -0.071990203685972323 -0.020920651477780293 0 -0.073027703313093759 -0.021508493744236089 0 -0.072198269870694678 -0.021917919062761953 0 -0.071426077111772193 -0.021731771936638784 0 -0.073027703313093759 -0.021508493744236089 0 -0.073153318726775038 -0.022605012378450362 0 -0.071823723661820604 -0.021852616013285836 0 -0.073153318726775038 -0.022605012378450362 0 -0.071591173803059974 -0.02237577219796847 0 -0.07169975555291426 -0.023495109074392669 0 -0.070658334591885516 -0.022867165251890652 0 -0.071591173803059974 -0.02237577219796847 0 -0.07169975555291426 -0.023495109074392669 0 -0.070615950826567589 -0.024503552294351482 0 -0.071183792246226729 -0.024129881694411968 0 -0.071924042497905252 -0.024839520179955495 0 -0.070511904995162522 -0.023694094452580191 0 -0.07169975555291426 -0.023495109074392669 0 -0.071183792246226729 -0.024129881694411968 0 -0.07169975555291426 -0.023495109074392669 0 -0.072559020046949224 -0.024004312773649145 0 -0.071924042497905252 -0.024839520179955495 0 -0.07169975555291426 -0.023495109074392669 0 -0.071183792246226729 -0.024129881694411968 0 -0.071924042497905252 -0.024839520179955495 0 -0.072559020046949224 -0.024004312773649145 0 -0.074037268345367419 -0.024254276255791452 0 -0.07318368896949852 -0.025134923460897879 0 -0.073153318726775038 -0.022605012378450362 0 -0.07169975555291426 -0.023495109074392669 0 -0.072559020046949224 -0.024004312773649145 0 -0.073153318726775038 -0.022605012378450362 0 -0.072559020046949224 -0.024004312773649145 0 -0.074037268345367419 -0.024254276255791452 0 -0.073153318726775038 -0.022605012378450362 0 -0.074037268345367419 -0.024254276255791452 0 -0.074499560060167322 -0.022302680534510209 0 -0.073027703313093759 -0.021508493744236089 0 -0.073153318726775038 -0.022605012378450362 0 -0.074499560060167322 -0.022302680534510209 0 -0.074499560060167322 -0.022302680534510209 0 -0.075329190093802609 -0.024399864182135571 0 -0.075788017469585869 -0.023034234348353284 0 -0.074037268345367419 -0.024254276255791452 0 -0.074499560060167322 -0.022302680534510209 0 -0.075329190093802609 -0.024399864182135571 0 -0.074037268345367419 -0.024254276255791452 0 -0.075329190093802609 -0.024399864182135571 0 -0.074938126480754347 -0.025959737534551414 0 -0.074037268345367419 -0.024254276255791452 0 -0.073818124812177657 -0.026159795398262669 0 -0.07318368896949852 -0.025134923460897879 0 -0.074037268345367419 -0.024254276255791452 0 -0.074938126480754347 -0.025959737534551414 0 -0.073818124812177657 -0.026159795398262669 0 -0.073818124812177657 -0.026159795398262669 0 -0.073169972989715976 -0.027172899017474446 0 -0.074212430600492013 -0.02758872245322946 0 -0.074938126480754347 -0.025959737534551414 0 -0.073818124812177657 -0.026159795398262669 0 -0.074212430600492013 -0.02758872245322946 0 -0.074938126480754347 -0.025959737534551414 0 -0.074212430600492013 -0.02758872245322946 0 -0.075731525859776438 -0.027297550003820101 0 -0.072559020046949224 -0.024004312773649145 0 -0.071393149600773392 -0.026350387074840789 0 -0.071924042497905252 -0.024839520179955495 0 -0.071789029658677991 -0.025514157044252708 0 -0.070838970890364755 -0.026761142446200894 0 -0.070501657893799155 -0.026341279110467786 0 -0.072318139576242127 -0.025321448999626003 0 -0.071879056015276374 -0.026295302617808668 0 -0.072559020046949224 -0.024004312773649145 0 -0.070501657893799155 -0.026341279110467786 0 -0.072318139576242127 -0.025321448999626003 0 -0.072318139576242127 -0.025321448999626003 0 -0.072741721274100474 -0.026208310336833955 0 -0.071879056015276374 -0.026295302617808668 0 -0.072559020046949224 -0.024004312773649145 0 -0.072318139576242127 -0.025321448999626003 0 -0.07318368896949852 -0.025134923460897879 0 -0.072318139576242127 -0.025321448999626003 0 -0.07318368896949852 -0.025134923460897879 0 -0.072741721274100474 -0.026208310336833955 0 -0.073818124812177657 -0.026159795398262669 0 -0.07318368896949852 -0.025134923460897879 0 -0.072741721274100474 -0.026208310336833955 0 -0.073818124812177657 -0.026159795398262669 0 -0.072741721274100474 -0.026208310336833955 0 -0.073169972989715976 -0.027172899017474446 0 -0.073169972989715976 -0.027172899017474446 0 -0.071879815023989282 -0.027303215073996995 0 -0.072968556204311821 -0.028556209578409923 0 -0.072741721274100474 -0.026208310336833955 0 -0.071879056015276374 -0.026295302617808668 0 -0.071879815023989282 -0.027303215073996995 0 -0.072741721274100474 -0.026208310336833955 0 -0.073169972989715976 -0.027172899017474446 0 -0.071879815023989282 -0.027303215073996995 0 -0.070501657893799155 -0.026341279110467786 0 -0.071879815023989282 -0.027303215073996995 0 -0.070839253830130858 -0.028841382726919204 0 -0.070501657893799155 -0.026341279110467786 0 -0.071879056015276374 -0.026295302617808668 0 -0.071879815023989282 -0.027303215073996995 0 -0.070035702478740455 -0.030193549124605045 0 -0.070839253830130858 -0.028841382726919204 0 -0.071653996975727038 -0.029952907541497754 0 -0.070839253830130858 -0.028841382726919204 0 -0.072968556204311821 -0.028556209578409923 0 -0.071653996975727038 -0.029952907541497754 0 -0.071879815023989282 -0.027303215073996995 0 -0.070839253830130858 -0.028841382726919204 0 -0.072968556204311821 -0.028556209578409923 0 -0.071717793288109316 -0.030731423065920891 0 -0.071502942037613329 -0.031897132078167217 0 -0.072968556204311821 -0.028556209578409923 0 -0.07303406083127692 -0.03095014681348203 0 -0.071653996975727038 -0.029952907541497754 0 -0.072968556204311821 -0.028556209578409923 0 -0.072934920230566205 -0.029517419073717584 0 -0.073791376268039457 -0.028826289807090493 0 -0.070620265749142722 -0.03158659106186866 0 -0.07303406083127692 -0.03095014681348203 0 -0.071653996975727038 -0.029952907541497754 0 -0.070620265749142722 -0.03158659106186866 0 -0.070035702478740455 -0.030193549124605045 0 -0.071653996975727038 -0.029952907541497754 0 -0.074212430600492013 -0.02758872245322946 0 -0.074858859395530913 -0.028837585267314159 0 -0.075731525859776438 -0.027297550003820101 0 -0.074212430600492013 -0.02758872245322946 0 -0.073791376268039457 -0.028826289807090493 0 -0.074858859395530913 -0.028837585267314159 0 -0.073169972989715976 -0.027172899017474446 0 -0.072968556204311821 -0.028556209578409923 0 -0.074212430600492013 -0.02758872245322946 0 -0.072968556204311821 -0.028556209578409923 0 -0.074212430600492013 -0.02758872245322946 0 -0.073791376268039457 -0.028826289807090493 0 -0.073791376268039457 -0.028826289807090493 0 -0.074043612218819069 -0.029622975073029779 0 -0.074858859395530913 -0.028837585267314159 0 -0.072934920230566205 -0.029517419073717584 0 -0.073791376268039457 -0.028826289807090493 0 -0.074043612218819069 -0.029622975073029779 0 -0.075088714593849124 -0.030410864862392094 0 -0.074043612218819069 -0.029622975073029779 0 -0.074858859395530913 -0.028837585267314159 0 -0.075088714593849124 -0.030410864862392094 0 -0.074858859395530913 -0.028837585267314159 0 -0.075822282057839543 -0.029523352396854771 0 -0.074858859395530913 -0.028837585267314159 0 -0.075822282057839543 -0.029523352396854771 0 -0.07612414299961652 -0.028584766147587076 0 -0.075822282057839543 -0.029523352396854771 0 -0.07612414299961652 -0.028584766147587076 0 -0.076930029690754465 -0.029540008628386627 0 -0.07612414299961652 -0.028584766147587076 0 -0.075731525859776438 -0.027297550003820101 0 -0.077317397788564765 -0.027712497034801827 0 -0.074858859395530913 -0.028837585267314159 0 -0.07612414299961652 -0.028584766147587076 0 -0.075731525859776438 -0.027297550003820101 0 -0.07664792114854263 -0.024180556036731558 0 -0.076486742509306094 -0.024427370442397008 0 -0.076642312804286197 -0.02435532346904324 0 -0.07612414299961652 -0.028584766147587076 0 -0.077317397788564765 -0.027712497034801827 0 -0.076930029690754465 -0.029540008628386627 0 -0.075595190779273569 -0.026263151756221143 0 -0.073926805190154904 -0.028556526934117303 0 -0.076662230087716082 -0.024503558637757678 0 -0.076486742509306094 -0.024427370442397008 0 -0.076642312804286197 -0.02435532346904324 0 -0.076662230087716082 -0.024503558637757678 0 -0.076642312804286197 -0.02435532346904324 0 -0.07670683142871991 -0.024397730505058852 0 -0.076724829084941895 -0.024443640086502093 0 -0.07670683142871991 -0.024397730505058852 0 -0.076764226223817164 -0.024373270397459141 0 -0.076727903530132244 -0.024282941948763653 0 -0.076764226223817164 -0.024373270397459141 0 -0.07679211821324336 -0.024251605716535028 0 -0.07670683142871991 -0.024397730505058852 0 -0.076727903530132244 -0.024282941948763653 0 -0.076764226223817164 -0.024373270397459141 0 -0.076642312804286197 -0.02435532346904324 0 -0.07670683142871991 -0.024397730505058852 0 -0.076727903530132244 -0.024282941948763653 0 -0.076783092969491554 -0.024404158015895738 0 -0.076752062777251523 -0.024449650016283929 0 -0.076705882488252247 -0.024598360587918922 0 -0.073682118221507345 -0.028009464263721272 0 -0.075037064283363958 -0.027077003626389994 0 -0.076783092969491554 -0.024404158015895738 0 -0.076752062777251523 -0.024449650016283929 0 -0.076772518324357206 -0.02440190224832103 0 -0.076783092969491554 -0.024404158015895738 0 -0.076764226223817164 -0.024373270397459141 0 -0.076772518324357206 -0.02440190224832103 0 -0.076724829084941895 -0.024443640086502093 0 -0.076783092969491554 -0.024404158015895738 0 -0.076764226223817164 -0.024373270397459141 0 -0.076764226223817164 -0.024373270397459141 0 -0.076772518324357206 -0.02440190224832103 0 -0.076788236127880105 -0.024317800300453146 0 -0.076764226223817164 -0.024373270397459141 0 -0.076788236127880105 -0.024317800300453146 0 -0.07679211821324336 -0.024251605716535028 0 -0.076752062777251523 -0.024449650016283929 0 -0.076788236127880105 -0.024317800300453146 0 -0.076806766209548974 -0.024318894541129312 0 -0.076752062777251523 -0.024449650016283929 0 -0.076772518324357206 -0.02440190224832103 0 -0.076788236127880105 -0.024317800300453146 0 -0.076864829771529988 -0.02413511214600831 0 -0.076905661221745011 -0.024149410377828653 0 -0.076942440475122553 -0.024040221200857137 0 -0.076788236127880105 -0.024317800300453146 0 -0.076864829771529988 -0.02413511214600831 0 -0.076905661221745011 -0.024149410377828653 0 -0.076788236127880105 -0.024317800300453146 0 -0.07679211821324336 -0.024251605716535028 0 -0.076864829771529988 -0.02413511214600831 0 -0.07679211821324336 -0.024251605716535028 0 -0.076864829771529988 -0.02413511214600831 0 -0.076809277919512059 -0.024136345645548819 0 -0.07664792114854263 -0.024180556036731558 0 -0.076727903530132244 -0.024282941948763653 0 -0.076809277919512059 -0.024136345645548819 0 -0.07664792114854263 -0.024180556036731558 0 -0.076642312804286197 -0.02435532346904324 0 -0.076727903530132244 -0.024282941948763653 0 -0.076727903530132244 -0.024282941948763653 0 -0.07679211821324336 -0.024251605716535028 0 -0.076809277919512059 -0.024136345645548819 0 -0.076809277919512059 -0.024136345645548819 0 -0.076923126529850741 -0.024038307691534914 0 -0.076874608827456892 -0.023996284761458871 0 -0.07664792114854263 -0.024180556036731558 0 -0.076809277919512059 -0.024136345645548819 0 -0.076874608827456892 -0.023996284761458871 0 -0.076864829771529988 -0.02413511214600831 0 -0.076923126529850741 -0.024038307691534914 0 -0.076942440475122553 -0.024040221200857137 0 -0.076864829771529988 -0.02413511214600831 0 -0.076809277919512059 -0.024136345645548819 0 -0.076923126529850741 -0.024038307691534914 0 -0.076923126529850741 -0.024038307691534914 0 -0.076981984403285519 -0.023983684536203878 0 -0.076942440475122553 -0.024040221200857137 0 -0.076923126529850741 -0.024038307691534914 0 -0.076981984403285519 -0.023983684536203878 0 -0.076988292684532986 -0.023977840555811529 0 -0.076981984403285519 -0.023983684536203878 0 -0.076988292684532986 -0.023977840555811529 0 -0.077053202607483162 -0.023972595532492948 0 -0.076339564539587484 -0.025212915928681346 0 -0.076568302981550485 -0.024796293704477168 0 -0.076988292684532986 -0.023977840555811529 0 -0.076874608827456892 -0.023996284761458871 0 -0.077238707883957425 -0.024028228541359484 0 -0.076923126529850741 -0.024038307691534914 0 -0.076988292684532986 -0.023977840555811529 0 -0.076874608827456892 -0.023996284761458871 0 -0.077501851401574617 -0.025769527897305515 0 -0.076305269148496155 -0.025989280793212857 0 -0.076412595543505157 -0.02461574196115961 0 -0.077501851401574617 -0.025769527897305515 0 -0.076412595543505157 -0.02461574196115961 0 -0.077238707883957425 -0.024028228541359484 0 -0.075329190093802609 -0.024399864182135571 0 -0.074938126480754347 -0.025959737534551414 0 -0.076305269148496155 -0.025989280793212857 0 -0.075329190093802609 -0.024399864182135571 0 -0.076305269148496155 -0.025989280793212857 0 -0.076412595543505157 -0.02461574196115961 0 -0.075731525859776438 -0.027297550003820101 0 -0.077317397788564765 -0.027712497034801827 0 -0.076305269148496155 -0.025989280793212857 0 -0.074938126480754347 -0.025959737534551414 0 -0.075731525859776438 -0.027297550003820101 0 -0.076305269148496155 -0.025989280793212857 0 -0.077317397788564765 -0.027712497034801827 0 -0.077501851401574617 -0.025769527897305515 0 -0.076305269148496155 -0.025989280793212857 0 -0.075595190779273569 -0.026263151756221143 0 -0.076339564539587484 -0.025212915928681346 0 -0.014442316269295369 -0.018838916832828116 0 -0.011785844236988316 -0.016254681982021259 0 -0.014732668389852788 -0.013622115418515407 0 -0.011785844236988316 -0.016254681982021259 0 -0.010884843070273672 -0.0135917146656079 0 -0.014732668389852788 -0.013622115418515407 0 -0.014442316269295369 -0.018838916832828116 0 -0.010053313406964748 -0.018698021182104885 0 -0.011785844236988316 -0.016254681982021259 0 -0.01089276370349228 -0.021638889591111019 0 -0.014442316269295369 -0.018838916832828116 0 -0.010053313406964748 -0.018698021182104885 0 -0.010053313406964748 -0.018698021182104885 0 -0.011785844236988316 -0.016254681982021259 0 -0.0088251166569483126 -0.016546187658879791 0 -0.0077328503797212157 -0.013780752081598478 0 -0.0088251166569483126 -0.016546187658879791 0 -0.010884843070273672 -0.0135917146656079 0 -0.011785844236988316 -0.016254681982021259 0 -0.0088251166569483126 -0.016546187658879791 0 -0.010884843070273672 -0.0135917146656079 0 -0.0077328503797212157 -0.013780752081598478 0 -0.0088251166569483126 -0.016546187658879791 0 -0.0048416872014607178 -0.017780772313832089 0 -0.038843951264589255 -0.019380329742415735 0 -0.042615826493538553 -0.022912556172425928 0 -0.07693556688660462 -0.024055048480447552 0 -0.077089009354572427 -0.024197234049513388 0 -0.076957072875297086 -0.024076805354478391 0 -0.010053313406964748 -0.018698021182104885 0 -0.0088251166569483126 -0.016546187658879791 0 -0.0069898306821982448 -0.01924198861874192 0 -0.0088251166569483126 -0.016546187658879791 0 -0.0069898306821982448 -0.01924198861874192 0 -0.0048416872014607178 -0.017780772313832089 0 -0.0084592137752763884 -0.020982702844824324 0 -0.010053313406964748 -0.018698021182104885 0 -0.0069898306821982448 -0.01924198861874192 0 -0.075723466773946937 -0.026274223805232002 0 -0.077089009354572427 -0.024197234049513388 0 -0.076705882488252247 -0.024598360587918922 0 -0.0046912016069050296 -0.02076149177048292 0 -0.0069898306821982448 -0.01924198861874192 0 -0.0048416872014607178 -0.017780772313832089 0 -0.077089009354572427 -0.024197234049513388 0 -0.076806766209548974 -0.024318894541129312 0 -0.076905661221745011 -0.024149410377828653 0 -0.076752062777251523 -0.024449650016283929 0 -0.076705882488252247 -0.024598360587918922 0 -0.076806766209548974 -0.024318894541129312 0 -0.077089009354572427 -0.024197234049513388 0 -0.076705882488252247 -0.024598360587918922 0 -0.076806766209548974 -0.024318894541129312 0 -0.076788236127880105 -0.024317800300453146 0 -0.076806766209548974 -0.024318894541129312 0 -0.076905661221745011 -0.024149410377828653 0 -0.076905661221745011 -0.024149410377828653 0 -0.076957072875297086 -0.024076805354478391 0 -0.076942440475122553 -0.024040221200857137 0 -0.077089009354572427 -0.024197234049513388 0 -0.076905661221745011 -0.024149410377828653 0 -0.076957072875297086 -0.024076805354478391 0 -0.076957072875297086 -0.024076805354478391 0 -0.076942440475122553 -0.024040221200857137 0 -0.076940223862098062 -0.024004752092009373 0 -0.076942440475122553 -0.024040221200857137 0 -0.076957928006626333 -0.024001979384641031 0 -0.076940223862098062 -0.024004752092009373 0 -0.076981984403285519 -0.023983684536203878 0 -0.076942440475122553 -0.024040221200857137 0 -0.076957928006626333 -0.024001979384641031 0 -0.076969053552287905 -0.023980189097704104 0 -0.076940223862098062 -0.024004752092009373 0 -0.076927449086828775 -0.023984234469382221 0 -0.076981984403285519 -0.023983684536203878 0 -0.076957928006626333 -0.024001979384641031 0 -0.076969053552287905 -0.023980189097704104 0 -0.076981984403285519 -0.023983684536203878 0 -0.076969053552287905 -0.023980189097704104 0 -0.077030860116078972 -0.023964573970704509 0 -0.076957928006626333 -0.024001979384641031 0 -0.076969053552287905 -0.023980189097704104 0 -0.076940223862098062 -0.024004752092009373 0 -0.03023322244344399 -0.020492632705175668 0 -0.04752695236693457 -0.022377764742260536 0 -0.076940223862098062 -0.024004752092009373 0 -0.076860998587538684 -0.024001775433732227 0 -0.076927449086828775 -0.023984234469382221 0 -0.07693556688660462 -0.024055048480447552 0 -0.076940223862098062 -0.024004752092009373 0 -0.076860998587538684 -0.024001775433732227 0 -0.07693556688660462 -0.024055048480447552 0 -0.076957072875297086 -0.024076805354478391 0 -0.076940223862098062 -0.024004752092009373 0 -0.010884843070273672 -0.0135917146656079 0 -0.010545884720950574 -0.0097291669134421856 0 -0.014732668389852788 -0.013622115418515407 0 -0.0077328503797212157 -0.013780752081598478 0 -0.010884843070273672 -0.0135917146656079 0 -0.010545884720950574 -0.0097291669134421856 0 -0.038843951264589255 -0.019380329742415735 0 -0.03023322244344399 -0.020492632705175668 0 -0.019056016568697019 -0.016003394715298068 0 -0.01832392999951887 -0.015986609516890193 0 -0.020849373916165762 -0.018806160160984239 0 -0.019056016568697019 -0.016003394715298068 0 -0.019312760094597439 -0.015596109554829206 0 -0.020849373916165762 -0.018806160160984239 0 -0.019056016568697019 -0.016003394715298068 0 -0.018939987222859458 -0.015823730043498276 0 -0.01832392999951887 -0.015986609516890193 0 -0.030169087370786954 -0.02050325426674518 0 -0.03023322244344399 -0.020492632705175668 0 -0.018939987222859458 -0.015823730043498276 0 -0.01832392999951887 -0.015986609516890193 0 -0.018462756308997477 -0.016130551071197551 0 -0.01832392999951887 -0.015986609516890193 0 -0.018636967471573066 -0.015672163278919442 0 -0.018461481993256781 -0.015183476262426407 0 -0.01832392999951887 -0.015986609516890193 0 -0.018636967471573066 -0.015672163278919442 0 -0.018462756308997477 -0.016130551071197551 0 -0.018636967471573066 -0.015672163278919442 0 -0.018462756308997477 -0.016130551071197551 0 -0.01898859830282704 -0.015993669778868919 0 -0.018939987222859458 -0.015823730043498276 0 -0.018462756308997477 -0.016130551071197551 0 -0.018363439076249703 -0.016667657898568652 0 -0.018462756308997477 -0.016130551071197551 0 -0.018363439076249703 -0.016667657898568652 0 -0.01898859830282704 -0.015993669778868919 0 -0.03023322244344399 -0.020492632705175668 0 -0.020274399713990011 -0.015001209609781973 0 -0.018082580623675994 -0.014165128136734621 0 -0.018535424208173557 -0.014475336007743681 0 -0.019106675471303489 -0.013467423426436304 0 -0.018082580623675994 -0.014165128136734621 0 -0.017657325339387315 -0.013873377458038797 0 -0.019106675471303489 -0.013467423426436304 0 -0.018082580623675994 -0.014165128136734621 0 -0.018535424208173557 -0.014475336007743681 0 -0.018089023756572498 -0.01469748310481314 0 -0.018535424208173557 -0.014475336007743681 0 -0.018461481993256781 -0.015183476262426407 0 -0.018996804268772711 -0.014783134751933586 0 -0.018636967471573066 -0.015672163278919442 0 -0.018461481993256781 -0.015183476262426407 0 -0.018996804268772711 -0.014783134751933586 0 -0.01832392999951887 -0.015986609516890193 0 -0.018461481993256781 -0.015183476262426407 0 -0.017966557441150641 -0.015227863182434534 0 -0.018535424208173557 -0.014475336007743681 0 -0.018461481993256781 -0.015183476262426407 0 -0.018089023756572498 -0.01469748310481314 0 -0.018461481993256781 -0.015183476262426407 0 -0.018089023756572498 -0.01469748310481314 0 -0.017966557441150641 -0.015227863182434534 0 -0.01832392999951887 -0.015986609516890193 0 -0.017966557441150641 -0.015227863182434534 0 -0.017196511143847865 -0.014892387028513436 0 -0.018089023756572498 -0.01469748310481314 0 -0.017708138058361019 -0.014811722143800034 0 -0.017570421227130126 -0.014448504353533741 0 -0.02315786386011064 -0.01319939227516569 0 -0.026161815782008036 -0.01353130839929958 0 -0.018089023756572498 -0.01469748310481314 0 -0.017708138058361019 -0.014811722143800034 0 -0.017966557441150641 -0.015227863182434534 0 -0.017708138058361019 -0.014811722143800034 0 -0.017966557441150641 -0.015227863182434534 0 -0.017196511143847865 -0.014892387028513436 0 -0.017708138058361019 -0.014811722143800034 0 -0.017570421227130126 -0.014448504353533741 0 -0.017196511143847865 -0.014892387028513436 0 -0.017570421227130126 -0.014448504353533741 0 -0.017248335666150558 -0.014461087397998167 0 -0.017196511143847865 -0.014892387028513436 0 -0.017570421227130126 -0.014448504353533741 0 -0.017253538718490537 -0.014179092512919177 0 -0.017248335666150558 -0.014461087397998167 0 -0.018082580623675994 -0.014165128136734621 0 -0.018089023756572498 -0.01469748310481314 0 -0.017570421227130126 -0.014448504353533741 0 -0.018082580623675994 -0.014165128136734621 0 -0.017570421227130126 -0.014448504353533741 0 -0.017591612007095799 -0.0141483203718462 0 -0.018082580623675994 -0.014165128136734621 0 -0.017591612007095799 -0.0141483203718462 0 -0.017657325339387315 -0.013873377458038797 0 -0.017591612007095799 -0.0141483203718462 0 -0.017253538718490537 -0.014179092512919177 0 -0.017657325339387315 -0.013873377458038797 0 -0.017570421227130126 -0.014448504353533741 0 -0.017591612007095799 -0.0141483203718462 0 -0.017253538718490537 -0.014179092512919177 0 -0.017253538718490537 -0.014179092512919177 0 -0.0169814978570999 -0.014324449719960887 0 -0.016400083818882208 -0.014060207215880097 0 -0.017253538718490537 -0.014179092512919177 0 -0.016400083818882208 -0.014060207215880097 0 -0.017657325339387315 -0.013873377458038797 0 -0.040659940803876138 -0.017847570324649498 0 -0.025004844900643031 -0.015182273370741774 0 -0.0169814978570999 -0.014324449719960887 0 -0.017196511143847865 -0.014892387028513436 0 -0.016400083818882208 -0.014060207215880097 0 -0.026161815782008036 -0.01353130839929958 0 -0.040659940803876138 -0.017847570324649498 0 -0.0169814978570999 -0.014324449719960887 0 -0.017248335666150558 -0.014461087397998167 0 -0.017196511143847865 -0.014892387028513436 0 -0.017253538718490537 -0.014179092512919177 0 -0.0169814978570999 -0.014324449719960887 0 -0.017248335666150558 -0.014461087397998167 0 -0.020849373916165762 -0.018806160160984239 0 -0.022953903957584544 -0.018351414100290495 0 -0.024777294915844857 -0.022343445888176158 0 -0.019312760094597439 -0.015596109554829206 0 -0.020849373916165762 -0.018806160160984239 0 -0.022953903957584544 -0.018351414100290495 0 -0.076927449086828775 -0.023984234469382221 0 -0.07700092570732614 -0.023972836237345991 0 -0.077078490710042982 -0.023971381047060907 0 -0.076969053552287905 -0.023980189097704104 0 -0.076927449086828775 -0.023984234469382221 0 -0.07700092570732614 -0.023972836237345991 0 -0.076969053552287905 -0.023980189097704104 0 -0.07700092570732614 -0.023972836237345991 0 -0.077030860116078972 -0.023964573970704509 0 -0.04752695236693457 -0.022377764742260536 0 -0.05959971053398215 -0.022028827018132205 0 -0.022953903957584544 -0.018351414100290495 0 -0.024777294915844857 -0.022343445888176158 0 -0.027366209932944932 -0.022049320277971806 0 -0.040659940803876138 -0.017847570324649498 0 -0.05959971053398215 -0.022028827018132205 0 -0.03503359217805195 -0.012476565249521589 0 -0.03563541829330065 -0.014298843735393585 0 -0.039804831561065977 -0.0140226892558966 0 -0.034466434688632877 -0.0092438292340040282 0 -0.03503359217805195 -0.012476565249521589 0 -0.039804831561065977 -0.0140226892558966 0 -0.034466434688632877 -0.0092438292340040282 0 -0.03503359217805195 -0.012476565249521589 0 -0.032378504812950577 -0.011462365451123462 0 -0.032878946184638845 -0.01336090936740982 0 -0.03503359217805195 -0.012476565249521589 0 -0.032378504812950577 -0.011462365451123462 0 -0.032878946184638845 -0.01336090936740982 0 -0.03503359217805195 -0.012476565249521589 0 -0.03563541829330065 -0.014298843735393585 0 -0.03563541829330065 -0.014298843735393585 0 -0.033579295591187663 -0.015879271961056915 0 -0.037086803684055966 -0.016962816186828041 0 -0.033579295591187663 -0.015879271961056915 0 -0.037086803684055966 -0.016962816186828041 0 -0.033437584680395635 -0.01888835155653814 0 -0.032878946184638845 -0.01336090936740982 0 -0.03563541829330065 -0.014298843735393585 0 -0.033579295591187663 -0.015879271961056915 0 -0.032878946184638845 -0.01336090936740982 0 -0.033579295591187663 -0.015879271961056915 0 -0.03074723161455337 -0.014371672876274928 0 -0.033579295591187663 -0.015879271961056915 0 -0.03074723161455337 -0.014371672876274928 0 -0.030911041916402451 -0.017042096154197398 0 -0.033579295591187663 -0.015879271961056915 0 -0.030911041916402451 -0.017042096154197398 0 -0.033437584680395635 -0.01888835155653814 0 -0.030911041916402451 -0.017042096154197398 0 -0.028231198446757588 -0.015202743065442609 0 -0.028399020193077173 -0.018107909026352592 0 -0.030911041916402451 -0.017042096154197398 0 -0.028399020193077173 -0.018107909026352592 0 -0.030272862868831359 -0.019804446690751827 0 -0.03074723161455337 -0.014371672876274928 0 -0.030911041916402451 -0.017042096154197398 0 -0.028231198446757588 -0.015202743065442609 0 -0.034466434688632877 -0.0092438292340040282 0 -0.029942964464971578 -0.011380277316278397 0 -0.026267819539444515 -0.010429871549699673 0 -0.03074723161455337 -0.014371672876274928 0 -0.028787897189268986 -0.012869401363686642 0 -0.028231198446757588 -0.015202743065442609 0 -0.034466434688632877 -0.0092438292340040282 0 -0.032378504812950577 -0.011462365451123462 0 -0.029942964464971578 -0.011380277316278397 0 -0.028787897189268986 -0.012869401363686642 0 -0.030623259842428394 -0.012601023028352001 0 -0.029942964464971578 -0.011380277316278397 0 -0.03074723161455337 -0.014371672876274928 0 -0.028787897189268986 -0.012869401363686642 0 -0.030623259842428394 -0.012601023028352001 0 -0.032878946184638845 -0.01336090936740982 0 -0.030623259842428394 -0.012601023028352001 0 -0.032378504812950577 -0.011462365451123462 0 -0.032878946184638845 -0.01336090936740982 0 -0.03074723161455337 -0.014371672876274928 0 -0.030623259842428394 -0.012601023028352001 0 -0.030623259842428394 -0.012601023028352001 0 -0.032378504812950577 -0.011462365451123462 0 -0.029942964464971578 -0.011380277316278397 0 -0.028787897189268986 -0.012869401363686642 0 -0.029942964464971578 -0.011380277316278397 0 -0.027238660140192134 -0.011562324798407686 0 -0.029942964464971578 -0.011380277316278397 0 -0.027238660140192134 -0.011562324798407686 0 -0.026267819539444515 -0.010429871549699673 0 -0.027238660140192134 -0.011562324798407686 0 -0.026477967104121428 -0.011212616433263496 0 -0.026479795414209563 -0.012026915405304218 0 -0.027238660140192134 -0.011562324798407686 0 -0.026477967104121428 -0.011212616433263496 0 -0.026267819539444515 -0.010429871549699673 0 -0.026479795414209563 -0.012026915405304218 0 -0.025921942944524854 -0.010920074899564603 0 -0.025523979597758633 -0.013374203501561566 0 -0.026477967104121428 -0.011212616433263496 0 -0.026267819539444515 -0.010429871549699673 0 -0.025921942944524854 -0.010920074899564603 0 -0.026477967104121428 -0.011212616433263496 0 -0.026479795414209563 -0.012026915405304218 0 -0.025921942944524854 -0.010920074899564603 0 -0.026479795414209563 -0.012026915405304218 0 -0.025523979597758633 -0.013374203501561566 0 -0.027068000676818228 -0.01326905355851216 0 -0.025523979597758633 -0.013374203501561566 0 -0.027068000676818228 -0.01326905355851216 0 -0.026275995368588875 -0.014805088296482015 0 -0.028787897189268986 -0.012869401363686642 0 -0.027068000676818228 -0.01326905355851216 0 -0.028231198446757588 -0.015202743065442609 0 -0.027238660140192134 -0.011562324798407686 0 -0.026479795414209563 -0.012026915405304218 0 -0.027068000676818228 -0.01326905355851216 0 -0.028787897189268986 -0.012869401363686642 0 -0.027238660140192134 -0.011562324798407686 0 -0.027068000676818228 -0.01326905355851216 0 -0.028231198446757588 -0.015202743065442609 0 -0.026129299364183158 -0.017047936806662854 0 -0.026275995368588875 -0.014805088296482015 0 -0.027068000676818228 -0.01326905355851216 0 -0.028231198446757588 -0.015202743065442609 0 -0.026275995368588875 -0.014805088296482015 0 -0.028231198446757588 -0.015202743065442609 0 -0.028399020193077173 -0.018107909026352592 0 -0.026129299364183158 -0.017047936806662854 0 -0.026129299364183158 -0.017047936806662854 0 -0.024451010580468988 -0.015490908987242239 0 -0.023400525181554204 -0.017285505507802619 0 -0.025523979597758633 -0.013374203501561566 0 -0.026275995368588875 -0.014805088296482015 0 -0.024451010580468988 -0.015490908987242239 0 -0.026129299364183158 -0.017047936806662854 0 -0.026275995368588875 -0.014805088296482015 0 -0.024451010580468988 -0.015490908987242239 0 -0.024451010580468988 -0.015490908987242239 0 -0.023400525181554204 -0.017285505507802619 0 -0.022077763399118978 -0.015008763087629447 0 -0.025523979597758633 -0.013374203501561566 0 -0.024451010580468988 -0.015490908987242239 0 -0.022077763399118978 -0.015008763087629447 0 -0.023400525181554204 -0.017285505507802619 0 -0.022077763399118978 -0.015008763087629447 0 -0.018443176755315035 -0.01873690642579004 0 -0.025921942944524854 -0.010920074899564603 0 -0.023561124262908947 -0.012758752348937499 0 -0.022206631065678734 -0.011426860721620836 0 -0.026267819539444515 -0.010429871549699673 0 -0.025921942944524854 -0.010920074899564603 0 -0.022206631065678734 -0.011426860721620836 0 -0.025004844900643031 -0.015182273370741774 0 -0.021846991925196985 -0.013909533526379936 0 -0.026430045730095778 -0.013081186190597404 0 -0.026779017890406653 -0.013280324050990791 0 -0.025921942944524854 -0.010920074899564603 0 -0.025523979597758633 -0.013374203501561566 0 -0.022077763399118978 -0.015008763087629447 0 -0.075788017469585869 -0.023034234348353284 0 -0.076775543713506658 -0.022284702311706178 0 -0.076352912054031497 -0.02207382019757767 0 -0.074854996121381759 -0.022035207694717181 0 -0.073208830198381036 -0.021861365505447875 0 -0.075788017469585869 -0.023034234348353284 0 -0.076724249155960711 -0.023848468251707167 0 -0.077137807352507651 -0.023650220940697592 0 -0.075788017469585869 -0.023034234348353284 0 -0.076352912054031497 -0.02207382019757767 0 -0.075766889707375593 -0.02175456219400914 0 -0.074499560060167322 -0.022302680534510209 0 -0.075788017469585869 -0.023034234348353284 0 -0.075766889707375593 -0.02175456219400914 0 -0.075329190093802609 -0.024399864182135571 0 -0.075788017469585869 -0.023034234348353284 0 -0.076412595543505157 -0.02461574196115961 0 -0.075788017469585869 -0.023034234348353284 0 -0.076412595543505157 -0.02461574196115961 0 -0.076724249155960711 -0.023848468251707167 0 -0.076412595543505157 -0.02461574196115961 0 -0.076724249155960711 -0.023848468251707167 0 -0.077238707883957425 -0.024028228541359484 0 -0.076724249155960711 -0.023848468251707167 0 -0.077238707883957425 -0.024028228541359484 0 -0.077137807352507651 -0.023650220940697592 0 -0.076988292684532986 -0.023977840555811529 0 -0.077238707883957425 -0.024028228541359484 0 -0.077053202607483162 -0.023972595532492948 0 -0.077238707883957425 -0.024028228541359484 0 -0.077053202607483162 -0.023972595532492948 0 -0.077140439959459947 -0.023947485649190692 0 -0.077238707883957425 -0.024028228541359484 0 -0.077140439959459947 -0.023947485649190692 0 -0.077137807352507651 -0.023650220940697592 0 -0.07700092570732614 -0.023972836237345991 0 -0.077030860116078972 -0.023964573970704509 0 -0.077078490710042982 -0.023971381047060907 0 -0.076981984403285519 -0.023983684536203878 0 -0.077030860116078972 -0.023964573970704509 0 -0.077053202607483162 -0.023972595532492948 0 -0.077030860116078972 -0.023964573970704509 0 -0.077053202607483162 -0.023972595532492948 0 -0.077140439959459947 -0.023947485649190692 0 -0.077030860116078972 -0.023964573970704509 0 -0.077140439959459947 -0.023947485649190692 0 -0.077078490710042982 -0.023971381047060907 0 -0.077140439959459947 -0.023947485649190692 0 -0.077078490710042982 -0.023971381047060907 0 -0.077137807352507651 -0.023650220940697592 0 -0.07754753853161199 -0.022061225676100998 0 -0.076775543713506658 -0.022284702311706178 0 -0.07708965855513894 -0.021599834703585421 0 -0.05959971053398215 -0.022028827018132205 0 -0.073208830198381036 -0.021861365505447875 0 -0.076775543713506658 -0.022284702311706178 0 -0.076748502773816077 -0.021799008803321106 0 -0.07708965855513894 -0.021599834703585421 0 -0.07708965855513894 -0.021599834703585421 0 -0.076963419073877451 -0.021671683780143697 0 -0.076979655646866443 -0.021471559710569407 0 -0.07708965855513894 -0.021599834703585421 0 -0.07684784681790334 -0.021461033674558955 0 -0.076979655646866443 -0.021471559710569407 0 -0.076748502773816077 -0.021799008803321106 0 -0.07708965855513894 -0.021599834703585421 0 -0.07684784681790334 -0.021461033674558955 0 -0.040659940803876138 -0.017847570324649498 0 -0.054649700126925667 -0.018981254820977143 0 -0.076535881226196534 -0.021070855683224407 0 -0.07708965855513894 -0.021599834703585421 0 -0.076963419073877451 -0.021671683780143697 0 -0.075955465566523273 -0.021142872065123702 0 -0.076535881226196534 -0.021070855683224407 0 -0.076963419073877451 -0.021671683780143697 0 -0.05959971053398215 -0.022028827018132205 0 -0.06452273704203465 -0.024381752679997926 0 -0.039804831561065977 -0.0140226892558966 0 -0.040341848496780408 -0.017680193620288217 0 -0.037086803684055966 -0.016962816186828041 0 -0.03563541829330065 -0.014298843735393585 0 -0.039804831561065977 -0.0140226892558966 0 -0.037086803684055966 -0.016962816186828041 0 -0.039804831561065977 -0.0140226892558966 0 -0.040341848496780408 -0.017680193620288217 0 -0.043520817901237525 -0.017311134542312097 0 -0.040341848496780408 -0.017680193620288217 0 -0.043520817901237525 -0.017311134542312097 0 -0.045337018338981863 -0.018943128693507748 0 -0.07684784681790334 -0.021461033674558955 0 -0.076960632340272214 -0.021061809377433408 0 -0.076576365650914316 -0.021124831342936839 0 -0.07684784681790334 -0.021461033674558955 0 -0.076979655646866443 -0.021471559710569407 0 -0.076960632340272214 -0.021061809377433408 0 -0.054649700126925667 -0.018981254820977143 0 -0.060298298568527239 -0.018094770666471766 0 -0.076963419073877451 -0.021671683780143697 0 -0.076979655646866443 -0.021471559710569407 0 -0.076960632340272214 -0.021061809377433408 0 -0.060298298568527239 -0.018094770666471766 0 -0.062824965648817122 -0.017433238913016378 0 -0.076960632340272214 -0.021061809377433408 0 -0.076576365650914316 -0.021124831342936839 0 -0.076738475849524104 -0.020756991852893151 0 -0.076576365650914316 -0.021124831342936839 0 -0.075762813122765657 -0.020708262690629288 0 -0.076738475849524104 -0.020756991852893151 0 -0.069830963174990324 -0.016784798385636051 0 -0.062824965648817122 -0.017433238913016378 0 -0.076576365650914316 -0.021124831342936839 0 -0.076441913483071181 -0.02153481901668694 0 -0.075762813122765657 -0.020708262690629288 0 -0.07684784681790334 -0.021461033674558955 0 -0.076576365650914316 -0.021124831342936839 0 -0.076441913483071181 -0.02153481901668694 0 -0.076748502773816077 -0.021799008803321106 0 -0.07684784681790334 -0.021461033674558955 0 -0.076441913483071181 -0.02153481901668694 0 -0.076441913483071181 -0.02153481901668694 0 -0.076352912054031497 -0.02207382019757767 0 -0.075766889707375593 -0.02175456219400914 0 -0.076775543713506658 -0.022284702311706178 0 -0.076748502773816077 -0.021799008803321106 0 -0.076352912054031497 -0.02207382019757767 0 -0.076748502773816077 -0.021799008803321106 0 -0.076441913483071181 -0.02153481901668694 0 -0.076352912054031497 -0.02207382019757767 0 -0.076441913483071181 -0.02153481901668694 0 -0.075766889707375593 -0.02175456219400914 0 -0.075762813122765657 -0.020708262690629288 0 -0.074832157492883328 -0.020975490388090601 0 -0.075766889707375593 -0.02175456219400914 0 -0.075762813122765657 -0.020708262690629288 0 -0.075762813122765657 -0.020708262690629288 0 -0.075742931182213577 -0.019675116142662891 0 -0.077077450957278443 -0.019883891751595981 0 -0.075762813122765657 -0.020708262690629288 0 -0.075742931182213577 -0.019675116142662891 0 -0.074941358122117371 -0.020042890522133316 0 -0.067099766562568802 -0.013935313567284223 0 -0.068943489161544025 -0.012685149269477849 0 -0.075742931182213577 -0.019675116142662891 0 -0.076051994510981741 -0.018762531314416755 0 -0.074941285603909669 -0.019218251457516867 0 -0.067213836117184636 -0.012966757454572335 0 -0.067968474000783569 -0.01298746705049126 0 -0.067731414142757893 -0.01319171438551588 0 -0.067213836117184636 -0.012966757454572335 0 -0.067584386174627878 -0.013364483953390408 0 -0.067731414142757893 -0.01319171438551588 0 -0.064761834359372536 -0.012644362901980314 0 -0.065152983836803208 -0.014256205969709824 0 -0.066916264094663752 -0.014975947819532966 0 -0.064761834359372536 -0.012644362901980314 0 -0.065152983836803208 -0.014256205969709824 0 -0.063623196082328498 -0.013943625224282592 0 -0.067099766562568802 -0.013935313567284223 0 -0.067059626384553817 -0.011374712765332289 0 -0.067099766562568802 -0.013935313567284223 0 -0.063631407763645717 -0.013527559971453391 0 -0.064897605059681007 -0.012684616270658033 0 -0.061638904950594861 -0.012575134970420617 0 -0.061881717066257128 -0.0094196495638718195 0 -0.064761834359372536 -0.012644362901980314 0 -0.063623196082328498 -0.013943625224282592 0 -0.06160279850814171 -0.012544387224958146 0 -0.063623196082328498 -0.013943625224282592 0 -0.06160279850814171 -0.012544387224958146 0 -0.060773665000399428 -0.014430303442641221 0 -0.075742931182213577 -0.019675116142662891 0 -0.076051994510981741 -0.018762531314416755 0 -0.077077450957278443 -0.019883891751595981 0 -0.067099766562568802 -0.013935313567284223 0 -0.064153857215562854 -0.016941665059979578 0 -0.075762813122765657 -0.020708262690629288 0 -0.077077450957278443 -0.019883891751595981 0 -0.077324817986348507 -0.020158098965959978 0 -0.061638904950594861 -0.012575134970420617 0 -0.061881717066257128 -0.0094196495638718195 0 -0.061138975564276728 -0.0086155641580449339 0 -0.064153857215562854 -0.016941665059979578 0 -0.062824965648817122 -0.017433238913016378 0 -0.061638904950594861 -0.012575134970420617 0 -0.059579783398104387 -0.01043016928579278 0 -0.061138975564276728 -0.0086155641580449339 0 -0.062824965648817122 -0.017433238913016378 0 -0.049274790100473996 -0.015184542738862834 0 -0.059579783398104387 -0.01043016928579278 0 -0.061138975564276728 -0.0086155641580449339 0 -0.05571512328702561 -0.0099906295899631747 0 -0.040341848496780408 -0.017680193620288217 0 -0.045337018338981863 -0.018943128693507748 0 -0.037854419111882656 -0.020817402568150453 0 -0.059579783398104387 -0.01043016928579278 0 -0.05571512328702561 -0.0099906295899631747 0 -0.05837839754366627 -0.012452348044585454 0 -0.040341848496780408 -0.017680193620288217 0 -0.037086803684055966 -0.016962816186828041 0 -0.037854419111882656 -0.020817402568150453 0 -0.05571512328702561 -0.0099906295899631747 0 -0.055596200785000389 -0.012992209803058376 0 -0.05837839754366627 -0.012452348044585454 0 -0.054827321490288849 -0.0099256352727655206 0 -0.060015932878881087 -0.0097871332014002645 0 -0.056969528821431345 -0.0029608244947323067 0 -0.059680190878496332 -0.0037651447724160203 0 -0.058434327865522877 -0.0043491774941587947 0 -0.055596200785000389 -0.012992209803058376 0 -0.05837839754366627 -0.012452348044585454 0 -0.060773665000399428 -0.014430303442641221 0 -0.063631407763645717 -0.013527559971453391 0 -0.062224341081254304 -0.013390239239338516 0 -0.06160279850814171 -0.012544387224958146 0 -0.05837839754366627 -0.012452348044585454 0 -0.060773665000399428 -0.014430303442641221 0 -0.061638904950594861 -0.012575134970420617 0 -0.059579783398104387 -0.01043016928579278 0 -0.05837839754366627 -0.012452348044585454 0 -0.059680190878496332 -0.0037651447724160203 0 -0.058434327865522877 -0.0043491774941587947 0 -0.059442433072963916 -0.0050006482448811977 0 -0.058434327865522877 -0.0043491774941587947 0 -0.059442433072963916 -0.0050006482448811977 0 -0.058528414610204693 -0.0053394549284590739 0 -0.059680190878496332 -0.0037651447724160203 0 -0.059442433072963916 -0.0050006482448811977 0 -0.060548415105533576 -0.0050620141176750859 0 -0.056969528821431345 -0.0029608244947323067 0 -0.057453936479695343 -0.0045596716144163602 0 -0.056570300961669352 -0.0038874327841504435 0 -0.056969528821431345 -0.0029608244947323067 0 -0.058434327865522877 -0.0043491774941587947 0 -0.057453936479695343 -0.0045596716144163602 0 -0.057453936479695343 -0.0045596716144163602 0 -0.057600158078836151 -0.0054105964852001953 0 -0.058528414610204693 -0.0053394549284590739 0 -0.058434327865522877 -0.0043491774941587947 0 -0.057453936479695343 -0.0045596716144163602 0 -0.058528414610204693 -0.0053394549284590739 0 -0.057453936479695343 -0.0045596716144163602 0 -0.057600158078836151 -0.0054105964852001953 0 -0.056501817696192981 -0.0052539594136491747 0 -0.057453936479695343 -0.0045596716144163602 0 -0.056570300961669352 -0.0038874327841504435 0 -0.056501817696192981 -0.0052539594136491747 0 -0.058036747179922688 -0.0063809892884619896 0 -0.056501817696192981 -0.0052539594136491747 0 -0.057556500964486286 -0.0076077412680671409 0 -0.056018645832176396 -0.0046258892192725266 0 -0.055405482520691225 -0.0033141182201238289 0 -0.057600158078836151 -0.0054105964852001953 0 -0.058036747179922688 -0.0063809892884619896 0 -0.056501817696192981 -0.0052539594136491747 0 -0.057600158078836151 -0.0054105964852001953 0 -0.058036747179922688 -0.0063809892884619896 0 -0.058528414610204693 -0.0053394549284590739 0 -0.058036747179922688 -0.0063809892884619896 0 -0.059646449182311857 -0.0060571237995051853 0 -0.059600560649713558 -0.0075682884575323586 0 -0.058036747179922688 -0.0063809892884619896 0 -0.058528414610204693 -0.0053394549284590739 0 -0.059646449182311857 -0.0060571237995051853 0 -0.059442433072963916 -0.0050006482448811977 0 -0.058528414610204693 -0.0053394549284590739 0 -0.059646449182311857 -0.0060571237995051853 0 -0.059442433072963916 -0.0050006482448811977 0 -0.059646449182311857 -0.0060571237995051853 0 -0.060548415105533576 -0.0050620141176750859 0 -0.059646449182311857 -0.0060571237995051853 0 -0.061205532165658737 -0.0064091794699529447 0 -0.059600560649713558 -0.0075682884575323586 0 -0.059646449182311857 -0.0060571237995051853 0 -0.061205532165658737 -0.0064091794699529447 0 -0.060548415105533576 -0.0050620141176750859 0 -0.061205532165658737 -0.0064091794699529447 0 -0.06155571938433247 -0.0054374907679952478 0 -0.060548415105533576 -0.0050620141176750859 0 -0.061205532165658737 -0.0064091794699529447 0 -0.062216265609285164 -0.0057094157134856081 0 -0.062455615021310126 -0.0071940935746406609 0 -0.062216265609285164 -0.0057094157134856081 0 -0.062455615021310126 -0.0071940935746406609 0 -0.063558416237675275 -0.004954316006669391 0 -0.061205532165658737 -0.0064091794699529447 0 -0.062216265609285164 -0.0057094157134856081 0 -0.06155571938433247 -0.0054374907679952478 0 -0.062216265609285164 -0.0057094157134856081 0 -0.06155571938433247 -0.0054374907679952478 0 -0.06225083902346757 -0.0045718380964779705 0 -0.066871862614921534 -0.0098031864300271842 0 -0.06692772434945897 -0.0097860685714430615 0 -0.066969064805872294 -0.0098277759147073675 0 -0.062216265609285164 -0.0057094157134856081 0 -0.06225083902346757 -0.0045718380964779705 0 -0.063558416237675275 -0.004954316006669391 0 -0.065163243861109652 -0.010133675436768118 0 -0.067050653348510708 -0.010035350264699948 0 -0.065152983836803208 -0.014256205969709824 0 -0.065816023466773343 -0.015835411985662313 0 -0.066914493267531391 -0.014973356991142696 0 -0.06700551235392313 -0.011494790844655709 0 -0.067059626384553817 -0.011374712765332289 0 -0.065816023466773343 -0.015835411985662313 0 -0.066914493267531391 -0.014973356991142696 0 -0.06729606585232592 -0.015386535099419634 0 -0.065163243861109652 -0.010133675436768118 0 -0.066887787690405015 -0.010970521179057854 0 -0.067059626384553817 -0.011374712765332289 0 -0.066887787690405015 -0.010970521179057854 0 -0.065152983836803208 -0.014256205969709824 0 -0.063623196082328498 -0.013943625224282592 0 -0.065816023466773343 -0.015835411985662313 0 -0.060015932878881087 -0.0097871332014002645 0 -0.065163243861109652 -0.010133675436768118 0 -0.06155571938433247 -0.0054374907679952478 0 -0.06225083902346757 -0.0045718380964779705 0 -0.060548415105533576 -0.0050620141176750859 0 -0.059680190878496332 -0.0037651447724160203 0 -0.062317572142140641 -0.0045539078129365881 0 -0.060548415105533576 -0.0050620141176750859 0 -0.065163243861109652 -0.010133675436768118 0 -0.064050003958414953 -0.0096732249985849849 0 -0.063623196082328498 -0.013943625224282592 0 -0.060773665000399428 -0.014430303442641221 0 -0.065816023466773343 -0.015835411985662313 0 -0.043942817555647655 -0.0004202256947070853 0 -0.044212234075738641 -0.0013097399513485387 0 -0.042833099547430885 -0.00068039505479830942 0 -0.043942817555647655 -0.0004202256947070853 0 -0.043690689484759522 0.00036559876642072465 0 -0.042833099547430885 -0.00068039505479830942 0 -0.023400525181554204 -0.017285505507802619 0 -0.02242499798361108 -0.01989439865843198 0 -0.026426689877850414 -0.021014999991502831 0 -0.023400525181554204 -0.017285505507802619 0 -0.02242499798361108 -0.01989439865843198 0 -0.018443176755315035 -0.01873690642579004 0 -0.043942817555647655 -0.0004202256947070853 0 -0.043690689484759522 0.00036559876642072465 0 -0.04473032308918682 7.0917039331853338e-05 0 -0.035039342077158447 -0.0093789689588007139 0 -0.040181977641672792 -0.0090365303922565806 0 -0.028399020193077173 -0.018107909026352592 0 -0.026129299364183158 -0.017047936806662854 0 -0.026610165425425859 -0.021521354736536973 0 -0.037483786815235155 -0.0099142795494167602 0 -0.040181977641672792 -0.0090365303922565806 0 -0.026129299364183158 -0.017047936806662854 0 -0.023400525181554204 -0.017285505507802619 0 -0.026610165425425859 -0.021521354736536973 0 -0.028399020193077173 -0.018107909026352592 0 -0.026610165425425859 -0.021521354736536973 0 -0.030272862868831359 -0.019804446690751827 0 -0.040181977641672792 -0.0090365303922565806 0 -0.046052737949055622 -0.010598412729027978 0 -0.04473032308918682 7.0917039331853338e-05 0 -0.045703945911163085 -0.0011175727650473268 0 -0.044212234075738641 -0.0013097399513485387 0 -0.043942817555647655 -0.0004202256947070853 0 -0.04473032308918682 7.0917039331853338e-05 0 -0.044212234075738641 -0.0013097399513485387 0 -0.052398643430140578 -0.0017219318618075313 0 -0.053421306439066403 -0.002354534938502597 0 -0.054128011227084237 -0.0037607166461591391 0 -0.040181977641672792 -0.0090365303922565806 0 -0.046307916979473764 -0.0055733119436353383 0 -0.054071238467792999 -0.0021690991386397176 0 -0.055335947479195048 -0.0027587471604044612 0 -0.054128011227084237 -0.0037607166461591391 0 -0.052398643430140578 -0.0017219318618075313 0 -0.054065173436549416 -0.0021737129775023984 0 -0.053421306439066403 -0.002354534938502597 0 -0.046052737949055622 -0.010598412729027978 0 -0.046573031277992824 -0.010357513127904096 0 -0.054071238467792999 -0.0021690991386397176 0 -0.053421306439066403 -0.002354534938502597 0 -0.054128011227084237 -0.0037607166461591391 0 -0.026610165425425859 -0.021521354736536973 0 -0.030643506470169616 -0.022741910586716981 0 -0.030272862868831359 -0.019804446690751827 0 -0.030911041916402451 -0.017042096154197398 0 -0.030272862868831359 -0.019804446690751827 0 -0.033437584680395635 -0.01888835155653814 0 -0.030643506470169616 -0.022741910586716981 0 -0.030272862868831359 -0.019804446690751827 0 -0.033437584680395635 -0.01888835155653814 0 -0.037854419111882656 -0.020817402568150453 0 -0.030643506470169616 -0.022741910586716981 0 -0.033437584680395635 -0.01888835155653814 0 -0.049274790100473996 -0.015184542738862834 0 -0.046052737949055622 -0.010598412729027978 0 -0.037086803684055966 -0.016962816186828041 0 -0.037854419111882656 -0.020817402568150453 0 -0.033437584680395635 -0.01888835155653814 0 -0.05571512328702561 -0.0099906295899631747 0 -0.055596200785000389 -0.012992209803058376 0 -0.050347166346693714 -0.011479168538491095 0 -0.054827321490288849 -0.0099256352727655206 0 -0.046052737949055622 -0.010598412729027978 0 -0.056969528821431345 -0.0029608244947323067 0 -0.054071238467792999 -0.0021690991386397176 0 -0.055335947479195048 -0.0027587471604044612 0 -0.056969528821431345 -0.0029608244947323067 0 -0.055335947479195048 -0.0027587471604044612 0 -0.056570300961669352 -0.0038874327841504435 0 -0.056251804077583394 -0.0052172927794879942 0 -0.05570175087406791 -0.005674294503469097 0 -0.054128011227084237 -0.0037607166461591391 0 -0.055335947479195048 -0.0027587471604044612 0 -0.056251804077583394 -0.0052172927794879942 0 -0.054128011227084237 -0.0037607166461591391 0 -0.055335947479195048 -0.0027587471604044612 0 -0.056570300961669352 -0.0038874327841504435 0 -0.056501817696192981 -0.0052539594136491747 0 -0.055765452718933926 -0.0039468164271397226 0 -0.056018645832176396 -0.0046258892192725266 0 -0.056251804077583394 -0.0052172927794879942 0 -0.05570175087406791 -0.005674294503469097 0 -0.057139385922427691 -0.0074718904180752638 0 -0.050881966057765245 -0.0042909429001074658 0 -0.055405482520691225 -0.0033141182201238289 0 -0.046669260906321397 -0.0022950118846100354 0 -0.045483953946800632 -0.0024557189491008886 0 -0.046523074789936628 -0.0033697836599575304 0 -0.046669260906321397 -0.0022950118846100354 0 -0.045483953946800632 -0.0024557189491008886 0 -0.045703945911163085 -0.0011175727650473268 0 -0.050881966057765245 -0.0042909429001074658 0 -0.046307916979473764 -0.0055733119436353383 0 -0.045483953946800632 -0.0024557189491008886 0 -0.045703945911163085 -0.0011175727650473268 0 -0.044212234075738641 -0.0013097399513485387 0 -0.045483953946800632 -0.0024557189491008886 0 -0.04418127396011514 -0.0029361553248123304 0 -0.044212234075738641 -0.0013097399513485387 0 -0.049537720822900186 0.0048630793401268219 0 -0.046914950339760501 0.003139223548303469 0 -0.04418127396011514 -0.0029361553248123304 0 -0.044212234075738641 -0.0013097399513485387 0 -0.042762932974269016 -0.0021690177409644405 0 -0.057318212990934217 0.017089072773157622 0 -0.057029080964886306 0.016795401361380122 0 -0.057110020372606443 0.017421232476769872 0 -0.057816834944819623 0.01706591967921877 0 -0.057578523258893885 0.017088938174464066 0 -0.057637010383480368 0.017293612366331007 0 -0.057578523258893885 0.017088938174464066 0 -0.057461940970107414 0.01725517800328075 0 -0.057637010383480368 0.017293612366331007 0 -0.057578523258893885 0.017088938174464066 0 -0.057781808521090543 0.01689566703052555 0 -0.057396882107453057 0.016845249722617212 0 -0.057816834944819623 0.01706591967921877 0 -0.057578523258893885 0.017088938174464066 0 -0.057781808521090543 0.01689566703052555 0 -0.057533910527715004 0.016476355999418053 0 -0.057781808521090543 0.01689566703052555 0 -0.058172490866632301 0.01670435647261272 0 -0.057533910527715004 0.016476355999418053 0 -0.057781808521090543 0.01689566703052555 0 -0.057396882107453057 0.016845249722617212 0 -0.049537720822900186 0.0048630793401268219 0 -0.050912177292072369 0.0057366564184521537 0 -0.045483953946800632 -0.0024557189491008886 0 -0.04418127396011514 -0.0029361553248123304 0 -0.045590942992866063 -0.0036851441983205366 0 -0.057533910527715004 0.016476355999418053 0 -0.057396882107453057 0.016845249722617212 0 -0.057029080964886306 0.016795401361380122 0 -0.057396882107453057 0.016845249722617212 0 -0.057318212990934217 0.017089072773157622 0 -0.057029080964886306 0.016795401361380122 0 -0.057578523258893885 0.017088938174464066 0 -0.057396882107453057 0.016845249722617212 0 -0.057318212990934217 0.017089072773157622 0 -0.057578523258893885 0.017088938174464066 0 -0.057318212990934217 0.017089072773157622 0 -0.057461940970107414 0.01725517800328075 0 -0.057029080964886306 0.016795401361380122 0 -0.05662155305989585 0.017023831184074252 0 -0.057110020372606443 0.017421232476769872 0 -0.045483953946800632 -0.0024557189491008886 0 -0.045590942992866063 -0.0036851441983205366 0 -0.046523074789936628 -0.0033697836599575304 0 -0.046669260906321397 -0.0022950118846100354 0 -0.046523074789936628 -0.0033697836599575304 0 -0.047615637595216039 -0.0034498953232217334 0 -0.046523074789936628 -0.0033697836599575304 0 -0.046980316629130402 -0.0044115737608945334 0 -0.047615637595216039 -0.0034498953232217334 0 -0.045590942992866063 -0.0036851441983205366 0 -0.046523074789936628 -0.0033697836599575304 0 -0.046980316629130402 -0.0044115737608945334 0 -0.050912177292072369 0.0057366564184521537 0 -0.052200391089528238 0.0060480973595253727 0 -0.05662155305989585 0.017023831184074252 0 -0.056607520121148419 0.01743938154565117 0 -0.057110020372606443 0.017421232476769872 0 -0.054398554146678872 0.020345701980455648 0 -0.053962368390660369 0.020999668269199183 0 -0.05479482514695834 0.021027516204400361 0 -0.054398554146678872 0.020345701980455648 0 -0.055557908623868252 0.020088575120164202 0 -0.05479482514695834 0.021027516204400361 0 -0.055557908623868252 0.020088575120164202 0 -0.055671109105618254 0.020838502410013011 0 -0.05479482514695834 0.021027516204400361 0 -0.055493664812674773 0.016475893845577815 0 -0.056271865934193518 0.017836028263419051 0 -0.057318212990934217 0.017089072773157622 0 -0.057110020372606443 0.017421232476769872 0 -0.057461940970107414 0.01725517800328075 0 -0.057110020372606443 0.017421232476769872 0 -0.057611897081269695 0.017384872927967292 0 -0.057461940970107414 0.01725517800328075 0 -0.056271865934193518 0.017836028263419051 0 -0.057119460644109457 0.01856645878435324 0 -0.055557908623868252 0.020088575120164202 0 -0.056151856978035569 0.020495891043619995 0 -0.056856286375371962 0.019851497355864098 0 -0.055557908623868252 0.020088575120164202 0 -0.055671109105618254 0.020838502410013011 0 -0.056151856978035569 0.020495891043619995 0 -0.055671109105618254 0.020838502410013011 0 -0.056151856978035569 0.020495891043619995 0 -0.056407438940109814 0.021213755806943929 0 -0.057336181907154518 0.018562653943904505 0 -0.057179030998932685 0.017862829140821788 0 -0.056428347975944558 0.020206065643266841 0 -0.056151856978035569 0.020495891043619995 0 -0.056856286375371962 0.019851497355864098 0 -0.056407438940109814 0.021213755806943929 0 -0.057119460644109457 0.01856645878435324 0 -0.056443451180674495 0.020674261117751537 0 -0.057336181907154518 0.018562653943904505 0 -0.057777033183606337 0.019037721256814789 0 -0.056428347975944558 0.020206065643266841 0 -0.057336181907154518 0.018562653943904505 0 -0.057767071433167595 0.018151816838354581 0 -0.057777033183606337 0.019037721256814789 0 -0.057336181907154518 0.018562653943904505 0 -0.057179030998932685 0.017862829140821788 0 -0.057324973998007338 0.017841834544613338 0 -0.057336181907154518 0.018562653943904505 0 -0.057324973998007338 0.017841834544613338 0 -0.057767071433167595 0.018151816838354581 0 -0.057324973998007338 0.017841834544613338 0 -0.057792265006323527 0.017599017251306817 0 -0.057767071433167595 0.018151816838354581 0 -0.057119460644109457 0.01856645878435324 0 -0.057120349405296741 0.018565705632219247 0 -0.057611897081269695 0.017384872927967292 0 -0.057461940970107414 0.01725517800328075 0 -0.057637010383480368 0.017293612366331007 0 -0.057119460644109457 0.01856645878435324 0 -0.057160336551286189 0.0184566318254549 0 -0.057201343202191571 0.017856479618890957 0 -0.057324973998007338 0.017841834544613338 0 -0.057637010383480368 0.017293612366331007 0 -0.057324973998007338 0.017841834544613338 0 -0.057637010383480368 0.017293612366331007 0 -0.057792265006323527 0.017599017251306817 0 -0.060366565100193177 -0.0088775534894970608 0 -0.061386398852575949 -0.0094219513848686903 0 -0.060978207368599623 -0.0078682875299069827 0 -0.060366565100193177 -0.0088775534894970608 0 -0.059180388176480712 -0.0095456856157849889 0 -0.060690534362524133 -0.0099737487181174537 0 -0.060366565100193177 -0.0088775534894970608 0 -0.061386398852575949 -0.0094219513848686903 0 -0.060690534362524133 -0.0099737487181174537 0 -0.061386398852575949 -0.0094219513848686903 0 -0.062615915790724494 -0.0089969069748359852 0 -0.061913674667409394 -0.010669721080544377 0 -0.063987709160638603 -0.0092993902567464013 0 -0.064946136207026398 -0.0088662833316387486 0 -0.061386398852575949 -0.0094219513848686903 0 -0.062615915790724494 -0.0089969069748359852 0 -0.062430888800409527 -0.0074344496137820687 0 -0.062615915790724494 -0.0089969069748359852 0 -0.062430888800409527 -0.0074344496137820687 0 -0.063341610285448463 -0.007425224251324759 0 -0.061386398852575949 -0.0094219513848686903 0 -0.062455615021310126 -0.0071940935746406609 0 -0.060978207368599623 -0.0078682875299069827 0 -0.061205532165658737 -0.0064091794699529447 0 -0.062455615021310126 -0.0071940935746406609 0 -0.060978207368599623 -0.0078682875299069827 0 -0.061205532165658737 -0.0064091794699529447 0 -0.060978207368599623 -0.0078682875299069827 0 -0.059600560649713558 -0.0075682884575323586 0 -0.060366565100193177 -0.0088775534894970608 0 -0.060978207368599623 -0.0078682875299069827 0 -0.059600560649713558 -0.0075682884575323586 0 -0.058036747179922688 -0.0063809892884619896 0 -0.059600560649713558 -0.0075682884575323586 0 -0.057556500964486286 -0.0076077412680671409 0 -0.059600560649713558 -0.0075682884575323586 0 -0.057556500964486286 -0.0076077412680671409 0 -0.059180388176480712 -0.0095456856157849889 0 -0.055405482520691225 -0.0033141182201238289 0 -0.055056045074653358 0.00039931352959222575 0 -0.055405482520691225 -0.0033141182201238289 0 -0.058316920782006371 -0.0027787071386062259 0 -0.052200391089528238 0.0060480973595253727 0 -0.054885141145570311 0.0055448242527743486 0 -0.057025162906095266 -0.00061350318084568136 0 -0.056820275826785553 -3.6668929786982069e-05 0 -0.056440062579371036 0.00019767998187507398 0 -0.046980316629130402 -0.0044115737608945334 0 -0.047615637595216039 -0.0034498953232217334 0 -0.047969286947787931 -0.0042905278514042541 0 -0.046980316629130402 -0.0044115737608945334 0 -0.047969286947787931 -0.0042905278514042541 0 -0.048329028110469061 -0.005115634607387824 0 -0.060366565100193177 -0.0088775534894970608 0 -0.059600560649713558 -0.0075682884575323586 0 -0.059180388176480712 -0.0095456856157849889 0 -0.055056045074653358 0.00039931352959222575 0 -0.054885141145570311 0.0055448242527743486 0 -0.056820275826785553 -3.6668929786982069e-05 0 -0.056440062579371036 0.00019767998187507398 0 -0.056608277128557725 0.00052797367305166176 0 -0.054885141145570311 0.0055448242527743486 0 -0.059498457458271696 0.0014672023909649288 0 -0.056440062579371036 0.00019767998187507398 0 -0.056608277128557725 0.00052797367305166176 0 -0.055875040614769077 0.00097778912213947818 0 -0.055386946086308057 0.0094204968152578773 0 -0.055887833265469991 0.0082028874495655105 0 -0.058000792896383754 0.0079703108390817984 0 -0.05626502362102382 0.017233956507325555 0 -0.056326938271359754 0.017272785945775603 0 -0.056229501046621354 0.017351906053064328 0 -0.054885141145570311 0.0055448242527743486 0 -0.055575292949469939 0.011729071806003914 0 -0.05531284026810316 0.012260058333845955 0 -0.055575292949469939 0.011729071806003914 0 -0.05662155305989585 0.017023831184074252 0 -0.056607520121148419 0.01743938154565117 0 -0.056326938271359754 0.017272785945775603 0 -0.05662155305989585 0.017023831184074252 0 -0.05626502362102382 0.017233956507325555 0 -0.056326938271359754 0.017272785945775603 0 -0.056607520121148419 0.01743938154565117 0 -0.056326938271359754 0.017272785945775603 0 -0.056193072158780132 0.017392008120776199 0 -0.055493664812674773 0.016475893845577815 0 -0.055710507109538385 0.013356123021110186 0 -0.056607520121148419 0.01743938154565117 0 -0.056159710263304345 0.017471978695470746 0 -0.056193072158780132 0.017392008120776199 0 -0.054398554146678872 0.020345701980455648 0 -0.053396331901281159 0.020532507056301871 0 -0.053962368390660369 0.020999668269199183 0 -0.057332814744539162 0.013689727412359813 0 -0.057279627692432909 0.013698622280768201 0 -0.057246232536905098 0.013930300723009095 0 -0.055710507109538385 0.013356123021110186 0 -0.056448370671505481 0.016971018449738633 0 -0.056675415568655713 0.0074930838493203885 0 -0.055887833265469991 0.0082028874495655105 0 -0.058000792896383754 0.0079703108390817984 0 -0.055710507109538385 0.013356123021110186 0 -0.056337644682660198 0.01247861213094251 0 -0.054678900396203302 0.012140254175389413 0 -0.054943331732700981 0.012101316816388367 0 -0.05454981271912971 0.012457028771936473 0 -0.056337644682660198 0.01247861213094251 0 -0.055575292949469939 0.011729071806003914 0 -0.055710507109538385 0.013356123021110186 0 -0.055575292949469939 0.011729071806003914 0 -0.053396331901281159 0.020532507056301871 0 -0.053541318867554422 0.021057195231189065 0 -0.053962368390660369 0.020999668269199183 0 -0.056337644682660198 0.01247861213094251 0 -0.057175951600256791 0.011800694082499496 0 -0.056675415568655713 0.0074930838493203885 0 -0.058854620674816137 0.0071833242337542309 0 -0.058000792896383754 0.0079703108390817984 0 -0.056702634690782371 0.0075233137645671156 0 -0.058854620674816137 0.0071833242337542309 0 -0.059377719755038076 0.0050684071635639268 0 -0.059180388176480712 -0.0095456856157849889 0 -0.060744079272735049 -0.011490013664428129 0 -0.060690534362524133 -0.0099737487181174537 0 -0.060744079272735049 -0.011490013664428129 0 -0.060690534362524133 -0.0099737487181174537 0 -0.061913674667409394 -0.010669721080544377 0 -0.058316920782006371 -0.0027787071386062259 0 -0.059498457458271696 0.0014672023909649288 0 -0.061386398852575949 -0.0094219513848686903 0 -0.060690534362524133 -0.0099737487181174537 0 -0.061913674667409394 -0.010669721080544377 0 -0.062873625118074664 -0.0086283911030203241 0 -0.061913674667409394 -0.010669721080544377 0 -0.063446946414888059 -0.010137771260936913 0 -0.061913674667409394 -0.010669721080544377 0 -0.062780986119781973 -0.012686602087829364 0 -0.063446946414888059 -0.010137771260936913 0 -0.064766314045524798 -0.0094773136841172292 0 -0.064166007390123847 -0.010026565339423905 0 -0.060744079272735049 -0.011490013664428129 0 -0.061913674667409394 -0.010669721080544377 0 -0.062780986119781973 -0.012686602087829364 0 -0.059498457458271696 0.0014672023909649288 0 -0.063005066352677608 0.0039145963917644891 0 -0.058854620674816137 0.0071833242337542309 0 -0.058000792896383754 0.0079703108390817984 0 -0.06047768071679914 0.0065815385977899673 0 -0.063005066352677608 0.0039145963917644891 0 -0.067662502843613095 -0.0033972672081141863 0 -0.080324524415099949 -0.00015099823202210626 0 -0.077982364225688119 -0.00070030121356577343 0 -0.078260978208360851 -0.0030816537267154302 0 -0.077982364225688119 -0.00070030121356577343 0 -0.076272926544241032 -8.0828507361546702e-05 0 -0.076883020235816862 -0.0020573134409617635 0 -0.077982364225688119 -0.00070030121356577343 0 -0.076883020235816862 -0.0020573134409617635 0 -0.078260978208360851 -0.0030816537267154302 0 -0.076883020235816862 -0.0020573134409617635 0 -0.078260978208360851 -0.0030816537267154302 0 -0.076511075523006469 -0.0039095489148162649 0 -0.062780986119781973 -0.012686602087829364 0 -0.064724997341592608 -0.010118833524188129 0 -0.063446946414888059 -0.010137771260936913 0 -0.064724997341592608 -0.010118833524188129 0 -0.063446946414888059 -0.010137771260936913 0 -0.064172859632784865 -0.0093399916936440404 0 -0.063446946414888059 -0.010137771260936913 0 -0.06365476944379786 -0.0083718958919152524 0 -0.064172859632784865 -0.0093399916936440404 0 -0.065369592918888775 -0.009114864882723556 0 -0.065597781310983955 -0.0088259399111556922 0 -0.062873625118074664 -0.0086283911030203241 0 -0.063446946414888059 -0.010137771260936913 0 -0.063625477783929019 -0.0083739584764020523 0 -0.06365476944379786 -0.0083718958919152524 0 -0.064863556129025626 -0.0087350639888088451 0 -0.064586214430224539 -0.0076500295565491662 0 -0.06365476944379786 -0.0083718958919152524 0 -0.064863556129025626 -0.0087350639888088451 0 -0.064172859632784865 -0.0093399916936440404 0 -0.064724997341592608 -0.010118833524188129 0 -0.064863556129025626 -0.0087350639888088451 0 -0.064172859632784865 -0.0093399916936440404 0 -0.067662502843613095 -0.0033972672081141863 0 -0.070137625164524778 -0.0068886971401099679 0 -0.064863556129025626 -0.0087350639888088451 0 -0.065588340818496155 -0.0077399955020921955 0 -0.066662205274394107 -0.0074876742861936917 0 -0.064724997341592608 -0.010118833524188129 0 -0.064863556129025626 -0.0087350639888088451 0 -0.066662205274394107 -0.0074876742861936917 0 -0.078260978208360851 -0.0030816537267154302 0 -0.076511075523006469 -0.0039095489148162649 0 -0.076213297192095561 -0.0059168732919937864 0 -0.064863556129025626 -0.0087350639888088451 0 -0.065588340818496155 -0.0077399955020921955 0 -0.064586214430224539 -0.0076500295565491662 0 -0.065588340818496155 -0.0077399955020921955 0 -0.065349124098985745 -0.0069535883321558108 0 -0.064586214430224539 -0.0076500295565491662 0 -0.065349124098985745 -0.0069535883321558108 0 -0.066792322428922954 -0.0072753780662887036 0 -0.064636529234312678 -0.0049429576890682855 0 -0.065588340818496155 -0.0077399955020921955 0 -0.065349124098985745 -0.0069535883321558108 0 -0.066635849971710931 -0.0074920912919170021 0 -0.065349124098985745 -0.0069535883321558108 0 -0.066792322428922954 -0.0072753780662887036 0 -0.066635849971710931 -0.0074920912919170021 0 -0.069536636776438135 -0.0070226475575568634 0 -0.070137625164524778 -0.0068886971401099679 0 -0.062873625118074664 -0.0086283911030203241 0 -0.063625477783929019 -0.0083739584764020523 0 -0.06381412509108883 -0.0066395465352401652 0 -0.065597781310983955 -0.0088259399111556922 0 -0.066237284905096325 -0.0088207158290608389 0 -0.064766314045524798 -0.0094773136841172292 0 -0.066237284905096325 -0.0088207158290608389 0 -0.06365476944379786 -0.0083718958919152524 0 -0.0638509093275067 -0.0066268119016524912 0 -0.064586214430224539 -0.0076500295565491662 0 -0.065349124098985745 -0.0069535883321558108 0 -0.0638509093275067 -0.0066268119016524912 0 -0.064586214430224539 -0.0076500295565491662 0 -0.070663686667532602 -0.0078106198216936094 0 -0.070882155499677371 -0.0077605043192317275 0 -0.070614309836956379 -0.0076489885402414096 0 -0.071278742150731947 -0.0075030414763148081 0 -0.070620995151498056 -0.0081855809582080039 0 -0.073850691181760492 -0.0068295464345486121 0 -0.073115532468681174 -0.0051091828868052511 0 -0.072051028890587066 -0.0059942190519989497 0 -0.070663686667532602 -0.0078106198216936094 0 -0.070546496267723149 -0.0077604924387821381 0 -0.070614309836956379 -0.0076489885402414096 0 -0.070663686667532602 -0.0078106198216936094 0 -0.070546496267723149 -0.0077604924387821381 0 -0.070429835614146244 -0.0078436589294465595 0 -0.073850691181760492 -0.0068295464345486121 0 -0.076257630776199514 -0.0064544792463969904 0 -0.074723700646852728 -0.0047661369502907903 0 -0.071278742150731947 -0.0075030414763148081 0 -0.07046009694847219 -0.0070730909092013902 0 -0.07046009694847219 -0.0070730909092013902 0 -0.070658440431522654 -0.0091313207995481014 0 -0.070546496267723149 -0.0077604924387821381 0 -0.070429835614146244 -0.0078436589294465595 0 -0.070580149928957239 -0.0076392763369565802 0 -0.076043025171930886 -0.0061487891771160623 0 -0.076213297192095561 -0.0059168732919937864 0 -0.075807406106500011 -0.0048655371375728989 0 -0.07046009694847219 -0.0070730909092013902 0 -0.070137625164524778 -0.0068886971401099679 0 -0.07046009694847219 -0.0070730909092013902 0 -0.071804205994244918 -0.0065238438524223823 0 -0.076511075523006469 -0.0039095489148162649 0 -0.076213297192095561 -0.0059168732919937864 0 -0.075807406106500011 -0.0048655371375728989 0 -0.076043025171930886 -0.0061487891771160623 0 -0.075807406106500011 -0.0048655371375728989 0 -0.074593670541947044 -0.0045363334838770817 0 -0.076511075523006469 -0.0039095489148162649 0 -0.075807406106500011 -0.0048655371375728989 0 -0.075194167224744576 -0.0033000230139249593 0 -0.075807406106500011 -0.0048655371375728989 0 -0.074593670541947044 -0.0045363334838770817 0 -0.075194167224744576 -0.0033000230139249593 0 -0.073850691181760492 -0.0068295464345486121 0 -0.074723700646852728 -0.0047661369502907903 0 -0.073115532468681174 -0.0051091828868052511 0 -0.071804205994244918 -0.0065238438524223823 0 -0.071880243473392474 -0.0060726264502983544 0 -0.074723700646852728 -0.0047661369502907903 0 -0.073115532468681174 -0.0051091828868052511 0 -0.073308386486737348 -0.0031917992955174642 0 -0.073115532468681174 -0.0051091828868052511 0 -0.073308386486737348 -0.0031917992955174642 0 -0.071854909243878481 -0.0044122659396268159 0 -0.073308386486737348 -0.0031917992955174642 0 -0.075194167224744576 -0.0033000230139249593 0 -0.074123313140362024 -0.0012471301486341277 0 -0.073308386486737348 -0.0031917992955174642 0 -0.074123313140362024 -0.0012471301486341277 0 -0.071760536871140451 -0.0024666879227463758 0 -0.074593670541947044 -0.0045363334838770817 0 -0.073308386486737348 -0.0031917992955174642 0 -0.075194167224744576 -0.0033000230139249593 0 -0.076883020235816862 -0.0020573134409617635 0 -0.075194167224744576 -0.0033000230139249593 0 -0.074123313140362024 -0.0012471301486341277 0 -0.076883020235816862 -0.0020573134409617635 0 -0.076511075523006469 -0.0039095489148162649 0 -0.075194167224744576 -0.0033000230139249593 0 -0.076272926544241032 -8.0828507361546702e-05 0 -0.076883020235816862 -0.0020573134409617635 0 -0.074049033728042835 -0.00096266752607613811 0 -0.075156174163304584 -0.00145198783928847 0 -0.073756574969530989 -0.00097515134117132031 0 -0.076272926544241032 -8.0828507361546702e-05 0 -0.074049033728042835 -0.00096266752607613811 0 -0.075266967694894299 0.0011236717148814042 0 -0.073756574969530989 -0.00097515134117132031 0 -0.071196861091141914 -9.8980945624955582e-05 0 -0.074049033728042835 -0.00096266752607613811 0 -0.071201183559478951 3.4711879502574055e-05 0 -0.073687329259493908 0.0014147254723285109 0 -0.074123313140362024 -0.0012471301486341277 0 -0.071273785103418974 -0.00026518400144848468 0 -0.071760536871140451 -0.0024666879227463758 0 -0.071273785103418974 -0.00026518400144848468 0 -0.069813984825712022 -0.0018753055287644644 0 -0.071760536871140451 -0.0024666879227463758 0 -0.071273785103418974 -0.00026518400144848468 0 -0.069813984825712022 -0.0018753055287644644 0 -0.068318619088315963 0.00081293304253257832 0 -0.069813984825712022 -0.0018753055287644644 0 -0.0690946559636548 -0.0036077788850231557 0 -0.070535779522013148 -0.0038490101376108241 0 -0.069813984825712022 -0.0018753055287644644 0 -0.070535779522013148 -0.0038490101376108241 0 -0.071760536871140451 -0.0024666879227463758 0 -0.070535779522013148 -0.0038490101376108241 0 -0.071760536871140451 -0.0024666879227463758 0 -0.071854909243878481 -0.0044122659396268159 0 -0.073308386486737348 -0.0031917992955174642 0 -0.071760536871140451 -0.0024666879227463758 0 -0.071854909243878481 -0.0044122659396268159 0 -0.065000003990555152 -0.0019783287586650957 0 -0.067817924198716628 -0.0018278350960132118 0 -0.066416290542686593 0.00029044854233751041 0 -0.067817924198716628 -0.0018278350960132118 0 -0.068318619088315963 0.00081293304253257832 0 -0.066416290542686593 0.00029044854233751041 0 -0.069813984825712022 -0.0018753055287644644 0 -0.067817924198716628 -0.0018278350960132118 0 -0.068318619088315963 0.00081293304253257832 0 -0.069813984825712022 -0.0018753055287644644 0 -0.0690946559636548 -0.0036077788850231557 0 -0.067817924198716628 -0.0018278350960132118 0 -0.0690946559636548 -0.0036077788850231557 0 -0.067817924198716628 -0.0018278350960132118 0 -0.067875750318408409 -0.0035420507146809313 0 -0.065000003990555152 -0.0019783287586650957 0 -0.067875750318408409 -0.0035420507146809313 0 -0.06721373071939428 -0.0048886144752262224 0 -0.065000003990555152 -0.0019783287586650957 0 -0.067817924198716628 -0.0018278350960132118 0 -0.067875750318408409 -0.0035420507146809313 0 -0.065000003990555152 -0.0019783287586650957 0 -0.064999960061406584 -0.0057163349467763648 0 -0.06721373071939428 -0.0048886144752262224 0 -0.064999960061406584 -0.0057163349467763648 0 -0.06721373071939428 -0.0048886144752262224 0 -0.067354076123353951 -0.0064544321689543544 0 -0.068491996655832166 -0.0066442390686089802 0 -0.068983536310743943 -0.0071455194965530846 0 -0.06721373071939428 -0.0048886144752262224 0 -0.06879272799730006 -0.0063027408390247007 0 -0.067354076123353951 -0.0064544321689543544 0 -0.067875750318408409 -0.0035420507146809313 0 -0.06721373071939428 -0.0048886144752262224 0 -0.068703462016911909 -0.0048782015339696137 0 -0.0690946559636548 -0.0036077788850231557 0 -0.067875750318408409 -0.0035420507146809313 0 -0.068703462016911909 -0.0048782015339696137 0 -0.068703462016911909 -0.0048782015339696137 0 -0.068673940158154756 -0.0060409068767695107 0 -0.069292915195478116 -0.0056377919005529313 0 -0.06721373071939428 -0.0048886144752262224 0 -0.068703462016911909 -0.0048782015339696137 0 -0.068673940158154756 -0.0060409068767695107 0 -0.06879272799730006 -0.0063027408390247007 0 -0.068743020299429719 -0.0071498722849591715 0 -0.067354076123353951 -0.0064544321689543544 0 -0.06879272799730006 -0.0063027408390247007 0 -0.068743020299429719 -0.0071498722849591715 0 -0.069531354204848794 -0.0074475371439128232 0 -0.068743020299429719 -0.0071498722849591715 0 -0.067891383157429722 -0.0076777977183854745 0 -0.069553387566720082 -0.0083652818618357699 0 -0.067891383157429722 -0.0076777977183854745 0 -0.067354076123353951 -0.0064544321689543544 0 -0.066499694431422757 -0.0076417963189742534 0 -0.068743020299429719 -0.0071498722849591715 0 -0.067891383157429722 -0.0076777977183854745 0 -0.067354076123353951 -0.0064544321689543544 0 -0.067891383157429722 -0.0076777977183854745 0 -0.066499694431422757 -0.0076417963189742534 0 -0.06726871982019865 -0.0089083276449214658 0 -0.064999960061406584 -0.0057163349467763648 0 -0.066499694431422757 -0.0076417963189742534 0 -0.065000008621906344 -0.0094546387160567916 0 -0.064999960061406584 -0.0057163349467763648 0 -0.067354076123353951 -0.0064544321689543544 0 -0.066499694431422757 -0.0076417963189742534 0 -0.070908542893316773 -0.0055829464574571408 0 -0.071854909243878481 -0.0044122659396268159 0 -0.072051028890587066 -0.0059942190519989497 0 -0.073115532468681174 -0.0051091828868052511 0 -0.071854909243878481 -0.0044122659396268159 0 -0.072051028890587066 -0.0059942190519989497 0 -0.070535779522013148 -0.0038490101376108241 0 -0.070908542893316773 -0.0055829464574571408 0 -0.071854909243878481 -0.0044122659396268159 0 -0.070535779522013148 -0.0038490101376108241 0 -0.070908542893316773 -0.0055829464574571408 0 -0.069772702526820843 -0.004999077967346611 0 -0.0690946559636548 -0.0036077788850231557 0 -0.070535779522013148 -0.0038490101376108241 0 -0.069772702526820843 -0.004999077967346611 0 -0.0690946559636548 -0.0036077788850231557 0 -0.068703462016911909 -0.0048782015339696137 0 -0.069772702526820843 -0.004999077967346611 0 -0.068703462016911909 -0.0048782015339696137 0 -0.069772702526820843 -0.004999077967346611 0 -0.069292915195478116 -0.0056377919005529313 0 -0.069772702526820843 -0.004999077967346611 0 -0.069292915195478116 -0.0056377919005529313 0 -0.070084040490527216 -0.0058521805850410722 0 -0.070908542893316773 -0.0055829464574571408 0 -0.069772702526820843 -0.004999077967346611 0 -0.070084040490527216 -0.0058521805850410722 0 -0.070908542893316773 -0.0055829464574571408 0 -0.070775737925939081 -0.0062437321893734224 0 -0.070084040490527216 -0.0058521805850410722 0 -0.070775737925939081 -0.0062437321893734224 0 -0.070084040490527216 -0.0058521805850410722 0 -0.069241619902327037 -0.0064177692059334207 0 -0.069241619902327037 -0.0064177692059334207 0 -0.070074874291021258 -0.0072684079200362999 0 -0.071548346386168082 -0.007365165275174443 0 -0.070187205423735008 -0.0078129924545870671 0 -0.070620995151498056 -0.0081855809582080039 0 -0.070775737925939081 -0.0062437321893734224 0 -0.069241619902327037 -0.0064177692059334207 0 -0.071597797789956938 -0.0073695753808666288 0 -0.068983536310743943 -0.0071455194965530846 0 -0.070000395832859524 -0.0082653038879612582 0 -0.068673940158154756 -0.0060409068767695107 0 -0.069241619902327037 -0.0064177692059334207 0 -0.070074874291021258 -0.0072684079200362999 0 -0.068673940158154756 -0.0060409068767695107 0 -0.069292915195478116 -0.0056377919005529313 0 -0.069241619902327037 -0.0064177692059334207 0 -0.069292915195478116 -0.0056377919005529313 0 -0.070084040490527216 -0.0058521805850410722 0 -0.069241619902327037 -0.0064177692059334207 0 -0.068743020299429719 -0.0071498722849591715 0 -0.069531354204848794 -0.0074475371439128232 0 -0.069553387566720082 -0.0083652818618357699 0 -0.06879272799730006 -0.0063027408390247007 0 -0.069531354204848794 -0.0074475371439128232 0 -0.070339577161112346 -0.0076856757634367456 0 -0.069979036799607416 -0.0082478878635691734 0 -0.070000395832859524 -0.0082653038879612582 0 -0.069013170881886327 -0.0088463882590494973 0 -0.068953064305748754 -0.0089178390045099067 0 -0.069531354204848794 -0.0074475371439128232 0 -0.070092371261155598 -0.0076889268318205486 0 -0.069553387566720082 -0.0083652818618357699 0 -0.069531354204848794 -0.0074475371439128232 0 -0.070092371261155598 -0.0076889268318205486 0 -0.070332003758466863 -0.0076817913911117275 0 -0.070092371261155598 -0.0076889268318205486 0 -0.07076882306052483 -0.0080673854798840334 0 -0.069554998458294839 -0.0083552684376072741 0 -0.070092371261155598 -0.0076889268318205486 0 -0.070332003758466863 -0.0076817913911117275 0 -0.07076882306052483 -0.0080673854798840334 0 -0.070000395832859524 -0.0082653038879612582 0 -0.07016394438831132 -0.0085446809928346502 0 -0.070000395832859524 -0.0082653038879612582 0 -0.070389435355143457 -0.0084185277976430457 0 -0.070589663856921309 -0.0084026644833828483 0 -0.070240217925926496 -0.0080940375852322013 0 -0.069846411699051023 -0.0081878733164533722 0 -0.07016394438831132 -0.0085446809928346502 0 -0.070389435355143457 -0.0084185277976430457 0 -0.073850691181760492 -0.0068295464345486121 0 -0.071597797789956938 -0.0073695753808666288 0 -0.072051028890587066 -0.0059942190519989497 0 -0.070074874291021258 -0.0072684079200362999 0 -0.070923344080614611 -0.0075136924862439398 0 -0.071548346386168082 -0.007365165275174443 0 -0.070389435355143457 -0.0084185277976430457 0 -0.070620995151498056 -0.0081855809582080039 0 -0.070775737925939081 -0.0062437321893734224 0 -0.071597797789956938 -0.0073695753808666288 0 -0.072051028890587066 -0.0059942190519989497 0 -0.070908542893316773 -0.0055829464574571408 0 -0.070775737925939081 -0.0062437321893734224 0 -0.072051028890587066 -0.0059942190519989497 0 -0.070389435355143457 -0.0084185277976430457 0 -0.070772367400674607 -0.0090072955736333685 0 -0.070752683434550379 -0.0091628264474809765 0 -0.071126944709178408 -0.0090744477129804345 0 -0.072404703941665136 -0.01062256268311502 0 -0.070529762870044962 -0.0086751475892284571 0 -0.072411127786205537 -0.010439945414518694 0 -0.070093978416956665 -0.0099948047355320306 0 -0.071126944709178408 -0.0090744477129804345 0 -0.072404703941665136 -0.01062256268311502 0 -0.073871795455133352 -0.0098736833606053193 0 -0.070489627838662722 -0.0086623271527979748 0 -0.070541363219828165 -0.0086502641718863172 0 -0.070763138451719179 -0.0087426431898031624 0 -0.07016394438831132 -0.0085446809928346502 0 -0.071938221035748942 -0.010117558077088968 0 -0.07016394438831132 -0.0085446809928346502 0 -0.068953064305748754 -0.0089178390045099067 0 -0.070529762870044962 -0.0086751475892284571 0 -0.069443132338090297 -0.0089071050717972299 0 -0.070093978416956665 -0.0099948047355320306 0 -0.070333247265173579 -0.011233868208923938 0 -0.067310507824533697 -0.011385634184091482 0 -0.069974966126372912 -0.012947829978095762 0 -0.070093978416956665 -0.0099948047355320306 0 -0.070333247265173579 -0.011233868208923938 0 -0.067310507824533697 -0.011385634184091482 0 -0.070333247265173579 -0.011233868208923938 0 -0.071525164803890109 -0.011804552790650963 0 -0.069974966126372912 -0.012947829978095762 0 -0.072411127786205537 -0.010439945414518694 0 -0.070333247265173579 -0.011233868208923938 0 -0.071525164803890109 -0.011804552790650963 0 -0.072411127786205537 -0.010439945414518694 0 -0.070093978416956665 -0.0099948047355320306 0 -0.070333247265173579 -0.011233868208923938 0 -0.071525164803890109 -0.011804552790650963 0 -0.072322739522783494 -0.012862708287787411 0 -0.072585243303502758 -0.011781700339241048 0 -0.072411127786205537 -0.010439945414518694 0 -0.071525164803890109 -0.011804552790650963 0 -0.072585243303502758 -0.011781700339241048 0 -0.065003012274866184 -0.0094543604993744656 0 -0.067098386467271662 -0.0091336930017770421 0 -0.066499694431422757 -0.0076417963189742534 0 -0.065000008621906344 -0.0094546387160567916 0 -0.06726871982019865 -0.0089083276449214658 0 -0.065000006975736088 -0.0094546336471943524 0 -0.067256833754996956 -0.0089282411740720172 0 -0.067259590744250516 -0.01119510456490809 0 -0.068953064305748754 -0.0089178390045099067 0 -0.067098386467271662 -0.0091336930017770421 0 -0.067891383157429722 -0.0076777977183854745 0 -0.069553387566720082 -0.0083652818618357699 0 -0.06726871982019865 -0.0089083276449214658 0 -0.069443132338090297 -0.0089071050717972299 0 -0.070093978416956665 -0.0099948047355320306 0 -0.067310507824533697 -0.011385634184091482 0 -0.069502864706899176 -0.0083936478753076377 0 -0.067256833754996956 -0.0089282411740720172 0 -0.067259590744250516 -0.01119510456490809 0 -0.068953064305748754 -0.0089178390045099067 0 -0.06712132927576013 -0.01134130460341598 0 -0.065000006975736088 -0.0094546336471943524 0 -0.067259590744250516 -0.01119510456490809 0 -0.064999989290482549 -0.011738503249948386 0 -0.067259590744250516 -0.01119510456490809 0 -0.064999989290482549 -0.011738503249948386 0 -0.065000003140421703 -0.014022422886298465 0 -0.06712132927576013 -0.01134130460341598 0 -0.065001902875737289 -0.014020011933968192 0 -0.067310507824533697 -0.011385634184091482 0 -0.065000024108676696 -0.014022715677685735 0 -0.067569486522007463 -0.01381820386088275 0 -0.067310507824533697 -0.011385634184091482 0 -0.067569486522007463 -0.01381820386088275 0 -0.069974966126372912 -0.012947829978095762 0 -0.067569486522007463 -0.01381820386088275 0 -0.068587894843542191 -0.015926579991440051 0 -0.069974966126372912 -0.012947829978095762 0 -0.067569486522007463 -0.01381820386088275 0 -0.068587894843542191 -0.015926579991440051 0 -0.066722695982454144 -0.015780630841115927 0 -0.064999912458511652 -0.01704558433064142 0 -0.065000024108676696 -0.014022715677685735 0 -0.066722695982454144 -0.015780630841115927 0 -0.065000024108676696 -0.014022715677685735 0 -0.067569486522007463 -0.01381820386088275 0 -0.066722695982454144 -0.015780630841115927 0 -0.072351135532666547 -0.012259511849757055 0 -0.071591790657754367 -0.012359832274945724 0 -0.07306304013357301 -0.013058638569356396 0 -0.069974966126372912 -0.012947829978095762 0 -0.071448288444394867 -0.015301123314826855 0 -0.071525164803890109 -0.011804552790650963 0 -0.072322739522783494 -0.012862708287787411 0 -0.069974966126372912 -0.012947829978095762 0 -0.068587894843542191 -0.015926579991440051 0 -0.069974966126372912 -0.012947829978095762 0 -0.071448288444394867 -0.015301123314826855 0 -0.070104327534727548 -0.017368631485320637 0 -0.068587894843542191 -0.015926579991440051 0 -0.071448288444394867 -0.015301123314826855 0 -0.073100674302564297 -0.017513625937327856 0 -0.071448288444394867 -0.015301123314826855 0 -0.073981214119763147 -0.014862103721104834 0 -0.07306304013357301 -0.013058638569356396 0 -0.071448288444394867 -0.015301123314826855 0 -0.073981214119763147 -0.014862103721104834 0 -0.071286775331812324 -0.017469348827322682 0 -0.07206104148674522 -0.015285312101259054 0 -0.073100674302564297 -0.017513625937327856 0 -0.073981214119763147 -0.014862103721104834 0 -0.07589800648022893 -0.015336067675611867 0 -0.073981214119763147 -0.014862103721104834 0 -0.075830047079457688 -0.014183528068355036 0 -0.07589800648022893 -0.015336067675611867 0 -0.072322739522783494 -0.012862708287787411 0 -0.074462462837762214 -0.01286704079765928 0 -0.074059766598889715 -0.012047876814968623 0 -0.072322739522783494 -0.012862708287787411 0 -0.072585243303502758 -0.011781700339241048 0 -0.074059766598889715 -0.012047876814968623 0 -0.07306304013357301 -0.013058638569356396 0 -0.073981214119763147 -0.014862103721104834 0 -0.075009578682728076 -0.013496563126824675 0 -0.072351135532666547 -0.012259511849757055 0 -0.072514951067751271 -0.011854558456587594 0 -0.07306304013357301 -0.013058638569356396 0 -0.075009578682728076 -0.013496563126824675 0 -0.076031200693393988 -0.013205233814483075 0 -0.073981214119763147 -0.014862103721104834 0 -0.075009578682728076 -0.013496563126824675 0 -0.075830047079457688 -0.014183528068355036 0 -0.072514951067751271 -0.011854558456587594 0 -0.070514458956221604 -0.012538691822098673 0 -0.07206104148674522 -0.015285312101259054 0 -0.070514458956221604 -0.012538691822098673 0 -0.074462462837762214 -0.01286704079765928 0 -0.076341930301598582 -0.012269067011124962 0 -0.075153813848063619 -0.011724703497538238 0 -0.075998608832060721 -0.013223262023207021 0 -0.075830047079457688 -0.014183528068355036 0 -0.078615657117488871 -0.013303255220579478 0 -0.072514951067751271 -0.011854558456587594 0 -0.069749655214259534 -0.010866120922412459 0 -0.075830047079457688 -0.014183528068355036 0 -0.07589800648022893 -0.015336067675611867 0 -0.078615657117488871 -0.013303255220579478 0 -0.075009578682728076 -0.013496563126824675 0 -0.075998608832060721 -0.013223262023207021 0 -0.075830047079457688 -0.014183528068355036 0 -0.072730807288052493 -0.011847918866691429 0 -0.072514951067751271 -0.011854558456587594 0 -0.073398873633850809 -0.020132824531684627 0 -0.072576829054383743 -0.019569638385510266 0 -0.07372024270762001 -0.019527957075866933 0 -0.072576829054383743 -0.019569638385510266 0 -0.07372024270762001 -0.019527957075866933 0 -0.07381489772459042 -0.018702310539453523 0 -0.074193028899243688 -0.020170885800319605 0 -0.073398873633850809 -0.020132824531684627 0 -0.07372024270762001 -0.019527957075866933 0 -0.074193028899243688 -0.020170885800319605 0 -0.07372024270762001 -0.019527957075866933 0 -0.074368287209326395 -0.019533429128787336 0 -0.07372024270762001 -0.019527957075866933 0 -0.074368287209326395 -0.019533429128787336 0 -0.074026981038166267 -0.019089199682147236 0 -0.074193028899243688 -0.020170885800319605 0 -0.074941358122117371 -0.020042890522133316 0 -0.074368287209326395 -0.019533429128787336 0 -0.074368287209326395 -0.019533429128787336 0 -0.074941285603909669 -0.019218251457516867 0 -0.074412629199969368 -0.019068929765037948 0 -0.074368287209326395 -0.019533429128787336 0 -0.074412629199969368 -0.019068929765037948 0 -0.074026981038166267 -0.019089199682147236 0 -0.074941358122117371 -0.020042890522133316 0 -0.074368287209326395 -0.019533429128787336 0 -0.074941285603909669 -0.019218251457516867 0 -0.075742931182213577 -0.019675116142662891 0 -0.074941358122117371 -0.020042890522133316 0 -0.074941285603909669 -0.019218251457516867 0 -0.076051994510981741 -0.018762531314416755 0 -0.074941285603909669 -0.019218251457516867 0 -0.074568177097915286 -0.01870915844162703 0 -0.074941285603909669 -0.019218251457516867 0 -0.074568177097915286 -0.01870915844162703 0 -0.074412629199969368 -0.019068929765037948 0 -0.068943489161544025 -0.012685149269477849 0 -0.069363884053747826 -0.012564668587670358 0 -0.074568177097915286 -0.01870915844162703 0 -0.074412629199969368 -0.019068929765037948 0 -0.074212447911109439 -0.018697231476390231 0 -0.068943489161544025 -0.012685149269477849 0 -0.068304997697663961 -0.011410424738650686 0 -0.068382902538251369 -0.012280841347149718 0 -0.068326922345151211 -0.012279230667621779 0 -0.068363192722790081 -0.012201192106642417 0 -0.068382902538251369 -0.012280841347149718 0 -0.068391999291801675 -0.012179444680773721 0 -0.068363192722790081 -0.012201192106642417 0 -0.069363884053747826 -0.012564668587670358 0 -0.06871525758938124 -0.011671475996371198 0 -0.067968474000783569 -0.01298746705049126 0 -0.067731414142757893 -0.01319171438551588 0 -0.067934726300811446 -0.013316193636599225 0 -0.071615685470181781 -0.011074833784136959 0 -0.070062749120006748 -0.011022623547072305 0 -0.070231454260962015 -0.011157359689160913 0 -0.071615685470181781 -0.011074833784136959 0 -0.070055375818854695 -0.011537684973896126 0 -0.070231454260962015 -0.011157359689160913 0 -0.07372024270762001 -0.019527957075866933 0 -0.074026981038166267 -0.019089199682147236 0 -0.07381489772459042 -0.018702310539453523 0 -0.074412629199969368 -0.019068929765037948 0 -0.074026981038166267 -0.019089199682147236 0 -0.074212447911109439 -0.018697231476390231 0 -0.074026981038166267 -0.019089199682147236 0 -0.07381489772459042 -0.018702310539453523 0 -0.074205650044001301 -0.018710756233788435 0 -0.069366350292529841 -0.012871299705271084 0 -0.069363884053747826 -0.012564668587670358 0 -0.070062749120006748 -0.011022623547072305 0 -0.070054971624382789 -0.011535977806747269 0 -0.070231454260962015 -0.011157359689160913 0 -0.070062749120006748 -0.011022623547072305 0 -0.070054971624382789 -0.011535977806747269 0 -0.069270966789096888 -0.011593710576173848 0 -0.068752440570359549 -0.012343592263894667 0 -0.069055186017702247 -0.012352799850215326 0 -0.069226767078295948 -0.011994875004526923 0 -0.070514458956221604 -0.012538691822098673 0 -0.06871525758938124 -0.011671475996371198 0 -0.070514458956221604 -0.012538691822098673 0 -0.069363884053747826 -0.012564668587670358 0 -0.069749655214259534 -0.010866120922412459 0 -0.069751794846693083 -0.010877462634460239 0 -0.076341930301598582 -0.012269067011124962 0 -0.075960620707749504 -0.011436066746086365 0 -0.075153813848063619 -0.011724703497538238 0 -0.076341930301598582 -0.012269067011124962 0 -0.076846848005393958 -0.011157785613189645 0 -0.075960620707749504 -0.011436066746086365 0 -0.068702746960428163 -0.011259035488977035 0 -0.068917523402453704 -0.010788395234929603 0 -0.069157026876705233 -0.011122326576618786 0 -0.069749655214259534 -0.010866120922412459 0 -0.068665354044648338 -0.010441942919923598 0 -0.069749655214259534 -0.010866120922412459 0 -0.06842908906503406 -0.011343266595476282 0 -0.068923956404557798 -0.0091306079010691366 0 -0.068831098857901271 -0.0093318730849536458 0 -0.069725077671169769 -0.0095849167489715902 0 -0.068665354044648338 -0.010441942919923598 0 -0.06830315839384575 -0.0099017009916879672 0 -0.068665354044648338 -0.010441942919923598 0 -0.070513581065570957 -0.010044764817945464 0 -0.076846848005393958 -0.011157785613189645 0 -0.075960620707749504 -0.011436066746086365 0 -0.075497091973691241 -0.010589933649045188 0 -0.075960620707749504 -0.011436066746086365 0 -0.075497091973691241 -0.010589933649045188 0 -0.075153813848063619 -0.011724703497538238 0 -0.067059626384553817 -0.011374712765332289 0 -0.067264549694329143 -0.011074441254106613 0 -0.067106073822344153 -0.011641289406062417 0 -0.067150582926985558 -0.01162801273741714 0 -0.067016415334711157 -0.011480893997405164 0 -0.066578861721605681 -0.01146590313609531 0 -0.066213854478020445 -0.011314219731494981 0 -0.066391640075176644 -0.011261359720147839 0 -0.067264549694329143 -0.011074441254106613 0 -0.066887787690405015 -0.010970521179057854 0 -0.067584386174627878 -0.013364483953390408 0 -0.067731414142757893 -0.01319171438551588 0 -0.067712918834439834 -0.013416458915784345 0 -0.067264549694329143 -0.011074441254106613 0 -0.068304997697663961 -0.011410424738650686 0 -0.067731414142757893 -0.01319171438551588 0 -0.067712918834439834 -0.013416458915784345 0 -0.067934726300811446 -0.013316193636599225 0 -0.067264549694329143 -0.011074441254106613 0 -0.067843472928762083 -0.010749477601755921 0 -0.068452530886363216 -0.011480728469141761 0 -0.068682620162080515 -0.011549932701277587 0 -0.068701118839818234 -0.011368667795807115 0 -0.068917523402453704 -0.010788395234929603 0 -0.069240881445170113 -0.010948773992231962 0 -0.069157026876705233 -0.011122326576618786 0 -0.070054971624382789 -0.011535977806747269 0 -0.069170615972552099 -0.01179834820576608 0 -0.069270966789096888 -0.011593710576173848 0 -0.067843472928762083 -0.010749477601755921 0 -0.068304997697663961 -0.011410424738650686 0 -0.067843472928762083 -0.010749477601755921 0 -0.06842908906503406 -0.011343266595476282 0 -0.067507701049669855 -0.011252373612074871 0 -0.067512877665336493 -0.011203378973826728 0 -0.067529478139207566 -0.011208917052696559 0 -0.069220119413240938 -0.011807786176107568 0 -0.069104069326159714 -0.011768786770140677 0 -0.069011605425162631 -0.011959557717156523 0 -0.06842908906503406 -0.011343266595476282 0 -0.06871525758938124 -0.011671475996371198 0 -0.068304997697663961 -0.011410424738650686 0 -0.06871525758938124 -0.011671475996371198 0 -0.068304997697663961 -0.011410424738650686 0 -0.06842908906503406 -0.011343266595476282 0 -0.068665354044648338 -0.010441942919923598 0 -0.067843472928762083 -0.010749477601755921 0 -0.068165421776718416 -0.010168716216872703 0 -0.067474461459434476 -0.0098276889859242687 0 -0.067428845948696248 -0.01028437919639697 0 -0.068165421776718416 -0.010168716216872703 0 -0.068031888737678042 -0.010458414613509244 0 -0.067428845948696248 -0.01028437919639697 0 -0.067443683844835553 -0.010549532345103075 0 -0.067665900654075434 -0.010614266250301979 0 -0.067512497831734214 -0.010399643047404653 0 -0.06830315839384575 -0.0099017009916879672 0 -0.067399904810196504 -0.0098973180273156571 0 -0.067843472928762083 -0.010749477601755921 0 -0.067399904810196504 -0.0098973180273156571 0 -0.067106073822344153 -0.011641289406062417 0 -0.066960424832561358 -0.011596495304967576 0 -0.067016415334711157 -0.011480893997405164 0 -0.068257302847260184 -0.010441936673783297 0 -0.068335110219873124 -0.0096614735443837727 0 -0.068600009289956451 -0.0097375574801162323 0 -0.067843472928762083 -0.010749477601755921 0 -0.067050653348510708 -0.010035350264699948 0 -0.067399904810196504 -0.0098973180273156571 0 -0.067050653348510708 -0.010035350264699948 0 -0.066887787690405015 -0.010970521179057854 0 -0.067050653348510708 -0.010035350264699948 0 -0.065349124098985745 -0.0069535883321558108 0 -0.0638509093275067 -0.0066268119016524912 0 -0.064636529234312678 -0.0049429576890682855 0 -0.066237284905096325 -0.0088207158290608389 0 -0.06776927216392678 -0.0093921334975527754 0 -0.064946136207026398 -0.0088662833316387486 0 -0.067050653348510708 -0.010035350264699948 0 -0.062430888800409527 -0.0074344496137820687 0 -0.063541354929193591 -0.0055889790268882017 0 -0.063389523369448697 -0.0055456851049863832 0 -0.066713239236719388 -0.0090164771386125834 0 -0.066668054279647768 -0.0094977741269194529 0 -0.066562031316854661 -0.0093510419255232423 0 -0.066237284905096325 -0.0088207158290608389 0 -0.067399904810196504 -0.0098973180273156571 0 -0.062430888800409527 -0.0074344496137820687 0 -0.063341610285448463 -0.007425224251324759 0 -0.063541354929193591 -0.0055889790268882017 0 -0.067399904810196504 -0.0098973180273156571 0 -0.06776927216392678 -0.0093921334975527754 0 -0.06830315839384575 -0.0099017009916879672 0 -0.06776927216392678 -0.0093921334975527754 0 -0.069267858842158525 -0.0087742611356202531 0 -0.069208455056404009 -0.0089032333907441523 0 -0.069681155116211951 -0.008892168822012967 0 -0.07046009694847219 -0.0070730909092013902 0 -0.06776927216392678 -0.0093921334975527754 0 -0.069750204360358795 -0.0094839214660789161 0 -0.069208455056404009 -0.0089032333907441523 0 -0.069681155116211951 -0.008892168822012967 0 -0.068923956404557798 -0.0091306079010691366 0 -0.069725077671169769 -0.0095849167489715902 0 -0.069777156360440809 -0.0094765063566411966 0 -0.06830315839384575 -0.0099017009916879672 0 -0.069530211552345345 -0.0094981912486187502 0 -0.069750204360358795 -0.0094839214660789161 0 -0.069681155116211951 -0.008892168822012967 0 -0.070093727360802979 -0.0090106270096346371 0 -0.070513581065570957 -0.010044764817945464 0 -0.070658440431522654 -0.0091313207995481014 0 -0.069530211552345345 -0.0094981912486187502 0 -0.070658440431522654 -0.0091313207995481014 0 -0.069725077671169769 -0.0095849167489715902 0 -0.069777156360440809 -0.0094765063566411966 0 -0.07061503800288714 -0.0098283501286517971 0 -0.074143138534108533 -0.0099844364574468263 0 -0.07366432951421395 -0.010638116255003936 0 -0.0743428648229741 -0.010735999371777549 0 -0.075497091973691241 -0.010589933649045188 0 -0.074143138534108533 -0.0099844364574468263 0 -0.0743428648229741 -0.010735999371777549 0 -0.070546496267723149 -0.0077604924387821381 0 -0.070580149928957239 -0.0076392763369565802 0 -0.070614309836956379 -0.0076489885402414096 0 -0.070620995151498056 -0.0081855809582080039 0 -0.070772367400674607 -0.0090072955736333685 0 -0.070658440431522654 -0.0091313207995481014 0 -0.070772367400674607 -0.0090072955736333685 0 -0.072404703941665136 -0.01062256268311502 0 -0.073871795455133352 -0.0098736833606053193 0 -0.07366432951421395 -0.010638116255003936 0 -0.074153593669692208 -0.0099552651324935695 0 -0.073871795455133352 -0.0098736833606053193 0 -0.07366432951421395 -0.010638116255003936 0 -0.070658440431522654 -0.0091313207995481014 0 -0.070789145178751581 -0.0091159082630985731 0 -0.07366432951421395 -0.010638116255003936 0 -0.073841493889607188 -0.011183404408863401 0 -0.0743428648229741 -0.010735999371777549 0 -0.072404703941665136 -0.01062256268311502 0 -0.073841493889607188 -0.011183404408863401 0 -0.074059766598889715 -0.012047876814968623 0 -0.072411127786205537 -0.010439945414518694 0 -0.072585243303502758 -0.011781700339241048 0 -0.074059766598889715 -0.012047876814968623 0 -0.071938221035748942 -0.010117558077088968 0 -0.072757736044922347 -0.010847717196908033 0 -0.072404703941665136 -0.01062256268311502 0 -0.07366432951421395 -0.010638116255003936 0 -0.073841493889607188 -0.011183404408863401 0 -0.074462462837762214 -0.01286704079765928 0 -0.074059766598889715 -0.012047876814968623 0 -0.075153813848063619 -0.011724703497538238 0 -0.073841493889607188 -0.011183404408863401 0 -0.074059766598889715 -0.012047876814968623 0 -0.074576153360905187 -0.011261146377914876 0 -0.074059766598889715 -0.012047876814968623 0 -0.075153813848063619 -0.011724703497538238 0 -0.074576153360905187 -0.011261146377914876 0 -0.075497091973691241 -0.010589933649045188 0 -0.075153813848063619 -0.011724703497538238 0 -0.074576153360905187 -0.011261146377914876 0 -0.075497091973691241 -0.010589933649045188 0 -0.0743428648229741 -0.010735999371777549 0 -0.074576153360905187 -0.011261146377914876 0 -0.073841493889607188 -0.011183404408863401 0 -0.0743428648229741 -0.010735999371777549 0 -0.074576153360905187 -0.011261146377914876 0 -0.023519076888853591 -0.0084324488284167002 0 -0.023527902042702064 -0.0082359049380518277 0 -0.023528684061178667 -0.0084764782833395037 0 -0.023519076888853591 -0.0084324488284167002 0 -0.023528684061178667 -0.0084764782833395037 0 -0.023548249225522112 -0.0086535748379090831 0 -0.023519076888853591 -0.0084324488284167002 0 -0.023548249225522112 -0.0086535748379090831 0 -0.0235955335332232 -0.0087643801321262114 0 -0.023519076888853591 -0.0084324488284167002 0 -0.023612374087653949 -0.0086718755303881352 0 -0.023547104671954106 -0.00838464324354498 0 -0.023519076888853591 -0.0084324488284167002 0 -0.023612374087653949 -0.0086718755303881352 0 -0.0235955335332232 -0.0087643801321262114 0 -0.023612374087653949 -0.0086718755303881352 0 -0.0235955335332232 -0.0087643801321262114 0 -0.023686490007846148 -0.0089106753561344725 0 -0.023612374087653949 -0.0086718755303881352 0 -0.023547104671954106 -0.00838464324354498 0 -0.023653890921540431 -0.0085557312236667453 0 -0.023519076888853591 -0.0084324488284167002 0 -0.023547104671954106 -0.00838464324354498 0 -0.023477060920329876 -0.0081390664019027371 0 -0.023477060920329876 -0.0081390664019027371 0 -0.023521664988441247 -0.0081320080195420273 0 -0.023411109556785253 -0.0078565650796933919 0 -0.023547104671954106 -0.00838464324354498 0 -0.023477060920329876 -0.0081390664019027371 0 -0.023521664988441247 -0.0081320080195420273 0 -0.023477060920329876 -0.0081390664019027371 0 -0.0234864829988627 -0.0080863421426175548 0 -0.023411109556785253 -0.0078565650796933919 0 -0.023519076888853591 -0.0084324488284167002 0 -0.0234864829988627 -0.0080863421426175548 0 -0.023527902042702064 -0.0082359049380518277 0 -0.023519076888853591 -0.0084324488284167002 0 -0.023477060920329876 -0.0081390664019027371 0 -0.0234864829988627 -0.0080863421426175548 0 -0.0234864829988627 -0.0080863421426175548 0 -0.023527902042702064 -0.0082359049380518277 0 -0.023556250759298326 -0.0079555582227927579 0 -0.023527902042702064 -0.0082359049380518277 0 -0.023580140175095778 -0.0080837202963216555 0 -0.023556250759298326 -0.0079555582227927579 0 -0.023527902042702064 -0.0082359049380518277 0 -0.023580140175095778 -0.0080837202963216555 0 -0.023549345561617863 -0.008308630615203285 0 -0.023580140175095778 -0.0080837202963216555 0 -0.023594602909293085 -0.0080201516580505686 0 -0.023559623164283259 -0.0082197084022461158 0 -0.023549345561617863 -0.008308630615203285 0 -0.02353682680229513 -0.0084312486413927207 0 -0.023559623164283259 -0.0082197084022461158 0 -0.023580140175095778 -0.0080837202963216555 0 -0.023549345561617863 -0.008308630615203285 0 -0.023559623164283259 -0.0082197084022461158 0 -0.023549345561617863 -0.008308630615203285 0 -0.02353682680229513 -0.0084312486413927207 0 -0.023529618882758445 -0.0084768871258714164 0 -0.02353682680229513 -0.0084312486413927207 0 -0.023529618882758445 -0.0084768871258714164 0 -0.023513207922858995 -0.0086170953574911304 0 -0.02353682680229513 -0.0084312486413927207 0 -0.023513207922858995 -0.0086170953574911304 0 -0.023505592944992808 -0.0086697938819024992 0 -0.023528684061178667 -0.0084764782833395037 0 -0.023529618882758445 -0.0084768871258714164 0 -0.023523859195554078 -0.0087132585940357804 0 -0.023527902042702064 -0.0082359049380518277 0 -0.023528684061178667 -0.0084764782833395037 0 -0.023529618882758445 -0.0084768871258714164 0 -0.023527902042702064 -0.0082359049380518277 0 -0.023549345561617863 -0.008308630615203285 0 -0.023529618882758445 -0.0084768871258714164 0 -0.023528684061178667 -0.0084764782833395037 0 -0.023523859195554078 -0.0087132585940357804 0 -0.023548249225522112 -0.0086535748379090831 0 -0.023529618882758445 -0.0084768871258714164 0 -0.023523859195554078 -0.0087132585940357804 0 -0.023513207922858995 -0.0086170953574911304 0 -0.023523859195554078 -0.0087132585940357804 0 -0.023513207922858995 -0.0086170953574911304 0 -0.023491487898475719 -0.0087647972040045177 0 -0.023513207922858995 -0.0086170953574911304 0 -0.023491487898475719 -0.0087647972040045177 0 -0.023505592944992808 -0.0086697938819024992 0 -0.023491487898475719 -0.0087647972040045177 0 -0.023516211569379216 -0.0088691933392864783 0 -0.023463940554976016 -0.0088582084526688427 0 -0.023523859195554078 -0.0087132585940357804 0 -0.023516211569379216 -0.0088691933392864783 0 -0.023582203909661214 -0.0089558601012137088 0 -0.023523859195554078 -0.0087132585940357804 0 -0.023491487898475719 -0.0087647972040045177 0 -0.023516211569379216 -0.0088691933392864783 0 -0.023582203909661214 -0.0089558601012137088 0 -0.023587634205986207 -0.0088605958012826693 0 -0.023668497036803543 -0.0090552523890712004 0 -0.023523859195554078 -0.0087132585940357804 0 -0.023582203909661214 -0.0089558601012137088 0 -0.023587634205986207 -0.0088605958012826693 0 -0.023523859195554078 -0.0087132585940357804 0 -0.023587634205986207 -0.0088605958012826693 0 -0.023548249225522112 -0.0086535748379090831 0 -0.023587634205986207 -0.0088605958012826693 0 -0.023548249225522112 -0.0086535748379090831 0 -0.0235955335332232 -0.0087643801321262114 0 -0.0235955335332232 -0.0087643801321262114 0 -0.023652928507504882 -0.0089442485799693418 0 -0.023686490007846148 -0.0089106753561344725 0 -0.023587634205986207 -0.0088605958012826693 0 -0.023652928507504882 -0.0089442485799693418 0 -0.023668497036803543 -0.0090552523890712004 0 -0.023587634205986207 -0.0088605958012826693 0 -0.0235955335332232 -0.0087643801321262114 0 -0.023652928507504882 -0.0089442485799693418 0 -0.023652928507504882 -0.0089442485799693418 0 -0.023686490007846148 -0.0089106753561344725 0 -0.023755357958311431 -0.00911994884198674 0 -0.023652928507504882 -0.0089442485799693418 0 -0.023668497036803543 -0.0090552523890712004 0 -0.023755357958311431 -0.00911994884198674 0 -0.023582203909661214 -0.0089558601012137088 0 -0.023668497036803543 -0.0090552523890712004 0 -0.023671159849558244 -0.0091248581981608762 0 -0.023668497036803543 -0.0090552523890712004 0 -0.023784558698136327 -0.0092294264443194725 0 -0.023671159849558244 -0.0091248581981608762 0 -0.023784558698136327 -0.0092294264443194725 0 -0.023884615399684332 -0.0093966886834062607 0 -0.023671159849558244 -0.0091248581981608762 0 -0.016267875925972813 -0.019121672132515401 0 -0.016314539850828497 -0.018600404219255073 0 -0.017216939901162912 -0.019794324940912655 0 -0.023784558698136327 -0.0092294264443194725 0 -0.023866257588002142 -0.009294689604281715 0 -0.023755357958311431 -0.00911994884198674 0 -0.023668497036803543 -0.0090552523890712004 0 -0.023784558698136327 -0.0092294264443194725 0 -0.023755357958311431 -0.00911994884198674 0 -0.023784558698136327 -0.0092294264443194725 0 -0.023866257588002142 -0.009294689604281715 0 -0.023876187713487766 -0.0093496715227837906 0 -0.023784558698136327 -0.0092294264443194725 0 -0.023876187713487766 -0.0093496715227837906 0 -0.023884615399684332 -0.0093966886834062607 0 -0.016267875925972813 -0.019121672132515401 0 -0.016314539850828497 -0.018600404219255073 0 -0.019099825918236994 -0.017119156546872908 0 -0.023993902869579618 -0.0094750252963935952 0 -0.024123023942014453 -0.0095770055427185034 0 -0.02434713779690854 -0.009904725967003411 0 -0.021462091573492836 -0.013452189604381711 0 -0.022945232003418879 -0.012498375643300481 0 -0.023884615399684332 -0.0093966886834062607 0 -0.023993902869579618 -0.0094750252963935952 0 -0.02434713779690854 -0.009904725967003411 0 -0.0154876077033172 -0.018748247691014335 0 -0.015482004879480015 -0.018678139068464671 0 -0.023876187713487766 -0.0093496715227837906 0 -0.023884615399684332 -0.0093966886834062607 0 -0.023993902869579618 -0.0094750252963935952 0 -0.023866257588002142 -0.009294689604281715 0 -0.023876187713487766 -0.0093496715227837906 0 -0.023993902869579618 -0.0094750252963935952 0 -0.023866257588002142 -0.009294689604281715 0 -0.023993902869579618 -0.0094750252963935952 0 -0.023996704121964849 -0.0093883003186871847 0 -0.023866257588002142 -0.009294689604281715 0 -0.023996704121964849 -0.0093883003186871847 0 -0.023841356701515704 -0.0091472004480187847 0 -0.023996704121964849 -0.0093883003186871847 0 -0.024123023942014453 -0.0095770055427185034 0 -0.024206027380880242 -0.0095649662797444857 0 -0.023993902869579618 -0.0094750252963935952 0 -0.023996704121964849 -0.0093883003186871847 0 -0.024123023942014453 -0.0095770055427185034 0 -0.023999382467345218 -0.0092526927881400618 0 -0.024206027380880242 -0.0095649662797444857 0 -0.024133210517045232 -0.0092400757448812907 0 -0.023996704121964849 -0.0093883003186871847 0 -0.023999382467345218 -0.0092526927881400618 0 -0.024206027380880242 -0.0095649662797444857 0 -0.023996704121964849 -0.0093883003186871847 0 -0.023999382467345218 -0.0092526927881400618 0 -0.023841356701515704 -0.0091472004480187847 0 -0.023999382467345218 -0.0092526927881400618 0 -0.023841356701515704 -0.0091472004480187847 0 -0.023890633985092832 -0.0089169699413289855 0 -0.023841356701515704 -0.0091472004480187847 0 -0.023686490007846148 -0.0089106753561344725 0 -0.023755357958311431 -0.00911994884198674 0 -0.023841356701515704 -0.0091472004480187847 0 -0.023686490007846148 -0.0089106753561344725 0 -0.023735839285296025 -0.0088481632325273299 0 -0.023866257588002142 -0.009294689604281715 0 -0.023841356701515704 -0.0091472004480187847 0 -0.023755357958311431 -0.00911994884198674 0 -0.02445017958286173 -0.016005687806632838 0 -0.019639516426881099 -0.014330041506061713 0 -0.025155245929162181 -0.011077298530969584 0 -0.013829497500520075 -0.018565172012955787 0 -0.015482004879480015 -0.018678139068464671 0 -0.02445017958286173 -0.016005687806632838 0 -0.019639516426881099 -0.014330041506061713 0 -0.019099825918236994 -0.017119156546872908 0 -0.016314539850828497 -0.018600404219255073 0 -0.019639516426881099 -0.014330041506061713 0 -0.019099825918236994 -0.017119156546872908 0 -0.024123023942014453 -0.0095770055427185034 0 -0.02434713779690854 -0.009904725967003411 0 -0.024206027380880242 -0.0095649662797444857 0 -0.024206027380880242 -0.0095649662797444857 0 -0.024386059612709954 -0.0094099170847616181 0 -0.024133210517045232 -0.0092400757448812907 0 -0.024206027380880242 -0.0095649662797444857 0 -0.024533734509137414 -0.0099367093592951147 0 -0.024386059612709954 -0.0094099170847616181 0 -0.024533734509137414 -0.0099367093592951147 0 -0.024821219189929012 -0.0097648639929117948 0 -0.024386059612709954 -0.0094099170847616181 0 -0.02434713779690854 -0.009904725967003411 0 -0.024206027380880242 -0.0095649662797444857 0 -0.024533734509137414 -0.0099367093592951147 0 -0.024533734509137414 -0.0099367093592951147 0 -0.024821219189929012 -0.0097648639929117948 0 -0.025155245929162181 -0.011077298530969584 0 -0.02434713779690854 -0.009904725967003411 0 -0.024533734509137414 -0.0099367093592951147 0 -0.025155245929162181 -0.011077298530969584 0 -0.024821219189929012 -0.0097648639929117948 0 -0.025155245929162181 -0.011077298530969584 0 -0.025555466182201673 -0.0094810641881135933 0 -0.022945232003418879 -0.012498375643300481 0 -0.024103051010512678 -0.011942882088356673 0 -0.024821219189929012 -0.0097648639929117948 0 -0.024837493790181207 -0.0089186155028576977 0 -0.025555466182201673 -0.0094810641881135933 0 -0.024821219189929012 -0.0097648639929117948 0 -0.024386059612709954 -0.0094099170847616181 0 -0.024837493790181207 -0.0089186155028576977 0 -0.024386059612709954 -0.0094099170847616181 0 -0.024371104675917597 -0.0086338674555209889 0 -0.024837493790181207 -0.0089186155028576977 0 -0.024386059612709954 -0.0094099170847616181 0 -0.024371104675917597 -0.0086338674555209889 0 -0.024086008142333606 -0.0088814084134348284 0 -0.024386059612709954 -0.0094099170847616181 0 -0.024133210517045232 -0.0092400757448812907 0 -0.024086008142333606 -0.0088814084134348284 0 -0.024371104675917597 -0.0086338674555209889 0 -0.024837493790181207 -0.0089186155028576977 0 -0.024853737872547705 -0.00801819831674596 0 -0.024371104675917597 -0.0086338674555209889 0 -0.024853737872547705 -0.00801819831674596 0 -0.024204576061739827 -0.0080385576933242366 0 -0.024837493790181207 -0.0089186155028576977 0 -0.025555466182201673 -0.0094810641881135933 0 -0.025683897908494187 -0.0082653993308900945 0 -0.024837493790181207 -0.0089186155028576977 0 -0.024853737872547705 -0.00801819831674596 0 -0.025683897908494187 -0.0082653993308900945 0 -0.023653890921540431 -0.0085557312236667453 0 -0.023890633985092832 -0.0089169699413289855 0 -0.023783534792328417 -0.0084966813419353228 0 -0.023653890921540431 -0.0085557312236667453 0 -0.023735839285296025 -0.0088481632325273299 0 -0.023890633985092832 -0.0089169699413289855 0 -0.023612374087653949 -0.0086718755303881352 0 -0.023653890921540431 -0.0085557312236667453 0 -0.023735839285296025 -0.0088481632325273299 0 -0.023612374087653949 -0.0086718755303881352 0 -0.023686490007846148 -0.0089106753561344725 0 -0.023735839285296025 -0.0088481632325273299 0 -0.023841356701515704 -0.0091472004480187847 0 -0.023735839285296025 -0.0088481632325273299 0 -0.023890633985092832 -0.0089169699413289855 0 -0.023999382467345218 -0.0092526927881400618 0 -0.023890633985092832 -0.0089169699413289855 0 -0.024133210517045232 -0.0092400757448812907 0 -0.023890633985092832 -0.0089169699413289855 0 -0.024133210517045232 -0.0092400757448812907 0 -0.024086008142333606 -0.0088814084134348284 0 -0.023890633985092832 -0.0089169699413289855 0 -0.024086008142333606 -0.0088814084134348284 0 -0.023783534792328417 -0.0084966813419353228 0 -0.024086008142333606 -0.0088814084134348284 0 -0.024019443915407706 -0.0084420505853702952 0 -0.023783534792328417 -0.0084966813419353228 0 -0.024371104675917597 -0.0086338674555209889 0 -0.024086008142333606 -0.0088814084134348284 0 -0.024019443915407706 -0.0084420505853702952 0 -0.024371104675917597 -0.0086338674555209889 0 -0.024019443915407706 -0.0084420505853702952 0 -0.024204576061739827 -0.0080385576933242366 0 -0.024019443915407706 -0.0084420505853702952 0 -0.023786743609171063 -0.0080680797846348178 0 -0.024204576061739827 -0.0080385576933242366 0 -0.024019443915407706 -0.0084420505853702952 0 -0.023783534792328417 -0.0084966813419353228 0 -0.023786743609171063 -0.0080680797846348178 0 -0.023783534792328417 -0.0084966813419353228 0 -0.023521664988441247 -0.0081320080195420273 0 -0.023786743609171063 -0.0080680797846348178 0 -0.023653890921540431 -0.0085557312236667453 0 -0.023783534792328417 -0.0084966813419353228 0 -0.023521664988441247 -0.0081320080195420273 0 -0.023547104671954106 -0.00838464324354498 0 -0.023653890921540431 -0.0085557312236667453 0 -0.023521664988441247 -0.0081320080195420273 0 -0.023521664988441247 -0.0081320080195420273 0 -0.023515657869270231 -0.0076975967515693633 0 -0.023403993349709534 -0.007802191345878757 0 -0.023521664988441247 -0.0081320080195420273 0 -0.023515657869270231 -0.0076975967515693633 0 -0.023786743609171063 -0.0080680797846348178 0 -0.023515657869270231 -0.0076975967515693633 0 -0.023248345879044546 -0.0074984002523341715 0 -0.023403993349709534 -0.007802191345878757 0 -0.023786743609171063 -0.0080680797846348178 0 -0.023859654031763721 -0.0075234289791846652 0 -0.024204576061739827 -0.0080385576933242366 0 -0.023515657869270231 -0.0076975967515693633 0 -0.023786743609171063 -0.0080680797846348178 0 -0.023859654031763721 -0.0075234289791846652 0 -0.023859654031763721 -0.0075234289791846652 0 -0.023295229478828425 -0.0072721592625333226 0 -0.02394037967631208 -0.006596081848657176 0 -0.023295229478828425 -0.0072721592625333226 0 -0.023155205749875608 -0.0063367801894496549 0 -0.02394037967631208 -0.006596081848657176 0 -0.023859654031763721 -0.0075234289791846652 0 -0.024696859226932034 -0.0072223665854095473 0 -0.02394037967631208 -0.006596081848657176 0 -0.023295229478828425 -0.0072721592625333226 0 -0.022902519495792976 -0.0070546018924965296 0 -0.023155205749875608 -0.0063367801894496549 0 -0.023295229478828425 -0.0072721592625333226 0 -0.022902519495792976 -0.0070546018924965296 0 -0.023248345879044546 -0.0074984002523341715 0 -0.023515657869270231 -0.0076975967515693633 0 -0.023295229478828425 -0.0072721592625333226 0 -0.023248345879044546 -0.0074984002523341715 0 -0.023515657869270231 -0.0076975967515693633 0 -0.023859654031763721 -0.0075234289791846652 0 -0.023295229478828425 -0.0072721592625333226 0 -0.024853737872547705 -0.00801819831674596 0 -0.024696859226932034 -0.0072223665854095473 0 -0.025678046844317796 -0.0071387181473679387 0 -0.024853737872547705 -0.00801819831674596 0 -0.025678046844317796 -0.0071387181473679387 0 -0.025683897908494187 -0.0082653993308900945 0 -0.023859654031763721 -0.0075234289791846652 0 -0.024204576061739827 -0.0080385576933242366 0 -0.024696859226932034 -0.0072223665854095473 0 -0.024853737872547705 -0.00801819831674596 0 -0.024204576061739827 -0.0080385576933242366 0 -0.024696859226932034 -0.0072223665854095473 0 -0.024696859226932034 -0.0072223665854095473 0 -0.02535839319210249 -0.0062310565465448159 0 -0.02394037967631208 -0.006596081848657176 0 -0.024696859226932034 -0.0072223665854095473 0 -0.025678046844317796 -0.0071387181473679387 0 -0.02535839319210249 -0.0062310565465448159 0 -0.02535839319210249 -0.0062310565465448159 0 -0.024725398931412148 -0.0054603154919213946 0 -0.025622900114475218 -0.0053052921472642118 0 -0.02535839319210249 -0.0062310565465448159 0 -0.025622900114475218 -0.0053052921472642118 0 -0.026316747157622476 -0.0055732999136247144 0 -0.02535839319210249 -0.0062310565465448159 0 -0.024725398931412148 -0.0054603154919213946 0 -0.02394037967631208 -0.006596081848657176 0 -0.024451689690547652 -0.0047803544898604028 0 -0.024078887614702036 -0.0054515547747960068 0 -0.02462698370269318 -0.0050148086922295115 0 -0.025685711308063838 -0.0032272742321109616 0 -0.023873325869870014 -0.0037583927659726817 0 -0.02462698370269318 -0.0050148086922295115 0 -0.023359764032069488 -0.0050154557198573719 0 -0.023873325869870014 -0.0037583927659726817 0 -0.024725398931412148 -0.0054603154919213946 0 -0.025622900114475218 -0.0053052921472642118 0 -0.025526311491307258 -0.0045302266748857524 0 -0.024451689690547652 -0.0047803544898604028 0 -0.025113045938078941 -0.0033598772260264686 0 -0.023155205749875608 -0.0063367801894496549 0 -0.023359764032069488 -0.0050154557198573719 0 -0.022188487478267186 -0.0055158916475743737 0 -0.022152954159154921 -0.0061386186839324248 0 -0.022085918904740005 -0.0059265927474523861 0 -0.022902519495792976 -0.0070546018924965296 0 -0.023155205749875608 -0.0063367801894496549 0 -0.022188487478267186 -0.0055158916475743737 0 -0.023155205749875608 -0.0063367801894496549 0 -0.02394037967631208 -0.006596081848657176 0 -0.023359764032069488 -0.0050154557198573719 0 -0.02462698370269318 -0.0050148086922295115 0 -0.02394037967631208 -0.006596081848657176 0 -0.023359764032069488 -0.0050154557198573719 0 -0.023359764032069488 -0.0050154557198573719 0 -0.022967639322903133 -0.0033782921581423878 0 -0.021949089508353191 -0.0042643892359982742 0 -0.023359764032069488 -0.0050154557198573719 0 -0.022188487478267186 -0.0055158916475743737 0 -0.021949089508353191 -0.0042643892359982742 0 -0.022085918904740005 -0.0059265927474523861 0 -0.021907426702892936 -0.0052984955604144339 0 -0.023350998943383817 -0.0075874221740133679 0 -0.023269797368140811 -0.0077980581321083191 0 -0.023260108055897618 -0.0079897570913626727 0 -0.022696160704842244 -0.0062873521497803769 0 -0.021907426702892936 -0.0052984955604144339 0 -0.022951023559032207 -0.0076258616520365084 0 -0.023465990341942255 -0.0077022907711142771 0 -0.022961957073065694 -0.0079572489556254677 0 -0.023350998943383817 -0.0075874221740133679 0 -0.023565729637082374 -0.007662636955818522 0 -0.023269797368140811 -0.0077980581321083191 0 -0.023465990341942255 -0.0077022907711142771 0 -0.023540448151351423 -0.0075052690865850084 0 -0.023765696996397596 -0.0074484686978786878 0 -0.023465990341942255 -0.0077022907711142771 0 -0.023540448151351423 -0.0075052690865850084 0 -0.023313643851125936 -0.0074370414453897721 0 -0.022951023559032207 -0.0076258616520365084 0 -0.023465990341942255 -0.0077022907711142771 0 -0.023313643851125936 -0.0074370414453897721 0 -0.022902519495792976 -0.0070546018924965296 0 -0.022951023559032207 -0.0076258616520365084 0 -0.023313643851125936 -0.0074370414453897721 0 -0.022902519495792976 -0.0070546018924965296 0 -0.023313643851125936 -0.0074370414453897721 0 -0.023379934659209459 -0.0075200998654356959 0 -0.022902519495792976 -0.0070546018924965296 0 -0.023248345879044546 -0.0074984002523341715 0 -0.023379934659209459 -0.0075200998654356959 0 -0.023540448151351423 -0.0075052690865850084 0 -0.023313643851125936 -0.0074370414453897721 0 -0.023379934659209459 -0.0075200998654356959 0 -0.023540448151351423 -0.0075052690865850084 0 -0.023379934659209459 -0.0075200998654356959 0 -0.023561557282466273 -0.0077199736052654374 0 -0.023379934659209459 -0.0075200998654356959 0 -0.023468352553970961 -0.0078036575041950003 0 -0.023411109556785253 -0.0078565650796933919 0 -0.023379934659209459 -0.0075200998654356959 0 -0.023468352553970961 -0.0078036575041950003 0 -0.023561557282466273 -0.0077199736052654374 0 -0.0234864829988627 -0.0080863421426175548 0 -0.023468352553970961 -0.0078036575041950003 0 -0.023556250759298326 -0.0079555582227927579 0 -0.0234864829988627 -0.0080863421426175548 0 -0.023468352553970961 -0.0078036575041950003 0 -0.023411109556785253 -0.0078565650796933919 0 -0.023248345879044546 -0.0074984002523341715 0 -0.023379934659209459 -0.0075200998654356959 0 -0.023411109556785253 -0.0078565650796933919 0 -0.023521664988441247 -0.0081320080195420273 0 -0.023411109556785253 -0.0078565650796933919 0 -0.023403993349709534 -0.007802191345878757 0 -0.023248345879044546 -0.0074984002523341715 0 -0.023411109556785253 -0.0078565650796933919 0 -0.023403993349709534 -0.007802191345878757 0 -0.023580140175095778 -0.0080837202963216555 0 -0.023667912420409897 -0.0077763231622421788 0 -0.023556250759298326 -0.0079555582227927579 0 -0.023580140175095778 -0.0080837202963216555 0 -0.023667912420409897 -0.0077763231622421788 0 -0.023594602909293085 -0.0080201516580505686 0 -0.023667912420409897 -0.0077763231622421788 0 -0.023556250759298326 -0.0079555582227927579 0 -0.023561557282466273 -0.0077199736052654374 0 -0.023468352553970961 -0.0078036575041950003 0 -0.023556250759298326 -0.0079555582227927579 0 -0.023561557282466273 -0.0077199736052654374 0 -0.023667912420409897 -0.0077763231622421788 0 -0.023561557282466273 -0.0077199736052654374 0 -0.023765696996397596 -0.0074484686978786878 0 -0.023540448151351423 -0.0075052690865850084 0 -0.023561557282466273 -0.0077199736052654374 0 -0.023765696996397596 -0.0074484686978786878 0 -0.023667912420409897 -0.0077763231622421788 0 -0.023765696996397596 -0.0074484686978786878 0 -0.023870124953345687 -0.0075183878610228369 0 -0.023765696996397596 -0.0074484686978786878 0 -0.024159775434155841 -0.0072716578130924848 0 -0.023870124953345687 -0.0075183878610228369 0 -0.022696160704842244 -0.0062873521497803769 0 -0.022987351100843632 -0.0065216320064007101 0 -0.023765696996397596 -0.0074484686978786878 0 -0.024020914746548144 -0.0074174830750547323 0 -0.023565729637082374 -0.007662636955818522 0 -0.023350998943383817 -0.0075874221740133679 0 -0.023765696996397596 -0.0074484686978786878 0 -0.023565729637082374 -0.007662636955818522 0 -0.023765696996397596 -0.0074484686978786878 0 -0.024159775434155841 -0.0072716578130924848 0 -0.024020914746548144 -0.0074174830750547323 0 -0.024159775434155841 -0.0072716578130924848 0 -0.023912618879310656 -0.0072583632261107199 0 -0.025127083047930838 -0.0067947832205964669 0 -0.024159775434155841 -0.0072716578130924848 0 -0.025127083047930838 -0.0067947832205964669 0 -0.024020914746548144 -0.0074174830750547323 0 -0.024159775434155841 -0.0072716578130924848 0 -0.023870124953345687 -0.0075183878610228369 0 -0.023912618879310656 -0.0072583632261107199 0 -0.026769443974376889 -0.0019818627124609791 0 -0.028500604960572967 0.0014353810135119976 0 -0.023870124953345687 -0.0075183878610228369 0 -0.023912618879310656 -0.0072583632261107199 0 -0.02345930464702194 -0.0076010063403999508 0 -0.026769443974376889 -0.0019818627124609791 0 -0.026007825869980346 -0.003867964431901464 0 -0.027435171375795195 0.002414012133004205 0 -0.030284486501725362 -0.0040188068207842997 0 -0.025127083047930838 -0.0067947832205964669 0 -0.027435171375795195 0.002414012133004205 0 -0.039461847053553711 -0.002618938881484803 0 -0.030284486501725362 -0.0040188068207842997 0 -0.027435171375795195 0.002414012133004205 0 -0.039461847053553711 -0.002618938881484803 0 -0.040351756174772553 0.0097759732211380856 0 -0.05067508132445489 0.01014569636473118 0 -0.054559252082638079 0.012608901283200387 0 -0.039461847053553711 -0.002618938881484803 0 -0.040351756174772553 0.0097759732211380856 0 -0.04953593405591003 0.0062075472719387006 0 -0.027435171375795195 0.002414012133004205 0 -0.040351756174772553 0.0097759732211380856 0 -0.031117804743666107 0.012212888901676036 0 -0.028500604960572967 0.0014353810135119976 0 -0.030553795831691648 0.0037557851203784513 0 -0.040351756174772553 0.0097759732211380856 0 -0.031117804743666107 0.012212888901676036 0 -0.034915367837069188 0.022085582630947995 0 -0.040351756174772553 0.0097759732211380856 0 -0.044845910832199173 0.018097862118404213 0 -0.046623860384046256 0.011916474461008682 0 -0.040351756174772553 0.0097759732211380856 0 -0.044845910832199173 0.018097862118404213 0 -0.034915367837069188 0.022085582630947995 0 -0.044845910832199173 0.018097862118404213 0 -0.034915367837069188 0.022085582630947995 0 -0.041929764413367265 0.02483474069313624 0 -0.02345930464702194 -0.0076010063403999508 0 -0.023199136119143569 -0.0079794233115466264 0 -0.023465570517095229 -0.0080384281814030647 0 -0.02345930464702194 -0.0076010063403999508 0 -0.023465570517095229 -0.0080384281814030647 0 -0.023655541050810885 -0.0078017359334405702 0 -0.023667912420409897 -0.0077763231622421788 0 -0.023655541050810885 -0.0078017359334405702 0 -0.023594602909293085 -0.0080201516580505686 0 -0.023465570517095229 -0.0080384281814030647 0 -0.023655541050810885 -0.0078017359334405702 0 -0.023594602909293085 -0.0080201516580505686 0 -0.023667912420409897 -0.0077763231622421788 0 -0.023870124953345687 -0.0075183878610228369 0 -0.023655541050810885 -0.0078017359334405702 0 -0.023870124953345687 -0.0075183878610228369 0 -0.02345930464702194 -0.0076010063403999508 0 -0.023655541050810885 -0.0078017359334405702 0 -0.057637010383480368 0.017293612366331007 0 -0.057792265006323527 0.017599017251306817 0 -0.058018987100979032 0.017181409642707826 0 -0.057792265006323527 0.017599017251306817 0 -0.058109846228308878 0.017700381638637956 0 -0.058018987100979032 0.017181409642707826 0 -0.058372887007675116 0.017331739905090918 0 -0.058109846228308878 0.017700381638637956 0 -0.058670628129737855 0.017978425362112135 0 -0.058372887007675116 0.017331739905090918 0 -0.058109846228308878 0.017700381638637956 0 -0.058018987100979032 0.017181409642707826 0 -0.058109846228308878 0.017700381638637956 0 -0.058244323877061153 0.01831857689468331 0 -0.058670628129737855 0.017978425362112135 0 -0.058109846228308878 0.017700381638637956 0 -0.058244323877061153 0.01831857689468331 0 -0.057767071433167595 0.018151816838354581 0 -0.057792265006323527 0.017599017251306817 0 -0.058109846228308878 0.017700381638637956 0 -0.057767071433167595 0.018151816838354581 0 -0.058244323877061153 0.01831857689468331 0 -0.057767071433167595 0.018151816838354581 0 -0.057777033183606337 0.019037721256814789 0 -0.057777033183606337 0.019037721256814789 0 -0.058533331901338095 0.018995730410306801 0 -0.058190507951684636 0.020180630547472853 0 -0.058244323877061153 0.01831857689468331 0 -0.058533331901338095 0.018995730410306801 0 -0.058670628129737855 0.017978425362112135 0 -0.058244323877061153 0.01831857689468331 0 -0.057777033183606337 0.019037721256814789 0 -0.058533331901338095 0.018995730410306801 0 -0.058533331901338095 0.018995730410306801 0 -0.05979559112671079 0.019116937442110696 0 -0.059124158451708229 0.019995514350002273 0 -0.058533331901338095 0.018995730410306801 0 -0.05979559112671079 0.019116937442110696 0 -0.058670628129737855 0.017978425362112135 0 -0.05979559112671079 0.019116937442110696 0 -0.058670628129737855 0.017978425362112135 0 -0.059444817350416276 0.017630707879860912 0 -0.058372887007675116 0.017331739905090918 0 -0.058670628129737855 0.017978425362112135 0 -0.058742839378577376 0.017082349101868476 0 -0.058670628129737855 0.017978425362112135 0 -0.059444817350416276 0.017630707879860912 0 -0.058742839378577376 0.017082349101868476 0 -0.05979559112671079 0.019116937442110696 0 -0.059444817350416276 0.017630707879860912 0 -0.061600888845541886 0.017875124604179064 0 -0.059444817350416276 0.017630707879860912 0 -0.061600888845541886 0.017875124604179064 0 -0.058764123382364981 0.016058490636865957 0 -0.05979559112671079 0.019116937442110696 0 -0.061600888845541886 0.017875124604179064 0 -0.061600571400032549 0.020072546131792986 0 -0.063513945876529115 0.01965113495756296 0 -0.061600888845541886 0.017875124604179064 0 -0.061600571400032549 0.020072546131792986 0 -0.040351756174772553 0.0097759732211380856 0 -0.04953593405591003 0.0062075472719387006 0 -0.046623860384046256 0.011916474461008682 0 -0.04953593405591003 0.0062075472719387006 0 -0.046623860384046256 0.011916474461008682 0 -0.051466556991696631 0.015315209200705631 0 -0.044845910832199173 0.018097862118404213 0 -0.046623860384046256 0.011916474461008682 0 -0.051466556991696631 0.015315209200705631 0 -0.044845910832199173 0.018097862118404213 0 -0.051226830634852213 0.022381003416253709 0 -0.041929764413367265 0.02483474069313624 0 -0.044845910832199173 0.018097862118404213 0 -0.051466556991696631 0.015315209200705631 0 -0.051226830634852213 0.022381003416253709 0 -0.051226830634852213 0.022381003416253709 0 -0.056855955922987082 0.01743479088202916 0 -0.057952090369447283 0.02586067685753294 0 -0.051466556991696631 0.015315209200705631 0 -0.051226830634852213 0.022381003416253709 0 -0.056855955922987082 0.01743479088202916 0 -0.04351142058588351 0.012044397108610393 0 -0.040988336696909336 0.0069262295765904472 0 -0.056855955922987082 0.01743479088202916 0 -0.058148647118657353 0.017123997112392191 0 -0.058008022121497131 0.017672037146861386 0 -0.054559252082638079 0.012608901283200387 0 -0.056614997145910978 0.014335651051619607 0 -0.04953593405591003 0.0062075472719387006 0 -0.051466556991696631 0.015315209200705631 0 -0.058764123382364981 0.016058490636865957 0 -0.051466556991696631 0.015315209200705631 0 -0.056855955922987082 0.01743479088202916 0 -0.058764123382364981 0.016058490636865957 0 -0.056855955922987082 0.01743479088202916 0 -0.058764123382364981 0.016058490636865957 0 -0.058148647118657353 0.017123997112392191 0 -0.059444817350416276 0.017630707879860912 0 -0.058742839378577376 0.017082349101868476 0 -0.058764123382364981 0.016058490636865957 0 -0.058742839378577376 0.017082349101868476 0 -0.058764123382364981 0.016058490636865957 0 -0.058551052204309596 0.016579776263522267 0 -0.058742839378577376 0.017082349101868476 0 -0.058551052204309596 0.016579776263522267 0 -0.058365044635791209 0.016858780220765718 0 -0.058372887007675116 0.017331739905090918 0 -0.058742839378577376 0.017082349101868476 0 -0.058365044635791209 0.016858780220765718 0 -0.058551052204309596 0.016579776263522267 0 -0.058268592390572325 0.016971887095303194 0 -0.058365044635791209 0.016858780220765718 0 -0.058764123382364981 0.016058490636865957 0 -0.058551052204309596 0.016579776263522267 0 -0.058148647118657353 0.017123997112392191 0 -0.058551052204309596 0.016579776263522267 0 -0.058148647118657353 0.017123997112392191 0 -0.058268592390572325 0.016971887095303194 0 -0.051226964030242995 0.0079291495341668895 0 -0.040988336696909336 0.0069262295765904472 0 -0.058148647118657353 0.017123997112392191 0 -0.058268592390572325 0.016971887095303194 0 -0.058008022121497131 0.017672037146861386 0 -0.058268592390572325 0.016971887095303194 0 -0.058172490866632301 0.01670435647261272 0 -0.058008022121497131 0.017672037146861386 0 -0.058268592390572325 0.016971887095303194 0 -0.058172490866632301 0.01670435647261272 0 -0.058154796596251564 0.016877187846936235 0 -0.057781808521090543 0.01689566703052555 0 -0.058172490866632301 0.01670435647261272 0 -0.058154796596251564 0.016877187846936235 0 -0.057816834944819623 0.01706591967921877 0 -0.057781808521090543 0.01689566703052555 0 -0.058154796596251564 0.016877187846936235 0 -0.058268592390572325 0.016971887095303194 0 -0.058154796596251564 0.016877187846936235 0 -0.058365044635791209 0.016858780220765718 0 -0.058372887007675116 0.017331739905090918 0 -0.058365044635791209 0.016858780220765718 0 -0.058018987100979032 0.017181409642707826 0 -0.058154796596251564 0.016877187846936235 0 -0.058365044635791209 0.016858780220765718 0 -0.058018987100979032 0.017181409642707826 0 -0.057816834944819623 0.01706591967921877 0 -0.057637010383480368 0.017293612366331007 0 -0.058018987100979032 0.017181409642707826 0 -0.057816834944819623 0.01706591967921877 0 -0.058154796596251564 0.016877187846936235 0 -0.058018987100979032 0.017181409642707826 0 -0.042762932974269016 -0.0021690177409644405 0 -0.042096564102384833 -0.0010496922667998698 0 -0.042833099547430885 -0.00068039505479830942 0 -0.044212234075738641 -0.0013097399513485387 0 -0.042762932974269016 -0.0021690177409644405 0 -0.042833099547430885 -0.00068039505479830942 0 -0.057533910527715004 0.016476355999418053 0 -0.058172490866632301 0.01670435647261272 0 -0.058173945212263843 0.016145700358417895 0 -0.058172490866632301 0.01670435647261272 0 -0.058173945212263843 0.016145700358417895 0 -0.058496991652759935 0.016142503314924086 0 -0.058172490866632301 0.01670435647261272 0 -0.058496991652759935 0.016142503314924086 0 -0.058725783081840122 0.016369430022898715 0 -0.058496991652759935 0.016142503314924086 0 -0.058637411633877333 0.015835686130676936 0 -0.058725783081840122 0.016369430022898715 0 -0.058173945212263843 0.016145700358417895 0 -0.058496991652759935 0.016142503314924086 0 -0.058637411633877333 0.015835686130676936 0 -0.046914950339760501 0.003139223548303469 0 -0.039475590880240462 0.00072318308907962699 0 -0.042762932974269016 -0.0021690177409644405 0 -0.041340471513169413 -0.0013885403505327154 0 -0.042096564102384833 -0.0010496922667998698 0 -0.021687004903871064 -0.011498012575218944 0 -0.021490338036705491 -0.011555436107355748 0 -0.021618946716986217 -0.011629121930279674 0 -0.021687004903871064 -0.011498012575218944 0 -0.021645268470230905 -0.011461912423397792 0 -0.021490338036705491 -0.011555436107355748 0 -0.039475590880240462 0.00072318308907962699 0 -0.039018865649649521 0.00073902036540679115 0 -0.039475590880240462 0.00072318308907962699 0 -0.040988336696909336 0.0069262295765904472 0 -0.051226830634852213 0.022381003416253709 0 -0.057952090369447283 0.02586067685753294 0 -0.048270137680333655 0.028968765513183052 0 -0.040988336696909336 0.0069262295765904472 0 -0.03503812748298548 0.0044796779723470116 0 -0.021490338036705491 -0.011555436107355748 0 -0.021618946716986217 -0.011629121930279674 0 -0.021500281198536336 -0.011570173537573119 0 -0.051226830634852213 0.022381003416253709 0 -0.048270137680333655 0.028968765513183052 0 -0.041929764413367265 0.02483474069313624 0 -0.021490338036705491 -0.011555436107355748 0 -0.021500281198536336 -0.011570173537573119 0 -0.021499932114594167 -0.011612358107845737 0 -0.021490338036705491 -0.011555436107355748 0 -0.021499932114594167 -0.011612358107845737 0 -0.021467272966312866 -0.01167979597761268 0 -0.021499932114594167 -0.011612358107845737 0 -0.021467272966312866 -0.01167979597761268 0 -0.021487362424589207 -0.011718475490153035 0 -0.021490338036705491 -0.011555436107355748 0 -0.021467272966312866 -0.01167979597761268 0 -0.02143046659727834 -0.011735230697020427 0 -0.021467272966312866 -0.01167979597761268 0 -0.021415960081082465 -0.011748778791847965 0 -0.02143046659727834 -0.011735230697020427 0 -0.021467272966312866 -0.01167979597761268 0 -0.021415960081082465 -0.011748778791847965 0 -0.021487362424589207 -0.011718475490153035 0 -0.025388846885143083 -0.0093108045032641341 0 -0.024053092161349675 -0.010890139067428568 0 -0.021415960081082465 -0.011748778791847965 0 -0.021305687084466608 -0.011809669904550939 0 -0.021325921911848091 -0.011612439402389166 0 -0.021415960081082465 -0.011748778791847965 0 -0.021487362424589207 -0.011718475490153035 0 -0.021325921911848091 -0.011612439402389166 0 -0.021415960081082465 -0.011748778791847965 0 -0.021383999656727121 -0.011882111218465798 0 -0.021305687084466608 -0.011809669904550939 0 -0.021305687084466608 -0.011809669904550939 0 -0.021367576839435964 -0.012059365048490173 0 -0.02111096498090733 -0.011776547837043599 0 -0.021222928663148167 -0.012352845665671842 0 -0.02129276819816624 -0.012613997233140321 0 -0.021367576839435964 -0.012059365048490173 0 -0.021282286122584503 -0.012704344828312852 0 -0.02138869175724762 -0.012668311259156096 0 -0.021383999656727121 -0.011882111218465798 0 -0.021305687084466608 -0.011809669904550939 0 -0.021367576839435964 -0.012059365048490173 0 -0.021383999656727121 -0.011882111218465798 0 -0.021257618988779065 -0.011756761848996008 0 -0.021367576839435964 -0.012059365048490173 0 -0.021383999656727121 -0.011882111218465798 0 -0.02143046659727834 -0.011735230697020427 0 -0.021257618988779065 -0.011756761848996008 0 -0.021415960081082465 -0.011748778791847965 0 -0.021383999656727121 -0.011882111218465798 0 -0.02143046659727834 -0.011735230697020427 0 -0.021645268470230905 -0.011461912423397792 0 -0.021490338036705491 -0.011555436107355748 0 -0.021791936520021895 -0.011201965970319102 0 -0.021762493974109152 -0.011518345277812682 0 -0.021645268470230905 -0.011461912423397792 0 -0.021791936520021895 -0.011201965970319102 0 -0.028094474952711633 -0.010345336744047928 0 -0.032423272394861855 -0.0070757500150999825 0 -0.021490338036705491 -0.011555436107355748 0 -0.02143046659727834 -0.011735230697020427 0 -0.021257618988779065 -0.011756761848996008 0 -0.042096564102384833 -0.0010496922667998698 0 -0.041461653282227527 -0.0005216683162086364 0 -0.042833099547430885 -0.00068039505479830942 0 -0.039475590880240462 0.00072318308907962699 0 -0.032423272394861855 -0.0070757500150999825 0 -0.041340471513169413 -0.0013885403505327154 0 -0.042096564102384833 -0.0010496922667998698 0 -0.041461653282227527 -0.0005216683162086364 0 -0.032423272394861855 -0.0070757500150999825 0 -0.031913948527117229 -0.01006792157834358 0 -0.021224636100171019 -0.013605675117996223 0 -0.021282286122584503 -0.012704344828312852 0 -0.021802705707482481 -0.01295998884777338 0 -0.021224636100171019 -0.013605675117996223 0 -0.021988872824487044 -0.013013672226674688 0 -0.021802705707482481 -0.01295998884777338 0 -0.032423272394861855 -0.0070757500150999825 0 -0.030321076468660873 -0.010232067655626098 0 -0.021257618988779065 -0.011756761848996008 0 -0.021367576839435964 -0.012059365048490173 0 -0.021282286122584503 -0.012704344828312852 0 -0.043690689484759522 0.00036559876642072465 0 -0.042650267144244997 0.00065647311577561032 0 -0.042833099547430885 -0.00068039505479830942 0 -0.035039342077158447 -0.0093789689588007139 0 -0.031913948527117229 -0.01006792157834358 0 -0.031913948527117229 -0.01006792157834358 0 -0.031542903984915556 -0.010024371337780785 0 -0.041461653282227527 -0.0005216683162086364 0 -0.042650267144244997 0.00065647311577561032 0 -0.042833099547430885 -0.00068039505479830942 0 -0.023487815457954635 -0.0085817758731001129 0 -0.023519928941234898 -0.0085099779455406026 0 -0.023461372278509481 -0.0083528310046763945 0 -0.023487815457954635 -0.0085817758731001129 0 -0.023461372278509481 -0.0083528310046763945 0 -0.023326936437317369 -0.0082601945445097101 0 -0.023487815457954635 -0.0085817758731001129 0 -0.023062832128094454 -0.0088100002127025068 0 -0.02353277775333695 -0.0089455941736910592 0 -0.023487815457954635 -0.0085817758731001129 0 -0.023519928941234898 -0.0085099779455406026 0 -0.023522809944222241 -0.0087357906868501967 0 -0.023519928941234898 -0.0085099779455406026 0 -0.023505592944992808 -0.0086697938819024992 0 -0.023522809944222241 -0.0087357906868501967 0 -0.02353682680229513 -0.0084312486413927207 0 -0.023519928941234898 -0.0085099779455406026 0 -0.023505592944992808 -0.0086697938819024992 0 -0.02353682680229513 -0.0084312486413927207 0 -0.023519928941234898 -0.0085099779455406026 0 -0.023524635294876237 -0.0082778227928209918 0 -0.023519928941234898 -0.0085099779455406026 0 -0.023524635294876237 -0.0082778227928209918 0 -0.023461372278509481 -0.0083528310046763945 0 -0.023465570517095229 -0.0080384281814030647 0 -0.023594602909293085 -0.0080201516580505686 0 -0.023524635294876237 -0.0082778227928209918 0 -0.02353682680229513 -0.0084312486413927207 0 -0.023524635294876237 -0.0082778227928209918 0 -0.023559623164283259 -0.0082197084022461158 0 -0.023594602909293085 -0.0080201516580505686 0 -0.023524635294876237 -0.0082778227928209918 0 -0.023559623164283259 -0.0082197084022461158 0 -0.023465570517095229 -0.0080384281814030647 0 -0.023524635294876237 -0.0082778227928209918 0 -0.023461372278509481 -0.0083528310046763945 0 -0.023199136119143569 -0.0079794233115466264 0 -0.023465570517095229 -0.0080384281814030647 0 -0.023326936437317369 -0.0082601945445097101 0 -0.023465570517095229 -0.0080384281814030647 0 -0.023461372278509481 -0.0083528310046763945 0 -0.023326936437317369 -0.0082601945445097101 0 -0.030553795831691648 0.0037557851203784513 0 -0.031416975124042353 -0.00049590323842977919 0 -0.023199136119143569 -0.0079794233115466264 0 -0.023326936437317369 -0.0082601945445097101 0 -0.023024544935501236 -0.0083683560629204765 0 -0.03503812748298548 0.0044796779723470116 0 -0.031416975124042353 -0.00049590323842977919 0 -0.034915367837069188 0.022085582630947995 0 -0.041929764413367265 0.02483474069313624 0 -0.038756725494443041 0.032017945059823381 0 -0.048270137680333655 0.028968765513183052 0 -0.041929764413367265 0.02483474069313624 0 -0.038756725494443041 0.032017945059823381 0 -0.021500281198536336 -0.011570173537573119 0 -0.021499932114594167 -0.011612358107845737 0 -0.02159132437514253 -0.011552733099932398 0 -0.031416975124042353 -0.00049590323842977919 0 -0.025388846885143083 -0.0093108045032641341 0 -0.021499932114594167 -0.011612358107845737 0 -0.02159132437514253 -0.011552733099932398 0 -0.021487362424589207 -0.011718475490153035 0 -0.027269308466603904 -0.0018012770247068596 0 -0.031416975124042353 -0.00049590323842977919 0 -0.02239844774853365 -0.008123059176822248 0 -0.023062832128094454 -0.0088100002127025068 0 -0.022702641857816796 -0.0090992305879753956 0 -0.023487815457954635 -0.0085817758731001129 0 -0.02239844774853365 -0.008123059176822248 0 -0.023062832128094454 -0.0088100002127025068 0 -0.023487815457954635 -0.0085817758731001129 0 -0.023326936437317369 -0.0082601945445097101 0 -0.023024544935501236 -0.0083683560629204765 0 -0.023062832128094454 -0.0088100002127025068 0 -0.022702641857816796 -0.0090992305879753956 0 -0.023133359799139962 -0.0093103934878900566 0 -0.022702641857816796 -0.0090992305879753956 0 -0.021746350971389078 -0.0095294100763358199 0 -0.02305773518591402 -0.010013362514290136 0 -0.022702641857816796 -0.0090992305879753956 0 -0.023133359799139962 -0.0093103934878900566 0 -0.02305773518591402 -0.010013362514290136 0 -0.02239844774853365 -0.008123059176822248 0 -0.022702641857816796 -0.0090992305879753956 0 -0.021746350971389078 -0.0095294100763358199 0 -0.021746350971389078 -0.0095294100763358199 0 -0.022274117469711689 -0.010652772734145378 0 -0.02305773518591402 -0.010013362514290136 0 -0.021746350971389078 -0.0095294100763358199 0 -0.022274117469711689 -0.010652772734145378 0 -0.021325921911848091 -0.011612439402389166 0 -0.023133359799139962 -0.0093103934878900566 0 -0.02305773518591402 -0.010013362514290136 0 -0.023757119549503453 -0.010216356360767427 0 -0.022274117469711689 -0.010652772734145378 0 -0.02305773518591402 -0.010013362514290136 0 -0.023142793138223698 -0.011137688074316974 0 -0.02305773518591402 -0.010013362514290136 0 -0.024123498804089261 -0.010451516209290678 0 -0.023142793138223698 -0.011137688074316974 0 -0.022553831671012416 -0.011407560702748409 0 -0.022425581399329139 -0.011489936674399286 0 -0.023133359799139962 -0.0093103934878900566 0 -0.023757119549503453 -0.010216356360767427 0 -0.02353277775333695 -0.0089455941736910592 0 -0.022425581399329139 -0.011489936674399286 0 -0.022547890116686169 -0.010612954435390246 0 -0.02349995068968725 -0.0087838367022468316 0 -0.02353277775333695 -0.0089455941736910592 0 -0.023476024105069947 -0.0087973295948177137 0 -0.023487815457954635 -0.0085817758731001129 0 -0.02353277775333695 -0.0089455941736910592 0 -0.023522809944222241 -0.0087357906868501967 0 -0.02353277775333695 -0.0089455941736910592 0 -0.023522809944222241 -0.0087357906868501967 0 -0.023476024105069947 -0.0087973295948177137 0 -0.023062832128094454 -0.0088100002127025068 0 -0.023133359799139962 -0.0093103934878900566 0 -0.02353277775333695 -0.0089455941736910592 0 -0.023491487898475719 -0.0087647972040045177 0 -0.023505592944992808 -0.0086697938819024992 0 -0.023476024105069947 -0.0087973295948177137 0 -0.023505592944992808 -0.0086697938819024992 0 -0.023522809944222241 -0.0087357906868501967 0 -0.023476024105069947 -0.0087973295948177137 0 -0.023491487898475719 -0.0087647972040045177 0 -0.023476024105069947 -0.0087973295948177137 0 -0.023463940554976016 -0.0088582084526688427 0 -0.02349995068968725 -0.0087838367022468316 0 -0.023476024105069947 -0.0087973295948177137 0 -0.023463940554976016 -0.0088582084526688427 0 -0.022425581399329139 -0.011489936674399286 0 -0.022395243698483395 -0.012406309355211821 0 -0.022292577784423631 -0.013523726456309502 0 -0.022278142810790203 -0.01353440879530288 0 -0.022277040848888721 -0.01351428383166316 0 -0.022307524038188566 -0.013539070528550872 0 -0.022292577784423631 -0.013523726456309502 0 -0.022278142810790203 -0.01353440879530288 0 -0.022408479958026029 -0.014730793370558617 0 -0.021663647927606576 -0.015011841378014217 0 -0.022292577784423631 -0.013523726456309502 0 -0.022306963910047703 -0.013507166929436244 0 -0.022277040848888721 -0.01351428383166316 0 -0.024125633197942687 -0.011915057811899457 0 -0.023539152442953355 -0.012936493859159438 0 -0.024131582895942666 -0.013214783689894481 0 -0.022292577784423631 -0.013523726456309502 0 -0.022306650285459025 -0.013523405768848522 0 -0.022306963910047703 -0.013507166929436244 0 -0.022529767864701691 -0.01293044284104895 0 -0.022408479958026029 -0.014730793370558617 0 -0.022425581399329139 -0.011489936674399286 0 -0.022529767864701691 -0.01293044284104895 0 -0.024123498804089261 -0.010451516209290678 0 -0.024125633197942687 -0.011915057811899457 0 -0.023142793138223698 -0.011137688074316974 0 -0.022307524038188566 -0.013539070528550872 0 -0.022292577784423631 -0.013523726456309502 0 -0.022306650285459025 -0.013523405768848522 0 -0.022274117469711689 -0.010652772734145378 0 -0.023142793138223698 -0.011137688074316974 0 -0.022332077605488877 -0.011587318973886073 0 -0.023142793138223698 -0.011137688074316974 0 -0.022332077605488877 -0.011587318973886073 0 -0.023112231851572761 -0.01218443593390865 0 -0.022332077605488877 -0.011587318973886073 0 -0.022526996321474729 -0.012445483234433277 0 -0.023112231851572761 -0.01218443593390865 0 -0.024125633197942687 -0.011915057811899457 0 -0.023142793138223698 -0.011137688074316974 0 -0.023112231851572761 -0.01218443593390865 0 -0.022274117469711689 -0.010652772734145378 0 -0.022332077605488877 -0.011587318973886073 0 -0.021325921911848091 -0.011612439402389166 0 -0.022332077605488877 -0.011587318973886073 0 -0.021855395213526932 -0.01212408723871481 0 -0.021325921911848091 -0.011612439402389166 0 -0.022332077605488877 -0.011587318973886073 0 -0.021855395213526932 -0.01212408723871481 0 -0.022526996321474729 -0.012445483234433277 0 -0.021855395213526932 -0.01212408723871481 0 -0.022082396149914082 -0.012615431553704953 0 -0.021660599312676859 -0.012681472396121081 0 -0.021855395213526932 -0.01212408723871481 0 -0.022082396149914082 -0.012615431553704953 0 -0.022526996321474729 -0.012445483234433277 0 -0.022082396149914082 -0.012615431553704953 0 -0.022526996321474729 -0.012445483234433277 0 -0.022419629740903241 -0.013178470497020136 0 -0.022082396149914082 -0.012615431553704953 0 -0.022012325488288673 -0.013109335527956558 0 -0.022419629740903241 -0.013178470497020136 0 -0.022526996321474729 -0.012445483234433277 0 -0.022888664195009019 -0.012925824841349428 0 -0.022419629740903241 -0.013178470497020136 0 -0.022082396149914082 -0.012615431553704953 0 -0.022012325488288673 -0.013109335527956558 0 -0.021660599312676859 -0.012681472396121081 0 -0.022012325488288673 -0.013109335527956558 0 -0.021680091275962023 -0.013402834183013234 0 -0.021660599312676859 -0.012681472396121081 0 -0.024125633197942687 -0.011915057811899457 0 -0.023112231851572761 -0.01218443593390865 0 -0.023539152442953355 -0.012936493859159438 0 -0.022526996321474729 -0.012445483234433277 0 -0.023112231851572761 -0.01218443593390865 0 -0.022888664195009019 -0.012925824841349428 0 -0.022888664195009019 -0.012925824841349428 0 -0.023539152442953355 -0.012936493859159438 0 -0.022969643062854529 -0.013487695992678832 0 -0.023112231851572761 -0.01218443593390865 0 -0.022888664195009019 -0.012925824841349428 0 -0.023539152442953355 -0.012936493859159438 0 -0.023539152442953355 -0.012936493859159438 0 -0.022969643062854529 -0.013487695992678832 0 -0.023009937947535451 -0.013602664337830823 0 -0.022646469502372174 -0.014811343017422776 0 -0.022408479958026029 -0.014730793370558617 0 -0.023539152442953355 -0.012936493859159438 0 -0.023009937947535451 -0.013602664337830823 0 -0.024131582895942666 -0.013214783689894481 0 -0.022678573453872218 -0.013358772117419688 0 -0.022969643062854529 -0.013487695992678832 0 -0.022428399359309001 -0.013868970767407594 0 -0.022888664195009019 -0.012925824841349428 0 -0.022678573453872218 -0.013358772117419688 0 -0.022969643062854529 -0.013487695992678832 0 -0.022969643062854529 -0.013487695992678832 0 -0.023012143109820846 -0.013602809116291881 0 -0.022428399359309001 -0.013868970767407594 0 -0.022888664195009019 -0.012925824841349428 0 -0.022678573453872218 -0.013358772117419688 0 -0.022419629740903241 -0.013178470497020136 0 -0.022645283532498863 -0.014804745954570382 0 -0.022646469502372174 -0.014811343017422776 0 -0.023164709456872389 -0.013654318510844971 0 -0.022428399359309001 -0.013868970767407594 0 -0.022647563201139958 -0.014770277234038877 0 -0.022646469502372174 -0.014811343017422776 0 -0.022675013688120301 -0.014757277020879761 0 -0.022012325488288673 -0.013109335527956558 0 -0.021680091275962023 -0.013402834183013234 0 -0.022428399359309001 -0.013868970767407594 0 -0.022012325488288673 -0.013109335527956558 0 -0.022419629740903241 -0.013178470497020136 0 -0.022428399359309001 -0.013868970767407594 0 -0.022678573453872218 -0.013358772117419688 0 -0.022419629740903241 -0.013178470497020136 0 -0.022428399359309001 -0.013868970767407594 0 -0.021680091275962023 -0.013402834183013234 0 -0.022428399359309001 -0.013868970767407594 0 -0.021545601906736038 -0.014504462396772975 0 -0.021884496994244239 -0.014362367863780418 0 -0.02211415056309661 -0.014959353224289434 0 -0.022647563201139958 -0.014770277234038877 0 -0.021545601906736038 -0.014504462396772975 0 -0.022368930748055359 -0.016079429820717705 0 -0.022428399359309001 -0.013868970767407594 0 -0.022647563201139958 -0.014770277234038877 0 -0.021545601906736038 -0.014504462396772975 0 -0.022646469502372174 -0.014811343017422776 0 -0.02287515333144673 -0.01567250819669502 0 -0.022337657685867818 -0.015056932004787334 0 -0.022819473690285925 -0.015658243644334893 0 -0.022588194037114269 -0.015740022586850342 0 -0.023164709456872389 -0.013654318510844971 0 -0.022647563201139958 -0.014770277234038877 0 -0.02368961021133242 -0.015635488880194334 0 -0.022578634865385052 -0.016515692054757867 0 -0.021843054109264196 -0.017504460352237065 0 -0.02155867656576909 -0.016701894195827245 0 -0.021843054109264196 -0.017504460352237065 0 -0.022751737961557487 -0.017956896285048447 0 -0.021402503677802148 -0.018562245704464998 0 -0.022578634865385052 -0.016515692054757867 0 -0.021843054109264196 -0.017504460352237065 0 -0.022751737961557487 -0.017956896285048447 0 -0.022687280451889336 -0.01608237871391743 0 -0.022408479958026029 -0.014730793370558617 0 -0.022337657685867818 -0.015056932004787334 0 -0.022819473690285925 -0.015658243644334893 0 -0.022799165357283473 -0.014893719848104527 0 -0.023561124262908947 -0.012758752348937499 0 -0.022206631065678734 -0.011426860721620836 0 -0.022046311427815227 -0.012693888858125118 0 -0.022206631065678734 -0.011426860721620836 0 -0.022046311427815227 -0.012693888858125118 0 -0.021559560235889872 -0.012493916338237664 0 -0.023561124262908947 -0.012758752348937499 0 -0.022064832579827508 -0.013202308938964971 0 -0.022046311427815227 -0.012693888858125118 0 -0.026779017890406653 -0.013280324050990791 0 -0.031913948527117229 -0.01006792157834358 0 -0.021802705707482481 -0.01295998884777338 0 -0.022046311427815227 -0.012693888858125118 0 -0.021539507219001761 -0.01271135987972364 0 -0.022064832579827508 -0.013202308938964971 0 -0.021802705707482481 -0.01295998884777338 0 -0.022046311427815227 -0.012693888858125118 0 -0.022046311427815227 -0.012693888858125118 0 -0.021559560235889872 -0.012493916338237664 0 -0.021539507219001761 -0.01271135987972364 0 -0.021282286122584503 -0.012704344828312852 0 -0.021802705707482481 -0.01295998884777338 0 -0.021539507219001761 -0.01271135987972364 0 -0.021282286122584503 -0.012704344828312852 0 -0.021539507219001761 -0.01271135987972364 0 -0.021303292225223838 -0.01269606525073865 0 -0.021559560235889872 -0.012493916338237664 0 -0.021539507219001761 -0.01271135987972364 0 -0.021303292225223838 -0.01269606525073865 0 -0.021559560235889872 -0.012493916338237664 0 -0.021303292225223838 -0.01269606525073865 0 -0.021068023006803396 -0.012919090902473491 0 -0.021846991925196985 -0.013909533526379936 0 -0.021491187158692616 -0.013586045956384364 0 -0.019106675471303489 -0.013467423426436304 0 -0.021068023006803396 -0.012919090902473491 0 -0.020087420041611362 -0.014199592573636444 0 -0.022206631065678734 -0.011426860721620836 0 -0.021559560235889872 -0.012493916338237664 0 -0.021068023006803396 -0.012919090902473491 0 -0.021068023006803396 -0.012919090902473491 0 -0.02138869175724762 -0.012668311259156096 0 -0.02172715864584707 -0.013256269715707345 0 -0.02129276819816624 -0.012613997233140321 0 -0.021524966950542151 -0.013354523603766842 0 -0.021303292225223838 -0.01269606525073865 0 -0.021068023006803396 -0.012919090902473491 0 -0.02138869175724762 -0.012668311259156096 0 -0.021282286122584503 -0.012704344828312852 0 -0.021303292225223838 -0.01269606525073865 0 -0.02138869175724762 -0.012668311259156096 0 -0.021305687084466608 -0.011809669904550939 0 -0.02111096498090733 -0.011776547837043599 0 -0.021325921911848091 -0.011612439402389166 0 -0.02111096498090733 -0.011776547837043599 0 -0.021325921911848091 -0.011612439402389166 0 -0.021344989651477457 -0.012147203563128839 0 -0.021855395213526932 -0.01212408723871481 0 -0.021325921911848091 -0.011612439402389166 0 -0.021344989651477457 -0.012147203563128839 0 -0.02111096498090733 -0.011776547837043599 0 -0.021344989651477457 -0.012147203563128839 0 -0.021032266624121346 -0.012852762133103421 0 -0.021344989651477457 -0.012147203563128839 0 -0.021032266624121346 -0.012852762133103421 0 -0.021660599312676859 -0.012681472396121081 0 -0.021855395213526932 -0.01212408723871481 0 -0.021344989651477457 -0.012147203563128839 0 -0.021660599312676859 -0.012681472396121081 0 -0.021680091275962023 -0.013402834183013234 0 -0.021032266624121346 -0.012852762133103421 0 -0.021660599312676859 -0.012681472396121081 0 -0.021680091275962023 -0.013402834183013234 0 -0.021032266624121346 -0.012852762133103421 0 -0.021545601906736038 -0.014504462396772975 0 -0.02172715864584707 -0.013256269715707345 0 -0.022200352009799276 -0.014776828080345113 0 -0.021136429722458879 -0.014255138882730476 0 -0.021524966950542151 -0.013354523603766842 0 -0.021884496994244239 -0.014362367863780418 0 -0.022200352009799276 -0.014776828080345113 0 -0.021402423067055427 -0.015177858401334279 0 -0.021136429722458879 -0.014255138882730476 0 -0.022200352009799276 -0.014776828080345113 0 -0.021402423067055427 -0.015177858401334279 0 -0.021880253623514812 -0.015640385865943102 0 -0.021402423067055427 -0.015177858401334279 0 -0.021136429722458879 -0.014255138882730476 0 -0.020183801115629379 -0.01537330017524585 0 -0.021068023006803396 -0.012919090902473491 0 -0.02172715864584707 -0.013256269715707345 0 -0.021136429722458879 -0.014255138882730476 0 -0.021068023006803396 -0.012919090902473491 0 -0.021136429722458879 -0.014255138882730476 0 -0.020087420041611362 -0.014199592573636444 0 -0.021136429722458879 -0.014255138882730476 0 -0.020087420041611362 -0.014199592573636444 0 -0.020183801115629379 -0.01537330017524585 0 -0.020087420041611362 -0.014199592573636444 0 -0.020183801115629379 -0.01537330017524585 0 -0.018996804268772711 -0.014783134751933586 0 -0.01978864919564725 -0.015311776988803257 0 -0.018996804268772711 -0.014783134751933586 0 -0.01898859830282704 -0.015993669778868919 0 -0.020160374897620879 -0.015490707038252068 0 -0.019669758109067743 -0.015200737245893835 0 -0.019106675471303489 -0.013467423426436304 0 -0.020087420041611362 -0.014199592573636444 0 -0.018996804268772711 -0.014783134751933586 0 -0.018535424208173557 -0.014475336007743681 0 -0.019106675471303489 -0.013467423426436304 0 -0.018996804268772711 -0.014783134751933586 0 -0.018363439076249703 -0.016667657898568652 0 -0.01898859830282704 -0.015993669778868919 0 -0.019803438979421432 -0.016750691385790422 0 -0.018636967471573066 -0.015672163278919442 0 -0.018996804268772711 -0.014783134751933586 0 -0.01898859830282704 -0.015993669778868919 0 -0.01978864919564725 -0.015311776988803257 0 -0.01898859830282704 -0.015993669778868919 0 -0.019803438979421432 -0.016750691385790422 0 -0.019803438979421432 -0.016750691385790422 0 -0.020962970775465412 -0.015885856658280188 0 -0.021275383305347086 -0.017011936857096406 0 -0.020160374897620879 -0.015490707038252068 0 -0.021090187381116451 -0.016058180605228942 0 -0.021402423067055427 -0.015177858401334279 0 -0.020183801115629379 -0.01537330017524585 0 -0.021256831907523015 -0.016019307554099489 0 -0.01978864919564725 -0.015311776988803257 0 -0.019803438979421432 -0.016750691385790422 0 -0.020962970775465412 -0.015885856658280188 0 -0.021256831907523015 -0.016019307554099489 0 -0.021880253623514812 -0.015640385865943102 0 -0.022088994086440713 -0.016747649120950895 0 -0.021402423067055427 -0.015177858401334279 0 -0.021256831907523015 -0.016019307554099489 0 -0.021880253623514812 -0.015640385865943102 0 -0.021275383305347086 -0.017011936857096406 0 -0.02227844279944094 -0.016806839796570432 0 -0.022406868394699939 -0.018058608134092047 0 -0.020962970775465412 -0.015885856658280188 0 -0.021275383305347086 -0.017011936857096406 0 -0.02227844279944094 -0.016806839796570432 0 -0.021090187381116451 -0.016058180605228942 0 -0.022004533726322811 -0.0166534595662036 0 -0.021275383305347086 -0.017011936857096406 0 -0.021278439656594671 -0.01816458629921712 0 -0.022406868394699939 -0.018058608134092047 0 -0.022082648603646473 -0.018921979658358092 0 -0.021822744135813119 -0.020188119320696585 0 -0.022602395823181777 -0.019286575226693067 0 -0.022082648603646473 -0.018921979658358092 0 -0.021278439656594671 -0.01816458629921712 0 -0.021822744135813119 -0.020188119320696585 0 -0.022082648603646473 -0.018921979658358092 0 -0.021278439656594671 -0.01816458629921712 0 -0.022406868394699939 -0.018058608134092047 0 -0.021278439656594671 -0.01816458629921712 0 -0.018961857268017426 -0.01795105193408042 0 -0.020176563971110038 -0.020491263771363656 0 -0.021278439656594671 -0.01816458629921712 0 -0.020176563971110038 -0.020491263771363656 0 -0.021822744135813119 -0.020188119320696585 0 -0.019803438979421432 -0.016750691385790422 0 -0.021275383305347086 -0.017011936857096406 0 -0.021278439656594671 -0.01816458629921712 0 -0.019803438979421432 -0.016750691385790422 0 -0.021278439656594671 -0.01816458629921712 0 -0.018961857268017426 -0.01795105193408042 0 -0.014442316269295369 -0.018838916832828116 0 -0.018961857268017426 -0.01795105193408042 0 -0.01688396210024825 -0.021429965608277163 0 -0.014442316269295369 -0.018838916832828116 0 -0.014732668389852788 -0.013622115418515407 0 -0.018961857268017426 -0.01795105193408042 0 -0.018363439076249703 -0.016667657898568652 0 -0.019803438979421432 -0.016750691385790422 0 -0.018961857268017426 -0.01795105193408042 0 -0.020274399713990011 -0.015001209609781973 0 -0.01966922709104903 -0.015499985058159263 0 -0.023828320037967473 -0.017411474707398615 0 -0.02368961021133242 -0.015635488880194334 0 -0.023451879371136509 -0.017040092901314301 0 -0.023451879371136509 -0.017040092901314301 0 -0.023105393713425779 -0.017654139173943845 0 -0.023687165670822428 -0.017750469986656543 0 -0.023828320037967473 -0.017411474707398615 0 -0.023451879371136509 -0.017040092901314301 0 -0.023687165670822428 -0.017750469986656543 0 -0.022956848338070691 -0.01657397482659715 0 -0.022964601857456319 -0.016612967045562463 0 -0.022233440046493903 -0.016132569603403306 0 -0.022730166746278119 -0.016742975909443465 0 -0.022176895983969533 -0.015886165968480186 0 -0.02211020790116023 -0.016269812076839252 0 -0.022233440046493903 -0.016132569603403306 0 -0.022730166746278119 -0.016742975909443465 0 -0.022578634865385052 -0.016515692054757867 0 -0.022233440046493903 -0.016132569603403306 0 -0.02155867656576909 -0.016701894195827245 0 -0.022956848338070691 -0.01657397482659715 0 -0.02287515333144673 -0.01567250819669502 0 -0.022819473690285925 -0.015658243644334893 0 -0.022840779224873837 -0.016424968235861759 0 -0.022588194037114269 -0.015740022586850342 0 -0.022687280451889336 -0.01608237871391743 0 -0.022956848338070691 -0.01657397482659715 0 -0.022578634865385052 -0.016515692054757867 0 -0.02211020790116023 -0.016269812076839252 0 -0.022233440046493903 -0.016132569603403306 0 -0.022647563201139958 -0.014770277234038877 0 -0.02368961021133242 -0.015635488880194334 0 -0.022368930748055359 -0.016079429820717705 0 -0.02368961021133242 -0.015635488880194334 0 -0.022368930748055359 -0.016079429820717705 0 -0.022900783617377317 -0.016660113294224278 0 -0.02368961021133242 -0.015635488880194334 0 -0.022900783617377317 -0.016660113294224278 0 -0.023451879371136509 -0.017040092901314301 0 -0.021880253623514812 -0.015640385865943102 0 -0.022368930748055359 -0.016079429820717705 0 -0.022088994086440713 -0.016747649120950895 0 -0.022200352009799276 -0.014776828080345113 0 -0.021880253623514812 -0.015640385865943102 0 -0.022368930748055359 -0.016079429820717705 0 -0.022004533726322811 -0.0166534595662036 0 -0.022481937743157175 -0.016976572554564442 0 -0.022088994086440713 -0.016747649120950895 0 -0.022900783617377317 -0.016660113294224278 0 -0.023105393713425779 -0.017654139173943845 0 -0.022368930748055359 -0.016079429820717705 0 -0.022088994086440713 -0.016747649120950895 0 -0.022900783617377317 -0.016660113294224278 0 -0.022900783617377317 -0.016660113294224278 0 -0.023451879371136509 -0.017040092901314301 0 -0.023105393713425779 -0.017654139173943845 0 -0.023105393713425779 -0.017654139173943845 0 -0.022976877777241354 -0.018586929826425673 0 -0.023318133597760131 -0.01821861613322347 0 -0.023105393713425779 -0.017654139173943845 0 -0.022406868394699939 -0.018058608134092047 0 -0.022976877777241354 -0.018586929826425673 0 -0.02227844279944094 -0.016806839796570432 0 -0.023105393713425779 -0.017654139173943845 0 -0.022406868394699939 -0.018058608134092047 0 -0.022406868394699939 -0.018058608134092047 0 -0.022976877777241354 -0.018586929826425673 0 -0.022602395823181777 -0.019286575226693067 0 -0.022082648603646473 -0.018921979658358092 0 -0.022406868394699939 -0.018058608134092047 0 -0.022602395823181777 -0.019286575226693067 0 -0.022976877777241354 -0.018586929826425673 0 -0.022602395823181777 -0.019286575226693067 0 -0.022934553736444225 -0.019463729895827231 0 -0.022976877777241354 -0.018586929826425673 0 -0.02320610644394212 -0.018787136377533847 0 -0.022934553736444225 -0.019463729895827231 0 -0.022976877777241354 -0.018586929826425673 0 -0.02320610644394212 -0.018787136377533847 0 -0.023318133597760131 -0.01821861613322347 0 -0.02320610644394212 -0.018787136377533847 0 -0.023092598947205209 -0.018111654928790012 0 -0.02326331815593009 -0.019035724498101526 0 -0.02320610644394212 -0.018787136377533847 0 -0.023318133597760131 -0.01821861613322347 0 -0.023092598947205209 -0.018111654928790012 0 -0.023812576704137233 -0.017675030433107936 0 -0.023687165670822428 -0.017750469986656543 0 -0.023092598947205209 -0.018111654928790012 0 -0.023105393713425779 -0.017654139173943845 0 -0.023318133597760131 -0.01821861613322347 0 -0.023687165670822428 -0.017750469986656543 0 -0.022956848338070691 -0.01657397482659715 0 -0.023076922967325539 -0.017115955983563878 0 -0.023318133597760131 -0.01821861613322347 0 -0.023687165670822428 -0.017750469986656543 0 -0.023092598947205209 -0.018111654928790012 0 -0.02211020790116023 -0.016269812076839252 0 -0.022730166746278119 -0.016742975909443465 0 -0.023092598947205209 -0.018111654928790012 0 -0.022730166746278119 -0.016742975909443465 0 -0.023092598947205209 -0.018111654928790012 0 -0.023727319502984297 -0.017657792463678278 0 -0.023092598947205209 -0.018111654928790012 0 -0.023727319502984297 -0.017657792463678278 0 -0.023535748152549045 -0.018565937845903106 0 -0.022145043374822738 -0.013628773995690627 0 -0.021050725706439032 -0.012463558899358473 0 -0.022066102862962286 -0.011533850922938032 0 -0.022432272038362653 -0.01644337183458874 0 -0.022230587701922717 -0.017956726587874918 0 -0.023727319502984297 -0.017657792463678278 0 -0.024010800078580277 -0.019044430008641554 0 -0.023535748152549045 -0.018565937845903106 0 -0.022145043374822738 -0.013628773995690627 0 -0.021050725706439032 -0.012463558899358473 0 -0.020937679796587484 -0.013563829378997456 0 -0.019904349533320518 -0.01327470314729793 0 -0.020937679796587484 -0.013563829378997456 0 -0.020686702861295422 -0.014705300140659053 0 -0.021050725706439032 -0.012463558899358473 0 -0.019904349533320518 -0.01327470314729793 0 -0.019914636771658022 -0.011816194070202983 0 -0.021050725706439032 -0.012463558899358473 0 -0.019904349533320518 -0.01327470314729793 0 -0.020937679796587484 -0.013563829378997456 0 -0.020686702861295422 -0.014705300140659053 0 -0.019249298666532164 -0.014444499228544528 0 -0.019823590164478464 -0.015632369455027363 0 -0.019904349533320518 -0.01327470314729793 0 -0.020686702861295422 -0.014705300140659053 0 -0.019249298666532164 -0.014444499228544528 0 -0.022730166746278119 -0.016742975909443465 0 -0.023727319502984297 -0.017657792463678278 0 -0.022176895983969533 -0.015886165968480186 0 -0.022432272038362653 -0.01644337183458874 0 -0.022431718501474296 -0.016328575984740166 0 -0.022145043374822738 -0.013628773995690627 0 -0.020937679796587484 -0.013563829378997456 0 -0.020686702861295422 -0.014705300140659053 0 -0.022145043374822738 -0.013628773995690627 0 -0.020686702861295422 -0.014705300140659053 0 -0.022176895983969533 -0.015886165968480186 0 -0.017326844234215835 -0.012732582538629444 0 -0.017736271640098857 -0.0142865583424458 0 -0.016212408616062192 -0.013454908287681403 0 -0.017326844234215835 -0.012732582538629444 0 -0.018665385395746241 -0.01352006124279382 0 -0.01872508702806143 -0.012342285332118043 0 -0.017326844234215835 -0.012732582538629444 0 -0.018665385395746241 -0.01352006124279382 0 -0.017736271640098857 -0.0142865583424458 0 -0.019904349533320518 -0.01327470314729793 0 -0.01872508702806143 -0.012342285332118043 0 -0.019914636771658022 -0.011816194070202983 0 -0.019904349533320518 -0.01327470314729793 0 -0.018665385395746241 -0.01352006124279382 0 -0.01872508702806143 -0.012342285332118043 0 -0.019904349533320518 -0.01327470314729793 0 -0.018665385395746241 -0.01352006124279382 0 -0.019249298666532164 -0.014444499228544528 0 -0.018648286587888623 -0.014994579151825921 0 -0.019249298666532164 -0.014444499228544528 0 -0.017736271640098857 -0.0142865583424458 0 -0.018665385395746241 -0.01352006124279382 0 -0.019249298666532164 -0.014444499228544528 0 -0.017736271640098857 -0.0142865583424458 0 -0.018648286587888623 -0.014994579151825921 0 -0.019249298666532164 -0.014444499228544528 0 -0.019823590164478464 -0.015632369455027363 0 -0.017736271640098857 -0.0142865583424458 0 -0.017740191352502235 -0.015563335621496492 0 -0.016064424100822001 -0.015214626107842499 0 -0.018648286587888623 -0.014994579151825921 0 -0.017736271640098857 -0.0142865583424458 0 -0.017740191352502235 -0.015563335621496492 0 -0.017736271640098857 -0.0142865583424458 0 -0.015875117879709872 -0.014523152748304884 0 -0.016212408616062192 -0.013454908287681403 0 -0.018704507622262081 -0.01563315882045441 0 -0.018889537844879577 -0.015303454607066501 0 -0.019068754931505991 -0.015676729742975411 0 -0.018889537844879577 -0.015303454607066501 0 -0.019823590164478464 -0.015632369455027363 0 -0.019068754931505991 -0.015676729742975411 0 -0.017659359696360424 -0.015244035487851118 0 -0.018510216473404589 -0.015416756820166881 0 -0.018648286587888623 -0.014994579151825921 0 -0.017740191352502235 -0.015563335621496492 0 -0.019823590164478464 -0.015632369455027363 0 -0.019823590164478464 -0.015632369455027363 0 -0.019012676040832371 -0.015922752232540714 0 -0.019068754931505991 -0.015676729742975411 0 -0.019823590164478464 -0.015632369455027363 0 -0.019012676040832371 -0.015922752232540714 0 -0.020212130978565154 -0.016524939210844709 0 -0.018704507622262081 -0.01563315882045441 0 -0.019012676040832371 -0.015922752232540714 0 -0.019068754931505991 -0.015676729742975411 0 -0.016829257527370023 -0.015321224093064616 0 -0.017497739215767652 -0.015662131211898248 0 -0.017366819140774346 -0.013855933457918477 0 -0.019012676040832371 -0.015922752232540714 0 -0.017080056364553575 -0.015766599383402143 0 -0.020686702861295422 -0.014705300140659053 0 -0.022176895983969533 -0.015886165968480186 0 -0.021007203782369779 -0.016203710747036922 0 -0.022233440046493903 -0.016132569603403306 0 -0.022176895983969533 -0.015886165968480186 0 -0.021007203782369779 -0.016203710747036922 0 -0.020686702861295422 -0.014705300140659053 0 -0.019823590164478464 -0.015632369455027363 0 -0.021007203782369779 -0.016203710747036922 0 -0.019823590164478464 -0.015632369455027363 0 -0.021007203782369779 -0.016203710747036922 0 -0.020212130978565154 -0.016524939210844709 0 -0.022233440046493903 -0.016132569603403306 0 -0.021007203782369779 -0.016203710747036922 0 -0.02155867656576909 -0.016701894195827245 0 -0.021007203782369779 -0.016203710747036922 0 -0.02155867656576909 -0.016701894195827245 0 -0.020212130978565154 -0.016524939210844709 0 -0.021843054109264196 -0.017504460352237065 0 -0.02155867656576909 -0.016701894195827245 0 -0.02080211934711498 -0.017476153492679228 0 -0.02155867656576909 -0.016701894195827245 0 -0.02080211934711498 -0.017476153492679228 0 -0.020212130978565154 -0.016524939210844709 0 -0.021843054109264196 -0.017504460352237065 0 -0.02080211934711498 -0.017476153492679228 0 -0.021402503677802148 -0.018562245704464998 0 -0.02080211934711498 -0.017476153492679228 0 -0.019741650881548025 -0.017486881113951195 0 -0.019855134516109891 -0.01833822894752005 0 -0.02080211934711498 -0.017476153492679228 0 -0.019741650881548025 -0.017486881113951195 0 -0.020212130978565154 -0.016524939210844709 0 -0.019741650881548025 -0.017486881113951195 0 -0.020212130978565154 -0.016524939210844709 0 -0.018582990798257058 -0.016958948354160012 0 -0.019012676040832371 -0.015922752232540714 0 -0.020212130978565154 -0.016524939210844709 0 -0.018582990798257058 -0.016958948354160012 0 -0.019012676040832371 -0.015922752232540714 0 -0.018582990798257058 -0.016958948354160012 0 -0.017080056364553575 -0.015766599383402143 0 -0.018582990798257058 -0.016958948354160012 0 -0.016533001858176126 -0.017066168901880157 0 -0.017080056364553575 -0.015766599383402143 0 -0.018582990798257058 -0.016958948354160012 0 -0.017508653571813724 -0.017991650175865358 0 -0.016533001858176126 -0.017066168901880157 0 -0.018582990798257058 -0.016958948354160012 0 -0.018845182705112127 -0.018101803009331063 0 -0.017508653571813724 -0.017991650175865358 0 -0.019741650881548025 -0.017486881113951195 0 -0.018582990798257058 -0.016958948354160012 0 -0.018845182705112127 -0.018101803009331063 0 -0.019741650881548025 -0.017486881113951195 0 -0.018845182705112127 -0.018101803009331063 0 -0.019855134516109891 -0.01833822894752005 0 -0.018845182705112127 -0.018101803009331063 0 -0.017928280100185986 -0.018833441157584441 0 -0.019308020372794912 -0.019215410577884336 0 -0.018845182705112127 -0.018101803009331063 0 -0.019308020372794912 -0.019215410577884336 0 -0.019855134516109891 -0.01833822894752005 0 -0.019586006912201376 -0.019300511663647709 0 -0.019308020372794912 -0.019215410577884336 0 -0.019855134516109891 -0.01833822894752005 0 -0.018845182705112127 -0.018101803009331063 0 -0.017508653571813724 -0.017991650175865358 0 -0.017928280100185986 -0.018833441157584441 0 -0.017508653571813724 -0.017991650175865358 0 -0.017928280100185986 -0.018833441157584441 0 -0.016722017977780446 -0.019032760030678157 0 -0.017928280100185986 -0.018833441157584441 0 -0.017216939901162912 -0.019794324940912655 0 -0.016722017977780446 -0.019032760030678157 0 -0.021121182891489496 -0.014025021769174004 0 -0.021746212373301575 -0.014187672223372661 0 -0.017216939901162912 -0.019794324940912655 0 -0.019642688000381634 -0.019369848001272602 0 -0.019308020372794912 -0.019215410577884336 0 -0.023582203909661214 -0.0089558601012137088 0 -0.023671159849558244 -0.0091248581981608762 0 -0.023551251922630273 -0.0090233021070628312 0 -0.017928280100185986 -0.018833441157584441 0 -0.017216939901162912 -0.019794324940912655 0 -0.019308020372794912 -0.019215410577884336 0 -0.021746212373301575 -0.014187672223372661 0 -0.021726860386703527 -0.014211110197797515 0 -0.023516211569379216 -0.0088691933392864783 0 -0.023551251922630273 -0.0090233021070628312 0 -0.023463940554976016 -0.0088582084526688427 0 -0.021746212373301575 -0.014187672223372661 0 -0.022395243698483395 -0.012406309355211821 0 -0.023516211569379216 -0.0088691933392864783 0 -0.023582203909661214 -0.0089558601012137088 0 -0.023551251922630273 -0.0090233021070628312 0 -0.022243715255993182 -0.013525473729790868 0 -0.022278142810790203 -0.01353440879530288 0 -0.022277040848888721 -0.01351428383166316 0 -0.02080211934711498 -0.017476153492679228 0 -0.021402503677802148 -0.018562245704464998 0 -0.019855134516109891 -0.01833822894752005 0 -0.019586006912201376 -0.019300511663647709 0 -0.021402503677802148 -0.018562245704464998 0 -0.019855134516109891 -0.01833822894752005 0 -0.021746212373301575 -0.014187672223372661 0 -0.021663647927606576 -0.015011841378014217 0 -0.014182082362070466 -0.018165633268541006 0 -0.011443424032794129 -0.018619264483095886 0 -0.013158057291599891 -0.017486204540487396 0 -0.011419809979650489 -0.017925661720038687 0 -0.0098290747328514585 -0.017673714120458598 0 -0.014182082362070466 -0.018165633268541006 0 -0.013919916934915254 -0.019294796426722806 0 -0.01504934819494164 -0.019009360993894879 0 -0.011061505743619242 -0.016769528058925974 0 -0.012527584455086291 -0.019640721211617158 0 -0.010231666822614 -0.019071618881200361 0 -0.014182082362070466 -0.018165633268541006 0 -0.011061505743619242 -0.016769528058925974 0 -0.012527584455086291 -0.019640721211617158 0 -0.011023870256451461 -0.020700395896306113 0 -0.013880089828268476 -0.020471904274301567 0 -0.012527584455086291 -0.019640721211617158 0 -0.010252392381386964 -0.021321886294072598 0 -0.012527584455086291 -0.019640721211617158 0 -0.010231666822614 -0.019071618881200361 0 -0.013829497500520075 -0.018565172012955787 0 -0.013161402491925545 -0.019047429371667597 0 -0.013880089828268476 -0.020471904274301567 0 -0.012527584455086291 -0.019640721211617158 0 -0.013919916934915254 -0.019294796426722806 0 -0.014182082362070466 -0.018165633268541006 0 -0.012527584455086291 -0.019640721211617158 0 -0.013919916934915254 -0.019294796426722806 0 -0.013880089828268476 -0.020471904274301567 0 -0.013919916934915254 -0.019294796426722806 0 -0.01504934819494164 -0.019009360993894879 0 -0.016267875925972813 -0.019121672132515401 0 -0.013880089828268476 -0.020471904274301567 0 -0.015373865347479898 -0.01935225081854575 0 -0.013880089828268476 -0.020471904274301567 0 -0.015373865347479898 -0.01935225081854575 0 -0.01504934819494164 -0.019009360993894879 0 -0.016267875925972813 -0.019121672132515401 0 -0.015373865347479898 -0.01935225081854575 0 -0.016047550848808063 -0.019025816066207422 0 -0.015373865347479898 -0.01935225081854575 0 -0.01504934819494164 -0.019009360993894879 0 -0.016047550848808063 -0.019025816066207422 0 -0.01504934819494164 -0.019009360993894879 0 -0.016047550848808063 -0.019025816066207422 0 -0.016036807464987878 -0.018429418250935151 0 -0.016267875925972813 -0.019121672132515401 0 -0.017216939901162912 -0.019794324940912655 0 -0.016722017977780446 -0.019032760030678157 0 -0.021462091573492836 -0.013452189604381711 0 -0.021121182891489496 -0.014025021769174004 0 -0.016267875925972813 -0.019121672132515401 0 -0.016047550848808063 -0.019025816066207422 0 -0.016722017977780446 -0.019032760030678157 0 -0.017508653571813724 -0.017991650175865358 0 -0.016722017977780446 -0.019032760030678157 0 -0.016036807464987878 -0.018429418250935151 0 -0.016047550848808063 -0.019025816066207422 0 -0.016722017977780446 -0.019032760030678157 0 -0.016036807464987878 -0.018429418250935151 0 -0.014182082362070466 -0.018165633268541006 0 -0.016036807464987878 -0.018429418250935151 0 -0.014766954086670375 -0.017281159192236585 0 -0.014182082362070466 -0.018165633268541006 0 -0.01504934819494164 -0.019009360993894879 0 -0.016036807464987878 -0.018429418250935151 0 -0.016036807464987878 -0.018429418250935151 0 -0.014766954086670375 -0.017281159192236585 0 -0.016533001858176126 -0.017066168901880157 0 -0.014766954086670375 -0.017281159192236585 0 -0.016533001858176126 -0.017066168901880157 0 -0.015301046215748458 -0.016010671163311216 0 -0.017508653571813724 -0.017991650175865358 0 -0.016036807464987878 -0.018429418250935151 0 -0.016533001858176126 -0.017066168901880157 0 -0.016533001858176126 -0.017066168901880157 0 -0.017080056364553575 -0.015766599383402143 0 -0.015301046215748458 -0.016010671163311216 0 -0.017080056364553575 -0.015766599383402143 0 -0.015301046215748458 -0.016010671163311216 0 -0.015467911624855255 -0.014446344013107855 0 -0.014766954086670375 -0.017281159192236585 0 -0.015301046215748458 -0.016010671163311216 0 -0.013337014983839667 -0.016286113782429255 0 -0.015301046215748458 -0.016010671163311216 0 -0.013337014983839667 -0.016286113782429255 0 -0.014031904872843301 -0.015014456747391745 0 -0.013337014983839667 -0.016286113782429255 0 -0.01258484666565007 -0.014958816280815105 0 -0.014031904872843301 -0.015014456747391745 0 -0.014182082362070466 -0.018165633268541006 0 -0.014766954086670375 -0.017281159192236585 0 -0.013158057291599891 -0.017486204540487396 0 -0.014766954086670375 -0.017281159192236585 0 -0.013337014983839667 -0.016286113782429255 0 -0.013158057291599891 -0.017486204540487396 0 -0.013337014983839667 -0.016286113782429255 0 -0.013158057291599891 -0.017486204540487396 0 -0.011758234340360633 -0.017073136671408553 0 -0.011443424032794129 -0.018619264483095886 0 -0.011758234340360633 -0.017073136671408553 0 -0.0097717936191745822 -0.01697107931496044 0 -0.011443424032794129 -0.018619264483095886 0 -0.013158057291599891 -0.017486204540487396 0 -0.011758234340360633 -0.017073136671408553 0 -0.011758234340360633 -0.017073136671408553 0 -0.01164648286952338 -0.015882271237314869 0 -0.0097717936191745822 -0.01697107931496044 0 -0.013337014983839667 -0.016286113782429255 0 -0.011758234340360633 -0.017073136671408553 0 -0.01164648286952338 -0.015882271237314869 0 -0.013337014983839667 -0.016286113782429255 0 -0.01164648286952338 -0.015882271237314869 0 -0.01258484666565007 -0.014958816280815105 0 -0.01164648286952338 -0.015882271237314869 0 -0.01258484666565007 -0.014958816280815105 0 -0.010921263173256569 -0.01434289329877194 0 -0.012309296763569105 -0.015062467577600519 0 -0.011559769046075334 -0.014892580715112251 0 -0.011396745659834622 -0.015542874894703013 0 -0.01258484666565007 -0.014958816280815105 0 -0.013420136376266547 -0.013379771544026208 0 -0.010921263173256569 -0.01434289329877194 0 -0.012955121095205416 -0.014787141342567214 0 -0.010580972847129222 -0.015398550192357606 0 -0.010472909228153963 -0.014768272686613584 0 -0.010580972847129222 -0.015398550192357606 0 -0.01258484666565007 -0.014958816280815105 0 -0.014031904872843301 -0.015014456747391745 0 -0.013420136376266547 -0.013379771544026208 0 -0.012309296763569105 -0.015062467577600519 0 -0.012010479457188849 -0.014647105815480142 0 -0.012452806935746935 -0.014392121664002196 0 -0.0081590837546972779 -0.014805654485176427 0 -0.0083301778869176533 -0.014218688548919408 0 -0.0077809318034453767 -0.014631260575535794 0 -0.011559769046075334 -0.014892580715112251 0 -0.012010479457188849 -0.014647105815480142 0 -0.011720700401520298 -0.014240678294206024 0 -0.012309296763569105 -0.015062467577600519 0 -0.011559769046075334 -0.014892580715112251 0 -0.012010479457188849 -0.014647105815480142 0 -0.010472909228153963 -0.014768272686613584 0 -0.01056260311302243 -0.013942088146987445 0 -0.017366819140774346 -0.013855933457918477 0 -0.017080056364553575 -0.015766599383402143 0 -0.015467911624855255 -0.014446344013107855 0 -0.015301046215748458 -0.016010671163311216 0 -0.014031904872843301 -0.015014456747391745 0 -0.015467911624855255 -0.014446344013107855 0 -0.014031904872843301 -0.015014456747391745 0 -0.013420136376266547 -0.013379771544026208 0 -0.015467911624855255 -0.014446344013107855 0 -0.012955121095205416 -0.014787141342567214 0 -0.01517369506772248 -0.014714200229787497 0 -0.012309296763569105 -0.015062467577600519 0 -0.013265884528937568 -0.014561613117073371 0 -0.013189825367397779 -0.014545646897322019 0 -0.013420136376266547 -0.013379771544026208 0 -0.015467911624855255 -0.014446344013107855 0 -0.015819606295265177 -0.01225699541125482 0 -0.012309296763569105 -0.015062467577600519 0 -0.013189825367397779 -0.014545646897322019 0 -0.012452806935746935 -0.014392121664002196 0 -0.017659359696360424 -0.015244035487851118 0 -0.01517369506772248 -0.014714200229787497 0 -0.018704507622262081 -0.01563315882045441 0 -0.018889537844879577 -0.015303454607066501 0 -0.018208385870675511 -0.015168469242578173 0 -0.017366819140774346 -0.013855933457918477 0 -0.015467911624855255 -0.014446344013107855 0 -0.015819606295265177 -0.01225699541125482 0 -0.016829257527370023 -0.015321224093064616 0 -0.01517369506772248 -0.014714200229787497 0 -0.017736271640098857 -0.0142865583424458 0 -0.014623604314754348 -0.016191164075017941 0 -0.015875117879709872 -0.014523152748304884 0 -0.016159014431011198 -0.014437513027692365 0 -0.01517369506772248 -0.014714200229787497 0 -0.014623604314754348 -0.016191164075017941 0 -0.015875117879709872 -0.014523152748304884 0 -0.014558373216785001 -0.015400446794955544 0 -0.015875117879709872 -0.014523152748304884 0 -0.014928357438217776 -0.014445594670649459 0 -0.015039861466263457 -0.013619306743619049 0 -0.015875117879709872 -0.014523152748304884 0 -0.014558373216785001 -0.015400446794955544 0 -0.014928357438217776 -0.014445594670649459 0 -0.01407921258794094 -0.015847322971298906 0 -0.012614663624069284 -0.014559165492689513 0 -0.011983251637867549 -0.015416302793789596 0 -0.014738127265015106 -0.014672574906671915 0 -0.012505013275618019 -0.014370044376870847 0 -0.014558373216785001 -0.015400446794955544 0 -0.014928357438217776 -0.014445594670649459 0 -0.0138302002370164 -0.014077646681349172 0 -0.014558373216785001 -0.015400446794955544 0 -0.012729208086013941 -0.014655800932928408 0 -0.0138302002370164 -0.014077646681349172 0 -0.014558373216785001 -0.015400446794955544 0 -0.014370214239474877 -0.016125141275461771 0 -0.012729208086013941 -0.014655800932928408 0 -0.014623604314754348 -0.016191164075017941 0 -0.014558373216785001 -0.015400446794955544 0 -0.014370214239474877 -0.016125141275461771 0 -0.01517369506772248 -0.014714200229787497 0 -0.014738127265015106 -0.014672574906671915 0 -0.014738127265015106 -0.014672574906671915 0 -0.013628814760032677 -0.014171221066261971 0 -0.012729208086013941 -0.014655800932928408 0 -0.0138302002370164 -0.014077646681349172 0 -0.012469237319927639 -0.013353877012663653 0 -0.013158801754009835 -0.012591713754059387 0 -0.0138302002370164 -0.014077646681349172 0 -0.012469237319927639 -0.013353877012663653 0 -0.013158801754009835 -0.012591713754059387 0 -0.014218765153010779 -0.013091286446602868 0 -0.0138302002370164 -0.014077646681349172 0 -0.013158801754009835 -0.012591713754059387 0 -0.014218765153010779 -0.013091286446602868 0 -0.01501698975423385 -0.012054855215438165 0 -0.014218765153010779 -0.013091286446602868 0 -0.0138302002370164 -0.014077646681349172 0 -0.015039861466263457 -0.013619306743619049 0 -0.017326844234215835 -0.012732582538629444 0 -0.016212408616062192 -0.013454908287681403 0 -0.01501698975423385 -0.012054855215438165 0 -0.014928357438217776 -0.014445594670649459 0 -0.0138302002370164 -0.014077646681349172 0 -0.015039861466263457 -0.013619306743619049 0 -0.015039861466263457 -0.013619306743619049 0 -0.016212408616062192 -0.013454908287681403 0 -0.01501698975423385 -0.012054855215438165 0 -0.014218765153010779 -0.013091286446602868 0 -0.015039861466263457 -0.013619306743619049 0 -0.01501698975423385 -0.012054855215438165 0 -0.015875117879709872 -0.014523152748304884 0 -0.015039861466263457 -0.013619306743619049 0 -0.016212408616062192 -0.013454908287681403 0 -0.012010479457188849 -0.014647105815480142 0 -0.011720700401520298 -0.014240678294206024 0 -0.012452806935746935 -0.014392121664002196 0 -0.0098768427018689035 -0.014986033971418839 0 -0.011983251637867549 -0.015416302793789596 0 -0.011466992251637748 -0.014378201080498615 0 -0.01056260311302243 -0.013942088146987445 0 -0.012505013275618019 -0.014370044376870847 0 -0.012614663624069284 -0.014559165492689513 0 -0.011983251637867549 -0.015416302793789596 0 -0.011466992251637748 -0.014378201080498615 0 -0.0098768427018689035 -0.014986033971418839 0 -0.011466992251637748 -0.014378201080498615 0 -0.011144868276241515 -0.013261421098010383 0 -0.012729208086013941 -0.014655800932928408 0 -0.012469237319927639 -0.013353877012663653 0 -0.011144868276241515 -0.013261421098010383 0 -0.012614663624069284 -0.014559165492689513 0 -0.011466992251637748 -0.014378201080498615 0 -0.011144868276241515 -0.013261421098010383 0 -0.013628814760032677 -0.014171221066261971 0 -0.013056918641359338 -0.013812815125103172 0 -0.013158801754009835 -0.012591713754059387 0 -0.012469237319927639 -0.013353877012663653 0 -0.011759629290175752 -0.011930772767511085 0 -0.012469237319927639 -0.013353877012663653 0 -0.011144868276241515 -0.013261421098010383 0 -0.011759629290175752 -0.011930772767511085 0 -0.011144868276241515 -0.013261421098010383 0 -0.01045141944699131 -0.012582976856763439 0 -0.011759629290175752 -0.011930772767511085 0 -0.009395271068728268 -0.014543575630459594 0 -0.01004610094111872 -0.012521381135518605 0 -0.0082621854829430814 -0.012726082080402545 0 -0.0098768427018689035 -0.014986033971418839 0 -0.011144868276241515 -0.013261421098010383 0 -0.01045141944699131 -0.012582976856763439 0 -0.01056260311302243 -0.013942088146987445 0 -0.010638742447866925 -0.012678236722796454 0 -0.01004610094111872 -0.012521381135518605 0 -0.0091031863303546873 -0.011267328219254164 0 -0.0082621854829430814 -0.012726082080402545 0 -0.01004610094111872 -0.012521381135518605 0 -0.0091031863303546873 -0.011267328219254164 0 -0.010935146842439097 -0.010127177290876012 0 -0.010638742447866925 -0.012678236722796454 0 -0.010804390752844688 -0.011755822038051006 0 -0.011759629290175752 -0.011930772767511085 0 -0.010935146842439097 -0.010127177290876012 0 -0.013368399002120607 -0.011012865480301951 0 -0.01045141944699131 -0.012582976856763439 0 -0.011759629290175752 -0.011930772767511085 0 -0.010935146842439097 -0.010127177290876012 0 -0.010935146842439097 -0.010127177290876012 0 -0.012879324449688746 -0.0077623268971579737 0 -0.01341579432085427 -0.0094183029357542813 0 -0.0091031863303546873 -0.011267328219254164 0 -0.010935146842439097 -0.010127177290876012 0 -0.0087783758425564462 -0.0096379397804034934 0 -0.010935146842439097 -0.010127177290876012 0 -0.0087783758425564462 -0.0096379397804034934 0 -0.0095540268121967007 -0.0081817713393027517 0 -0.0095540268121967007 -0.0081817713393027517 0 -0.011275363423824025 -0.0069578967443800887 0 -0.0090091187012626417 -0.0062012231296768383 0 -0.0095540268121967007 -0.0081817713393027517 0 -0.0090091187012626417 -0.0062012231296768383 0 -0.007720684989798803 -0.0079384552470929022 0 -0.0087783758425564462 -0.0096379397804034934 0 -0.0095540268121967007 -0.0081817713393027517 0 -0.007720684989798803 -0.0079384552470929022 0 -0.010935146842439097 -0.010127177290876012 0 -0.0095540268121967007 -0.0081817713393027517 0 -0.011275363423824025 -0.0069578967443800887 0 -0.010935146842439097 -0.010127177290876012 0 -0.011275363423824025 -0.0069578967443800887 0 -0.012879324449688746 -0.0077623268971579737 0 -0.011275363423824025 -0.0069578967443800887 0 -0.012879324449688746 -0.0077623268971579737 0 -0.013342941810159565 -0.0046781877187670731 0 -0.011275363423824025 -0.0069578967443800887 0 -0.010557799231853075 -0.004827488114771481 0 -0.013342941810159565 -0.0046781877187670731 0 -0.011275363423824025 -0.0069578967443800887 0 -0.0090091187012626417 -0.0062012231296768383 0 -0.010557799231853075 -0.004827488114771481 0 -0.015804079229090814 -0.006908853030754598 0 -0.015716798039614451 -0.0074013176135694931 0 -0.018021895217561174 -0.0062419380499982502 0 -0.015804079229090814 -0.006908853030754598 0 -0.014846558710427095 -0.0080272524869324773 0 -0.015087519987351012 -0.0052626839696107829 0 -0.015804079229090814 -0.006908853030754598 0 -0.015716798039614451 -0.0074013176135694931 0 -0.014846558710427095 -0.0080272524869324773 0 -0.020404237513438207 -0.020721810283232035 0 -0.019752289297167911 -0.025538468645273822 0 -0.015804079229090814 -0.006908853030754598 0 -0.01681279850931407 -0.0058496466903431308 0 -0.016319783936161226 -0.0053497367178101983 0 -0.015804079229090814 -0.006908853030754598 0 -0.015087519987351012 -0.0052626839696107829 0 -0.016272619778792685 -0.0049410943067774741 0 -0.01485684262257096 -0.0078103841246531039 0 -0.014239233541314927 -0.0064691215075507449 0 -0.014846558710427095 -0.0080272524869324773 0 -0.013342941810159565 -0.0046781877187670731 0 -0.015087519987351012 -0.0052626839696107829 0 -0.012879324449688746 -0.0077623268971579737 0 -0.014540264075158011 -0.0072829452499061729 0 -0.013342941810159565 -0.0046781877187670731 0 -0.012879324449688746 -0.0077623268971579737 0 -0.014540264075158011 -0.0072829452499061729 0 -0.01341579432085427 -0.0094183029357542813 0 -0.01485684262257096 -0.0078103841246531039 0 -0.015868320726346075 -0.009958998499091808 0 -0.014846558710427095 -0.0080272524869324773 0 -0.016449232261743302 -0.0087718888111853709 0 -0.016198524715344682 -0.010514985271081453 0 -0.015716798039614451 -0.0074013176135694931 0 -0.016449232261743302 -0.0087718888111853709 0 -0.017256404727061178 -0.0077977460661237683 0 -0.015716798039614451 -0.0074013176135694931 0 -0.014846558710427095 -0.0080272524869324773 0 -0.016449232261743302 -0.0087718888111853709 0 -0.014540264075158011 -0.0072829452499061729 0 -0.01588731532709594 -0.009969963038101777 0 -0.01341579432085427 -0.0094183029357542813 0 -0.010935146842439097 -0.010127177290876012 0 -0.01341579432085427 -0.0094183029357542813 0 -0.013368399002120607 -0.011012865480301951 0 -0.01588731532709594 -0.009969963038101777 0 -0.01341579432085427 -0.0094183029357542813 0 -0.013368399002120607 -0.011012865480301951 0 -0.013158801754009835 -0.012591713754059387 0 -0.013368399002120607 -0.011012865480301951 0 -0.01501698975423385 -0.012054855215438165 0 -0.013158801754009835 -0.012591713754059387 0 -0.011759629290175752 -0.011930772767511085 0 -0.013368399002120607 -0.011012865480301951 0 -0.01588731532709594 -0.009969963038101777 0 -0.013368399002120607 -0.011012865480301951 0 -0.01501698975423385 -0.012054855215438165 0 -0.017326844234215835 -0.012732582538629444 0 -0.01588731532709594 -0.009969963038101777 0 -0.01501698975423385 -0.012054855215438165 0 -0.017326844234215835 -0.012732582538629444 0 -0.016198524715344682 -0.010514985271081453 0 -0.017729477150680347 -0.01137891483077463 0 -0.016452888633252165 -0.011198029548377798 0 -0.015868320726346075 -0.009958998499091808 0 -0.017326844234215835 -0.012732582538629444 0 -0.017729477150680347 -0.01137891483077463 0 -0.01872508702806143 -0.012342285332118043 0 -0.01872508702806143 -0.012342285332118043 0 -0.01878928925980939 -0.011075239294211321 0 -0.019914636771658022 -0.011816194070202983 0 -0.01878928925980939 -0.011075239294211321 0 -0.019914636771658022 -0.011816194070202983 0 -0.019845926647201348 -0.010625249784549892 0 -0.017729477150680347 -0.01137891483077463 0 -0.01872508702806143 -0.012342285332118043 0 -0.01878928925980939 -0.011075239294211321 0 -0.01878928925980939 -0.011075239294211321 0 -0.018960168811288852 -0.0098814177224532014 0 -0.017686359883492545 -0.01008794048619272 0 -0.01878928925980939 -0.011075239294211321 0 -0.018960168811288852 -0.0098814177224532014 0 -0.019845926647201348 -0.010625249784549892 0 -0.018960168811288852 -0.0098814177224532014 0 -0.019845926647201348 -0.010625249784549892 0 -0.020385877174121408 -0.0092861829357833436 0 -0.018960168811288852 -0.0098814177224532014 0 -0.017686359883492545 -0.01008794048619272 0 -0.017939737126927761 -0.0088053331876416438 0 -0.016449232261743302 -0.0087718888111853709 0 -0.016198524715344682 -0.010514985271081453 0 -0.017686359883492545 -0.01008794048619272 0 -0.016198524715344682 -0.010514985271081453 0 -0.017729477150680347 -0.01137891483077463 0 -0.017686359883492545 -0.01008794048619272 0 -0.017729477150680347 -0.01137891483077463 0 -0.01878928925980939 -0.011075239294211321 0 -0.017686359883492545 -0.01008794048619272 0 -0.021050725706439032 -0.012463558899358473 0 -0.022066102862962286 -0.011533850922938032 0 -0.021052015553778752 -0.011120725409297011 0 -0.021050725706439032 -0.012463558899358473 0 -0.021052015553778752 -0.011120725409297011 0 -0.019914636771658022 -0.011816194070202983 0 -0.021052015553778752 -0.011120725409297011 0 -0.019914636771658022 -0.011816194070202983 0 -0.019845926647201348 -0.010625249784549892 0 -0.021052015553778752 -0.011120725409297011 0 -0.021313606370763693 -0.010429660211197902 0 -0.020689181858881397 -0.010135048704037955 0 -0.021052015553778752 -0.011120725409297011 0 -0.019845926647201348 -0.010625249784549892 0 -0.020385877174121408 -0.0092861829357833436 0 -0.01752118781595384 -0.014159651812536381 0 -0.017438988423256533 -0.015585395379506439 0 -0.024010800078580277 -0.019044430008641554 0 -0.023969911707676556 -0.019941483772995303 0 -0.023622465779297028 -0.019319228912497766 0 -0.022066102862962286 -0.011533850922938032 0 -0.021313606370763693 -0.010429660211197902 0 -0.021942238046090117 -0.010016653465154906 0 -0.022230587701922717 -0.017956726587874918 0 -0.021588735440110009 -0.026049695641378354 0 -0.022066102862962286 -0.011533850922938032 0 -0.021052015553778752 -0.011120725409297011 0 -0.021313606370763693 -0.010429660211197902 0 -0.021588735440110009 -0.026049695641378354 0 -0.020128376066001815 -0.037661102315753141 0 -0.018262696010184421 -0.030419407296309667 0 -0.019498449521009226 -0.031099874197963017 0 -0.018224825646782031 -0.032579380510665619 0 -0.021313606370763693 -0.010429660211197902 0 -0.021942238046090117 -0.010016653465154906 0 -0.021068605059445179 -0.0096266260441938301 0 -0.021588735440110009 -0.026049695641378354 0 -0.019629926548537617 -0.023828072526631036 0 -0.021068605059445179 -0.0096266260441938301 0 -0.020689181858881397 -0.010135048704037955 0 -0.020295040216495319 -0.0092535684739665867 0 -0.017438988423256533 -0.015585395379506439 0 -0.018219496955967206 -0.022728994584694635 0 -0.021313606370763693 -0.010429660211197902 0 -0.021068605059445179 -0.0096266260441938301 0 -0.020689181858881397 -0.010135048704037955 0 -0.019629926548537617 -0.023828072526631036 0 -0.018219496955967206 -0.022728994584694635 0 -0.019689683320056474 -0.032471145992197602 0 -0.020729005621335825 -0.031777285409170658 0 -0.021295939691746629 -0.033098633328167724 0 -0.019498449521009226 -0.031099874197963017 0 -0.019689683320056474 -0.032471145992197602 0 -0.020729005621335825 -0.031777285409170658 0 -0.026198879561059589 -0.040907349474383396 0 -0.026098801503217795 -0.045498203913070988 0 -0.024561239913152955 -0.044250910853591008 0 -0.019498449521009226 -0.031099874197963017 0 -0.019689683320056474 -0.032471145992197602 0 -0.018224825646782031 -0.032579380510665619 0 -0.017256404727061178 -0.0077977460661237683 0 -0.017939737126927761 -0.0088053331876416438 0 -0.018366282663605408 -0.0078577031545662528 0 -0.016449232261743302 -0.0087718888111853709 0 -0.017256404727061178 -0.0077977460661237683 0 -0.017939737126927761 -0.0088053331876416438 0 -0.016449232261743302 -0.0087718888111853709 0 -0.017686359883492545 -0.01008794048619272 0 -0.017939737126927761 -0.0088053331876416438 0 -0.018960168811288852 -0.0098814177224532014 0 -0.017939737126927761 -0.0088053331876416438 0 -0.019147286885361197 -0.008757115191498941 0 -0.020385877174121408 -0.0092861829357833436 0 -0.019147286885361197 -0.008757115191498941 0 -0.01965251834894307 -0.007481424061055752 0 -0.018960168811288852 -0.0098814177224532014 0 -0.020385877174121408 -0.0092861829357833436 0 -0.019147286885361197 -0.008757115191498941 0 -0.019147286885361197 -0.008757115191498941 0 -0.018366282663605408 -0.0078577031545662528 0 -0.01965251834894307 -0.007481424061055752 0 -0.017939737126927761 -0.0088053331876416438 0 -0.019147286885361197 -0.008757115191498941 0 -0.018366282663605408 -0.0078577031545662528 0 -0.018366282663605408 -0.0078577031545662528 0 -0.01965251834894307 -0.007481424061055752 0 -0.017826896946239013 -0.0064511449625151707 0 -0.018219496955967206 -0.022728994584694635 0 -0.019030232409806995 -0.024768642860994224 0 -0.021363378185237061 -0.025557127202043319 0 -0.017412193822348512 -0.023421660062235436 0 -0.019881707293609656 -0.022147156439723547 0 -0.018219496955967206 -0.022728994584694635 0 -0.017643635054427172 -0.030785009308361963 0 -0.019030232409806995 -0.024768642860994224 0 -0.017643635054427172 -0.030785009308361963 0 -0.015804079229090814 -0.006908853030754598 0 -0.018021895217561174 -0.0062419380499982502 0 -0.01681279850931407 -0.0058496466903431308 0 -0.015716798039614451 -0.0074013176135694931 0 -0.017256404727061178 -0.0077977460661237683 0 -0.017826896946239013 -0.0064511449625151707 0 -0.019030232409806995 -0.024768642860994224 0 -0.019517940069419256 -0.026609871135850074 0 -0.020324603902506091 -0.020895149513486852 0 -0.019030232409806995 -0.024768642860994224 0 -0.017256404727061178 -0.0077977460661237683 0 -0.018366282663605408 -0.0078577031545662528 0 -0.017826896946239013 -0.0064511449625151707 0 -0.018021895217561174 -0.0062419380499982502 0 -0.01681279850931407 -0.0058496466903431308 0 -0.017062880951408271 -0.0057245101604848601 0 -0.019554289715212 -0.026542085218397404 0 -0.019517940069419256 -0.026609871135850074 0 -0.019517940069419256 -0.026609871135850074 0 -0.017088666045259996 -0.035744636098348416 0 -0.015609541607884275 -0.033623510438488394 0 -0.014473876758616607 -0.03421436731661149 0 -0.015913797353617327 -0.034385296264586182 0 -0.01681279850931407 -0.0058496466903431308 0 -0.01704801050875273 -0.0057336601022936126 0 -0.016319783936161226 -0.0053497367178101983 0 -0.018337418790741418 -0.031098932906303122 0 -0.015379412710404716 -0.029492971830082031 0 -0.021229168200521308 -0.026499337086505433 0 -0.019517940069419256 -0.026609871135850074 0 -0.019752289297167911 -0.025538468645273822 0 -0.015609541607884275 -0.033623510438488394 0 -0.016069022517057371 -0.033865515428667212 0 -0.015913797353617327 -0.034385296264586182 0 -0.017088666045259996 -0.035744636098348416 0 -0.014666324901006013 -0.044972750218596924 0 -0.018337418790741418 -0.031098932906303122 0 -0.022331902854936077 -0.029039599052662922 0 -0.021229168200521308 -0.026499337086505433 0 -0.017412386593856063 -0.040831245455032604 0 -0.017532634810290253 -0.041111268074811087 0 -0.016703465084807183 -0.041226332480818681 0 -0.017643635054427172 -0.030785009308361963 0 -0.017088666045259996 -0.035744636098348416 0 -0.0133113944571179 -0.05945440849828211 0 -0.012830358160740463 -0.060573108421868575 0 -0.012006898265683888 -0.060197797300728322 0 -0.0133113944571179 -0.05945440849828211 0 -0.012830358160740463 -0.060573108421868575 0 -0.014032873989945372 -0.06112537970975674 0 -0.014473876758616607 -0.03421436731661149 0 -0.0152106867398303 -0.035963331904061951 0 -0.015913797353617327 -0.034385296264586182 0 -0.015460303313957108 -0.035919548991395225 0 -0.0152106867398303 -0.035963331904061951 0 -0.015913797353617327 -0.034385296264586182 0 -0.012682286705746807 -0.044227713360559223 0 -0.018538614818568451 -0.027265765329500834 0 -0.017088666045259996 -0.035744636098348416 0 -0.012616918583518303 -0.046406739424701235 0 -0.018224825646782031 -0.032579380510665619 0 -0.019751359125233937 -0.033918161580709781 0 -0.018188727929686212 -0.034748991614469128 0 -0.020128376066001815 -0.037661102315753141 0 -0.017655734581298255 -0.04554332972711686 0 -0.026098801503217795 -0.045498203913070988 0 -0.025313369104409355 -0.047713152593304275 0 -0.025967454375086851 -0.049990218313240298 0 -0.019689683320056474 -0.032471145992197602 0 -0.018224825646782031 -0.032579380510665619 0 -0.019751359125233937 -0.033918161580709781 0 -0.017944970365540252 -0.037969255780713675 0 -0.017655734581298255 -0.04554332972711686 0 -0.018578849238591644 -0.047582423732638039 0 -0.018010499163363884 -0.047210197028392534 0 -0.019689683320056474 -0.032471145992197602 0 -0.021295939691746629 -0.033098633328167724 0 -0.019751359125233937 -0.033918161580709781 0 -0.017532634810290253 -0.041111268074811087 0 -0.016703465084807183 -0.041226332480818681 0 -0.016761864939845904 -0.041539795942881173 0 -0.017643635054427172 -0.030785009308361963 0 -0.017944970365540252 -0.037969255780713675 0 -0.016703465084807183 -0.041226332480818681 0 -0.016761864939845904 -0.041539795942881173 0 -0.015990534415456961 -0.041624337292949461 0 -0.012830358160740463 -0.060573108421868575 0 -0.012006898265683888 -0.060197797300728322 0 -0.011983863722208292 -0.061517415023209489 0 -0.012006898265683888 -0.060197797300728322 0 -0.011402397627165937 -0.061328397906077421 0 -0.011983863722208292 -0.061517415023209489 0 -0.014666324901006013 -0.044972750218596924 0 -0.016523559339900875 -0.049691462007506196 0 -0.016761864939845904 -0.041539795942881173 0 -0.015987375698420306 -0.041971599043191921 0 -0.015990534415456961 -0.041624337292949461 0 -0.012006898265683888 -0.060197797300728322 0 -0.010863462041843084 -0.060898505573400576 0 -0.011402397627165937 -0.061328397906077421 0 -0.017557881494114445 -0.046548144908364369 0 -0.016182003743601497 -0.047251815367066977 0 -0.017556507907715971 -0.049663052132532415 0 -0.016523559339900875 -0.049691462007506196 0 -0.017655734581298255 -0.04554332972711686 0 -0.017121052746807759 -0.050432907350500052 0 -0.018010499163363884 -0.047210197028392534 0 -0.017121052746807759 -0.050432907350500052 0 -0.016523559339900875 -0.049691462007506196 0 -0.025313369104409355 -0.047713152593304275 0 -0.025273075237133763 -0.050346055659489936 0 -0.025967454375086851 -0.049990218313240298 0 -0.016182003743601497 -0.047251815367066977 0 -0.017556507907715971 -0.049663052132532415 0 -0.016141871163210909 -0.050391790193791516 0 -0.018010499163363884 -0.047210197028392534 0 -0.017655734581298255 -0.04554332972711686 0 -0.010699537464767185 -0.061010654210965319 0 -0.010926470592350097 -0.061690957541111029 0 -0.010795508558234711 -0.062529313728911157 0 -0.017121052746807759 -0.050432907350500052 0 -0.017019595816210556 -0.057246271595469127 0 -0.016523559339900875 -0.049691462007506196 0 -0.016108284443009165 -0.052559262449654073 0 -0.010863462041843084 -0.060898505573400576 0 -0.010926470592350097 -0.061690957541111029 0 -0.011402397627165937 -0.061328397906077421 0 -0.010699537464767185 -0.061010654210965319 0 -0.010917630018478432 -0.060894684644745095 0 -0.010926470592350097 -0.061690957541111029 0 -0.010926470592350097 -0.061690957541111029 0 -0.011402397627165937 -0.061328397906077421 0 -0.011418628413829214 -0.062165743751244874 0 -0.011402397627165937 -0.061328397906077421 0 -0.011983863722208292 -0.061517415023209489 0 -0.011418628413829214 -0.062165743751244874 0 -0.012001299063413021 -0.062783354279295114 0 -0.011418628413829214 -0.062165743751244874 0 -0.011455896264607119 -0.063045893074289164 0 -0.011983863722208292 -0.061517415023209489 0 -0.012001299063413021 -0.062783354279295114 0 -0.01253974694870782 -0.062442347458544836 0 -0.011983863722208292 -0.061517415023209489 0 -0.012001299063413021 -0.062783354279295114 0 -0.011418628413829214 -0.062165743751244874 0 -0.011418628413829214 -0.062165743751244874 0 -0.010795508558234711 -0.062529313728911157 0 -0.011455896264607119 -0.063045893074289164 0 -0.010926470592350097 -0.061690957541111029 0 -0.011418628413829214 -0.062165743751244874 0 -0.010795508558234711 -0.062529313728911157 0 -0.013403777982631267 -0.061552785896504286 0 -0.012873371314555319 -0.061866044705289919 0 -0.013141234107213984 -0.062469781133926955 0 -0.01280994983807989 -0.062200543258427055 0 -0.012899441365829966 -0.062558713797896195 0 -0.012959520541433641 -0.062314541846895111 0 -0.01264086003324977 -0.049602171223453839 0 -0.01150072495508264 -0.057836641231984072 0 -0.01264086003324977 -0.049602171223453839 0 -0.014378663140787505 -0.056968434512352249 0 -0.01280994983807989 -0.062200543258427055 0 -0.01284520578250885 -0.062099027999861271 0 -0.012959520541433641 -0.062314541846895111 0 -0.01264086003324977 -0.049602171223453839 0 -0.012682286705746807 -0.044227713360559223 0 -0.0097133192745283113 -0.038622697202622971 0 -0.0065880651386805433 -0.049291216360820157 0 -0.01381209443997105 -0.048068073617986366 0 -0.01264086003324977 -0.049602171223453839 0 -0.012616918583518303 -0.046406739424701235 0 -0.013403777982631267 -0.061552785896504286 0 -0.01330815198390378 -0.061345082252420989 0 -0.012873371314555319 -0.061866044705289919 0 -0.012682286705746807 -0.044227713360559223 0 -0.012616918583518303 -0.046406739424701235 0 -0.011983863722208292 -0.061517415023209489 0 -0.012873371314555319 -0.061866044705289919 0 -0.01253974694870782 -0.062442347458544836 0 -0.011983863722208292 -0.061517415023209489 0 -0.01330815198390378 -0.061345082252420989 0 -0.012873371314555319 -0.061866044705289919 0 -0.012830358160740463 -0.060573108421868575 0 -0.011983863722208292 -0.061517415023209489 0 -0.014032873989945372 -0.06112537970975674 0 -0.011449402221464461 -0.050984951369796666 0 -0.012616918583518303 -0.046406739424701235 0 -0.01253974694870782 -0.062442347458544836 0 -0.013141234107213984 -0.062469781133926955 0 -0.012690199221733143 -0.063422947071689856 0 -0.012873371314555319 -0.061866044705289919 0 -0.01253974694870782 -0.062442347458544836 0 -0.013141234107213984 -0.062469781133926955 0 -0.012849543860929753 -0.062412069928989955 0 -0.012726807856278603 -0.062911777014328443 0 -0.013020547960423673 -0.062856075499621578 0 -0.012726807856278603 -0.062911777014328443 0 -0.013020547960423673 -0.062856075499621578 0 -0.01290590162359909 -0.063177223804454702 0 -0.012899441365829966 -0.062558713797896195 0 -0.013229891053292246 -0.062699451218965835 0 -0.013113935851904587 -0.063138568523195354 0 -0.014378663140787505 -0.056968434512352249 0 -0.014741953696820869 -0.058841486610901314 0 -0.013229891053292246 -0.062699451218965835 0 -0.013110246636838163 -0.062464542821489624 0 -0.013362560093925509 -0.062488797535531722 0 -0.012899441365829966 -0.062558713797896195 0 -0.013110246636838163 -0.062464542821489624 0 -0.012959520541433641 -0.062314541846895111 0 -0.012899441365829966 -0.062558713797896195 0 -0.013229891053292246 -0.062699451218965835 0 -0.013110246636838163 -0.062464542821489624 0 -0.013110246636838163 -0.062464542821489624 0 -0.012959520541433641 -0.062314541846895111 0 -0.013138524842506711 -0.06226975858642228 0 -0.01284520578250885 -0.062099027999861271 0 -0.013138524842506711 -0.06226975858642228 0 -0.013357167188384042 -0.062085735517651675 0 -0.013110246636838163 -0.062464542821489624 0 -0.013138524842506711 -0.06226975858642228 0 -0.013362560093925509 -0.062488797535531722 0 -0.01284520578250885 -0.062099027999861271 0 -0.012959520541433641 -0.062314541846895111 0 -0.013138524842506711 -0.06226975858642228 0 -0.013138524842506711 -0.06226975858642228 0 -0.013410531702191584 -0.062264044738613585 0 -0.013362560093925509 -0.062488797535531722 0 -0.013138524842506711 -0.06226975858642228 0 -0.013410531702191584 -0.062264044738613585 0 -0.013357167188384042 -0.062085735517651675 0 -0.013410531702191584 -0.062264044738613585 0 -0.013451889748331756 -0.062151563739819657 0 -0.013357167188384042 -0.062085735517651675 0 -0.013410531702191584 -0.062264044738613585 0 -0.013362560093925509 -0.062488797535531722 0 -0.013465510158119327 -0.062430947372179697 0 -0.013362560093925509 -0.062488797535531722 0 -0.013547683561277906 -0.06261708126254581 0 -0.013465510158119327 -0.062430947372179697 0 -0.013229891053292246 -0.062699451218965835 0 -0.013362560093925509 -0.062488797535531722 0 -0.013468968176045881 -0.062730042260994837 0 -0.013362560093925509 -0.062488797535531722 0 -0.013468968176045881 -0.062730042260994837 0 -0.013547683561277906 -0.06261708126254581 0 -0.013468968176045881 -0.062730042260994837 0 -0.013547683561277906 -0.06261708126254581 0 -0.013665073407755081 -0.062698249499129777 0 -0.013547683561277906 -0.06261708126254581 0 -0.01364790763963126 -0.062698842712150496 0 -0.013665073407755081 -0.062698249499129777 0 -0.013547683561277906 -0.06261708126254581 0 -0.01364790763963126 -0.062698842712150496 0 -0.013519608597841589 -0.062569568158243008 0 -0.01364790763963126 -0.062698842712150496 0 -0.013607742844430615 -0.062920869009348138 0 -0.013519608597841589 -0.062569568158243008 0 -0.013607742844430615 -0.062920869009348138 0 -0.013519608597841589 -0.062569568158243008 0 -0.013458062928867325 -0.062350105346651176 0 -0.013519608597841589 -0.062569568158243008 0 -0.013458062928867325 -0.062350105346651176 0 -0.013458453022079141 -0.062296078584224243 0 -0.013519608597841589 -0.062569568158243008 0 -0.013465510158119327 -0.062430947372179697 0 -0.013458453022079141 -0.062296078584224243 0 -0.013547683561277906 -0.06261708126254581 0 -0.013519608597841589 -0.062569568158243008 0 -0.013465510158119327 -0.062430947372179697 0 -0.013607742844430615 -0.062920869009348138 0 -0.013458062928867325 -0.062350105346651176 0 -0.013326206582258008 -0.061877400010159643 0 -0.014121660552509891 -0.059039162200224655 0 -0.013055085519776232 -0.060671498376083259 0 -0.013326206582258008 -0.061877400010159643 0 -0.013560087098365325 -0.060197138239191837 0 -0.0133290995790362 -0.061181575418944152 0 -0.012419174931769581 -0.059389655446756624 0 -0.013105362240561594 -0.059684019566967436 0 -0.012501125220579621 -0.060077494001510079 0 -0.012419174931769581 -0.059389655446756624 0 -0.013148710981153016 -0.059036718294476868 0 -0.01244306894829969 -0.058697951930665709 0 -0.012419174931769581 -0.059389655446756624 0 -0.013148710981153016 -0.059036718294476868 0 -0.013105362240561594 -0.059684019566967436 0 -0.014121660552509891 -0.059039162200224655 0 -0.013105362240561594 -0.059684019566967436 0 -0.013055085519776232 -0.060671498376083259 0 -0.014121660552509891 -0.059039162200224655 0 -0.013148710981153016 -0.059036718294476868 0 -0.013105362240561594 -0.059684019566967436 0 -0.013105362240561594 -0.059684019566967436 0 -0.013055085519776232 -0.060671498376083259 0 -0.012501125220579621 -0.060077494001510079 0 -0.013055085519776232 -0.060671498376083259 0 -0.012501125220579621 -0.060077494001510079 0 -0.012156113787947124 -0.060720329776258693 0 -0.013055085519776232 -0.060671498376083259 0 -0.013050282988807437 -0.061549197570050208 0 -0.013326206582258008 -0.061877400010159643 0 -0.013055085519776232 -0.060671498376083259 0 -0.012467993433890372 -0.061171504073961408 0 -0.012156113787947124 -0.060720329776258693 0 -0.013055085519776232 -0.060671498376083259 0 -0.012467993433890372 -0.061171504073961408 0 -0.013050282988807437 -0.061549197570050208 0 -0.013458062928867325 -0.062350105346651176 0 -0.013326206582258008 -0.061877400010159643 0 -0.013427026582879245 -0.062142664449968202 0 -0.013326206582258008 -0.061877400010159643 0 -0.01342219640567 -0.062063738951742706 0 -0.013427026582879245 -0.062142664449968202 0 -0.013410531702191584 -0.062264044738613585 0 -0.013465510158119327 -0.062430947372179697 0 -0.013458453022079141 -0.062296078584224243 0 -0.013410531702191584 -0.062264044738613585 0 -0.013458453022079141 -0.062296078584224243 0 -0.013451889748331756 -0.062151563739819657 0 -0.013458453022079141 -0.062296078584224243 0 -0.013427026582879245 -0.062142664449968202 0 -0.013451889748331756 -0.062151563739819657 0 -0.013458062928867325 -0.062350105346651176 0 -0.013458453022079141 -0.062296078584224243 0 -0.013427026582879245 -0.062142664449968202 0 -0.01342219640567 -0.062063738951742706 0 -0.013427026582879245 -0.062142664449968202 0 -0.013451889748331756 -0.062151563739819657 0 -0.010307231722342122 -0.0023285254486570374 0 -0.013342941810159565 -0.0046781877187670731 0 -0.01374305289652878 -0.0018855747144854999 0 -0.011380238246415474 -0.034661943140434942 0 -0.013514517698100257 -0.037328864667015661 0 -0.013451889748331756 -0.062151563739819657 0 -0.013457316704851159 -0.062214324925184139 0 -0.013357167188384042 -0.062085735517651675 0 -0.01342219640567 -0.062063738951742706 0 -0.013451889748331756 -0.062151563739819657 0 -0.013457316704851159 -0.062214324925184139 0 -0.010307231722342122 -0.0023285254486570374 0 -0.0088170754088688786 -0.0040468230936942023 0 -0.0068730732569494482 -0.0027201874495911141 0 -0.013326206582258008 -0.061877400010159643 0 -0.013457316704851159 -0.062214324925184139 0 -0.012411351190461634 -0.062431490260486729 0 -0.013326206582258008 -0.061877400010159643 0 -0.01342219640567 -0.062063738951742706 0 -0.013457316704851159 -0.062214324925184139 0 -0.0090091187012626417 -0.0062012231296768383 0 -0.010557799231853075 -0.004827488114771481 0 -0.0088170754088688786 -0.0040468230936942023 0 -0.010307231722342122 -0.0023285254486570374 0 -0.010557799231853075 -0.004827488114771481 0 -0.0088170754088688786 -0.0040468230936942023 0 -0.010307231722342122 -0.0023285254486570374 0 -0.010557799231853075 -0.004827488114771481 0 -0.013342941810159565 -0.0046781877187670731 0 -0.013342941810159565 -0.0046781877187670731 0 -0.014925812501907965 -0.0035422506812788517 0 -0.01374305289652878 -0.0018855747144854999 0 -0.013342941810159565 -0.0046781877187670731 0 -0.015087519987351012 -0.0052626839696107829 0 -0.014925812501907965 -0.0035422506812788517 0 -0.015087519987351012 -0.0052626839696107829 0 -0.016272619778792685 -0.0049410943067774741 0 -0.016501047016125255 -0.0040081700391838724 0 -0.019752289297167911 -0.025538468645273822 0 -0.018538614818568451 -0.027265765329500834 0 -0.016501047016125255 -0.0040081700391838724 0 -0.014925812501907965 -0.0035422506812788517 0 -0.015599126278231672 -0.0027092709401837882 0 -0.015087519987351012 -0.0052626839696107829 0 -0.016501047016125255 -0.0040081700391838724 0 -0.014925812501907965 -0.0035422506812788517 0 -0.017235296519920156 -0.0014140652726457633 0 -0.016501047016125255 -0.0040081700391838724 0 -0.015599126278231672 -0.0027092709401837882 0 -0.017235296519920156 -0.0014140652726457633 0 -0.015599126278231672 -0.0027092709401837882 0 -0.01374305289652878 -0.0018855747144854999 0 -0.014925812501907965 -0.0035422506812788517 0 -0.015599126278231672 -0.0027092709401837882 0 -0.01374305289652878 -0.0018855747144854999 0 -0.012682286705746807 -0.044227713360559223 0 -0.013514517698100257 -0.037328864667015661 0 -0.013608595357749652 -0.028021587467004231 0 -0.015877116595608497 -0.031685369786269658 0 -0.017049270177498924 -0.028041453430931257 0 -0.015877116595608497 -0.031685369786269658 0 -0.018957963244619954 -0.031771115328570958 0 -0.017049270177498924 -0.028041453430931257 0 -0.018957963244619954 -0.031771115328570958 0 -0.020802902856115784 -0.02793153398643838 0 -0.023536587731906262 -0.032930198341244839 0 -0.018957963244619954 -0.031771115328570958 0 -0.020802902856115784 -0.02793153398643838 0 -0.017049270177498924 -0.028041453430931257 0 -0.020802902856115784 -0.02793153398643838 0 -0.017049270177498924 -0.028041453430931257 0 -0.018225308523599108 -0.02449473262396688 0 -0.020802902856115784 -0.02793153398643838 0 -0.018225308523599108 -0.02449473262396688 0 -0.021153998422779451 -0.023020279985162321 0 -0.013608595357749652 -0.028021587467004231 0 -0.017049270177498924 -0.028041453430931257 0 -0.015183899814591808 -0.024827203803163566 0 -0.017049270177498924 -0.028041453430931257 0 -0.015183899814591808 -0.024827203803163566 0 -0.018225308523599108 -0.02449473262396688 0 -0.015183899814591808 -0.024827203803163566 0 -0.01688396210024825 -0.021429965608277163 0 -0.018225308523599108 -0.02449473262396688 0 -0.013795394730291725 -0.022378389979543459 0 -0.015183899814591808 -0.024827203803163566 0 -0.01688396210024825 -0.021429965608277163 0 -0.01688396210024825 -0.021429965608277163 0 -0.020176563971110038 -0.020491263771363656 0 -0.018225308523599108 -0.02449473262396688 0 -0.018961857268017426 -0.01795105193408042 0 -0.01688396210024825 -0.021429965608277163 0 -0.020176563971110038 -0.020491263771363656 0 -0.020176563971110038 -0.020491263771363656 0 -0.018225308523599108 -0.02449473262396688 0 -0.021153998422779451 -0.023020279985162321 0 -0.021153998422779451 -0.023020279985162321 0 -0.021822744135813119 -0.020188119320696585 0 -0.022069626551754991 -0.021377365408668941 0 -0.022811534612285054 -0.02487450045294258 0 -0.024205517652350593 -0.025530950231292298 0 -0.020176563971110038 -0.020491263771363656 0 -0.021153998422779451 -0.023020279985162321 0 -0.021822744135813119 -0.020188119320696585 0 -0.021822744135813119 -0.020188119320696585 0 -0.022069626551754991 -0.021377365408668941 0 -0.022540415884610084 -0.020257825175669705 0 -0.027565780309409774 -0.024122032920068728 0 -0.025325724230562448 -0.028174149007275544 0 -0.030005932768155514 -0.028172886537668231 0 -0.021153998422779451 -0.023020279985162321 0 -0.027565780309409774 -0.024122032920068728 0 -0.025325724230562448 -0.028174149007275544 0 -0.020802902856115784 -0.02793153398643838 0 -0.021153998422779451 -0.023020279985162321 0 -0.025325724230562448 -0.028174149007275544 0 -0.020802902856115784 -0.02793153398643838 0 -0.025325724230562448 -0.028174149007275544 0 -0.023536587731906262 -0.032930198341244839 0 -0.025325724230562448 -0.028174149007275544 0 -0.028222393689681952 -0.03149835086680991 0 -0.030005932768155514 -0.028172886537668231 0 -0.025325724230562448 -0.028174149007275544 0 -0.028222393689681952 -0.03149835086680991 0 -0.023536587731906262 -0.032930198341244839 0 -0.031344280128791036 -0.031064460461126018 0 -0.034189366852171367 -0.028899103293174525 0 -0.030005932768155514 -0.028172886537668231 0 -0.028222393689681952 -0.03149835086680991 0 -0.031344280128791036 -0.031064460461126018 0 -0.030005932768155514 -0.028172886537668231 0 -0.028222393689681952 -0.03149835086680991 0 -0.031344280128791036 -0.031064460461126018 0 -0.030371303851285288 -0.033377334046032332 0 -0.031344280128791036 -0.031064460461126018 0 -0.034018404802046119 -0.03270943983920669 0 -0.034189366852171367 -0.028899103293174525 0 -0.031344280128791036 -0.031064460461126018 0 -0.034018404802046119 -0.03270943983920669 0 -0.030371303851285288 -0.033377334046032332 0 -0.029429030128920685 -0.038159493451176571 0 -0.031479598278620277 -0.035910081839923232 0 -0.03055292973815555 -0.038530404250519915 0 -0.028799649851357832 -0.03521297581796503 0 -0.026121696965127134 -0.034950982351178814 0 -0.034018404802046119 -0.03270943983920669 0 -0.034189366852171367 -0.028899103293174525 0 -0.037932051773175587 -0.028453991116778838 0 -0.026095912008235723 -0.027555621770776452 0 -0.025354943600643283 -0.031416545484138053 0 -0.034189366852171367 -0.028899103293174525 0 -0.033222442999604015 -0.025206896436363976 0 -0.037932051773175587 -0.028453991116778838 0 -0.033222442999604015 -0.025206896436363976 0 -0.038771827155274476 -0.026153996958504906 0 -0.037932051773175587 -0.028453991116778838 0 -0.027565780309409774 -0.024122032920068728 0 -0.033222442999604015 -0.025206896436363976 0 -0.030005932768155514 -0.028172886537668231 0 -0.034189366852171367 -0.028899103293174525 0 -0.033222442999604015 -0.025206896436363976 0 -0.030005932768155514 -0.028172886537668231 0 -0.024205517652350593 -0.025530950231292298 0 -0.026095912008235723 -0.027555621770776452 0 -0.022069626551754991 -0.021377365408668941 0 -0.022756749028086064 -0.020612373400873862 0 -0.022540415884610084 -0.020257825175669705 0 -0.022540415884610084 -0.020257825175669705 0 -0.022602395823181777 -0.019286575226693067 0 -0.022934553736444225 -0.019463729895827231 0 -0.021822744135813119 -0.020188119320696585 0 -0.022540415884610084 -0.020257825175669705 0 -0.022602395823181777 -0.019286575226693067 0 -0.022540415884610084 -0.020257825175669705 0 -0.022934553736444225 -0.019463729895827231 0 -0.023002114682147058 -0.019968261771282296 0 -0.02320610644394212 -0.018787136377533847 0 -0.022934553736444225 -0.019463729895827231 0 -0.023158409673076825 -0.019433879378762651 0 -0.022934553736444225 -0.019463729895827231 0 -0.023158409673076825 -0.019433879378762651 0 -0.023002114682147058 -0.019968261771282296 0 -0.022756749028086064 -0.020612373400873862 0 -0.023327229923962516 -0.020170751885375746 0 -0.023496236620594468 -0.020549531400867557 0 -0.022756749028086064 -0.020612373400873862 0 -0.022540415884610084 -0.020257825175669705 0 -0.023002114682147058 -0.019968261771282296 0 -0.023158409673076825 -0.019433879378762651 0 -0.023002114682147058 -0.019968261771282296 0 -0.023350822841415791 -0.019623480649885228 0 -0.022756749028086064 -0.020612373400873862 0 -0.023002114682147058 -0.019968261771282296 0 -0.023327229923962516 -0.020170751885375746 0 -0.023327229923962516 -0.020170751885375746 0 -0.023769695655518907 -0.019911777518293206 0 -0.023496236620594468 -0.020549531400867557 0 -0.021892870921296801 -0.038544663912907402 0 -0.022170685962419997 -0.041464217483077867 0 -0.020895781565612104 -0.041250841230407134 0 -0.023508253770721847 -0.026124688321088683 0 -0.025354943600643283 -0.031416545484138053 0 -0.023463314279442926 -0.019632781592978873 0 -0.023350822841415791 -0.019623480649885228 0 -0.023377102441121022 -0.019047407478159254 0 -0.023508253770721847 -0.026124688321088683 0 -0.023294947127346994 -0.025838762686273602 0 -0.023327229923962516 -0.020170751885375746 0 -0.023769695655518907 -0.019911777518293206 0 -0.023350822841415791 -0.019623480649885228 0 -0.023002114682147058 -0.019968261771282296 0 -0.023327229923962516 -0.020170751885375746 0 -0.023350822841415791 -0.019623480649885228 0 -0.023092598947205209 -0.018111654928790012 0 -0.02326331815593009 -0.019035724498101526 0 -0.023377102441121022 -0.019047407478159254 0 -0.023158409673076825 -0.019433879378762651 0 -0.023350822841415791 -0.019623480649885228 0 -0.02326331815593009 -0.019035724498101526 0 -0.023508253770721847 -0.026124688321088683 0 -0.023856496212295384 -0.024706134532533286 0 -0.023350822841415791 -0.019623480649885228 0 -0.02326331815593009 -0.019035724498101526 0 -0.023377102441121022 -0.019047407478159254 0 -0.02320610644394212 -0.018787136377533847 0 -0.023158409673076825 -0.019433879378762651 0 -0.02326331815593009 -0.019035724498101526 0 -0.024010800078580277 -0.019044430008641554 0 -0.023535748152549045 -0.018565937845903106 0 -0.023622465779297028 -0.019319228912497766 0 -0.023535748152549045 -0.018565937845903106 0 -0.023377102441121022 -0.019047407478159254 0 -0.023622465779297028 -0.019319228912497766 0 -0.023092598947205209 -0.018111654928790012 0 -0.023535748152549045 -0.018565937845903106 0 -0.023377102441121022 -0.019047407478159254 0 -0.023969911707676556 -0.019941483772995303 0 -0.02317651566262293 -0.019467332107321982 0 -0.023622465779297028 -0.019319228912497766 0 -0.026198879561059589 -0.040907349474383396 0 -0.021892870921296801 -0.038544663912907402 0 -0.023581911641895194 -0.041185665210136044 0 -0.021588735440110009 -0.026049695641378354 0 -0.023508253770721847 -0.026124688321088683 0 -0.02317651566262293 -0.019467332107321982 0 -0.023377102441121022 -0.019047407478159254 0 -0.023622465779297028 -0.019319228912497766 0 -0.021892870921296801 -0.038544663912907402 0 -0.023581911641895194 -0.041185665210136044 0 -0.022170685962419997 -0.041464217483077867 0 -0.026198879561059589 -0.040907349474383396 0 -0.023588830471409764 -0.043034812125895071 0 -0.023581911641895194 -0.041185665210136044 0 -0.026198879561059589 -0.040907349474383396 0 -0.023588830471409764 -0.043034812125895071 0 -0.024561239913152955 -0.044250910853591008 0 -0.023588830471409764 -0.043034812125895071 0 -0.022765101925819698 -0.042345914496203452 0 -0.023581911641895194 -0.041185665210136044 0 -0.022576780731507529 -0.04334882128642404 0 -0.023588830471409764 -0.043034812125895071 0 -0.022765101925819698 -0.042345914496203452 0 -0.022765101925819698 -0.042345914496203452 0 -0.023581911641895194 -0.041185665210136044 0 -0.022170685962419997 -0.041464217483077867 0 -0.025184267598185619 -0.03158678380892193 0 -0.025354943600643283 -0.031416545484138053 0 -0.022170685962419997 -0.041464217483077867 0 -0.020912960226802078 -0.041269640313043095 0 -0.021421306850447391 -0.041985496585561985 0 -0.020912960226802078 -0.041269640313043095 0 -0.020732360532572165 -0.042525289804739942 0 -0.021421306850447391 -0.041985496585561985 0 -0.020912960226802078 -0.041269640313043095 0 -0.020732360532572165 -0.042525289804739942 0 -0.020270681945573604 -0.043027316008649133 0 -0.025354943600643283 -0.031416545484138053 0 -0.026121696965127134 -0.034950982351178814 0 -0.020732360532572165 -0.042525289804739942 0 -0.020260690467564273 -0.04304456454812753 0 -0.021093678866274772 -0.043275169030688128 0 -0.025989051188802938 -0.035103457748032869 0 -0.026121696965127134 -0.034950982351178814 0 -0.022765101925819698 -0.042345914496203452 0 -0.022170685962419997 -0.041464217483077867 0 -0.021907103778937811 -0.042692529147162012 0 -0.022170685962419997 -0.041464217483077867 0 -0.021421306850447391 -0.041985496585561985 0 -0.021907103778937811 -0.042692529147162012 0 -0.020732360532572165 -0.042525289804739942 0 -0.021421306850447391 -0.041985496585561985 0 -0.021907103778937811 -0.042692529147162012 0 -0.021093678866274772 -0.043275169030688128 0 -0.021907103778937811 -0.042692529147162012 0 -0.021708758868673975 -0.043915872705500507 0 -0.020732360532572165 -0.042525289804739942 0 -0.021093678866274772 -0.043275169030688128 0 -0.021907103778937811 -0.042692529147162012 0 -0.022576780731507529 -0.04334882128642404 0 -0.022765101925819698 -0.042345914496203452 0 -0.021907103778937811 -0.042692529147162012 0 -0.022576780731507529 -0.04334882128642404 0 -0.021907103778937811 -0.042692529147162012 0 -0.021708758868673975 -0.043915872705500507 0 -0.021708758868673975 -0.043915872705500507 0 -0.021309819535533115 -0.045048999739957941 0 -0.022785509041317497 -0.04485431139761565 0 -0.020260690467564273 -0.04304456454812753 0 -0.020218246698577701 -0.045179974520951911 0 -0.018947430170800299 -0.046849999037795534 0 -0.026121696965127134 -0.034950982351178814 0 -0.023853610806926592 -0.041876429231388658 0 -0.022576780731507529 -0.04334882128642404 0 -0.021708758868673975 -0.043915872705500507 0 -0.022785509041317497 -0.04485431139761565 0 -0.021093678866274772 -0.043275169030688128 0 -0.021708758868673975 -0.043915872705500507 0 -0.020902782233380598 -0.044101713014302053 0 -0.021708758868673975 -0.043915872705500507 0 -0.020902782233380598 -0.044101713014302053 0 -0.021309819535533115 -0.045048999739957941 0 -0.020260690467564273 -0.04304456454812753 0 -0.020902782233380598 -0.044101713014302053 0 -0.020218246698577701 -0.045179974520951911 0 -0.020260690467564273 -0.04304456454812753 0 -0.021093678866274772 -0.043275169030688128 0 -0.020902782233380598 -0.044101713014302053 0 -0.020902782233380598 -0.044101713014302053 0 -0.020218246698577701 -0.045179974520951911 0 -0.021309819535533115 -0.045048999739957941 0 -0.020218246698577701 -0.045179974520951911 0 -0.020043109631388171 -0.046301331711927879 0 -0.018947430170800299 -0.046849999037795534 0 -0.020218246698577701 -0.045179974520951911 0 -0.020711712984728018 -0.046029379710879045 0 -0.021309819535533115 -0.045048999739957941 0 -0.020218246698577701 -0.045179974520951911 0 -0.020711712984728018 -0.046029379710879045 0 -0.020043109631388171 -0.046301331711927879 0 -0.021672605391430955 -0.046349993681422702 0 -0.022811154707344995 -0.046334209503109659 0 -0.022785509041317497 -0.04485431139761565 0 -0.021309819535533115 -0.045048999739957941 0 -0.021672605391430955 -0.046349993681422702 0 -0.022785509041317497 -0.04485431139761565 0 -0.020711712984728018 -0.046029379710879045 0 -0.021309819535533115 -0.045048999739957941 0 -0.021672605391430955 -0.046349993681422702 0 -0.024561239913152955 -0.044250910853591008 0 -0.022785509041317497 -0.04485431139761565 0 -0.024073919749226003 -0.046386302786303353 0 -0.022811154707344995 -0.046334209503109659 0 -0.022785509041317497 -0.04485431139761565 0 -0.024073919749226003 -0.046386302786303353 0 -0.026098801503217795 -0.045498203913070988 0 -0.024561239913152955 -0.044250910853591008 0 -0.024073919749226003 -0.046386302786303353 0 -0.022576780731507529 -0.04334882128642404 0 -0.023588830471409764 -0.043034812125895071 0 -0.022785509041317497 -0.04485431139761565 0 -0.023588830471409764 -0.043034812125895071 0 -0.024561239913152955 -0.044250910853591008 0 -0.022785509041317497 -0.04485431139761565 0 -0.023661706926552006 -0.048209670741421934 0 -0.022693249429772099 -0.047463689846242399 0 -0.022450316193677614 -0.048658174698541889 0 -0.023661706926552006 -0.048209670741421934 0 -0.022450316193677614 -0.048658174698541889 0 -0.023100112461798935 -0.049624455796952557 0 -0.023661706926552006 -0.048209670741421934 0 -0.024390217189024187 -0.049180323854802227 0 -0.023100112461798935 -0.049624455796952557 0 -0.025313369104409355 -0.047713152593304275 0 -0.025276457405293593 -0.050338071295382522 0 -0.024390217189024187 -0.049180323854802227 0 -0.025313369104409355 -0.047713152593304275 0 -0.023661706926552006 -0.048209670741421934 0 -0.024390217189024187 -0.049180323854802227 0 -0.025313369104409355 -0.047713152593304275 0 -0.023661706926552006 -0.048209670741421934 0 -0.024073919749226003 -0.046386302786303353 0 -0.026098801503217795 -0.045498203913070988 0 -0.025313369104409355 -0.047713152593304275 0 -0.024073919749226003 -0.046386302786303353 0 -0.023661706926552006 -0.048209670741421934 0 -0.024073919749226003 -0.046386302786303353 0 -0.022693249429772099 -0.047463689846242399 0 -0.022811154707344995 -0.046334209503109659 0 -0.024073919749226003 -0.046386302786303353 0 -0.022693249429772099 -0.047463689846242399 0 -0.021672605391430955 -0.046349993681422702 0 -0.022811154707344995 -0.046334209503109659 0 -0.022693249429772099 -0.047463689846242399 0 -0.021672605391430955 -0.046349993681422702 0 -0.022693249429772099 -0.047463689846242399 0 -0.02166152090364307 -0.047925687139527592 0 -0.021672605391430955 -0.046349993681422702 0 -0.020311464547976967 -0.047273817252271297 0 -0.02166152090364307 -0.047925687139527592 0 -0.020043109631388171 -0.046301331711927879 0 -0.020311464547976967 -0.047273817252271297 0 -0.018947430170800299 -0.046849999037795534 0 -0.020711712984728018 -0.046029379710879045 0 -0.021672605391430955 -0.046349993681422702 0 -0.020311464547976967 -0.047273817252271297 0 -0.020711712984728018 -0.046029379710879045 0 -0.020043109631388171 -0.046301331711927879 0 -0.020311464547976967 -0.047273817252271297 0 -0.02166152090364307 -0.047925687139527592 0 -0.022450316193677614 -0.048658174698541889 0 -0.021224862572435745 -0.049635544960030774 0 -0.020311464547976967 -0.047273817252271297 0 -0.02166152090364307 -0.047925687139527592 0 -0.021224862572435745 -0.049635544960030774 0 -0.022693249429772099 -0.047463689846242399 0 -0.02166152090364307 -0.047925687139527592 0 -0.022450316193677614 -0.048658174698541889 0 -0.021224862572435745 -0.049635544960030774 0 -0.019756404236706968 -0.051033615190661949 0 -0.022574027476525045 -0.051656763530743222 0 -0.022450316193677614 -0.048658174698541889 0 -0.021224862572435745 -0.049635544960030774 0 -0.023100112461798935 -0.049624455796952557 0 -0.020311464547976967 -0.047273817252271297 0 -0.021224862572435745 -0.049635544960030774 0 -0.019756404236706968 -0.051033615190661949 0 -0.021224862572435745 -0.049635544960030774 0 -0.022574027476525045 -0.051656763530743222 0 -0.023100112461798935 -0.049624455796952557 0 -0.019756404236706968 -0.051033615190661949 0 -0.022574027476525045 -0.051656763530743222 0 -0.019943296413401649 -0.052817069646376384 0 -0.022574027476525045 -0.051656763530743222 0 -0.023833395348230611 -0.050203017557392066 0 -0.023100112461798935 -0.049624455796952557 0 -0.024390217189024187 -0.049180323854802227 0 -0.023833395348230611 -0.050203017557392066 0 -0.023100112461798935 -0.049624455796952557 0 -0.025276457405293593 -0.050338071295382522 0 -0.024390217189024187 -0.049180323854802227 0 -0.023833395348230611 -0.050203017557392066 0 -0.018010499163363884 -0.047210197028392534 0 -0.01923089693550312 -0.048229333228694576 0 -0.022850494672597539 -0.052169886881441016 0 -0.022845817858399869 -0.051347488005749266 0 -0.02140885279801702 -0.052107912554247168 0 -0.025276457405293593 -0.050338071295382522 0 -0.022574027476525045 -0.051656763530743222 0 -0.023833395348230611 -0.050203017557392066 0 -0.017121052746807759 -0.050432907350500052 0 -0.019009055264814331 -0.051221074981391876 0 -0.022873027329679572 -0.050751269893818431 0 -0.021867334280866901 -0.052425863965191423 0 -0.02005690864116972 -0.052268977921097554 0 -0.022850494672597539 -0.052169886881441016 0 -0.02140885279801702 -0.052107912554247168 0 -0.020660830489162323 -0.053346679245391111 0 -0.022873027329679572 -0.050751269893818431 0 -0.022955725526028849 -0.054005095148370652 0 -0.021867334280866901 -0.052425863965191423 0 -0.021867334280866901 -0.052425863965191423 0 -0.020801124837728929 -0.05351657309662023 0 -0.02005690864116972 -0.052268977921097554 0 -0.022955725526028849 -0.054005095148370652 0 -0.021867334280866901 -0.052425863965191423 0 -0.020801124837728929 -0.05351657309662023 0 -0.022955725526028849 -0.054005095148370652 0 -0.020801124837728929 -0.05351657309662023 0 -0.019865831082625161 -0.054989818635426284 0 -0.019279218116512214 -0.053931790183860913 0 -0.018430769002597852 -0.054611487967684717 0 -0.019865831082625161 -0.054989818635426284 0 -0.019279218116512214 -0.053931790183860913 0 -0.020801124837728929 -0.05351657309662023 0 -0.019865831082625161 -0.054989818635426284 0 -0.019279218116512214 -0.053931790183860913 0 -0.020801124837728929 -0.05351657309662023 0 -0.02005690864116972 -0.052268977921097554 0 -0.020660830489162323 -0.053346679245391111 0 -0.019943296413401649 -0.052817069646376384 0 -0.018936853983654647 -0.053319117985313462 0 -0.01923089693550312 -0.048229333228694576 0 -0.019236063551058252 -0.048733396333810797 0 -0.02140885279801702 -0.052107912554247168 0 -0.020660830489162323 -0.053346679245391111 0 -0.019943296413401649 -0.052817069646376384 0 -0.019756404236706968 -0.051033615190661949 0 -0.019943296413401649 -0.052817069646376384 0 -0.01879004282786001 -0.052339008430688269 0 -0.01879004282786001 -0.052339008430688269 0 -0.017700896773353295 -0.054072047610512888 0 -0.018008513427452716 -0.050606667073945726 0 -0.019943296413401649 -0.052817069646376384 0 -0.01879004282786001 -0.052339008430688269 0 -0.018936853983654647 -0.053319117985313462 0 -0.020660830489162323 -0.053346679245391111 0 -0.018936853983654647 -0.053319117985313462 0 -0.017964331863915523 -0.054162425927933695 0 -0.019868547166624836 -0.051280231927185956 0 -0.021474463530172076 -0.047847533254268881 0 -0.01879004282786001 -0.052339008430688269 0 -0.018936853983654647 -0.053319117985313462 0 -0.017700896773353295 -0.054072047610512888 0 -0.018936853983654647 -0.053319117985313462 0 -0.017964331863915523 -0.054162425927933695 0 -0.017700896773353295 -0.054072047610512888 0 -0.019009055264814331 -0.051221074981391876 0 -0.018655597587859122 -0.051909064034343325 0 -0.019279218116512214 -0.053931790183860913 0 -0.02005690864116972 -0.052268977921097554 0 -0.017964331863915523 -0.054162425927933695 0 -0.019279218116512214 -0.053931790183860913 0 -0.017964331863915523 -0.054162425927933695 0 -0.018430769002597852 -0.054611487967684717 0 -0.017970324331245333 -0.054305282922294279 0 -0.01792139379230364 -0.054317192793384858 0 -0.019329757678581305 -0.054303563651265763 0 -0.017964331863915523 -0.054162425927933695 0 -0.017970324331245333 -0.054305282922294279 0 -0.017199843725557669 -0.054593231355034237 0 -0.017970324331245333 -0.054305282922294279 0 -0.01792139379230364 -0.054317192793384858 0 -0.017700896773353295 -0.054072047610512888 0 -0.017964331863915523 -0.054162425927933695 0 -0.017970324331245333 -0.054305282922294279 0 -0.017700896773353295 -0.054072047610512888 0 -0.022023465444160794 -0.048754268652037282 0 -0.021474463530172076 -0.047847533254268881 0 -0.01792139379230364 -0.054317192793384858 0 -0.017700896773353295 -0.054072047610512888 0 -0.017421579087138612 -0.054853785318393931 0 -0.027569026113128923 -0.043890387579040242 0 -0.027283944981898872 -0.04044739611921902 0 -0.02962410720740483 -0.041227456137959452 0 -0.020311464547976967 -0.047273817252271297 0 -0.019756404236706968 -0.051033615190661949 0 -0.018008513427452716 -0.050606667073945726 0 -0.019756404236706968 -0.051033615190661949 0 -0.01879004282786001 -0.052339008430688269 0 -0.018008513427452716 -0.050606667073945726 0 -0.020750258195269745 -0.048365482411579244 0 -0.021474463530172076 -0.047847533254268881 0 -0.020311464547976967 -0.047273817252271297 0 -0.017628741117235398 -0.050501756102234195 0 -0.018947430170800299 -0.046849999037795534 0 -0.029429030128920685 -0.038159493451176571 0 -0.02962410720740483 -0.041227456137959452 0 -0.03055292973815555 -0.038530404250519915 0 -0.021474463530172076 -0.047847533254268881 0 -0.023853610806926592 -0.041876429231388658 0 -0.034018404802046119 -0.03270943983920669 0 -0.030085945295163521 -0.036933480716621676 0 -0.030371303851285288 -0.033377334046032332 0 -0.028799649851357832 -0.03521297581796503 0 -0.027560289971253111 -0.0380859758642711 0 -0.029429030128920685 -0.038159493451176571 0 -0.027283944981898872 -0.04044739611921902 0 -0.02962410720740483 -0.041227456137959452 0 -0.030085945295163521 -0.036933480716621676 0 -0.030371303851285288 -0.033377334046032332 0 -0.028188368761499865 -0.034659092006678743 0 -0.028222393689681952 -0.03149835086680991 0 -0.028188368761499865 -0.034659092006678743 0 -0.023536587731906262 -0.032930198341244839 0 -0.030085945295163521 -0.036933480716621676 0 -0.028188368761499865 -0.034659092006678743 0 -0.025559198990361947 -0.036014952889760428 0 -0.028188368761499865 -0.034659092006678743 0 -0.023536587731906262 -0.032930198341244839 0 -0.025559198990361947 -0.036014952889760428 0 -0.028222393689681952 -0.03149835086680991 0 -0.030371303851285288 -0.033377334046032332 0 -0.028188368761499865 -0.034659092006678743 0 -0.023536587731906262 -0.032930198341244839 0 -0.025559198990361947 -0.036014952889760428 0 -0.021943414389553644 -0.037557811483279156 0 -0.021943414389553644 -0.037557811483279156 0 -0.026235464046173579 -0.041107169202355152 0 -0.020601684217424601 -0.041696631461430787 0 -0.025559198990361947 -0.036014952889760428 0 -0.021943414389553644 -0.037557811483279156 0 -0.026235464046173579 -0.041107169202355152 0 -0.027569026113128923 -0.043890387579040242 0 -0.027283944981898872 -0.04044739611921902 0 -0.024919529844087445 -0.042857254046869457 0 -0.030085945295163521 -0.036933480716621676 0 -0.025559198990361947 -0.036014952889760428 0 -0.026235464046173579 -0.041107169202355152 0 -0.027560289971253111 -0.0380859758642711 0 -0.025385174712373868 -0.041100909118104142 0 -0.027569026113128923 -0.043890387579040242 0 -0.025027602612578154 -0.044808619488445722 0 -0.024919529844087445 -0.042857254046869457 0 -0.022023465444160794 -0.048754268652037282 0 -0.021790950748645857 -0.049894032478964588 0 -0.027569026113128923 -0.043890387579040242 0 -0.025027602612578154 -0.044808619488445722 0 -0.025309996641392829 -0.047115281765189441 0 -0.025309996641392829 -0.047115281765189441 0 -0.022105380142918567 -0.045415994848820945 0 -0.020556728058091295 -0.048420660189394907 0 -0.025027602612578154 -0.044808619488445722 0 -0.025309996641392829 -0.047115281765189441 0 -0.022105380142918567 -0.045415994848820945 0 -0.026235464046173579 -0.041107169202355152 0 -0.022105380142918567 -0.045415994848820945 0 -0.020601684217424601 -0.041696631461430787 0 -0.025385174712373868 -0.041100909118104142 0 -0.024019293987680927 -0.042743081110033963 0 -0.025027602612578154 -0.044808619488445722 0 -0.024919529844087445 -0.042857254046869457 0 -0.022105380142918567 -0.045415994848820945 0 -0.020601684217424601 -0.041696631461430787 0 -0.018781075168062898 -0.046088796743956779 0 -0.016392614580869887 -0.042536664393099367 0 -0.022105380142918567 -0.045415994848820945 0 -0.018781075168062898 -0.046088796743956779 0 -0.020556728058091295 -0.048420660189394907 0 -0.022105380142918567 -0.045415994848820945 0 -0.020601684217424601 -0.041696631461430787 0 -0.018781075168062898 -0.046088796743956779 0 -0.01499837754470925 -0.047554039861200513 0 -0.018781075168062898 -0.046088796743956779 0 -0.016392614580869887 -0.042536664393099367 0 -0.020601684217424601 -0.041696631461430787 0 -0.016392614580869887 -0.042536664393099367 0 -0.018093990260848673 -0.038418013968036263 0 -0.01438531283334718 -0.038446176838100601 0 -0.018093990260848673 -0.038418013968036263 0 -0.01628048368035049 -0.035125607470719335 0 -0.01438531283334718 -0.038446176838100601 0 -0.016392614580869887 -0.042536664393099367 0 -0.018093990260848673 -0.038418013968036263 0 -0.021943414389553644 -0.037557811483279156 0 -0.018093990260848673 -0.038418013968036263 0 -0.019600451602171286 -0.035157272987133691 0 -0.021943414389553644 -0.037557811483279156 0 -0.020601684217424601 -0.041696631461430787 0 -0.018093990260848673 -0.038418013968036263 0 -0.018957963244619954 -0.031771115328570958 0 -0.023536587731906262 -0.032930198341244839 0 -0.019600451602171286 -0.035157272987133691 0 -0.023536587731906262 -0.032930198341244839 0 -0.021943414389553644 -0.037557811483279156 0 -0.019600451602171286 -0.035157272987133691 0 -0.015877116595608497 -0.031685369786269658 0 -0.018957963244619954 -0.031771115328570958 0 -0.01628048368035049 -0.035125607470719335 0 -0.018957963244619954 -0.031771115328570958 0 -0.019600451602171286 -0.035157272987133691 0 -0.01628048368035049 -0.035125607470719335 0 -0.01337815659665605 -0.034530466448053007 0 -0.015877116595608497 -0.031685369786269658 0 -0.01628048368035049 -0.035125607470719335 0 -0.018093990260848673 -0.038418013968036263 0 -0.019600451602171286 -0.035157272987133691 0 -0.01628048368035049 -0.035125607470719335 0 -0.019451623109370552 -0.060218421145284987 0 -0.022650847612868567 -0.05785143304662544 0 -0.018817465291029702 -0.056473466241203037 0 -0.019451623109370552 -0.060218421145284987 0 -0.022650847612868567 -0.05785143304662544 0 -0.023383524397390127 -0.060716748612982416 0 -0.022650847612868567 -0.05785143304662544 0 -0.026375859844213263 -0.056410133301002897 0 -0.024871361859065258 -0.05910225675769603 0 -0.022650847612868567 -0.05785143304662544 0 -0.024871361859065258 -0.05910225675769603 0 -0.023383524397390127 -0.060716748612982416 0 -0.024871361859065258 -0.05910225675769603 0 -0.025211469916438294 -0.060811893019548133 0 -0.023383524397390127 -0.060716748612982416 0 -0.019806136287240733 -0.054771235434964115 0 -0.021362770288409154 -0.056578030878834576 0 -0.022650847612868567 -0.05785143304662544 0 -0.022438473723796568 -0.054261073466267316 0 -0.026375859844213263 -0.056410133301002897 0 -0.016112186755265549 -0.051802604597772209 0 -0.018817465291029702 -0.056473466241203037 0 -0.022438473723796568 -0.054261073466267316 0 -0.022650847612868567 -0.05785143304662544 0 -0.018817465291029702 -0.056473466241203037 0 -0.022438473723796568 -0.054261073466267316 0 -0.016112186755265549 -0.051802604597772209 0 -0.018476650517048776 -0.049863426725748602 0 -0.019547322272403245 -0.052321676356709944 0 -0.018330891069794741 -0.05390880239596206 0 -0.019806136287240733 -0.054771235434964115 0 -0.01499837754470925 -0.047554039861200513 0 -0.018781075168062898 -0.046088796743956779 0 -0.018476650517048776 -0.049863426725748602 0 -0.01499837754470925 -0.047554039861200513 0 -0.016112186755265549 -0.051802604597772209 0 -0.018476650517048776 -0.049863426725748602 0 -0.018781075168062898 -0.046088796743956779 0 -0.018476650517048776 -0.049863426725748602 0 -0.020556728058091295 -0.048420660189394907 0 -0.018476650517048776 -0.049863426725748602 0 -0.020556728058091295 -0.048420660189394907 0 -0.021360547273660858 -0.051477443539118879 0 -0.018476650517048776 -0.049863426725748602 0 -0.019547322272403245 -0.052321676356709944 0 -0.021360547273660858 -0.051477443539118879 0 -0.021360547273660858 -0.051477443539118879 0 -0.01975126273193404 -0.051696031605679496 0 -0.020668964860992699 -0.051484798249342593 0 -0.019547322272403245 -0.052321676356709944 0 -0.021360547273660858 -0.051477443539118879 0 -0.020668964860992699 -0.051484798249342593 0 -0.021790950748645857 -0.049894032478964588 0 -0.021505965041659372 -0.050479906484972838 0 -0.025309996641392829 -0.047115281765189441 0 -0.020556728058091295 -0.048420660189394907 0 -0.021360547273660858 -0.051477443539118879 0 -0.017970324331245333 -0.054305282922294279 0 -0.019329757678581305 -0.054303563651265763 0 -0.018810071681136874 -0.053280729651847256 0 -0.019329757678581305 -0.054303563651265763 0 -0.021360547273660858 -0.051477443539118879 0 -0.018810071681136874 -0.053280729651847256 0 -0.018810071681136874 -0.053280729651847256 0 -0.01975126273193404 -0.051696031605679496 0 -0.01811083649190099 -0.05183790632422007 0 -0.021360547273660858 -0.051477443539118879 0 -0.018810071681136874 -0.053280729651847256 0 -0.01975126273193404 -0.051696031605679496 0 -0.021362770288409154 -0.056578030878834576 0 -0.021166534671752731 -0.059384927748217499 0 -0.01975126273193404 -0.051696031605679496 0 -0.020668964860992699 -0.051484798249342593 0 -0.019036996885669961 -0.050395448759127499 0 -0.026375859844213263 -0.056410133301002897 0 -0.024871361859065258 -0.05910225675769603 0 -0.02671205957474488 -0.059488568525984657 0 -0.024871361859065258 -0.05910225675769603 0 -0.02671205957474488 -0.059488568525984657 0 -0.025211469916438294 -0.060811893019548133 0 -0.021166534671752731 -0.059384927748217499 0 -0.022857775105432195 -0.061326424706621918 0 -0.026375859844213263 -0.056410133301002897 0 -0.02671205957474488 -0.059488568525984657 0 -0.029771398372638154 -0.057927300339151271 0 -0.02671205957474488 -0.059488568525984657 0 -0.029771398372638154 -0.057927300339151271 0 -0.027936095626623476 -0.061679454312076623 0 -0.021558382068587758 -0.067071543073683654 0 -0.021100436138179149 -0.065635810340856096 0 -0.022968160924001738 -0.065432703628605315 0 -0.021166534671752731 -0.059384927748217499 0 -0.020445055110842603 -0.061129383662118314 0 -0.021558382068587758 -0.067071543073683654 0 -0.020272846869724477 -0.066090685053429729 0 -0.021100436138179149 -0.065635810340856096 0 -0.020272846869724477 -0.066090685053429729 0 -0.019805165523321271 -0.064674650131633704 0 -0.020078353251088206 -0.065411346004607157 0 -0.020445055110842603 -0.061129383662118314 0 -0.0205510756486448 -0.061741025969387284 0 -0.016791638969039464 -0.063173103839948092 0 -0.0173104242389365 -0.060318782581596959 0 -0.0195405382665104 -0.061932579368358318 0 -0.013644430592950242 -0.061945317584432634 0 -0.016791638969039464 -0.063173103839948092 0 -0.0173104242389365 -0.060318782581596959 0 -0.01975126273193404 -0.051696031605679496 0 -0.019036996885669961 -0.050395448759127499 0 -0.01811083649190099 -0.05183790632422007 0 -0.021166534671752731 -0.059384927748217499 0 -0.019956540744289656 -0.057313722620372494 0 -0.013644430592950242 -0.061945317584432634 0 -0.0173104242389365 -0.060318782581596959 0 -0.015046851763569876 -0.058576204251140004 0 -0.018810071681136874 -0.053280729651847256 0 -0.01811083649190099 -0.05183790632422007 0 -0.017199843725557669 -0.054593231355034237 0 -0.019956540744289656 -0.057313722620372494 0 -0.019639101177440804 -0.05662830459439222 0 -0.017970324331245333 -0.054305282922294279 0 -0.018810071681136874 -0.053280729651847256 0 -0.017199843725557669 -0.054593231355034237 0 -0.017964331863915523 -0.054162425927933695 0 -0.017199843725557669 -0.054593231355034237 0 -0.018430769002597852 -0.054611487967684717 0 -0.017199843725557669 -0.054593231355034237 0 -0.018430769002597852 -0.054611487967684717 0 -0.018755829556525831 -0.056646479361769274 0 -0.015046851763569876 -0.058576204251140004 0 -0.017199843725557669 -0.054593231355034237 0 -0.018755829556525831 -0.056646479361769274 0 -0.0173104242389365 -0.060318782581596959 0 -0.018755829556525831 -0.056646479361769274 0 -0.020394263275272405 -0.059312864870595165 0 -0.0173104242389365 -0.060318782581596959 0 -0.015046851763569876 -0.058576204251140004 0 -0.018755829556525831 -0.056646479361769274 0 -0.018755829556525831 -0.056646479361769274 0 -0.020965445782241823 -0.056954933531581299 0 -0.020394263275272405 -0.059312864870595165 0 -0.018755829556525831 -0.056646479361769274 0 -0.020965445782241823 -0.056954933531581299 0 -0.019865831082625161 -0.054989818635426284 0 -0.018430769002597852 -0.054611487967684717 0 -0.018755829556525831 -0.056646479361769274 0 -0.019865831082625161 -0.054989818635426284 0 -0.022955725526028849 -0.054005095148370652 0 -0.020965445782241823 -0.056954933531581299 0 -0.019865831082625161 -0.054989818635426284 0 -0.022955725526028849 -0.054005095148370652 0 -0.020965445782241823 -0.056954933531581299 0 -0.023240008919211529 -0.057590307474242604 0 -0.020965445782241823 -0.056954933531581299 0 -0.020394263275272405 -0.059312864870595165 0 -0.023240008919211529 -0.057590307474242604 0 -0.020394263275272405 -0.059312864870595165 0 -0.023240008919211529 -0.057590307474242604 0 -0.022877280984217825 -0.062184156931460371 0 -0.020394263275272405 -0.059312864870595165 0 -0.0195405382665104 -0.061932579368358318 0 -0.022877280984217825 -0.062184156931460371 0 -0.0173104242389365 -0.060318782581596959 0 -0.020394263275272405 -0.059312864870595165 0 -0.0195405382665104 -0.061932579368358318 0 -0.0195405382665104 -0.061932579368358318 0 -0.019805165523321271 -0.064674650131633704 0 -0.022877280984217825 -0.062184156931460371 0 -0.016791638969039464 -0.063173103839948092 0 -0.0195405382665104 -0.061932579368358318 0 -0.019805165523321271 -0.064674650131633704 0 -0.019805165523321271 -0.064674650131633704 0 -0.022877280984217825 -0.062184156931460371 0 -0.021269101131715398 -0.065417835191117671 0 -0.019805165523321271 -0.064674650131633704 0 -0.019986653534509916 -0.065767076993563142 0 -0.021269101131715398 -0.065417835191117671 0 -0.019805165523321271 -0.064674650131633704 0 -0.019986653534509916 -0.065767076993563142 0 -0.020078353251088206 -0.065411346004607157 0 -0.019986653534509916 -0.065767076993563142 0 -0.020154191976013248 -0.065697817086066965 0 -0.020078353251088206 -0.065411346004607157 0 -0.019986653534509916 -0.065767076993563142 0 -0.019557485097702085 -0.065911204643314791 0 -0.020154191976013248 -0.065697817086066965 0 -0.019986653534509916 -0.065767076993563142 0 -0.021269101131715398 -0.065417835191117671 0 -0.01921006196766022 -0.066195151090111592 0 -0.018443345593404034 -0.065676441810184394 0 -0.019557485097702085 -0.065911204643314791 0 -0.01921006196766022 -0.066195151090111592 0 -0.019986653534509916 -0.065767076993563142 0 -0.019557485097702085 -0.065911204643314791 0 -0.01921006196766022 -0.066195151090111592 0 -0.018443345593404034 -0.065676441810184394 0 -0.018623754702301043 -0.064999293422052073 0 -0.016250560845324134 -0.064999921756061271 0 -0.018443345593404034 -0.065676441810184394 0 -0.01921006196766022 -0.066195151090111592 0 -0.016250560845324134 -0.064999921756061271 0 -0.018623754702301043 -0.064999293422052073 0 -0.019557485097702085 -0.065911204643314791 0 -0.020993338319163994 -0.065000102311128197 0 -0.018443345593404034 -0.065676441810184394 0 -0.018623754702301043 -0.064999293422052073 0 -0.019557485097702085 -0.065911204643314791 0 -0.019557485097702085 -0.065911204643314791 0 -0.020526816005080117 -0.065561113840211904 0 -0.020154191976013248 -0.065697817086066965 0 -0.020526816005080117 -0.065561113840211904 0 -0.020993338319163994 -0.065000102311128197 0 -0.020732073502096854 -0.065368307648089194 0 -0.020999000061348094 -0.06499979720848463 0 -0.022657945220126641 -0.065314656804640797 0 -0.019557485097702085 -0.065911204643314791 0 -0.020526816005080117 -0.065561113840211904 0 -0.020993338319163994 -0.065000102311128197 0 -0.020996980510361571 -0.064999998377046717 0 -0.024204416903221275 -0.064999993672935005 0 -0.02345303200618962 -0.066503583633256855 0 -0.024204416903221275 -0.064999993672935005 0 -0.02345303200618962 -0.066503583633256855 0 -0.025201706223540295 -0.066349638026368701 0 -0.020526816005080117 -0.065561113840211904 0 -0.020732073502096854 -0.065368307648089194 0 -0.020698152198907038 -0.065490524931189731 0 -0.020526816005080117 -0.065561113840211904 0 -0.020698152198907038 -0.065490524931189731 0 -0.02055964839058208 -0.065515431371082331 0 -0.020698152198907038 -0.065490524931189731 0 -0.02055964839058208 -0.065515431371082331 0 -0.020766109100050473 -0.065536521515910856 0 -0.020526816005080117 -0.065561113840211904 0 -0.02055964839058208 -0.065515431371082331 0 -0.020154191976013248 -0.065697817086066965 0 -0.02055964839058208 -0.065515431371082331 0 -0.020154191976013248 -0.065697817086066965 0 -0.020078353251088206 -0.065411346004607157 0 -0.020272846869724477 -0.066090685053429729 0 -0.020078353251088206 -0.065411346004607157 0 -0.021100436138179149 -0.065635810340856096 0 -0.02055964839058208 -0.065515431371082331 0 -0.020078353251088206 -0.065411346004607157 0 -0.021100436138179149 -0.065635810340856096 0 -0.02055964839058208 -0.065515431371082331 0 -0.021100436138179149 -0.065635810340856096 0 -0.020766109100050473 -0.065536521515910856 0 -0.023157506410758685 -0.066074919756649378 0 -0.023640775870281152 -0.065829777896969532 0 -0.021100436138179149 -0.065635810340856096 0 -0.022968160924001738 -0.065432703628605315 0 -0.022848294526247287 -0.064052704882741035 0 -0.02671205957474488 -0.059488568525984657 0 -0.027936095626623476 -0.061679454312076623 0 -0.026386187665075965 -0.061373161656442382 0 -0.02671205957474488 -0.059488568525984657 0 -0.026386187665075965 -0.061373161656442382 0 -0.025211469916438294 -0.060811893019548133 0 -0.026386187665075965 -0.061373161656442382 0 -0.025211469916438294 -0.060811893019548133 0 -0.02562813724859709 -0.062234556678924566 0 -0.02562813724859709 -0.062234556678924566 0 -0.025275765094142647 -0.063096215542279274 0 -0.024630378860201033 -0.062299363449157291 0 -0.025211469916438294 -0.060811893019548133 0 -0.02562813724859709 -0.062234556678924566 0 -0.024630378860201033 -0.062299363449157291 0 -0.027936095626623476 -0.061679454312076623 0 -0.026386187665075965 -0.061373161656442382 0 -0.026219853443245841 -0.062457779588569885 0 -0.026386187665075965 -0.061373161656442382 0 -0.02562813724859709 -0.062234556678924566 0 -0.026219853443245841 -0.062457779588569885 0 -0.026219853443245841 -0.062457779588569885 0 -0.02567067699905758 -0.06302377685051444 0 -0.025255195374607901 -0.063335786499838856 0 -0.02562813724859709 -0.062234556678924566 0 -0.026219853443245841 -0.062457779588569885 0 -0.02567067699905758 -0.06302377685051444 0 -0.02562813724859709 -0.062234556678924566 0 -0.02567067699905758 -0.06302377685051444 0 -0.025275765094142647 -0.063096215542279274 0 -0.02567067699905758 -0.06302377685051444 0 -0.025275765094142647 -0.063096215542279274 0 -0.025620537853159018 -0.063386306325279862 0 -0.02567067699905758 -0.06302377685051444 0 -0.025620537853159018 -0.063386306325279862 0 -0.025255195374607901 -0.063335786499838856 0 -0.022968160924001738 -0.065432703628605315 0 -0.025255195374607901 -0.063335786499838856 0 -0.022848294526247287 -0.064052704882741035 0 -0.027936095626623476 -0.061679454312076623 0 -0.026219853443245841 -0.062457779588569885 0 -0.025255195374607901 -0.063335786499838856 0 -0.023640775870281152 -0.065829777896969532 0 -0.024886581911680791 -0.065588636194516423 0 -0.022857775105432195 -0.061326424706621918 0 -0.023403419872068766 -0.061671581090415269 0 -0.025255195374607901 -0.063335786499838856 0 -0.022848294526247287 -0.064052704882741035 0 -0.024738762296751243 -0.062405817574639255 0 -0.020698152198907038 -0.065490524931189731 0 -0.020766109100050473 -0.065536521515910856 0 -0.020794811890969218 -0.065468130083079903 0 -0.020732073502096854 -0.065368307648089194 0 -0.020698152198907038 -0.065490524931189731 0 -0.020794811890969218 -0.065468130083079903 0 -0.022657945220126641 -0.065314656804640797 0 -0.024886581911680791 -0.065588636194516423 0 -0.025901562634251796 -0.0680042847317293 0 -0.025201706223540295 -0.066349638026368701 0 -0.027411832090988776 -0.064999996097344886 0 -0.02345303200618962 -0.066503583633256855 0 -0.025901562634251796 -0.0680042847317293 0 -0.025201706223540295 -0.066349638026368701 0 -0.024204416903221275 -0.064999993672935005 0 -0.025201706223540295 -0.066349638026368701 0 -0.027411832090988776 -0.064999996097344886 0 -0.027412245696356842 -0.065000857940331766 0 -0.027725154966687083 -0.066626950245996394 0 -0.028039148635524844 -0.067398240545465782 0 -0.024886581911680791 -0.065588636194516423 0 -0.027407985297559157 -0.065000028371078766 0 -0.027168127912180366 -0.06683049315004809 0 -0.027412245696356842 -0.065000857940331766 0 -0.027725154966687083 -0.066626950245996394 0 -0.028178903956752866 -0.066419217161389169 0 -0.027168127912180366 -0.06683049315004809 0 -0.027725154966687083 -0.066626950245996394 0 -0.025148917468863483 -0.065254071973013597 0 -0.024886581911680791 -0.065588636194516423 0 -0.025620537853159018 -0.063386306325279862 0 -0.025255195374607901 -0.063335786499838856 0 -0.024738762296751243 -0.062405817574639255 0 -0.028178903956752866 -0.066419217161389169 0 -0.027725154966687083 -0.066626950245996394 0 -0.028039148635524844 -0.067398240545465782 0 -0.028178903956752866 -0.066419217161389169 0 -0.028039148635524844 -0.067398240545465782 0 -0.026194049452455292 -0.065434343199725298 0 -0.028039148635524844 -0.067398240545465782 0 -0.03075325534858964 -0.068375550256993267 0 -0.030147981678982267 -0.07082782789301148 0 -0.027412245696356842 -0.065000857940331766 0 -0.028039148635524844 -0.067398240545465782 0 -0.030430477331138375 -0.066582459000693178 0 -0.027412245696356842 -0.065000857940331766 0 -0.031218689669853875 -0.064999180696877545 0 -0.030430477331138375 -0.066582459000693178 0 -0.033011280521454182 -0.067346455243561754 0 -0.031218689669853875 -0.064999180696877545 0 -0.030430477331138375 -0.066582459000693178 0 -0.033011280521454182 -0.067346455243561754 0 -0.03075325534858964 -0.068375550256993267 0 -0.031938243509402046 -0.06988431389432033 0 -0.033011280521454182 -0.067346455243561754 0 -0.030430477331138375 -0.066582459000693178 0 -0.03075325534858964 -0.068375550256993267 0 -0.028039148635524844 -0.067398240545465782 0 -0.030430477331138375 -0.066582459000693178 0 -0.03075325534858964 -0.068375550256993267 0 -0.03075325534858964 -0.068375550256993267 0 -0.031938243509402046 -0.06988431389432033 0 -0.030147981678982267 -0.07082782789301148 0 -0.031938243509402046 -0.06988431389432033 0 -0.030147981678982267 -0.07082782789301148 0 -0.031759652189804338 -0.071524557380305887 0 -0.028039148635524844 -0.067398240545465782 0 -0.022652162345569694 -0.06370178421131982 0 -0.026194049452455292 -0.065434343199725298 0 -0.02798953178991961 -0.065830872778202862 0 -0.028095508401060513 -0.065445000007965728 0 -0.025148917468863483 -0.065254071973013597 0 -0.024962868412296588 -0.064991526068894134 0 -0.025275765094142647 -0.063096215542279274 0 -0.025620537853159018 -0.063386306325279862 0 -0.024689152519649225 -0.063743236115150759 0 -0.028178903956752866 -0.066419217161389169 0 -0.026194049452455292 -0.065434343199725298 0 -0.024689152519649225 -0.063743236115150759 0 -0.025275765094142647 -0.063096215542279274 0 -0.024689152519649225 -0.063743236115150759 0 -0.024630378860201033 -0.062299363449157291 0 -0.022652162345569694 -0.06370178421131982 0 -0.026194049452455292 -0.065434343199725298 0 -0.024689152519649225 -0.063743236115150759 0 -0.022652162345569694 -0.06370178421131982 0 -0.024689152519649225 -0.063743236115150759 0 -0.022990982095059054 -0.062130623024156714 0 -0.024689152519649225 -0.063743236115150759 0 -0.022990982095059054 -0.062130623024156714 0 -0.024630378860201033 -0.062299363449157291 0 -0.022990982095059054 -0.062130623024156714 0 -0.024630378860201033 -0.062299363449157291 0 -0.023383524397390127 -0.060716748612982416 0 -0.025211469916438294 -0.060811893019548133 0 -0.024630378860201033 -0.062299363449157291 0 -0.023383524397390127 -0.060716748612982416 0 -0.019451623109370552 -0.060218421145284987 0 -0.022990982095059054 -0.062130623024156714 0 -0.023383524397390127 -0.060716748612982416 0 -0.03179860689676569 -0.073671296701105893 0 -0.030147981678982267 -0.07082782789301148 0 -0.031759652189804338 -0.071524557380305887 0 -0.019451623109370552 -0.060218421145284987 0 -0.022652162345569694 -0.06370178421131982 0 -0.022990982095059054 -0.062130623024156714 0 -0.028851621035021195 -0.064039217111957522 0 -0.028095508401060513 -0.065445000007965728 0 -0.014165945848710355 -0.057744860399402347 0 -0.013953562919784441 -0.055880294002639795 0 -0.013516348522660693 -0.060086989282173348 0 -0.014165945848710355 -0.057744860399402347 0 -0.014887605486395866 -0.056143033165737169 0 -0.014018094640075101 -0.059837121504317831 0 -0.013542564644625037 -0.060652040200805328 0 -0.013491475862076795 -0.061621926835246366 0 -0.013616374120726632 -0.06416715322087499 0 -0.013683091802692138 -0.064778726139720105 0 -0.013964503736759212 -0.063747055567971389 0 -0.013453813493288471 -0.064487949680641976 0 -0.013616374120726632 -0.06416715322087499 0 -0.013683091802692138 -0.064778726139720105 0 -0.014165945848710355 -0.057744860399402347 0 -0.014887605486395866 -0.056143033165737169 0 -0.01440632018119678 -0.05624319680868977 0 -0.013616374120726632 -0.06416715322087499 0 -0.013433326053552424 -0.063919611576334689 0 -0.013640703884404155 -0.06379744388818448 0 -0.013453813493288471 -0.064487949680641976 0 -0.013616374120726632 -0.06416715322087499 0 -0.013391341264273987 -0.064224089085116773 0 -0.013616374120726632 -0.06416715322087499 0 -0.013391341264273987 -0.064224089085116773 0 -0.013433326053552424 -0.063919611576334689 0 -0.013391341264273987 -0.064224089085116773 0 -0.013433326053552424 -0.063919611576334689 0 -0.013189260288537202 -0.064019244761669827 0 -0.013391341264273987 -0.064224089085116773 0 -0.013208714476217208 -0.064553923905933688 0 -0.013189260288537202 -0.064019244761669827 0 -0.013208714476217208 -0.064553923905933688 0 -0.013189260288537202 -0.064019244761669827 0 -0.012946369935761242 -0.064364077226794422 0 -0.013208714476217208 -0.064553923905933688 0 -0.012946369935761242 -0.064364077226794422 0 -0.012817521652566296 -0.06497888220722961 0 -0.013453813493288471 -0.064487949680641976 0 -0.013391341264273987 -0.064224089085116773 0 -0.013208714476217208 -0.064553923905933688 0 -0.013453813493288471 -0.064487949680641976 0 -0.013208714476217208 -0.064553923905933688 0 -0.01337958595570079 -0.064719577367743711 0 -0.01337958595570079 -0.064719577367743711 0 -0.013197859942656152 -0.065068741012344292 0 -0.013683091802692138 -0.064778726139720105 0 -0.013208714476217208 -0.064553923905933688 0 -0.01337958595570079 -0.064719577367743711 0 -0.013197859942656152 -0.065068741012344292 0 -0.013197859942656152 -0.065068741012344292 0 -0.013683091802692138 -0.064778726139720105 0 -0.013145362244905924 -0.065645051922556125 0 -0.013208714476217208 -0.064553923905933688 0 -0.013197859942656152 -0.065068741012344292 0 -0.012817521652566296 -0.06497888220722961 0 -0.013197859942656152 -0.065068741012344292 0 -0.012817521652566296 -0.06497888220722961 0 -0.012800101405701494 -0.065410249343583707 0 -0.01451153798150559 -0.055682944028131509 0 -0.014126739493584048 -0.054734973660166809 0 -0.01577779070108528 -0.053605009080608154 0 -0.014887605486395866 -0.056143033165737169 0 -0.01451153798150559 -0.055682944028131509 0 -0.01577779070108528 -0.053605009080608154 0 -0.013542564644625037 -0.060652040200805328 0 -0.012986592853825132 -0.060228693606974644 0 -0.013453813493288471 -0.064487949680641976 0 -0.01337958595570079 -0.064719577367743711 0 -0.013683091802692138 -0.064778726139720105 0 -0.014165945848710355 -0.057744860399402347 0 -0.01440632018119678 -0.05624319680868977 0 -0.013953562919784441 -0.055880294002639795 0 -0.014887605486395866 -0.056143033165737169 0 -0.01440632018119678 -0.05624319680868977 0 -0.01451153798150559 -0.055682944028131509 0 -0.013926258373956217 -0.055959744225568153 0 -0.013911936477774198 -0.055965591674900936 0 -0.01440632018119678 -0.05624319680868977 0 -0.01451153798150559 -0.055682944028131509 0 -0.013953562919784441 -0.055880294002639795 0 -0.01451153798150559 -0.055682944028131509 0 -0.014028767495163748 -0.055752119297326153 0 -0.013852357243807442 -0.055402207334939772 0 -0.01451153798150559 -0.055682944028131509 0 -0.013852357243807442 -0.055402207334939772 0 -0.014126739493584048 -0.054734973660166809 0 -0.013852357243807442 -0.055402207334939772 0 -0.014126739493584048 -0.054734973660166809 0 -0.013452500275984079 -0.055061898386616806 0 -0.014028767495163748 -0.055752119297326153 0 -0.013055185138603643 -0.055439174040867699 0 -0.011586563144823044 -0.056149794701930641 0 -0.013911936477774198 -0.055965591674900936 0 -0.012634222692709935 -0.055792062226641535 0 -0.014126739493584048 -0.054734973660166809 0 -0.013452500275984079 -0.055061898386616806 0 -0.013203882403653569 -0.054606060510913788 0 -0.013852357243807442 -0.055402207334939772 0 -0.013452500275984079 -0.055061898386616806 0 -0.013055185138603643 -0.055439174040867699 0 -0.013062214117379728 -0.055091524244811792 0 -0.013203882403653569 -0.054606060510913788 0 -0.01246684004102006 -0.055144087557998447 0 -0.013452500275984079 -0.055061898386616806 0 -0.013062214117379728 -0.055091524244811792 0 -0.013055185138603643 -0.055439174040867699 0 -0.013452500275984079 -0.055061898386616806 0 -0.013062214117379728 -0.055091524244811792 0 -0.013203882403653569 -0.054606060510913788 0 -0.01246684004102006 -0.055144087557998447 0 -0.011953684911240459 -0.054846696654693008 0 -0.012294377434133325 -0.054360924570862328 0 -0.013203882403653569 -0.054606060510913788 0 -0.01246684004102006 -0.055144087557998447 0 -0.012294377434133325 -0.054360924570862328 0 -0.013062214117379728 -0.055091524244811792 0 -0.01246684004102006 -0.055144087557998447 0 -0.013055185138603643 -0.055439174040867699 0 -0.01246684004102006 -0.055144087557998447 0 -0.013055185138603643 -0.055439174040867699 0 -0.011586563144823044 -0.056149794701930641 0 -0.014028767495163748 -0.055752119297326153 0 -0.013852357243807442 -0.055402207334939772 0 -0.013055185138603643 -0.055439174040867699 0 -0.011364271585812064 -0.054668850450270472 0 -0.011606717501546317 -0.055243262098211517 0 -0.010677296064468864 -0.055420686460284932 0 -0.01246684004102006 -0.055144087557998447 0 -0.011953684911240459 -0.054846696654693008 0 -0.011606717501546317 -0.055243262098211517 0 -0.011364271585812064 -0.054668850450270472 0 -0.011953684911240459 -0.054846696654693008 0 -0.012294377434133325 -0.054360924570862328 0 -0.011364271585812064 -0.054668850450270472 0 -0.011953684911240459 -0.054846696654693008 0 -0.011606717501546317 -0.055243262098211517 0 -0.01246684004102006 -0.055144087557998447 0 -0.011606717501546317 -0.055243262098211517 0 -0.011586563144823044 -0.056149794701930641 0 -0.011606717501546317 -0.055243262098211517 0 -0.011586563144823044 -0.056149794701930641 0 -0.010677296064468864 -0.055420686460284932 0 -0.013447871529066038 -0.054415569664115565 0 -0.014342599551602954 -0.055242865759896474 0 -0.01376236220390949 -0.056309014428414211 0 -0.013447871529066038 -0.054415569664115565 0 -0.012374093386575451 -0.055958260324676677 0 -0.01376236220390949 -0.056309014428414211 0 -0.015952180256724239 -0.053492463235277427 0 -0.013447871529066038 -0.054415569664115565 0 -0.014342599551602954 -0.055242865759896474 0 -0.015952180256724239 -0.053492463235277427 0 -0.014342599551602954 -0.055242865759896474 0 -0.015017781358574032 -0.056251502880866965 0 -0.013911936477774198 -0.055965591674900936 0 -0.013957009150907406 -0.057856112787681727 0 -0.014165945848710355 -0.057744860399402347 0 -0.013516348522660693 -0.060086989282173348 0 -0.014018094640075101 -0.059837121504317831 0 -0.013516348522660693 -0.060086989282173348 0 -0.014018094640075101 -0.059837121504317831 0 -0.013735060426817354 -0.06239050666301222 0 -0.013491475862076795 -0.061621926835246366 0 -0.013398439794835253 -0.062086751188018083 0 -0.014342599551602954 -0.055242865759896474 0 -0.015017781358574032 -0.056251502880866965 0 -0.01376236220390949 -0.056309014428414211 0 -0.015017781358574032 -0.056251502880866965 0 -0.01376236220390949 -0.056309014428414211 0 -0.01388599757782669 -0.057670062362922457 0 -0.012374093386575451 -0.055958260324676677 0 -0.01376236220390949 -0.056309014428414211 0 -0.012484244610483464 -0.056964884026114791 0 -0.01376236220390949 -0.056309014428414211 0 -0.012484244610483464 -0.056964884026114791 0 -0.013202562329881868 -0.05739224566059746 0 -0.01376236220390949 -0.056309014428414211 0 -0.013202562329881868 -0.05739224566059746 0 -0.01388599757782669 -0.057670062362922457 0 -0.012484244610483464 -0.056964884026114791 0 -0.012579173303053347 -0.057947254143439285 0 -0.013202562329881868 -0.05739224566059746 0 -0.012579173303053347 -0.057947254143439285 0 -0.013301998074774123 -0.058066474017305851 0 -0.013202562329881868 -0.05739224566059746 0 -0.013301998074774123 -0.058066474017305851 0 -0.01388599757782669 -0.057670062362922457 0 -0.01353257598725678 -0.058560447068192065 0 -0.013301998074774123 -0.058066474017305851 0 -0.013202562329881868 -0.05739224566059746 0 -0.01388599757782669 -0.057670062362922457 0 -0.014121660552509891 -0.059039162200224655 0 -0.013148710981153016 -0.059036718294476868 0 -0.01353257598725678 -0.058560447068192065 0 -0.014121660552509891 -0.059039162200224655 0 -0.01388599757782669 -0.057670062362922457 0 -0.01353257598725678 -0.058560447068192065 0 -0.013148710981153016 -0.059036718294476868 0 -0.01353257598725678 -0.058560447068192065 0 -0.012999420840725293 -0.058503869008509103 0 -0.013301998074774123 -0.058066474017305851 0 -0.01353257598725678 -0.058560447068192065 0 -0.012999420840725293 -0.058503869008509103 0 -0.012579173303053347 -0.057947254143439285 0 -0.013301998074774123 -0.058066474017305851 0 -0.012999420840725293 -0.058503869008509103 0 -0.013148710981153016 -0.059036718294476868 0 -0.012999420840725293 -0.058503869008509103 0 -0.01244306894829969 -0.058697951930665709 0 -0.012579173303053347 -0.057947254143439285 0 -0.012999420840725293 -0.058503869008509103 0 -0.01244306894829969 -0.058697951930665709 0 -0.014121660552509891 -0.059039162200224655 0 -0.015017781358574032 -0.056251502880866965 0 -0.01388599757782669 -0.057670062362922457 0 -0.013964503736759212 -0.063747055567971389 0 -0.013713743191450968 -0.062972594626777331 0 -0.013735060426817354 -0.06239050666301222 0 -0.013607742844430615 -0.062920869009348138 0 -0.013516348522660693 -0.060086989282173348 0 -0.013735060426817354 -0.06239050666301222 0 -0.013560087098365325 -0.060197138239191837 0 -0.013957009150907406 -0.057856112787681727 0 -0.01364790763963126 -0.062698842712150496 0 -0.013607742844430615 -0.062920869009348138 0 -0.013735060426817354 -0.06239050666301222 0 -0.01364790763963126 -0.062698842712150496 0 -0.013735060426817354 -0.06239050666301222 0 -0.013665073407755081 -0.062698249499129777 0 -0.013713743191450968 -0.062972594626777331 0 -0.013735060426817354 -0.06239050666301222 0 -0.013665073407755081 -0.062698249499129777 0 -0.013468968176045881 -0.062730042260994837 0 -0.013665073407755081 -0.062698249499129777 0 -0.013566108027056109 -0.062953983415170972 0 -0.013468968176045881 -0.062730042260994837 0 -0.013360240910223043 -0.062947938152880467 0 -0.013566108027056109 -0.062953983415170972 0 -0.013229891053292246 -0.062699451218965835 0 -0.013468968176045881 -0.062730042260994837 0 -0.013360240910223043 -0.062947938152880467 0 -0.013360240910223043 -0.062947938152880467 0 -0.013387770983861924 -0.06325238147834232 0 -0.013566108027056109 -0.062953983415170972 0 -0.013387770983861924 -0.06325238147834232 0 -0.013566108027056109 -0.062953983415170972 0 -0.013690010332499279 -0.06332519074397483 0 -0.013713743191450968 -0.062972594626777331 0 -0.013566108027056109 -0.062953983415170972 0 -0.013690010332499279 -0.06332519074397483 0 -0.013713743191450968 -0.062972594626777331 0 -0.013665073407755081 -0.062698249499129777 0 -0.013566108027056109 -0.062953983415170972 0 -0.013964503736759212 -0.063747055567971389 0 -0.013713743191450968 -0.062972594626777331 0 -0.013690010332499279 -0.06332519074397483 0 -0.013690010332499279 -0.06332519074397483 0 -0.013506031285619401 -0.063567160250678656 0 -0.013713627315552503 -0.063603983110574205 0 -0.013387770983861924 -0.06325238147834232 0 -0.013690010332499279 -0.06332519074397483 0 -0.013506031285619401 -0.063567160250678656 0 -0.013506031285619401 -0.063567160250678656 0 -0.013433326053552424 -0.063919611576334689 0 -0.013640703884404155 -0.06379744388818448 0 -0.013506031285619401 -0.063567160250678656 0 -0.013640703884404155 -0.06379744388818448 0 -0.013713627315552503 -0.063603983110574205 0 -0.013964503736759212 -0.063747055567971389 0 -0.013690010332499279 -0.06332519074397483 0 -0.013713627315552503 -0.063603983110574205 0 -0.013616374120726632 -0.06416715322087499 0 -0.013964503736759212 -0.063747055567971389 0 -0.013640703884404155 -0.06379744388818448 0 -0.013964503736759212 -0.063747055567971389 0 -0.013640703884404155 -0.06379744388818448 0 -0.013713627315552503 -0.063603983110574205 0 -0.013189260288537202 -0.064019244761669827 0 -0.012966244583946433 -0.063648387416508759 0 -0.012946369935761242 -0.064364077226794422 0 -0.013189260288537202 -0.064019244761669827 0 -0.013214387892281632 -0.063533342681879726 0 -0.012966244583946433 -0.063648387416508759 0 -0.013433326053552424 -0.063919611576334689 0 -0.013189260288537202 -0.064019244761669827 0 -0.013214387892281632 -0.063533342681879726 0 -0.013506031285619401 -0.063567160250678656 0 -0.013433326053552424 -0.063919611576334689 0 -0.013214387892281632 -0.063533342681879726 0 -0.013387770983861924 -0.06325238147834232 0 -0.013506031285619401 -0.063567160250678656 0 -0.013214387892281632 -0.063533342681879726 0 -0.013214387892281632 -0.063533342681879726 0 -0.013113935851904587 -0.063138568523195354 0 -0.012966244583946433 -0.063648387416508759 0 -0.013020547960423673 -0.062856075499621578 0 -0.013113935851904587 -0.063138568523195354 0 -0.01290590162359909 -0.063177223804454702 0 -0.013387770983861924 -0.06325238147834232 0 -0.013214387892281632 -0.063533342681879726 0 -0.013113935851904587 -0.063138568523195354 0 -0.013360240910223043 -0.062947938152880467 0 -0.013387770983861924 -0.06325238147834232 0 -0.013113935851904587 -0.063138568523195354 0 -0.013229891053292246 -0.062699451218965835 0 -0.013360240910223043 -0.062947938152880467 0 -0.013113935851904587 -0.063138568523195354 0 -0.012726807856278603 -0.062911777014328443 0 -0.01290590162359909 -0.063177223804454702 0 -0.012690199221733143 -0.063422947071689856 0 -0.01290590162359909 -0.063177223804454702 0 -0.012690199221733143 -0.063422947071689856 0 -0.012966244583946433 -0.063648387416508759 0 -0.013113935851904587 -0.063138568523195354 0 -0.01290590162359909 -0.063177223804454702 0 -0.012966244583946433 -0.063648387416508759 0 -0.012001299063413021 -0.062783354279295114 0 -0.01253974694870782 -0.062442347458544836 0 -0.012690199221733143 -0.063422947071689856 0 -0.01150072495508264 -0.057836641231984072 0 -0.011293923102438361 -0.059849565377089499 0 -0.012454192530475904 -0.063987301087363849 0 -0.01200969193395245 -0.063790029814174865 0 -0.012333549566065083 -0.064589254361286735 0 -0.012690199221733143 -0.063422947071689856 0 -0.012454192530475904 -0.063987301087363849 0 -0.012720501778667747 -0.064220344211375471 0 -0.012690199221733143 -0.063422947071689856 0 -0.012454192530475904 -0.063987301087363849 0 -0.01200969193395245 -0.063790029814174865 0 -0.012690199221733143 -0.063422947071689856 0 -0.012966244583946433 -0.063648387416508759 0 -0.012720501778667747 -0.064220344211375471 0 -0.012966244583946433 -0.063648387416508759 0 -0.012946369935761242 -0.064364077226794422 0 -0.012720501778667747 -0.064220344211375471 0 -0.010795508558234711 -0.062529313728911157 0 -0.011455896264607119 -0.063045893074289164 0 -0.011028750641168802 -0.063835204779607482 0 -0.017019595816210556 -0.057246271595469127 0 -0.016988831838121714 -0.060465904932279706 0 -0.011455896264607119 -0.063045893074289164 0 -0.01200969193395245 -0.063790029814174865 0 -0.011028750641168802 -0.063835204779607482 0 -0.012001299063413021 -0.062783354279295114 0 -0.012690199221733143 -0.063422947071689856 0 -0.01200969193395245 -0.063790029814174865 0 -0.012001299063413021 -0.062783354279295114 0 -0.011455896264607119 -0.063045893074289164 0 -0.01200969193395245 -0.063790029814174865 0 -0.01200969193395245 -0.063790029814174865 0 -0.011028750641168802 -0.063835204779607482 0 -0.011813403833477978 -0.064560998953135121 0 -0.011411716623215492 -0.065017886343585546 0 -0.011813403833477978 -0.064560998953135121 0 -0.012164843613790232 -0.0654582433881509 0 -0.016988831838121714 -0.060465904932279706 0 -0.01689520707153333 -0.0628596698456972 0 -0.011028750641168802 -0.063835204779607482 0 -0.011411716623215492 -0.065017886343585546 0 -0.011813403833477978 -0.064560998953135121 0 -0.01200969193395245 -0.063790029814174865 0 -0.011813403833477978 -0.064560998953135121 0 -0.012333549566065083 -0.064589254361286735 0 -0.011813403833477978 -0.064560998953135121 0 -0.012164843613790232 -0.0654582433881509 0 -0.012333549566065083 -0.064589254361286735 0 -0.011411716623215492 -0.065017886343585546 0 -0.012164843613790232 -0.0654582433881509 0 -0.012162849877123471 -0.066000405193694434 0 -0.01689520707153333 -0.0628596698456972 0 -0.01669506828300019 -0.064416035188661069 0 -0.012639680599282643 -0.064759915388059738 0 -0.012946369935761242 -0.064364077226794422 0 -0.012817521652566296 -0.06497888220722961 0 -0.012639680599282643 -0.064759915388059738 0 -0.012946369935761242 -0.064364077226794422 0 -0.012720501778667747 -0.064220344211375471 0 -0.012639680599282643 -0.064759915388059738 0 -0.012720501778667747 -0.064220344211375471 0 -0.012333549566065083 -0.064589254361286735 0 -0.012454192530475904 -0.063987301087363849 0 -0.012720501778667747 -0.064220344211375471 0 -0.012333549566065083 -0.064589254361286735 0 -0.012639680599282643 -0.064759915388059738 0 -0.012333549566065083 -0.064589254361286735 0 -0.012457190579665456 -0.065228244901796822 0 -0.012164843613790232 -0.0654582433881509 0 -0.012333549566065083 -0.064589254361286735 0 -0.012457190579665456 -0.065228244901796822 0 -0.012164843613790232 -0.0654582433881509 0 -0.012457190579665456 -0.065228244901796822 0 -0.01236658302664654 -0.065923005106961294 0 -0.012457190579665456 -0.065228244901796822 0 -0.012817521652566296 -0.06497888220722961 0 -0.012536723584710972 -0.065490983700438973 0 -0.012639680599282643 -0.064759915388059738 0 -0.012457190579665456 -0.065228244901796822 0 -0.012817521652566296 -0.06497888220722961 0 -0.012817521652566296 -0.06497888220722961 0 -0.012800101405701494 -0.065410249343583707 0 -0.012536723584710972 -0.065490983700438973 0 -0.012800101405701494 -0.065410249343583707 0 -0.012422942130852802 -0.065805563034936898 0 -0.012536723584710972 -0.065490983700438973 0 -0.012457190579665456 -0.065228244901796822 0 -0.012536723584710972 -0.065490983700438973 0 -0.01236658302664654 -0.065923005106961294 0 -0.012422942130852802 -0.065805563034936898 0 -0.012536723584710972 -0.065490983700438973 0 -0.01236658302664654 -0.065923005106961294 0 -0.012422942130852802 -0.065805563034936898 0 -0.01236658302664654 -0.065923005106961294 0 -0.012122962172455762 -0.066157607199357163 0 -0.01236658302664654 -0.065923005106961294 0 -0.012122962172455762 -0.066157607199357163 0 -0.012483045855198556 -0.066267459680579691 0 -0.012122962172455762 -0.066157607199357163 0 -0.012248547307787164 -0.06607184863793357 0 -0.01184418324866969 -0.066235013216235497 0 -0.012422942130852802 -0.065805563034936898 0 -0.012248547307787164 -0.06607184863793357 0 -0.013145362244905924 -0.065645051922556125 0 -0.012248547307787164 -0.06607184863793357 0 -0.01184418324866969 -0.066235013216235497 0 -0.012422959121381326 -0.06624488632468184 0 -0.012422942130852802 -0.065805563034936898 0 -0.012122962172455762 -0.066157607199357163 0 -0.012248547307787164 -0.06607184863793357 0 -0.012164843613790232 -0.0654582433881509 0 -0.012162849877123471 -0.066000405193694434 0 -0.012684270748160106 -0.066270386037452236 0 -0.012164843613790232 -0.0654582433881509 0 -0.01236658302664654 -0.065923005106961294 0 -0.012684270748160106 -0.066270386037452236 0 -0.01236658302664654 -0.065923005106961294 0 -0.012684270748160106 -0.066270386037452236 0 -0.012483045855198556 -0.066267459680579691 0 -0.01669506828300019 -0.064416035188661069 0 -0.016467196236094155 -0.064822222308890967 0 -0.012162849877123471 -0.066000405193694434 0 -0.012684270748160106 -0.066270386037452236 0 -0.0136661863516311 -0.066369745817279807 0 -0.012684270748160106 -0.066270386037452236 0 -0.0136661863516311 -0.066369745817279807 0 -0.013482903857636532 -0.066103913306684303 0 -0.012684270748160106 -0.066270386037452236 0 -0.013482903857636532 -0.066103913306684303 0 -0.012483045855198556 -0.066267459680579691 0 -0.013482903857636532 -0.066103913306684303 0 -0.012483045855198556 -0.066267459680579691 0 -0.012210362914523451 -0.065860310720549778 0 -0.013482903857636532 -0.066103913306684303 0 -0.013071523753802458 -0.064999208387489196 0 -0.012210362914523451 -0.065860310720549778 0 -0.0136661863516311 -0.066369745817279807 0 -0.013482903857636532 -0.066103913306684303 0 -0.016244054159244178 -0.064999978345423537 0 -0.013482903857636532 -0.066103913306684303 0 -0.013071523753802458 -0.064999208387489196 0 -0.016244054159244178 -0.064999978345423537 0 -0.016467196236094155 -0.064822222308890967 0 -0.016248036145453486 -0.064998954963777084 0 -0.01184418324866969 -0.066235013216235497 0 -0.011760106687820904 -0.06611954689714282 0 -0.011290717599616865 -0.065944956632175436 0 -0.011760106687820904 -0.06611954689714282 0 -0.011184472694027964 -0.065794503012381794 0 -0.011290717599616865 -0.065944956632175436 0 -0.0099915832525593259 -0.064488195942635093 0 -0.010490137970146401 -0.062632380494626966 0 -0.0089155566443265902 -0.06693383187142718 0 -0.0074284616754648029 -0.067203417605866442 0 -0.0079701236889467824 -0.068827426875515213 0 -0.01184418324866969 -0.066235013216235497 0 -0.011290717599616865 -0.065944956632175436 0 -0.011777677952433657 -0.066314430017902271 0 -0.010534057281871016 -0.062731585470147649 0 -0.010490137970146401 -0.062632380494626966 0 -0.012122962172455762 -0.066157607199357163 0 -0.01184418324866969 -0.066235013216235497 0 -0.011760106687820904 -0.06611954689714282 0 -0.012122962172455762 -0.066157607199357163 0 -0.012483045855198556 -0.066267459680579691 0 -0.011760106687820904 -0.06611954689714282 0 -0.012483045855198556 -0.066267459680579691 0 -0.011760106687820904 -0.06611954689714282 0 -0.012210362914523451 -0.065860310720549778 0 -0.013071523753802458 -0.064999208387489196 0 -0.012210362914523451 -0.065860310720549778 0 -0.0099003692891355827 -0.065000227992162193 0 -0.011184472694027964 -0.065794503012381794 0 -0.012210362914523451 -0.065860310720549778 0 -0.0099003692891355827 -0.065000227992162193 0 -0.011760106687820904 -0.06611954689714282 0 -0.011184472694027964 -0.065794503012381794 0 -0.012210362914523451 -0.065860310720549778 0 -0.0098964635413202832 -0.064999173601410498 0 -0.0099915832525593259 -0.064488195942635093 0 -0.009896317599672343 -0.064999980464073112 0 -0.0089155566443265902 -0.06693383187142718 0 -0.00716042875791339 -0.064999939331133919 0 -0.011184472694027964 -0.065794503012381794 0 -0.0099003692891355827 -0.065000227992162193 0 -0.011290717599616865 -0.065944956632175436 0 -0.0089155566443265902 -0.06693383187142718 0 -0.00716042875791339 -0.064999939331133919 0 -0.0074284616754648029 -0.067203417605866442 0 -0.00716042875791339 -0.064999939331133919 0 -0.0058113258082951261 -0.067287046398009157 0 -0.0074284616754648029 -0.067203417605866442 0 -0.00716042875791339 -0.064999939331133919 0 -0.0044250145459373046 -0.065000026909868808 0 -0.0058113258082951261 -0.067287046398009157 0 -0.0044250145459373046 -0.065000026909868808 0 -0.0058113258082951261 -0.067287046398009157 0 -0.0039502166242793698 -0.067278516479253855 0 -0.0058113258082951261 -0.067287046398009157 0 -0.0047331258709712503 -0.070167753145596451 0 -0.0039502166242793698 -0.067278516479253855 0 -0.0058113258082951261 -0.067287046398009157 0 -0.0079701236889467824 -0.068827426875515213 0 -0.0047331258709712503 -0.070167753145596451 0 -0.0058113258082951261 -0.067287046398009157 0 -0.0074284616754648029 -0.067203417605866442 0 -0.0079701236889467824 -0.068827426875515213 0 -0.016768564171581495 -0.051436496445204122 0 -0.014176525057584884 -0.052528309446579845 0 -0.01577779070108528 -0.053605009080608154 0 -0.010490137970146401 -0.062632380494626966 0 -0.0091975575657741327 -0.061278146626216334 0 -0.012248547307787164 -0.06607184863793357 0 -0.012422959121381326 -0.06624488632468184 0 -0.013145362244905924 -0.065645051922556125 0 -0.010490137970146401 -0.062632380494626966 0 -0.012986592853825132 -0.060228693606974644 0 -0.014126739493584048 -0.054734973660166809 0 -0.014024400134311102 -0.053962428998183813 0 -0.01577779070108528 -0.053605009080608154 0 -0.014176525057584884 -0.052528309446579845 0 -0.014024400134311102 -0.053962428998183813 0 -0.01577779070108528 -0.053605009080608154 0 -0.014176525057584884 -0.052528309446579845 0 -0.014024400134311102 -0.053962428998183813 0 -0.013038906299778238 -0.053993117523358461 0 -0.014126739493584048 -0.054734973660166809 0 -0.013203882403653569 -0.054606060510913788 0 -0.014024400134311102 -0.053962428998183813 0 -0.012800101405701494 -0.065410249343583707 0 -0.012422942130852802 -0.065805563034936898 0 -0.013145362244905924 -0.065645051922556125 0 -0.013197859942656152 -0.065068741012344292 0 -0.012800101405701494 -0.065410249343583707 0 -0.013145362244905924 -0.065645051922556125 0 -0.011364271585812064 -0.054668850450270472 0 -0.011503035242355797 -0.053879862079378171 0 -0.0099536475343351798 -0.054544533474668033 0 -0.011364271585812064 -0.054668850450270472 0 -0.011517813117433084 -0.053677357995414607 0 -0.012294377434133325 -0.054360924570862328 0 -0.007288379838029743 -0.059215304848662907 0 -0.0069649429177098049 -0.060203414981659611 0 -0.013203882403653569 -0.054606060510913788 0 -0.012294377434133325 -0.054360924570862328 0 -0.013038906299778238 -0.053993117523358461 0 -0.014176525057584884 -0.052528309446579845 0 -0.011517813117433084 -0.053677357995414607 0 -0.013038906299778238 -0.053993117523358461 0 -0.0091975575657741327 -0.061278146626216334 0 -0.0069649429177098049 -0.060203414981659611 0 -0.011517813117433084 -0.053677357995414607 0 -0.012294377434133325 -0.054360924570862328 0 -0.013038906299778238 -0.053993117523358461 0 -0.013203882403653569 -0.054606060510913788 0 -0.014024400134311102 -0.053962428998183813 0 -0.013038906299778238 -0.053993117523358461 0 -0.0047331258709712503 -0.070167753145596451 0 -0.0016196614570827754 -0.071490135972073404 0 -0.0021399219989607062 -0.068485697283859975 0 -0.0069649429177098049 -0.060203414981659611 0 -0.0040684615475124657 -0.06392260249196513 0 -0.0024382377273124709 -0.060748387966655583 0 -0.002437950257096031 -0.060725519750197327 0 -0.0024148864571014931 -0.060733359614311665 0 -0.002437950257096031 -0.060725519750197327 0 -0.0024214836825586401 -0.06071503276438639 0 -0.0024148864571014931 -0.060733359614311665 0 -0.002437950257096031 -0.060725519750197327 0 -0.0024214836825586401 -0.06071503276438639 0 -0.0024393932671284285 -0.060706965726528339 0 -0.0040684615475124657 -0.06392260249196513 0 -0.0026587287272688128 -0.064697387126245065 0 -0.0021399219989607062 -0.068485697283859975 0 -0.0039502166242793698 -0.067278516479253855 0 -0.002649027273469324 -0.065421201474127638 0 -0.0047331258709712503 -0.070167753145596451 0 -0.0021399219989607062 -0.068485697283859975 0 -0.0039502166242793698 -0.067278516479253855 0 -0.0044250145459373046 -0.065000026909868808 0 -0.0039502166242793698 -0.067278516479253855 0 -0.002649027273469324 -0.065421201474127638 0 -0.0026587287272688128 -0.064697387126245065 0 -0.0025535717446249751 -0.064997865781402486 0 -0.0044215493296739499 -0.064998517490035296 0 -0.0026587287272688128 -0.064697387126245065 0 -0.0044246801242959046 -0.064999998956724522 0 -0.0024746562042946094 -0.065429275726837613 0 -0.0025524309957582819 -0.064999997002704979 0 -0.0024214836825586401 -0.06071503276438639 0 -0.0024393932671284285 -0.060706965726528339 0 -0.0024129724995924531 -0.060699544754649365 0 -0.0026587287272688128 -0.064697387126245065 0 -0.0010343790629061009 -0.063918419129442988 0 -0.0024746562262204981 -0.065428980559560701 0 -0.0025524014498326214 -0.064999996744236441 0 0.00051996923312479129 -0.066082276236554174 0 -0.0025524014498326214 -0.064999996744236441 0 0.00051996923312479129 -0.066082276236554174 0 0.0012094296760396467 -0.064999988150531193 0 -0.0010343790629061009 -0.063918419129442988 0 0.00060139011493764072 -0.063405275404446362 0 0.00051996923312479129 -0.066082276236554174 0 0.0012094296760396467 -0.064999988150531193 0 0.0034771165275081822 -0.066724407232851682 0 0.0012094799106917888 -0.064999997317214342 0 0.0046944981213843722 -0.064999995198354962 0 0.0040834479063874335 -0.066068285228452817 0 0.0012121768795517239 -0.065001000755464916 0 0.003630470110848022 -0.065900178536342113 0 0.0012094296760396467 -0.064999988150531193 0 0.0034771165275081822 -0.066724407232851682 0 0.0040459919782327974 -0.06604774708758504 0 -0.0023679148109464181 -0.060684287023779399 0 -0.0023945036328728779 -0.060715795094789304 0 -0.0023612967125235143 -0.060727102749017749 0 -0.0024129724995924531 -0.060699544754649365 0 -0.0023679148109464181 -0.060684287023779399 0 -0.0023945036328728779 -0.060715795094789304 0 -0.0024214836825586401 -0.06071503276438639 0 -0.0024129724995924531 -0.060699544754649365 0 -0.0023945036328728779 -0.060715795094789304 0 -0.0024214836825586401 -0.06071503276438639 0 -0.0023945036328728779 -0.060715795094789304 0 -0.0024148864571014931 -0.060733359614311665 0 0.0058799952132796117 -0.06592851161624623 0 0.0046944981213843722 -0.064999995198354962 0 0.0081794958700788806 -0.064999991516483141 0 0.0058799952132796117 -0.06592851161624623 0 0.0069427203652632679 -0.067128703334289011 0 0.0081794958700788806 -0.064999991516483141 0 0.0040459919782327974 -0.06604774708758504 0 0.0064901223651290798 -0.06739751470479366 0 0.0069427203652632679 -0.067128703334289011 0 0.0034771165275081822 -0.066724407232851682 0 0.0040459919782327974 -0.06604774708758504 0 0.0064901223651290798 -0.06739751470479366 0 0.003630470110848022 -0.065900178536342113 0 0.0049429432929365344 -0.066388553088469429 0 0.0058799952132796117 -0.06592851161624623 0 0.0040834479063874335 -0.066068285228452817 0 0.0069427203652632679 -0.067128703334289011 0 0.0058799952132796117 -0.06592851161624623 0 0.0046944981213843722 -0.064999995198354962 0 0.0040834479063874335 -0.066068285228452817 0 -0.0022755254621847384 -0.060676787853391909 0 -0.0023068783734831828 -0.060744921312510601 0 -0.0023612967125235143 -0.060727102749017749 0 0.00060139011493764072 -0.063405275404446362 0 0.0021835130837734411 -0.062731032807454637 0 -0.0023679148109464181 -0.060684287023779399 0 -0.0022755254621847384 -0.060676787853391909 0 -0.0023612967125235143 -0.060727102749017749 0 -0.0022755254621847384 -0.060676787853391909 0 -0.0022531688737879845 -0.060773248182855059 0 -0.0021589476011554549 -0.060693803145462667 0 0.0064901223651290798 -0.06739751470479366 0 0.0069427203652632679 -0.067128703334289011 0 0.0094852277534579026 -0.068054980804264503 0 0.0021835130837734411 -0.062731032807454637 0 0.0033733190092846972 -0.061334434270210257 0 -0.0022755254621847384 -0.060676787853391909 0 -0.0022531688737879845 -0.060773248182855059 0 -0.0023068783734831828 -0.060744921312510601 0 -0.0022531688737879845 -0.060773248182855059 0 -0.0023068783734831828 -0.060744921312510601 0 -0.0023433265482882101 -0.060785398017306931 0 -0.0023068783734831828 -0.060744921312510601 0 -0.0023612967125235143 -0.060727102749017749 0 -0.0023433265482882101 -0.060785398017306931 0 -0.0033024040950970957 -0.059832033194971011 0 -0.0034791817928587336 -0.059378335166842183 0 -0.0022531688737879845 -0.060773248182855059 0 -0.0023433265482882101 -0.060785398017306931 0 -0.002332714679673773 -0.06083787626491062 0 -0.0034791817928587336 -0.059378335166842183 0 -0.0041227246974896142 -0.057581059965861332 0 -0.0023766462912265356 -0.060737857285690262 0 -0.0023814965771002845 -0.060745603570732998 0 -0.0023883764012834134 -0.060745263228870389 0 -0.006037169867815358 -0.049892763127331881 0 -0.0079733432940705569 -0.052034145039935094 0 -0.0060897944452427974 -0.05268458195204645 0 -0.001088917329426745 -0.058355690372667163 0 -0.0041227246974896142 -0.057581059965861332 0 -0.006037169867815358 -0.049892763127331881 0 -0.0060897944452427974 -0.05268458195204645 0 -0.0042197284234136668 -0.052045696495340285 0 -0.0023945036328728779 -0.060715795094789304 0 -0.0024148864571014931 -0.060733359614311665 0 -0.0023900836638005079 -0.060737991003882483 0 -0.0023945036328728779 -0.060715795094789304 0 -0.0023612967125235143 -0.060727102749017749 0 -0.0023900836638005079 -0.060737991003882483 0 -0.0023612967125235143 -0.060727102749017749 0 -0.0023766462912265356 -0.060737857285690262 0 -0.0023900836638005079 -0.060737991003882483 0 -0.0023900836638005079 -0.060737991003882483 0 -0.0023883764012834134 -0.060745263228870389 0 -0.0024098164028848244 -0.060753238893554072 0 -0.0023766462912265356 -0.060737857285690262 0 -0.0023900836638005079 -0.060737991003882483 0 -0.0023883764012834134 -0.060745263228870389 0 -0.0024148864571014931 -0.060733359614311665 0 -0.0023900836638005079 -0.060737991003882483 0 -0.0024098164028848244 -0.060753238893554072 0 -0.0024382377273124709 -0.060748387966655583 0 -0.0024148864571014931 -0.060733359614311665 0 -0.0024098164028848244 -0.060753238893554072 0 -0.0069649429177098049 -0.060203414981659611 0 -0.0062452042366482668 -0.058445124244422726 0 -0.011364271585812064 -0.054668850450270472 0 -0.0099536475343351798 -0.054544533474668033 0 -0.010677296064468864 -0.055420686460284932 0 -0.0099536475343351798 -0.054544533474668033 0 -0.0097146607955699467 -0.055520110326980891 0 -0.010677296064468864 -0.055420686460284932 0 -0.012634222692709935 -0.055792062226641535 0 -0.010822258057545721 -0.056124703611201497 0 -0.013447871529066038 -0.054415569664115565 0 -0.012374093386575451 -0.055958260324676677 0 -0.010864268551629435 -0.055359190431490131 0 -0.0097146607955699467 -0.055520110326980891 0 -0.010677296064468864 -0.055420686460284932 0 -0.0097191725363853908 -0.056401081042138368 0 -0.011586563144823044 -0.056149794701930641 0 -0.010677296064468864 -0.055420686460284932 0 -0.0097191725363853908 -0.056401081042138368 0 -0.0097191725363853908 -0.056401081042138368 0 -0.0090646024867604303 -0.055944127621798685 0 -0.0082967182503622047 -0.056530388270426418 0 -0.0090646024867604303 -0.055944127621798685 0 -0.0084433545867894921 -0.055870300954231691 0 -0.0082967182503622047 -0.056530388270426418 0 -0.0097146607955699467 -0.055520110326980891 0 -0.0090646024867604303 -0.055944127621798685 0 -0.0088348031435278654 -0.05533978456434735 0 -0.0097146607955699467 -0.055520110326980891 0 -0.0097191725363853908 -0.056401081042138368 0 -0.0090646024867604303 -0.055944127621798685 0 -0.0090646024867604303 -0.055944127621798685 0 -0.0087044682065357086 -0.055666837790426901 0 -0.0084433545867894921 -0.055870300954231691 0 -0.0090646024867604303 -0.055944127621798685 0 -0.0087044682065357086 -0.055666837790426901 0 -0.0088348031435278654 -0.05533978456434735 0 -0.0087044682065357086 -0.055666837790426901 0 -0.0088348031435278654 -0.05533978456434735 0 -0.008492324103533672 -0.055508305276572897 0 -0.0088348031435278654 -0.05533978456434735 0 -0.0086486657554982922 -0.055140458385317538 0 -0.008492324103533672 -0.055508305276572897 0 -0.0023883764012834134 -0.060745263228870389 0 -0.0024098164028848244 -0.060753238893554072 0 -0.0023896347613239209 -0.06075208881480209 0 -0.0099536475343351798 -0.054544533474668033 0 -0.0097146607955699467 -0.055520110326980891 0 -0.0088348031435278654 -0.05533978456434735 0 -0.0062452042366482668 -0.058445124244422726 0 -0.0051253786100294886 -0.057200077305495332 0 -0.0099536475343351798 -0.054544533474668033 0 -0.0088348031435278654 -0.05533978456434735 0 -0.008618502372717194 -0.055102402177464406 0 -0.0051781012265757174 -0.057202471836278364 0 -0.0051253786100294886 -0.057200077305495332 0 -0.0023814965771002845 -0.060745603570732998 0 -0.0023883764012834134 -0.060745263228870389 0 -0.0023896347613239209 -0.06075208881480209 0 -0.0043480581048546563 -0.056910964846813759 0 -0.0046576665519281971 -0.057253225275012164 0 -0.0042285218313351152 -0.05744178472916138 0 -0.0079733432940705569 -0.052034145039935094 0 -0.0076144460121056225 -0.05361014455395717 0 -0.0060897944452427974 -0.05268458195204645 0 -0.0041227246974896142 -0.057581059965861332 0 -0.0051253786100294886 -0.057200077305495332 0 -0.0041227246974896142 -0.057581059965861332 0 -0.0056536681285337337 -0.05619944844671302 0 -0.0086486657554982922 -0.055140458385317538 0 -0.0080384572499012513 -0.055390756335016979 0 -0.008492324103533672 -0.055508305276572897 0 -0.0051253786100294886 -0.057200077305495332 0 -0.0056536681285337337 -0.05619944844671302 0 -0.0076144460121056225 -0.05361014455395717 0 -0.0060897944452427974 -0.05268458195204645 0 -0.0062209100708511093 -0.054224733925056258 0 -0.0060897944452427974 -0.05268458195204645 0 -0.0062209100708511093 -0.054224733925056258 0 -0.0048385401517759387 -0.054250720743397672 0 -0.007616371477700082 -0.053610864373128272 0 -0.0062209100708511093 -0.054224733925056258 0 -0.0071351386850452454 -0.055839399549738031 0 -0.0062209100708511093 -0.054224733925056258 0 -0.0059322319117968269 -0.05533093038937361 0 -0.0048385401517759387 -0.054250720743397672 0 -0.0056536681285337337 -0.05619944844671302 0 -0.0060435762835930598 -0.055896960445635739 0 -0.0062209100708511093 -0.054224733925056258 0 -0.0059322319117968269 -0.05533093038937361 0 -0.0071351386850452454 -0.055839399549738031 0 -0.0056536681285337337 -0.05619944844671302 0 -0.0062057284286020069 -0.056318726148530653 0 -0.0080384572499012513 -0.055390756335016979 0 -0.0080866325600596548 -0.056032894655179875 0 -0.0075875156457477994 -0.056364216828124654 0 -0.0080384572499012513 -0.055390756335016979 0 -0.0084433545867894921 -0.055870300954231691 0 -0.008492324103533672 -0.055508305276572897 0 -0.0080384572499012513 -0.055390756335016979 0 -0.0084433545867894921 -0.055870300954231691 0 -0.0080866325600596548 -0.056032894655179875 0 -0.0087044682065357086 -0.055666837790426901 0 -0.0084433545867894921 -0.055870300954231691 0 -0.008492324103533672 -0.055508305276572897 0 -0.0084433545867894921 -0.055870300954231691 0 -0.0080866325600596548 -0.056032894655179875 0 -0.0082967182503622047 -0.056530388270426418 0 -0.0075875156457477994 -0.056364216828124654 0 -0.0067384654702081067 -0.058089572880100471 0 -0.0079652179216598146 -0.057603697922369385 0 -0.0080866325600596548 -0.056032894655179875 0 -0.0082967182503622047 -0.056530388270426418 0 -0.0075875156457477994 -0.056364216828124654 0 -0.0082967182503622047 -0.056530388270426418 0 -0.0075875156457477994 -0.056364216828124654 0 -0.0079652179216598146 -0.057603697922369385 0 -0.0082967182503622047 -0.056530388270426418 0 -0.0079652179216598146 -0.057603697922369385 0 -0.008896335133475354 -0.057491936544728402 0 -0.0062057284286020069 -0.056318726148530653 0 -0.0062407557814734612 -0.056866043388775579 0 -0.0071351386850452454 -0.055839399549738031 0 -0.0059599910869714149 -0.056470213775855996 0 -0.0067384654702081067 -0.058089572880100471 0 -0.0059322319117968269 -0.05533093038937361 0 -0.0059599910869714149 -0.056470213775855996 0 -0.0049901261272290182 -0.055913127240034423 0 -0.0059322319117968269 -0.05533093038937361 0 -0.0071351386850452454 -0.055839399549738031 0 -0.0059599910869714149 -0.056470213775855996 0 -0.0067384654702081067 -0.058089572880100471 0 -0.0050751475076124116 -0.057376782047019473 0 -0.0056763586502945858 -0.05942649797445522 0 -0.0059599910869714149 -0.056470213775855996 0 -0.0067384654702081067 -0.058089572880100471 0 -0.0050751475076124116 -0.057376782047019473 0 -0.0079652179216598146 -0.057603697922369385 0 -0.0088483858622117467 -0.05846440804104356 0 -0.008896335133475354 -0.057491936544728402 0 -0.0067384654702081067 -0.058089572880100471 0 -0.0079652179216598146 -0.057603697922369385 0 -0.0075761528628113858 -0.059109182330018904 0 -0.0079652179216598146 -0.057603697922369385 0 -0.0088483858622117467 -0.05846440804104356 0 -0.0075761528628113858 -0.059109182330018904 0 -0.0088483858622117467 -0.05846440804104356 0 -0.0097597843016654952 -0.058028896900402922 0 -0.0098138416648783158 -0.058964631231510717 0 -0.0088483858622117467 -0.05846440804104356 0 -0.008896335133475354 -0.057491936544728402 0 -0.0097597843016654952 -0.058028896900402922 0 -0.008896335133475354 -0.057491936544728402 0 -0.0097597843016654952 -0.058028896900402922 0 -0.0098880919835067534 -0.056956205920219091 0 -0.0097597843016654952 -0.058028896900402922 0 -0.010747086516229718 -0.05775252568972325 0 -0.0098880919835067534 -0.056956205920219091 0 -0.0097597843016654952 -0.058028896900402922 0 -0.010661292611254277 -0.058664709568294164 0 -0.010747086516229718 -0.05775252568972325 0 -0.0097597843016654952 -0.058028896900402922 0 -0.010661292611254277 -0.058664709568294164 0 -0.0098138416648783158 -0.058964631231510717 0 -0.010661292611254277 -0.058664709568294164 0 -0.011662153756824943 -0.058276941167757057 0 -0.010747086516229718 -0.05775252568972325 0 -0.010661292611254277 -0.058664709568294164 0 -0.011662153756824943 -0.058276941167757057 0 -0.011571898342379556 -0.059015187296939289 0 -0.01244306894829969 -0.058697951930665709 0 -0.011662153756824943 -0.058276941167757057 0 -0.011571898342379556 -0.059015187296939289 0 -0.012579173303053347 -0.057947254143439285 0 -0.01244306894829969 -0.058697951930665709 0 -0.011662153756824943 -0.058276941167757057 0 -0.012579173303053347 -0.057947254143439285 0 -0.011662153756824943 -0.058276941167757057 0 -0.011639389725939267 -0.057561592256182494 0 -0.012484244610483464 -0.056964884026114791 0 -0.012579173303053347 -0.057947254143439285 0 -0.011639389725939267 -0.057561592256182494 0 -0.011639389725939267 -0.057561592256182494 0 -0.010747086516229718 -0.05775252568972325 0 -0.011294786231214271 -0.056742024230973666 0 -0.011662153756824943 -0.058276941167757057 0 -0.011639389725939267 -0.057561592256182494 0 -0.010747086516229718 -0.05775252568972325 0 -0.010747086516229718 -0.05775252568972325 0 -0.011294786231214271 -0.056742024230973666 0 -0.0098880919835067534 -0.056956205920219091 0 -0.012484244610483464 -0.056964884026114791 0 -0.011639389725939267 -0.057561592256182494 0 -0.011294786231214271 -0.056742024230973666 0 -0.012374093386575451 -0.055958260324676677 0 -0.012484244610483464 -0.056964884026114791 0 -0.011294786231214271 -0.056742024230973666 0 -0.012374093386575451 -0.055958260324676677 0 -0.010864268551629435 -0.055359190431490131 0 -0.011294786231214271 -0.056742024230973666 0 -0.010864268551629435 -0.055359190431490131 0 -0.011294786231214271 -0.056742024230973666 0 -0.0098880919835067534 -0.056956205920219091 0 -0.010864268551629435 -0.055359190431490131 0 -0.0082967182503622047 -0.056530388270426418 0 -0.0098880919835067534 -0.056956205920219091 0 -0.010822258057545721 -0.056124703611201497 0 -0.0098369493038971672 -0.0563826270522974 0 -0.0082967182503622047 -0.056530388270426418 0 -0.008896335133475354 -0.057491936544728402 0 -0.0098880919835067534 -0.056956205920219091 0 -0.0010194472839881151 -0.057084941810476034 0 -0.0030270142207494887 -0.055547801473102364 0 6.368386054223737e-05 -0.054821687266543413 0 0.00096874955099961353 -0.057033067438526652 0 6.368386054223737e-05 -0.054821687266543413 0 0.0028176014958743484 -0.056351167791661098 0 0.00096874955099961353 -0.057033067438526652 0 -0.0010194472839881151 -0.057084941810476034 0 6.368386054223737e-05 -0.054821687266543413 0 0.00096874955099961353 -0.057033067438526652 0 -0.0010194472839881151 -0.057084941810476034 0 0.00088898795203364109 -0.058949099689314437 0 -0.0010194472839881151 -0.057084941810476034 0 -0.0012337666859640686 -0.058818338088718634 0 0.00088898795203364109 -0.058949099689314437 0 -0.0035582957168490878 -0.057762777827072488 0 -0.0031908192524986827 -0.055767246952293507 0 -0.0010194472839881151 -0.057084941810476034 0 -0.0035286386833688621 -0.057896036937076865 0 -0.0030270142207494887 -0.055547801473102364 0 -0.0010194472839881151 -0.057084941810476034 0 -0.0035286386833688621 -0.057896036937076865 0 -0.0012337666859640686 -0.058818338088718634 0 -0.00380193874854117 -0.058340536861659235 0 -0.0050751475076124116 -0.057376782047019473 0 -0.0056763586502945858 -0.05942649797445522 0 -0.00380193874854117 -0.058340536861659235 0 -0.0050751475076124116 -0.057376782047019473 0 -0.0033320121731367867 -0.055969761721102074 0 -0.0050751475076124116 -0.057376782047019473 0 -0.0049901261272290182 -0.055913127240034423 0 -0.0033320121731367867 -0.055969761721102074 0 -0.0059599910869714149 -0.056470213775855996 0 -0.0050751475076124116 -0.057376782047019473 0 -0.0049901261272290182 -0.055913127240034423 0 -0.0031908192524986827 -0.055767246952293507 0 -0.002828989728814707 -0.053788435645822752 0 -0.0030270142207494887 -0.055547801473102364 0 -0.002605390395365126 -0.053294839247548055 0 6.368386054223737e-05 -0.054821687266543413 0 -0.0049901261272290182 -0.055913127240034423 0 -0.0033320121731367867 -0.055969761721102074 0 -0.0048385401517759387 -0.054250720743397672 0 -0.0033320121731367867 -0.055969761721102074 0 -0.0048385401517759387 -0.054250720743397672 0 -0.0028315099647929286 -0.05355223666852281 0 -0.0059322319117968269 -0.05533093038937361 0 -0.0049901261272290182 -0.055913127240034423 0 -0.0048385401517759387 -0.054250720743397672 0 -0.0048385401517759387 -0.054250720743397672 0 -0.0028315099647929286 -0.05355223666852281 0 -0.0042197284234136668 -0.052045696495340285 0 -0.0060897944452427974 -0.05268458195204645 0 -0.0048385401517759387 -0.054250720743397672 0 -0.0042197284234136668 -0.052045696495340285 0 -0.002828989728814707 -0.053788435645822752 0 -0.0026396771728928146 -0.052729027032719478 0 -0.0028315099647929286 -0.05355223666852281 0 -0.0042197284234136668 -0.052045696495340285 0 -0.0022997376496500495 -0.051061480706844666 0 -0.002605390395365126 -0.053294839247548055 0 -0.00052531174775952724 -0.052798229657708765 0 -0.0022997376496500495 -0.051061480706844666 0 -0.002605390395365126 -0.053294839247548055 0 -0.00052531174775952724 -0.052798229657708765 0 6.368386054223737e-05 -0.054821687266543413 0 0.0039664670264402922 -0.054974662704606908 0 0.0061080260615018374 -0.053823319142897057 0 -0.00052531174775952724 -0.052798229657708765 0 6.368386054223737e-05 -0.054821687266543413 0 0.0015464158265834247 -0.052435265469165084 0 -0.00052531174775952724 -0.052798229657708765 0 0.0001144002029140307 -0.050793859019948394 0 0.0015464158265834247 -0.052435265469165084 0 0.0001144002029140307 -0.050793859019948394 0 0.0016402627837103095 -0.050366516842513261 0 0.0018191645186601318 -0.05271588858729806 0 0.0039572514120207536 -0.052041365073229422 0 0.0061080260615018374 -0.053823319142897057 0 -0.00052531174775952724 -0.052798229657708765 0 0.0001144002029140307 -0.050793859019948394 0 -0.0022997376496500495 -0.051061480706844666 0 0.0001144002029140307 -0.050793859019948394 0 -0.0022997376496500495 -0.051061480706844666 0 -0.0014754163637233 -0.048328716379509758 0 0.0089787829770652475 -0.059000480133384367 0 0.0056900140709174839 -0.059760325963380587 0 0.0001144002029140307 -0.050793859019948394 0 0.0011316382091929502 -0.048876137587848152 0 -0.0014754163637233 -0.048328716379509758 0 0.0001144002029140307 -0.050793859019948394 0 0.0016402627837103095 -0.050366516842513261 0 0.0011316382091929502 -0.048876137587848152 0 -0.006037169867815358 -0.049892763127331881 0 -0.0042197284234136668 -0.052045696495340285 0 -0.0040439677483501127 -0.050063456588267358 0 -0.0042197284234136668 -0.052045696495340285 0 -0.0022997376496500495 -0.051061480706844666 0 -0.0040439677483501127 -0.050063456588267358 0 -0.0022997376496500495 -0.051061480706844666 0 -0.0040439677483501127 -0.050063456588267358 0 -0.0014754163637233 -0.048328716379509758 0 -0.0040439677483501127 -0.050063456588267358 0 -0.0040761688321011976 -0.047759424702572641 0 -0.0014754163637233 -0.048328716379509758 0 -0.001088917329426745 -0.058355690372667163 0 0.0033733190092846972 -0.061334434270210257 0 -0.006037169867815358 -0.049892763127331881 0 -0.0040439677483501127 -0.050063456588267358 0 -0.0040761688321011976 -0.047759424702572641 0 0.0069427203652632679 -0.067128703334289011 0 0.0094852277534579026 -0.068054980804264503 0 0.0096409358566646557 -0.06610956703199701 0 0.00949302169956809 -0.068021965791264988 0 0.011914436709246141 -0.067212886797412205 0 0.012519024502025494 -0.068698125993206197 0 0.0033733190092846972 -0.061334434270210257 0 0.0056900140709174839 -0.059760325963380587 0 0.0033733190092846972 -0.061334434270210257 0 0.0058096337971848613 -0.062131260806481882 0 0.011664526396063319 -0.064999975502141483 0 0.011930380509428825 -0.065364334069355864 0 0.0096409358566646557 -0.06610956703199701 0 0.00949302169956809 -0.068021965791264988 0 0.011914436709246141 -0.067212886797412205 0 0.011930380509428825 -0.065364334069355864 0 0.0094852277534579026 -0.068054980804264503 0 0.011930380509428825 -0.065364334069355864 0 0.0096409358566646557 -0.06610956703199701 0 0.011664526396063319 -0.064999975502141483 0 0.0081794958700788806 -0.064999991516483141 0 0.0096409358566646557 -0.06610956703199701 0 0.0069427203652632679 -0.067128703334289011 0 0.0081794958700788806 -0.064999991516483141 0 0.0096409358566646557 -0.06610956703199701 0 0.015550949327077755 -0.06936183906772829 0 0.013718900331057856 -0.066767509252699406 0 0.01600248889928723 -0.066985899878572439 0 0.015550949327077755 -0.06936183906772829 0 0.012519024502025494 -0.068698125993206197 0 0.013718900331057856 -0.066767509252699406 0 0.011914436709246141 -0.067212886797412205 0 0.012519024502025494 -0.068698125993206197 0 0.013718900331057856 -0.066767509252699406 0 0.011664526396063319 -0.064999975502141483 0 0.011930380509428825 -0.065364334069355864 0 0.015149541132221556 -0.064999981991113273 0 0.011930380509428825 -0.065364334069355864 0 0.013718900331057856 -0.066767509252699406 0 0.015149541132221556 -0.064999981991113273 0 0.011914436709246141 -0.067212886797412205 0 0.011930380509428825 -0.065364334069355864 0 0.013718900331057856 -0.066767509252699406 0 0.013718900331057856 -0.066767509252699406 0 0.015149541132221556 -0.064999981991113273 0 0.01600248889928723 -0.066985899878572439 0 0.015149541132221556 -0.064999981991113273 0 0.01600248889928723 -0.066985899878572439 0 0.018634586565323616 -0.064999966054143918 0 0.01600248889928723 -0.066985899878572439 0 0.017926089479351707 -0.067504003751789013 0 0.018634586565323616 -0.064999966054143918 0 0.015550949327077755 -0.06936183906772829 0 0.01600248889928723 -0.066985899878572439 0 0.017926089479351707 -0.067504003751789013 0 0.015550949327077755 -0.06936183906772829 0 0.017926089479351707 -0.067504003751789013 0 0.018581120750457793 -0.070024889971149154 0 0.020516565238911738 -0.066963900617000777 0 0.021709052298247974 -0.068808841839567425 0 0.018690825732127155 -0.069904516281180398 0 0.014281397175489777 -0.062653869785291805 0 0.013792628203134932 -0.058448413001506674 0 0.017926089479351707 -0.067504003751789013 0 0.020516565238911738 -0.066963900617000777 0 0.018581120750457793 -0.070024889971149154 0 0.017926089479351707 -0.067504003751789013 0 0.018634586565323616 -0.064999966054143918 0 0.020516565238911738 -0.066963900617000777 0 0.020516565238911738 -0.066963900617000777 0 0.022119585765290585 -0.064999985588534384 0 0.023273690250096069 -0.066297355808873609 0 0.018634586565323616 -0.064999966054143918 0 0.020516565238911738 -0.066963900617000777 0 0.022119585765290585 -0.064999985588534384 0 0.020516565238911738 -0.066963900617000777 0 0.023273690250096069 -0.066297355808873609 0 0.023255960962969734 -0.067729668767417345 0 0.022119585765290585 -0.064999985588534384 0 0.023273690250096069 -0.066297355808873609 0 0.025604589937880704 -0.064999973450644358 0 0.023273690250096069 -0.066297355808873609 0 0.023255960962969734 -0.067729668767417345 0 0.024903560416304954 -0.066786814565152217 0 0.025143389190298092 -0.066839676476565746 0 0.025572185799084646 -0.066813261861723608 0 0.023255960962969734 -0.067729668767417345 0 0.024277426270676288 -0.069303237153293284 0 0.025184363049586329 -0.06845140160804955 0 0.023255960962969734 -0.067729668767417345 0 0.022715706242522657 -0.068889147621016167 0 0.021709052298247974 -0.068808841839567425 0 0.023255960962969734 -0.067729668767417345 0 0.022715706242522657 -0.068889147621016167 0 0.023512174396360833 -0.069348067309616471 0 0.023255960962969734 -0.067729668767417345 0 0.024277426270676288 -0.069303237153293284 0 0.023512174396360833 -0.069348067309616471 0 0.020516565238911738 -0.066963900617000777 0 0.023255960962969734 -0.067729668767417345 0 0.021709052298247974 -0.068808841839567425 0 0.018908089702535828 -0.059809151045092199 0 0.02326066159688717 -0.061187932112026652 0 0.021709052298247974 -0.068808841839567425 0 0.020684110748761534 -0.070354970330266706 0 0.018690825732127155 -0.069904516281180398 0 0.020684110748761534 -0.070354970330266706 0 0.022381456117219024 -0.069669334474631625 0 0.022682271659203137 -0.070799912920943023 0 0.022715706242522657 -0.068889147621016167 0 0.021709052298247974 -0.068808841839567425 0 0.022381456117219024 -0.069669334474631625 0 0.021709052298247974 -0.068808841839567425 0 0.020684110748761534 -0.070354970330266706 0 0.022381456117219024 -0.069669334474631625 0 0.024287903065202756 -0.069305064784768985 0 0.023512174396360833 -0.069348067309616471 0 0.022682271659203137 -0.070799912920943023 0 0.024541130242233877 -0.066122927191930039 0 0.024488244115568204 -0.066173593441261142 0 0.022715706242522657 -0.068889147621016167 0 0.023512174396360833 -0.069348067309616471 0 0.022381456117219024 -0.069669334474631625 0 0.023512174396360833 -0.069348067309616471 0 0.022381456117219024 -0.069669334474631625 0 0.022682271659203137 -0.070799912920943023 0 0.024541130242233877 -0.066122927191930039 0 0.02326066159688717 -0.061187932112026652 0 0.021442121145617405 -0.048234015730845473 0 0.0227902446072916 -0.050334979350465922 0 0.025608459100182158 -0.049029578058796673 0 0.021442121145617405 -0.048234015730845473 0 0.0227902446072916 -0.050334979350465922 0 0.019414889071217984 -0.050222743446493273 0 0.018986413073281364 -0.047958687729681808 0 0.019414889071217984 -0.050222743446493273 0 0.017589330033082988 -0.049598850836265251 0 0.018986413073281364 -0.047958687729681808 0 0.021281927104037913 -0.048486238484325511 0 0.019414889071217984 -0.050222743446493273 0 0.02326066159688717 -0.061187932112026652 0 0.023964722405590451 -0.058819485106483035 0 0.019414889071217984 -0.050222743446493273 0 0.017589330033082988 -0.049598850836265251 0 0.018764985376228629 -0.051726880599134051 0 0.017589330033082988 -0.049598850836265251 0 0.016542309584465616 -0.050973050239454941 0 0.018764985376228629 -0.051726880599134051 0 0.017589330033082988 -0.049598850836265251 0 0.015320066950827958 -0.049513114937804095 0 0.01663413515551589 -0.047434504539071123 0 0.017589330033082988 -0.049598850836265251 0 0.015320066950827958 -0.049513114937804095 0 0.016542309584465616 -0.050973050239454941 0 0.0016402627837103095 -0.050366516842513261 0 0.0028301533517057303 -0.051079500433219398 0 0.0018191645186601318 -0.05271588858729806 0 0.015320066950827958 -0.049513114937804095 0 0.013990711567572992 -0.051627791274064978 0 0.016542309584465616 -0.050973050239454941 0 0.01042342318478918 -0.054626388936539733 0 0.0061080260615018374 -0.053823319142897057 0 0.0016402627837103095 -0.050366516842513261 0 0.0028301533517057303 -0.051079500433219398 0 0.0038463614972844618 -0.049461535987656909 0 0.0089787829770652475 -0.059000480133384367 0 0.013792628203134932 -0.058448413001506674 0 0.0016402627837103095 -0.050366516842513261 0 0.0011316382091929502 -0.048876137587848152 0 0.0038463614972844618 -0.049461535987656909 0 0.01042342318478918 -0.054626388936539733 0 0.013792628203134932 -0.058448413001506674 0 0.018908089702535828 -0.059809151045092199 0 0.013792628203134932 -0.058448413001506674 0 0.018986413073281364 -0.047958687729681808 0 0.017589330033082988 -0.049598850836265251 0 0.01663413515551589 -0.047434504539071123 0 0.030507786566939886 -0.068191484809979067 0 0.032011061854654743 -0.06826903900656224 0 0.032087859215807452 -0.067258418726405714 0 0.0307331234068608 -0.068925264508565842 0 0.034027196073345992 -0.06871662524101857 0 0.032087859215807452 -0.067258418726405714 0 0.029751712018537171 -0.067017784392017735 0 0.0307331234068608 -0.068925264508565842 0 0.032087859215807452 -0.067258418726405714 0 0.031998033037659544 -0.064999925082853419 0 0.029751712018537171 -0.067017784392017735 0 0.031994982005614112 -0.065001417744368031 0 0.029585815197047324 -0.066603864264534726 0 0.029089716428924842 -0.064999991641083596 0 0.029574925162255614 -0.067070419683316035 0 0.027275073268037301 -0.06673121347309495 0 0.031997599971158495 -0.06499999341720003 0 0.029089716428924842 -0.064999991641083596 0 0.029574925162255614 -0.067070419683316035 0 0.028869760228001383 -0.06851858406149329 0 0.027560557816785149 -0.069089440015283554 0 0.0307331234068608 -0.068925264508565842 0 0.029751712018537171 -0.067017784392017735 0 0.028869760228001383 -0.06851858406149329 0 0.027367267256706438 -0.069100228066544422 0 0.029751712018537171 -0.067017784392017735 0 0.028869760228001383 -0.06851858406149329 0 0.0307331234068608 -0.068925264508565842 0 0.029585815197047324 -0.066603864264534726 0 0.027476997387296958 -0.067645650674959867 0 0.027275073268037301 -0.06673121347309495 0 0.025471049300806702 -0.068427171130994835 0 0.027170565299859912 -0.069147505551732102 0 0.029574925162255614 -0.067070419683316035 0 0.027275073268037301 -0.06673121347309495 0 0.027170565299859912 -0.069147505551732102 0 0.029089633016071936 -0.065000001874177468 0 0.02720006375025032 -0.066755388170734106 0 0.025604589937880704 -0.064999973450644358 0 0.029086818952485764 -0.065001130202969493 0 0.027178906346120978 -0.06615546813319638 0 0.02720006375025032 -0.066755388170734106 0 0.025604589937880704 -0.064999973450644358 0 0.024903560416304954 -0.066786814565152217 0 0.023273690250096069 -0.066297355808873609 0 0.025604589937880704 -0.064999973450644358 0 0.024903560416304954 -0.066786814565152217 0 0.02720006375025032 -0.066755388170734106 0 0.024903560416304954 -0.066786814565152217 0 0.025312015301065832 -0.068512519822048965 0 0.023255960962969734 -0.067729668767417345 0 0.024903560416304954 -0.066786814565152217 0 0.025312015301065832 -0.068512519822048965 0 0.027178906346120978 -0.06615546813319638 0 0.025572185799084646 -0.066813261861723608 0 0.025572185799084646 -0.066813261861723608 0 0.027476997387296958 -0.067645650674959867 0 0.024541130242233877 -0.066122927191930039 0 0.025572185799084646 -0.066813261861723608 0 0.024689716652686662 -0.068785028624405095 0 0.026383035434761809 -0.069504083356067572 0 0.027363768072770397 -0.068649327340602459 0 0.024689716652686662 -0.068785028624405095 0 0.02307192001279269 -0.070287905377828558 0 0.026375113041573566 -0.071046530946435191 0 0.024689716652686662 -0.068785028624405095 0 0.026383035434761809 -0.069504083356067572 0 0.026375113041573566 -0.071046530946435191 0 0.02546869983677021 -0.066722935170175551 0 0.025715917915588558 -0.06649371628605355 0 0.026174548642823831 -0.066687738078411135 0 0.024541130242233877 -0.066122927191930039 0 0.027476997387296958 -0.067645650674959867 0 0.02326066159688717 -0.061187932112026652 0 0.026141434789201137 -0.060840777995977882 0 0.026375113041573566 -0.071046530946435191 0 0.027905424316047183 -0.070292718263327378 0 0.029700732173097422 -0.071827817509433331 0 0.026141434789201137 -0.060840777995977882 0 0.029858363150585841 -0.06115785774152295 0 0.025608459100182158 -0.049029578058796673 0 0.029970777073978518 -0.049878063647136379 0 0.028191167949451552 -0.053059489993993091 0 0.028671700291210678 -0.069723770164775128 0 0.027905424316047183 -0.070292718263327378 0 0.02756910175271329 -0.069316388723116421 0 0.028671700291210678 -0.069723770164775128 0 0.027905424316047183 -0.070292718263327378 0 0.029311643428454662 -0.070395813199447627 0 0.026383035434761809 -0.069504083356067572 0 0.027905424316047183 -0.070292718263327378 0 0.02756910175271329 -0.069316388723116421 0 0.026383035434761809 -0.069504083356067572 0 0.026375113041573566 -0.071046530946435191 0 0.027905424316047183 -0.070292718263327378 0 0.026383035434761809 -0.069504083356067572 0 0.02756910175271329 -0.069316388723116421 0 0.027365156957328197 -0.06865308363234765 0 0.02731245109505959 -0.067826175499979699 0 0.027476997387296958 -0.067645650674959867 0 0.02756910175271329 -0.069316388723116421 0 0.027365156957328197 -0.06865308363234765 0 0.027563641812575514 -0.068641345537035242 0 0.027476997387296958 -0.067645650674959867 0 0.027811009111345854 -0.067765174643158843 0 0.028869760228001383 -0.06851858406149329 0 0.027367267256706438 -0.069100228066544422 0 0.027560557816785149 -0.069089440015283554 0 0.028671700291210678 -0.069723770164775128 0 0.02756910175271329 -0.069316388723116421 0 0.027563641812575514 -0.068641345537035242 0 0.027811009111345854 -0.067765174643158843 0 0.030957227043247618 -0.069489054733431074 0 0.028138870188584471 -0.069030553793466884 0 0.031248435806353565 -0.070197010097380427 0 0.031084068662383554 -0.068875822857961136 0 0.028671700291210678 -0.069723770164775128 0 0.027563641812575514 -0.068641345537035242 0 0.031009559020508205 -0.069972328967302502 0 0.028671700291210678 -0.069723770164775128 0 0.029311643428454662 -0.070395813199447627 0 0.031009559020508205 -0.069972328967302502 0 0.027811009111345854 -0.067765174643158843 0 0.030507786566939886 -0.068191484809979067 0 0.027905424316047183 -0.070292718263327378 0 0.029311643428454662 -0.070395813199447627 0 0.029700732173097422 -0.071827817509433331 0 0.029311643428454662 -0.070395813199447627 0 0.029700732173097422 -0.071827817509433331 0 0.031009559020508205 -0.069972328967302502 0 0.029858363150585841 -0.06115785774152295 0 0.033702392759455135 -0.061687625885891252 0 0.029700732173097422 -0.071827817509433331 0 0.031009559020508205 -0.069972328967302502 0 0.033027895168475652 -0.072621654425835944 0 0.031248435806353565 -0.070197010097380427 0 0.031084068662383554 -0.068875822857961136 0 0.034027196073345992 -0.06871662524101857 0 0.031805048149358542 -0.053723275905175949 0 0.032473856058595242 -0.056347514289525641 0 0.034793842688272431 -0.054968671454819831 0 0.031805048149358542 -0.053723275905175949 0 0.030213456471042278 -0.055643680914250516 0 0.032473856058595242 -0.056347514289525641 0 0.031805048149358542 -0.053723275905175949 0 0.034407531874038291 -0.050785461974478634 0 0.034793842688272431 -0.054968671454819831 0 0.029970777073978518 -0.049878063647136379 0 0.031805048149358542 -0.053723275905175949 0 0.034407531874038291 -0.050785461974478634 0 0.029970777073978518 -0.049878063647136379 0 0.031805048149358542 -0.053723275905175949 0 0.028191167949451552 -0.053059489993993091 0 0.031805048149358542 -0.053723275905175949 0 0.030213456471042278 -0.055643680914250516 0 0.028191167949451552 -0.053059489993993091 0 0.030213456471042278 -0.055643680914250516 0 0.028191167949451552 -0.053059489993993091 0 0.027578224360230871 -0.056069291015589988 0 0.028191167949451552 -0.053059489993993091 0 0.024158466705804526 -0.05348008700599622 0 0.027578224360230871 -0.056069291015589988 0 0.025608459100182158 -0.049029578058796673 0 0.028191167949451552 -0.053059489993993091 0 0.024158466705804526 -0.05348008700599622 0 0.0227902446072916 -0.050334979350465922 0 0.025608459100182158 -0.049029578058796673 0 0.024158466705804526 -0.05348008700599622 0 0.026726324684695092 -0.053847979350041299 0 0.028139202851282945 -0.054464086832160766 0 0.024158466705804526 -0.05348008700599622 0 0.024856037796778096 -0.056228227025723297 0 0.023046795525173556 -0.056127322123432334 0 0.024158466705804526 -0.05348008700599622 0 0.024856037796778096 -0.056228227025723297 0 0.027111245552527793 -0.055775812729174694 0 0.024856037796778096 -0.056228227025723297 0 0.024092992242303896 -0.057636734702108817 0 0.023046795525173556 -0.056127322123432334 0 0.024856037796778096 -0.056228227025723297 0 0.024092992242303896 -0.057636734702108817 0 0.026234506098484073 -0.057481373849040673 0 0.021905165858222948 -0.055997399196670884 0 0.017618526324330103 -0.057182721927500159 0 0.020256510291946236 -0.056632266876389711 0 0.020230508746839949 -0.056638941894850359 0 0.020250135648234514 -0.056647374605890026 0 0.020256510291946236 -0.056632266876389711 0 0.020263990390416372 -0.056640696765310465 0 0.020250135648234514 -0.056647374605890026 0 0.024092992242303896 -0.057636734702108817 0 0.025397837603096669 -0.05891016297334728 0 0.022648065608747641 -0.059446535282606482 0 0.024092992242303896 -0.057636734702108817 0 0.025397837603096669 -0.05891016297334728 0 0.026234506098484073 -0.057481373849040673 0 0.021905165858222948 -0.055997399196670884 0 0.0253260165169647 -0.054405849635955197 0 0.020279720701532195 -0.056626472188403498 0 0.020273016685296082 -0.056643222506110209 0 0.020263990390416372 -0.056640696765310465 0 0.025397837603096669 -0.05891016297334728 0 0.026234506098484073 -0.057481373849040673 0 0.028094801864445022 -0.058381390305710192 0 0.020256510291946236 -0.056632266876389711 0 0.020279720701532195 -0.056626472188403498 0 0.020263990390416372 -0.056640696765310465 0 0.028026422018833465 -0.057816632370429291 0 0.026234506098484073 -0.057481373849040673 0 0.028094801864445022 -0.058381390305710192 0 0.028026422018833465 -0.057816632370429291 0 0.026234506098484073 -0.057481373849040673 0 0.027111245552527793 -0.055775812729174694 0 0.024856037796778096 -0.056228227025723297 0 0.026234506098484073 -0.057481373849040673 0 0.027111245552527793 -0.055775812729174694 0 0.030213456471042278 -0.055643680914250516 0 0.031015325627485456 -0.058645954722425384 0 0.032473856058595242 -0.056347514289525641 0 0.028026422018833465 -0.057816632370429291 0 0.027111245552527793 -0.055775812729174694 0 0.030069080538289154 -0.058008626150026839 0 0.030213456471042278 -0.055643680914250516 0 0.027578224360230871 -0.056069291015589988 0 0.031015325627485456 -0.058645954722425384 0 0.028139202851282945 -0.054464086832160766 0 0.029519367879772062 -0.053891660522010373 0 0.0253260165169647 -0.054405849635955197 0 0.029519367879772062 -0.053891660522010373 0 0.0253260165169647 -0.054405849635955197 0 0.022826211004398387 -0.054920607610496636 0 0.028026422018833465 -0.057816632370429291 0 0.028092389862029572 -0.058370924303787375 0 0.030069080538289154 -0.058008626150026839 0 0.029530998120769838 -0.050379894582745825 0 0.02971421169533953 -0.050667369699630566 0 0.029612185148036398 -0.051081117980514117 0 0.029530998120769838 -0.050379894582745825 0 0.02971421169533953 -0.050667369699630566 0 0.030009584567878351 -0.050300554528125159 0 0.025350367689734275 -0.054495398206842134 0 0.0253260165169647 -0.054405849635955197 0 0.030176123762975151 -0.05149882318108661 0 0.030664097747639823 -0.051869077732016891 0 0.031775129273752201 -0.050824881931195609 0 0.032122724825578208 -0.050753893894083642 0 0.032114193073860091 -0.051064880793599339 0 0.02971421169533953 -0.050667369699630566 0 0.030009584567878351 -0.050300554528125159 0 0.030716732522823389 -0.050837387710924234 0 0.029519367879772062 -0.053891660522010373 0 0.030664097747639823 -0.051869077732016891 0 0.032473856058595242 -0.056347514289525641 0 0.034793842688272431 -0.054968671454819831 0 0.034535514721410518 -0.057996105407082867 0 0.029519367879772062 -0.053891660522010373 0 0.032853430826545328 -0.053895579727065955 0 0.031015325627485456 -0.058645954722425384 0 0.032473856058595242 -0.056347514289525641 0 0.034535514721410518 -0.057996105407082867 0 0.016404396661826214 -0.054321125134618238 0 0.018142566512202692 -0.054207895982836811 0 0.017090150826316534 -0.052669088825928384 0 0.018142566512202692 -0.054207895982836811 0 0.017090150826316534 -0.052669088825928384 0 0.018830176666855068 -0.053337865962867007 0 0.016404396661826214 -0.054321125134618238 0 0.018142566512202692 -0.054207895982836811 0 0.018539190497547951 -0.055859529019285356 0 6.368386054223737e-05 -0.054821687266543413 0 0.0033977953348486457 -0.054133202983133052 0 0.0016818346722996171 -0.052220676056651226 0 0.016404396661826214 -0.054321125134618238 0 0.013990711567572992 -0.051627791274064978 0 0.017090150826316534 -0.052669088825928384 0 0.013990711567572992 -0.051627791274064978 0 0.016542309584465616 -0.050973050239454941 0 0.017090150826316534 -0.052669088825928384 0 0.0090001492975382846 -0.055001107601503681 0 0.0061080260615018374 -0.053823319142897057 0 0.017090150826316534 -0.052669088825928384 0 0.018764985376228629 -0.051726880599134051 0 0.018830176666855068 -0.053337865962867007 0 0.016542309584465616 -0.050973050239454941 0 0.017090150826316534 -0.052669088825928384 0 0.018764985376228629 -0.051726880599134051 0 0.018764985376228629 -0.051726880599134051 0 0.021481376040806931 -0.052084489854165403 0 0.020192092856853115 -0.053281322904609518 0 0.019414889071217984 -0.050222743446493273 0 0.018764985376228629 -0.051726880599134051 0 0.021481376040806931 -0.052084489854165403 0 0.018764985376228629 -0.051726880599134051 0 0.018830176666855068 -0.053337865962867007 0 0.020192092856853115 -0.053281322904609518 0 0.0227902446072916 -0.050334979350465922 0 0.019414889071217984 -0.050222743446493273 0 0.021481376040806931 -0.052084489854165403 0 0.0227902446072916 -0.050334979350465922 0 0.024158466705804526 -0.05348008700599622 0 0.021481376040806931 -0.052084489854165403 0 0.024158466705804526 -0.05348008700599622 0 0.021481376040806931 -0.052084489854165403 0 0.021565305636293792 -0.054707630117406182 0 0.024158466705804526 -0.05348008700599622 0 0.021565305636293792 -0.054707630117406182 0 0.023046795525173556 -0.056127322123432334 0 0.021481376040806931 -0.052084489854165403 0 0.021565305636293792 -0.054707630117406182 0 0.020192092856853115 -0.053281322904609518 0 0.018142566512202692 -0.054207895982836811 0 0.018830176666855068 -0.053337865962867007 0 0.019648418171443582 -0.054586063276317008 0 0.018830176666855068 -0.053337865962867007 0 0.020192092856853115 -0.053281322904609518 0 0.019648418171443582 -0.054586063276317008 0 0.021565305636293792 -0.054707630117406182 0 0.020192092856853115 -0.053281322904609518 0 0.019648418171443582 -0.054586063276317008 0 0.021565305636293792 -0.054707630117406182 0 0.019648418171443582 -0.054586063276317008 0 0.020405340847335928 -0.05588145423052953 0 0.019648418171443582 -0.054586063276317008 0 0.020405340847335928 -0.05588145423052953 0 0.018539190497547951 -0.055859529019285356 0 0.018142566512202692 -0.054207895982836811 0 0.019648418171443582 -0.054586063276317008 0 0.018539190497547951 -0.055859529019285356 0 0.018800184452435212 -0.05764788660873222 0 0.018734432130961692 -0.057409572978700925 0 0.020405340847335928 -0.05588145423052953 0 0.020619640130806895 -0.05769412620462485 0 0.02161037731226402 -0.056455178811918021 0 0.020405340847335928 -0.05588145423052953 0 0.020619640130806895 -0.05769412620462485 0 0.018539190497547951 -0.055859529019285356 0 0.020273348617009187 -0.057478512843228025 0 0.018749726373886874 -0.05690975654480912 0 0.018539190497547951 -0.055859529019285356 0 0.023046795525173556 -0.056127322123432334 0 0.02161037731226402 -0.056455178811918021 0 0.022333497595907217 -0.057627132099564694 0 0.021565305636293792 -0.054707630117406182 0 0.023046795525173556 -0.056127322123432334 0 0.02161037731226402 -0.056455178811918021 0 0.021565305636293792 -0.054707630117406182 0 0.020405340847335928 -0.05588145423052953 0 0.02161037731226402 -0.056455178811918021 0 0.020619640130806895 -0.05769412620462485 0 0.02161037731226402 -0.056455178811918021 0 0.022333497595907217 -0.057627132099564694 0 0.024092992242303896 -0.057636734702108817 0 0.023046795525173556 -0.056127322123432334 0 0.022333497595907217 -0.057627132099564694 0 0.024092992242303896 -0.057636734702108817 0 0.022333497595907217 -0.057627132099564694 0 0.022648065608747641 -0.059446535282606482 0 0.018800184452435212 -0.05764788660873222 0 0.017618526324330103 -0.057182721927500159 0 0.020619640130806895 -0.05769412620462485 0 0.022333497595907217 -0.057627132099564694 0 0.022648065608747641 -0.059446535282606482 0 0.020273348617009187 -0.057478512843228025 0 0.02080313318757715 -0.059192357960961117 0 0.021951140286241965 -0.058976994314325487 0 0.013285886150333546 -0.057767060554554245 0 0.017618526324330103 -0.057182721927500159 0 0.015937136663485497 -0.057635078586640381 0 0.015894984977402594 -0.057639841507412054 0 0.015910190306167828 -0.057599503578212731 0 0.011194005712844049 -0.057788290390107466 0 0.012437150965946412 -0.057672862302325552 0 0.013102202864565152 -0.058830532862509527 0 0.01407887461437622 -0.058653016216907376 0 0.011856186679110953 -0.057431998077202201 0 0.013285886150333546 -0.057767060554554245 0 0.012437150965946412 -0.057672862302325552 0 0.0051117842841211002 -0.056020751158799377 0 0.0068539320684345099 -0.057928737221803223 0 0.0056625401209697218 -0.057639771802123478 0 0.006364567853680848 -0.058023588268070844 0 0.0056625401209697218 -0.057639771802123478 0 0.003585423787063096 -0.058504133735862301 0 0.011432225169048273 -0.056548812141435312 0 0.013285886150333546 -0.057767060554554245 0 0.020273348617009187 -0.057478512843228025 0 0.018749726373886874 -0.05690975654480912 0 0.02080313318757715 -0.059192357960961117 0 0.0051117842841211002 -0.056020751158799377 0 0.0056625401209697218 -0.057639771802123478 0 0.0042437866528591758 -0.057202386105022318 0 0.0068539320684345099 -0.057928737221803223 0 0.0063671993390133847 -0.058019139947046293 0 0.0056625401209697218 -0.057639771802123478 0 0.011194005712844049 -0.057788290390107466 0 0.010832891185216622 -0.057652360456458211 0 0.013285886150333546 -0.057767060554554245 0 0.011194005712844049 -0.057788290390107466 0 0.0042437866528591758 -0.057202386105022318 0 0.0028176014958743484 -0.056351167791661098 0 0.003585423787063096 -0.058504133735862301 0 0.0056625401209697218 -0.057639771802123478 0 0.0042437866528591758 -0.057202386105022318 0 0.003585423787063096 -0.058504133735862301 0 0.011194005712844049 -0.057788290390107466 0 0.0050544334194755174 -0.058562620654738481 0 0.0051117842841211002 -0.056020751158799377 0 0.0042437866528591758 -0.057202386105022318 0 0.0028176014958743484 -0.056351167791661098 0 0.0033977953348486457 -0.054133202983133052 0 0.0051117842841211002 -0.056020751158799377 0 0.0028176014958743484 -0.056351167791661098 0 0.016404396661826214 -0.054321125134618238 0 0.018749726373886874 -0.05690975654480912 0 0.018539190497547951 -0.055859529019285356 0 0.0090001492975382846 -0.055001107601503681 0 0.011432225169048273 -0.056548812141435312 0 6.368386054223737e-05 -0.054821687266543413 0 0.0033977953348486457 -0.054133202983133052 0 0.0028176014958743484 -0.056351167791661098 0 0.00096874955099961353 -0.057033067438526652 0 0.003585423787063096 -0.058504133735862301 0 0.00088898795203364109 -0.058949099689314437 0 0.00096874955099961353 -0.057033067438526652 0 0.0028176014958743484 -0.056351167791661098 0 0.003585423787063096 -0.058504133735862301 0 0.0029664671441519846 -0.060045114303104011 0 0.0038527506125482698 -0.058230141386820616 0 0.00088898795203364109 -0.058949099689314437 0 0.0050544334194755174 -0.058562620654738481 0 0.0030883369736990638 -0.058830975419989079 0 0.0029664671441519846 -0.060045114303104011 0 0.002666258110377925 -0.061575883027055058 0 0.00083454881102310865 -0.060866011606806762 0 0.0029664671441519846 -0.060045114303104011 0 0.002666258110377925 -0.061575883027055058 0 0.0046524420492358312 -0.061051533088804108 0 0.0029664671441519846 -0.060045114303104011 0 0.0046524420492358312 -0.061051533088804108 0 0.0049554547454086269 -0.059570065831352971 0 0.0046524420492358312 -0.061051533088804108 0 0.0059651021723444607 -0.061186050771384816 0 0.0043866488306797732 -0.062420968448987542 0 0.0046524420492358312 -0.061051533088804108 0 0.0049554547454086269 -0.059570065831352971 0 0.0057884454047377621 -0.060256375964483445 0 0.0029664671441519846 -0.060045114303104011 0 0.0049554547454086269 -0.059570065831352971 0 0.0038527506125482698 -0.058230141386820616 0 0.0068118134954153467 -0.057634262544226149 0 0.0049554547454086269 -0.059570065831352971 0 0.0038527506125482698 -0.058230141386820616 0 0.0068118134954153467 -0.057634262544226149 0 0.0049554547454086269 -0.059570065831352971 0 0.0065870423436657482 -0.059416022548925231 0 0.0068118134954153467 -0.057634262544226149 0 0.0065870423436657482 -0.059416022548925231 0 0.0073618079483673202 -0.058630775382966412 0 0.0049554547454086269 -0.059570065831352971 0 0.0065870423436657482 -0.059416022548925231 0 0.0057884454047377621 -0.060256375964483445 0 0.015894984977402594 -0.057639841507412054 0 0.015910190306167828 -0.057599503578212731 0 0.015832720329607693 -0.05756817421257146 0 0.012437150965946412 -0.057672862302325552 0 0.014116122650664149 -0.05743988003399321 0 0.012437150965946412 -0.057672862302325552 0 0.011990909353037277 -0.057570347412118562 0 0.0068118134954153467 -0.057634262544226149 0 0.0073618079483673202 -0.058630775382966412 0 0.007974877400862071 -0.058259321046446988 0 0.0073618079483673202 -0.058630775382966412 0 0.007974877400862071 -0.058259321046446988 0 0.0079985017940880053 -0.059241131379944689 0 0.0065870423436657482 -0.059416022548925231 0 0.0073618079483673202 -0.058630775382966412 0 0.0079985017940880053 -0.059241131379944689 0 0.0065870423436657482 -0.059416022548925231 0 0.0079985017940880053 -0.059241131379944689 0 0.0077989246519575206 -0.06014116494017388 0 0.0079985017940880053 -0.059241131379944689 0 0.0085476325193295562 -0.059920838948447137 0 0.0077989246519575206 -0.06014116494017388 0 0.0079985017940880053 -0.059241131379944689 0 0.0085476325193295562 -0.059920838948447137 0 0.0090288615754387132 -0.05938876521301524 0 0.007974877400862071 -0.058259321046446988 0 0.0079985017940880053 -0.059241131379944689 0 0.0090288615754387132 -0.05938876521301524 0 0.0085476325193295562 -0.059920838948447137 0 0.0077989246519575206 -0.06014116494017388 0 0.0087540888574956458 -0.060737979596328331 0 0.0085476325193295562 -0.059920838948447137 0 0.0087540888574956458 -0.060737979596328331 0 0.0094626392180661833 -0.060074877248482213 0 0.0077989246519575206 -0.06014116494017388 0 0.0074215594005844912 -0.06104971436268318 0 0.0067283185207664973 -0.060363646555390157 0 0.0077989246519575206 -0.06014116494017388 0 0.0074215594005844912 -0.06104971436268318 0 0.0087540888574956458 -0.060737979596328331 0 0.0087540888574956458 -0.060737979596328331 0 0.0082016345924086406 -0.061685151356923214 0 0.0092839204782576568 -0.061924826100107098 0 0.0074215594005844912 -0.06104971436268318 0 0.0087540888574956458 -0.060737979596328331 0 0.0082016345924086406 -0.061685151356923214 0 0.0057884454047377621 -0.060256375964483445 0 0.0067283185207664973 -0.060363646555390157 0 0.0059651021723444607 -0.061186050771384816 0 0.0065870423436657482 -0.059416022548925231 0 0.0077989246519575206 -0.06014116494017388 0 0.0067283185207664973 -0.060363646555390157 0 0.0065870423436657482 -0.059416022548925231 0 0.0057884454047377621 -0.060256375964483445 0 0.0067283185207664973 -0.060363646555390157 0 0.0074215594005844912 -0.06104971436268318 0 0.0059651021723444607 -0.061186050771384816 0 0.0070787531885475995 -0.062183806064765923 0 0.0074215594005844912 -0.06104971436268318 0 0.0067283185207664973 -0.060363646555390157 0 0.0059651021723444607 -0.061186050771384816 0 0.0046524420492358312 -0.061051533088804108 0 0.0057884454047377621 -0.060256375964483445 0 0.0059651021723444607 -0.061186050771384816 0 0.0059651021723444607 -0.061186050771384816 0 0.0070787531885475995 -0.062183806064765923 0 0.0058778232753753388 -0.062999522014960785 0 0.0059651021723444607 -0.061186050771384816 0 0.0058778232753753388 -0.062999522014960785 0 0.0043866488306797732 -0.062420968448987542 0 0.0070787531885475995 -0.062183806064765923 0 0.0058778232753753388 -0.062999522014960785 0 0.0071502051330034084 -0.063455817436255946 0 0.0082016345924086406 -0.061685151356923214 0 0.0084344670714085832 -0.062844176476677158 0 0.0092839204782576568 -0.061924826100107098 0 0.0074215594005844912 -0.06104971436268318 0 0.0070787531885475995 -0.062183806064765923 0 0.0082016345924086406 -0.061685151356923214 0 0.0070787531885475995 -0.062183806064765923 0 0.0082016345924086406 -0.061685151356923214 0 0.0084344670714085832 -0.062844176476677158 0 0.0070787531885475995 -0.062183806064765923 0 0.0084344670714085832 -0.062844176476677158 0 0.0071502051330034084 -0.063455817436255946 0 0.0071502051330034084 -0.063455817436255946 0 0.0087267418158700639 -0.064570503284396744 0 0.0061845792450731006 -0.064559461708649235 0 0.0084344670714085832 -0.062844176476677158 0 0.0071502051330034084 -0.063455817436255946 0 0.0087267418158700639 -0.064570503284396744 0 0.0058778232753753388 -0.062999522014960785 0 0.0061845792450731006 -0.064559461708649235 0 0.004510124284860772 -0.064176009783294005 0 0.0058778232753753388 -0.062999522014960785 0 0.0071502051330034084 -0.063455817436255946 0 0.0061845792450731006 -0.064559461708649235 0 0.004510124284860772 -0.064176009783294005 0 0.004830038691580745 -0.065629557931704358 0 0.0016450057134026821 -0.06517293287889607 0 0.0061845792450731006 -0.064559461708649235 0 0.004510124284860772 -0.064176009783294005 0 0.0048527545930818561 -0.065598734332076303 0 0.0078658399719136185 -0.045317311120296952 0 0.00716560074581616 -0.039538096194868408 0 0.0028124853730104871 -0.063264679659589595 0 0.0016450057134026821 -0.06517293287889607 0 0.00086198322793953972 -0.062975796043649557 0 0.004510124284860772 -0.064176009783294005 0 0.0028124853730104871 -0.063264679659589595 0 0.0016450057134026821 -0.06517293287889607 0 0.002666258110377925 -0.061575883027055058 0 0.0028124853730104871 -0.063264679659589595 0 0.00086198322793953972 -0.062975796043649557 0 0.002666258110377925 -0.061575883027055058 0 0.0028124853730104871 -0.063264679659589595 0 0.0043866488306797732 -0.062420968448987542 0 0.004510124284860772 -0.064176009783294005 0 0.0028124853730104871 -0.063264679659589595 0 0.0043866488306797732 -0.062420968448987542 0 0.0058778232753753388 -0.062999522014960785 0 0.004510124284860772 -0.064176009783294005 0 0.0043866488306797732 -0.062420968448987542 0 0.002666258110377925 -0.061575883027055058 0 0.0046524420492358312 -0.061051533088804108 0 0.0043866488306797732 -0.062420968448987542 0 0.030285373519896609 -0.051607856908693808 0 0.029691568143939615 -0.051834389806080371 0 0.030407524245721754 -0.052214294626451684 0 0.030285373519896609 -0.051607856908693808 0 0.030407524245721754 -0.052214294626451684 0 0.030920957109255905 -0.051582020420973325 0 0.02971421169533953 -0.050667369699630566 0 0.030230497069048116 -0.050995200102001238 0 0.030837717289433245 -0.050801640181494516 0 0.030230497069048116 -0.050995200102001238 0 0.030920957109255905 -0.051582020420973325 0 0.030837717289433245 -0.050801640181494516 0 0.030285373519896609 -0.051607856908693808 0 0.030230497069048116 -0.050995200102001238 0 0.030920957109255905 -0.051582020420973325 0 0.030285373519896609 -0.051607856908693808 0 0.030230497069048116 -0.050995200102001238 0 0.029957698549815191 -0.051329133879600669 0 0.029957698549815191 -0.051329133879600669 0 0.02987781319939526 -0.051016388022916866 0 0.029612185148036398 -0.051081117980514117 0 0.030230497069048116 -0.050995200102001238 0 0.029957698549815191 -0.051329133879600669 0 0.02987781319939526 -0.051016388022916866 0 0.02971421169533953 -0.050667369699630566 0 0.030230497069048116 -0.050995200102001238 0 0.02987781319939526 -0.051016388022916866 0 0.02971421169533953 -0.050667369699630566 0 0.02987781319939526 -0.051016388022916866 0 0.029612185148036398 -0.051081117980514117 0 0.020273016685296082 -0.056643222506110209 0 0.02026975967579683 -0.056652639387200103 0 0.020263232751681199 -0.056651188153520785 0 0.029957698549815191 -0.051329133879600669 0 0.029612185148036398 -0.051081117980514117 0 0.029691568143939615 -0.051834389806080371 0 0.022826211004398387 -0.054920607610496636 0 0.019749801166880122 -0.056761924488760447 0 0.030285373519896609 -0.051607856908693808 0 0.029957698549815191 -0.051329133879600669 0 0.029691568143939615 -0.051834389806080371 0 0.013059145250017164 -0.060939159347219607 0 0.012590122983117485 -0.060985180824006481 0 0.012269254180589426 -0.061894432795493205 0 0.012590122983117485 -0.060985180824006481 0 0.011350444690614398 -0.061240253832619308 0 0.012269254180589426 -0.061894432795493205 0 0.012590122983117485 -0.060985180824006481 0 0.011350444690614398 -0.061240253832619308 0 0.01167385387167829 -0.0601917515679318 0 0.013059145250017164 -0.060939159347219607 0 0.012590122983117485 -0.060985180824006481 0 0.011719218696592969 -0.060206253837148851 0 0.011350444690614398 -0.061240253832619308 0 0.01167385387167829 -0.0601917515679318 0 0.010469098956067204 -0.06034814436944886 0 0.016473079846580564 -0.057341431139055613 0 0.01676663023531676 -0.057269092823878383 0 0.019749801166880122 -0.056761924488760447 0 0.01676663023531676 -0.057269092823878383 0 0.020273016685296082 -0.056643222506110209 0 0.020263232751681199 -0.056651188153520785 0 0.020263990390416372 -0.056640696765310465 0 0.020263232751681199 -0.056651188153520785 0 0.020263990390416372 -0.056640696765310465 0 0.020250135648234514 -0.056647374605890026 0 0.01676663023531676 -0.057269092823878383 0 0.014116122650664149 -0.05743988003399321 0 0.01676663023531676 -0.057269092823878383 0 0.017431199931431097 -0.057318714830465411 0 0.0080050659294188097 -0.058244370448611069 0 0.0098262077701620175 -0.059225318116281914 0 0.0090288615754387132 -0.05938876521301524 0 0.015910190306167828 -0.057599503578212731 0 0.015840127062658839 -0.057550104018870486 0 0.015832720329607693 -0.05756817421257146 0 0.015786029214040286 -0.057503486074619137 0 0.015840127062658839 -0.057550104018870486 0 0.015832720329607693 -0.05756817421257146 0 0.017618526324330103 -0.057182721927500159 0 0.017431199931431097 -0.057318714830465411 0 0.0098262077701620175 -0.059225318116281914 0 0.0090288615754387132 -0.05938876521301524 0 0.0094626392180661833 -0.060074877248482213 0 0.0085476325193295562 -0.059920838948447137 0 0.0090288615754387132 -0.05938876521301524 0 0.0094626392180661833 -0.060074877248482213 0 0.0087540888574956458 -0.060737979596328331 0 0.0094626392180661833 -0.060074877248482213 0 0.010032965016906958 -0.061008574636053921 0 0.01167385387167829 -0.0601917515679318 0 0.0098262077701620175 -0.059225318116281914 0 0.010469098956067204 -0.06034814436944886 0 0.0094626392180661833 -0.060074877248482213 0 0.010469098956067204 -0.06034814436944886 0 0.010032965016906958 -0.061008574636053921 0 0.0098262077701620175 -0.059225318116281914 0 0.0094626392180661833 -0.060074877248482213 0 0.010469098956067204 -0.06034814436944886 0 0.011350444690614398 -0.061240253832619308 0 0.010469098956067204 -0.06034814436944886 0 0.010032965016906958 -0.061008574636053921 0 0.011350444690614398 -0.061240253832619308 0 0.010032965016906958 -0.061008574636053921 0 0.010336120402546875 -0.061973704940510049 0 0.0087540888574956458 -0.060737979596328331 0 0.010032965016906958 -0.061008574636053921 0 0.0092839204782576568 -0.061924826100107098 0 0.0092839204782576568 -0.061924826100107098 0 0.010336120402546875 -0.061973704940510049 0 0.0099421016530863056 -0.062939916694343498 0 0.010032965016906958 -0.061008574636053921 0 0.0092839204782576568 -0.061924826100107098 0 0.010336120402546875 -0.061973704940510049 0 0.010336120402546875 -0.061973704940510049 0 0.0099421016530863056 -0.062939916694343498 0 0.011299828562216674 -0.062527054457753459 0 0.0084344670714085832 -0.062844176476677158 0 0.0092839204782576568 -0.061924826100107098 0 0.0099421016530863056 -0.062939916694343498 0 0.0087267418158700639 -0.064570503284396744 0 0.0099421016530863056 -0.062939916694343498 0 0.011483206506565553 -0.064054679868580225 0 0.0084344670714085832 -0.062844176476677158 0 0.0087267418158700639 -0.064570503284396744 0 0.0099421016530863056 -0.062939916694343498 0 0.011483206506565553 -0.064054679868580225 0 0.013418534464818572 -0.063564079656105138 0 0.01264969389586707 -0.065429962571601122 0 0.011483206506565553 -0.064054679868580225 0 0.012132888351112545 -0.063054669267047433 0 0.013418534464818572 -0.063564079656105138 0 0.011483206506565553 -0.064054679868580225 0 0.012132888351112545 -0.063054669267047433 0 0.011299828562216674 -0.062527054457753459 0 0.012132888351112545 -0.063054669267047433 0 0.011299828562216674 -0.062527054457753459 0 0.012269254180589426 -0.061894432795493205 0 0.0099421016530863056 -0.062939916694343498 0 0.011483206506565553 -0.064054679868580225 0 0.011299828562216674 -0.062527054457753459 0 0.011350444690614398 -0.061240253832619308 0 0.010336120402546875 -0.061973704940510049 0 0.011299828562216674 -0.062527054457753459 0 0.011350444690614398 -0.061240253832619308 0 0.011299828562216674 -0.062527054457753459 0 0.012269254180589426 -0.061894432795493205 0 0.013059145250017164 -0.060939159347219607 0 0.012269254180589426 -0.061894432795493205 0 0.013418534464818572 -0.063564079656105138 0 0.019749801166880122 -0.056761924488760447 0 0.017375107339292737 -0.060987815700574918 0 0.012703616702269863 -0.055359673476143796 0 0.013317817951813504 -0.060740190229738707 0 0.016810749400375205 -0.057602020510095622 0 0.019749801166880122 -0.056761924488760447 0 0.02355607041006021 -0.053543475722840544 0 0.012132888351112545 -0.063054669267047433 0 0.012269254180589426 -0.061894432795493205 0 0.013418534464818572 -0.063564079656105138 0 0.017375107339292737 -0.060987815700574918 0 0.016805855844235336 -0.063044100621566651 0 0.013317817951813504 -0.060740190229738707 0 0.017141657568214837 -0.060746185083711282 0 0.015677832242886183 -0.063782194403430276 0 0.017141657568214837 -0.060746185083711282 0 0.018305931451857955 -0.063684952594651206 0 0.015677832242886183 -0.063782194403430276 0 0.013317817951813504 -0.060740190229738707 0 0.017141657568214837 -0.060746185083711282 0 0.016810749400375205 -0.057602020510095622 0 0.017141657568214837 -0.060746185083711282 0 0.016810749400375205 -0.057602020510095622 0 0.020957073229604783 -0.059840967078766551 0 0.022394575804363367 -0.031900444807518323 0 0.022707016349660269 -0.031445362434848433 0 0.027992958625724804 -0.032857052580074216 0 0.029159462809932483 -0.010567620343142983 0 0.029459902767498117 -0.0097229946445644162 0 0.028942321699727349 -0.010098219809668258 0 0.022815275217726642 -0.031970429829099874 0 0.029333260873634436 -0.026798296074752148 0 0.029159462809932483 -0.010567620343142983 0 0.028942321699727349 -0.010098219809668258 0 0.028416565143608376 -0.010496579185406026 0 0.032066666150032529 -0.020775308027957677 0 0.029333260873634436 -0.026798296074752148 0 0.022815275217726642 -0.031970429829099874 0 0.022003184650200264 -0.033803159982864768 0 0.015586929030704896 -0.06737282551176374 0 0.015677832242886183 -0.063782194403430276 0 0.013957742480298532 -0.066180097005796967 0 0.015586929030704896 -0.06737282551176374 0 0.018305931451857955 -0.063684952594651206 0 0.015677832242886183 -0.063782194403430276 0 0.022003184650200264 -0.033803159982864768 0 0.022295133634758345 -0.045352070939626891 0 0.025425842763441207 -0.039083066145245808 0 0.025799184344831135 -0.03857184397033718 0 0.026261443890302778 -0.03907859458625107 0 0.013418534464818572 -0.063564079656105138 0 0.013957742480298532 -0.066180097005796967 0 0.01264969389586707 -0.065429962571601122 0 0.013317817951813504 -0.060740190229738707 0 0.015677832242886183 -0.063782194403430276 0 0.013957742480298532 -0.066180097005796967 0 0.013957742480298532 -0.066180097005796967 0 0.01264969389586707 -0.065429962571601122 0 0.01374789067377573 -0.067117073125724735 0 0.016478908859247084 -0.028442431419320197 0 0.016292859208371917 -0.028409087891102493 0 0.016166344990731586 -0.028846252399110515 0 0.016292859208371917 -0.028409087891102493 0 0.015988388176286134 -0.028633918943152283 0 0.016166344990731586 -0.028846252399110515 0 0.019896829705596544 -0.033799604144312309 0 0.017705925684767723 -0.03255797828368906 0 0.022815275217726642 -0.031970429829099874 0 0.022903083557012299 -0.022323997063715382 0 0.015586929030704896 -0.06737282551176374 0 0.013957742480298532 -0.066180097005796967 0 0.01374789067377573 -0.067117073125724735 0 0.025062873687549048 -0.034935890067241238 0 0.025817300531395963 -0.033835332934282078 0 0.019375617392198789 -0.033966817561404281 0 0.022003184650200264 -0.033803159982864768 0 0.019896829705596544 -0.033799604144312309 0 0.022815275217726642 -0.031970429829099874 0 0.019896829705596544 -0.033799604144312309 0 0.016014875513072069 -0.028501167107781746 0 0.015742147463809635 -0.028340757990564857 0 0.015573528758588176 -0.028447320145092426 0 0.016492502853393265 -0.028531656809251033 0 0.016014875513072069 -0.028501167107781746 0 0.015742147463809635 -0.028340757990564857 0 0.019896829705596544 -0.033799604144312309 0 0.014884912476896972 -0.0397836437282491 0 0.017705925684767723 -0.03255797828368906 0 0.017088221753488484 -0.032169445870248732 0 0.015759257730390237 -0.028609018789901082 0 0.015925735559677995 -0.028415938300067212 0 0.015573528758588176 -0.028447320145092426 0 0.016292859208371917 -0.028409087891102493 0 0.015988388176286134 -0.028633918943152283 0 0.015925735559677995 -0.028415938300067212 0 0.015988388176286134 -0.028633918943152283 0 0.015759257730390237 -0.028609018789901082 0 0.015925735559677995 -0.028415938300067212 0 0.011483206506565553 -0.064054679868580225 0 0.01264969389586707 -0.065429962571601122 0 0.010663150518675401 -0.066513999898680065 0 0.01264969389586707 -0.065429962571601122 0 0.01374789067377573 -0.067117073125724735 0 0.010663150518675401 -0.066513999898680065 0 0.015742147463809635 -0.028340757990564857 0 0.015573528758588176 -0.028447320145092426 0 0.015148687414542891 -0.028255218278795013 0 0.0087267418158700639 -0.064570503284396744 0 0.010663150518675401 -0.066513999898680065 0 0.0077528827148102553 -0.066062529979106985 0 0.0087267418158700639 -0.064570503284396744 0 0.011483206506565553 -0.064054679868580225 0 0.010663150518675401 -0.066513999898680065 0 0.014884912476896972 -0.0397836437282491 0 0.01177521624812925 -0.041462606549631 0 0.015759257730390237 -0.028609018789901082 0 0.015573528758588176 -0.028447320145092426 0 0.015519134144471465 -0.028692241991106843 0 0.015573528758588176 -0.028447320145092426 0 0.015519134144471465 -0.028692241991106843 0 0.01529157739912365 -0.028570071182059523 0 0.015519134144471465 -0.028692241991106843 0 0.015492333856775571 -0.028994950238919209 0 0.015207950307967072 -0.028817148087216166 0 0.015759257730390237 -0.028609018789901082 0 0.015519134144471465 -0.028692241991106843 0 0.015795907892828202 -0.028830178741454247 0 0.015519134144471465 -0.028692241991106843 0 0.015492333856775571 -0.028994950238919209 0 0.015795907892828202 -0.028830178741454247 0 0.020516132394325808 -0.017804338939113047 0 0.015829306138641051 -0.018642615417430085 0 0.015492333856775571 -0.028994950238919209 0 0.015867065007171749 -0.029231196773888701 0 0.015384474630209624 -0.029321032460993168 0 0.015492333856775571 -0.028994950238919209 0 0.015867065007171749 -0.029231196773888701 0 0.015795907892828202 -0.028830178741454247 0 0.020516132394325808 -0.017804338939113047 0 0.022903083557012299 -0.022323997063715382 0 0.028624381789008373 -0.010332025443536034 0 0.029107324007146895 -0.010165573503868723 0 0.029499301375037 -0.0097475306422775149 0 0.028624381789008373 -0.010332025443536034 0 0.028925655575403292 -0.010314978545398904 0 0.029107324007146895 -0.010165573503868723 0 0.028489897623492823 -0.010358797916280353 0 0.028925655575403292 -0.010314978545398904 0 0.028616677764053734 -0.010996169836628893 0 0.020516132394325808 -0.017804338939113047 0 0.021077685232879041 -0.017592499514909689 0 0.015867065007171749 -0.029231196773888701 0 0.015795907892828202 -0.028830178741454247 0 0.016166344990731586 -0.028846252399110515 0 0.015988388176286134 -0.028633918943152283 0 0.015795907892828202 -0.028830178741454247 0 0.016166344990731586 -0.028846252399110515 0 0.015988388176286134 -0.028633918943152283 0 0.015759257730390237 -0.028609018789901082 0 0.015795907892828202 -0.028830178741454247 0 0.029159462809932483 -0.010567620343142983 0 0.029499301375037 -0.0097475306422775149 0 0.029459902767498117 -0.0097229946445644162 0 0.029459902767498117 -0.0097229946445644162 0 0.029585828134535173 -0.010001709830866862 0 0.029891551506481099 -0.0098446011705313839 0 0.029459902767498117 -0.0097229946445644162 0 0.029442853349725018 -0.0099025172787833085 0 0.029585828134535173 -0.010001709830866862 0 0.029499301375037 -0.0097475306422775149 0 0.029442853349725018 -0.0099025172787833085 0 0.02933252689744676 -0.010023192203349142 0 0.029107324007146895 -0.010165573503868723 0 0.029499301375037 -0.0097475306422775149 0 0.02933252689744676 -0.010023192203349142 0 0.029499301375037 -0.0097475306422775149 0 0.029459902767498117 -0.0097229946445644162 0 0.029442853349725018 -0.0099025172787833085 0 0.029442853349725018 -0.0099025172787833085 0 0.02933252689744676 -0.010023192203349142 0 0.029438011712646543 -0.01014663666414828 0 0.029438011712646543 -0.01014663666414828 0 0.029293035086417524 -0.010301142878199474 0 0.029651827617353924 -0.010300076856554534 0 0.02933252689744676 -0.010023192203349142 0 0.029438011712646543 -0.01014663666414828 0 0.029293035086417524 -0.010301142878199474 0 0.029107324007146895 -0.010165573503868723 0 0.02933252689744676 -0.010023192203349142 0 0.029293035086417524 -0.010301142878199474 0 0.028925655575403292 -0.010314978545398904 0 0.029107324007146895 -0.010165573503868723 0 0.029293035086417524 -0.010301142878199474 0 0.029293035086417524 -0.010301142878199474 0 0.029541166007982626 -0.010653988452559411 0 0.029155951045965134 -0.010680898956699315 0 0.028925655575403292 -0.010314978545398904 0 0.029293035086417524 -0.010301142878199474 0 0.029155951045965134 -0.010680898956699315 0 0.029919609746188677 -0.010607883421288497 0 0.029651827617353924 -0.010300076856554534 0 0.029541166007982626 -0.010653988452559411 0 0.029293035086417524 -0.010301142878199474 0 0.029651827617353924 -0.010300076856554534 0 0.029541166007982626 -0.010653988452559411 0 0.029651827617353924 -0.010300076856554534 0 0.029585828134535173 -0.010001709830866862 0 0.029883858136635234 -0.010113959348775911 0 0.029438011712646543 -0.01014663666414828 0 0.029651827617353924 -0.010300076856554534 0 0.029585828134535173 -0.010001709830866862 0 0.029442853349725018 -0.0099025172787833085 0 0.029438011712646543 -0.01014663666414828 0 0.029585828134535173 -0.010001709830866862 0 0.029585828134535173 -0.010001709830866862 0 0.029883858136635234 -0.010113959348775911 0 0.029891551506481099 -0.0098446011705313839 0 0.029883858136635234 -0.010113959348775911 0 0.030345004803362344 -0.0099252929467195088 0 0.029891551506481099 -0.0098446011705313839 0 0.029651827617353924 -0.010300076856554534 0 0.029883858136635234 -0.010113959348775911 0 0.030156942361839478 -0.010342452971482117 0 0.029883858136635234 -0.010113959348775911 0 0.030156942361839478 -0.010342452971482117 0 0.030345004803362344 -0.0099252929467195088 0 0.029919609746188677 -0.010607883421288497 0 0.030156942361839478 -0.010342452971482117 0 0.030367105132819386 -0.010810838452942851 0 0.029919609746188677 -0.010607883421288497 0 0.029651827617353924 -0.010300076856554534 0 0.030156942361839478 -0.010342452971482117 0 0.030156942361839478 -0.010342452971482117 0 0.030897814604647297 -0.010360742026974701 0 0.030367105132819386 -0.010810838452942851 0 0.030156942361839478 -0.010342452971482117 0 0.030345004803362344 -0.0099252929467195088 0 0.030897814604647297 -0.010360742026974701 0 0.030345004803362344 -0.0099252929467195088 0 0.030835523287799621 -0.0096152478979239352 0 0.030897814604647297 -0.010360742026974701 0 0.030345004803362344 -0.0099252929467195088 0 0.030294227035792421 -0.0091936372368968712 0 0.030835523287799621 -0.0096152478979239352 0 0.030294227035792421 -0.0091936372368968712 0 0.030991445025523725 -0.0087793026534112167 0 0.030835523287799621 -0.0096152478979239352 0 0.030345004803362344 -0.0099252929467195088 0 0.029891551506481099 -0.0098446011705313839 0 0.030294227035792421 -0.0091936372368968712 0 0.029459902767498117 -0.0097229946445644162 0 0.029891551506481099 -0.0098446011705313839 0 0.030294227035792421 -0.0091936372368968712 0 0.032609916311867645 -0.019113596932127937 0 0.032066666150032529 -0.020775308027957677 0 0.0035454599658936736 -0.016623791453285977 0 0.0013110830410247754 -0.015833681032111645 0 0.0025273157341345592 -0.014207380318908809 0 0.0035454599658936736 -0.016623791453285977 0 0.001753977520768105 -0.018181651341577662 0 0.0013110830410247754 -0.015833681032111645 0 0.00716560074581616 -0.039538096194868408 0 0.0037295549638474926 -0.039780070169805969 0 0.0035454599658936736 -0.016623791453285977 0 0.001753977520768105 -0.018181651341577662 0 0.0047505473878317779 -0.018742816337890413 0 0.00716560074581616 -0.039538096194868408 0 0.0076828813919601318 -0.026592779867437005 0 0.00716560074581616 -0.039538096194868408 0 0.01177521624812925 -0.041462606549631 0 0.0061845792450731006 -0.064559461708649235 0 0.0048527545930818561 -0.065598734332076303 0 0.0077528827148102553 -0.066062529979106985 0 0.014602822167573788 -0.028186818879655542 0 0.015148687414542891 -0.028255218278795013 0 0.014712910417228576 -0.028592977012672261 0 0.0087267418158700639 -0.064570503284396744 0 0.0061845792450731006 -0.064559461708649235 0 0.0077528827148102553 -0.066062529979106985 0 0.015148687414542891 -0.028255218278795013 0 0.01529157739912365 -0.028570071182059523 0 0.015028206955493553 -0.028643603309019345 0 0.015573528758588176 -0.028447320145092426 0 0.015148687414542891 -0.028255218278795013 0 0.01529157739912365 -0.028570071182059523 0 0.01529157739912365 -0.028570071182059523 0 0.015028206955493553 -0.028643603309019345 0 0.015207950307967072 -0.028817148087216166 0 0.015148687414542891 -0.028255218278795013 0 0.014712910417228576 -0.028592977012672261 0 0.015028206955493553 -0.028643603309019345 0 0.014712910417228576 -0.028592977012672261 0 0.015028206955493553 -0.028643603309019345 0 0.01482329155891032 -0.028994360655361678 0 0.015028206955493553 -0.028643603309019345 0 0.015207950307967072 -0.028817148087216166 0 0.01482329155891032 -0.028994360655361678 0 0.0076828813919601318 -0.026592779867437005 0 0.0094174510168356842 -0.021618585333104092 0 0.015207950307967072 -0.028817148087216166 0 0.0151441213683843 -0.029091696823092279 0 0.01482329155891032 -0.028994360655361678 0 0.015492333856775571 -0.028994950238919209 0 0.015207950307967072 -0.028817148087216166 0 0.0151441213683843 -0.029091696823092279 0 0.015519134144471465 -0.028692241991106843 0 0.01529157739912365 -0.028570071182059523 0 0.015207950307967072 -0.028817148087216166 0 0.015492333856775571 -0.028994950238919209 0 0.0151441213683843 -0.029091696823092279 0 0.015384474630209624 -0.029321032460993168 0 0.0151441213683843 -0.029091696823092279 0 0.014918724296943599 -0.029399544671805122 0 0.015384474630209624 -0.029321032460993168 0 0.0094174510168356842 -0.021618585333104092 0 0.01186623258237637 -0.017446126245136626 0 0.0010947654501719862 -0.013628436013327227 0 0.0020863898668745779 -0.012624435789321316 0 0.001054367571697233 -0.011966514269318003 0 0.0151441213683843 -0.029091696823092279 0 0.01482329155891032 -0.028994360655361678 0 0.014918724296943599 -0.029399544671805122 0 0.0010947654501719862 -0.013628436013327227 0 0.0020863898668745779 -0.012624435789321316 0 0.0025273157341345592 -0.014207380318908809 0 0.0020863898668745779 -0.012624435789321316 0 0.0025273157341345592 -0.014207380318908809 0 0.002996074431606936 -0.012489473383924492 0 0.0013110830410247754 -0.015833681032111645 0 0.0010947654501719862 -0.013628436013327227 0 0.0025273157341345592 -0.014207380318908809 0 0.0035454599658936736 -0.016623791453285977 0 0.0025273157341345592 -0.014207380318908809 0 0.0047181172261586777 -0.014668459889095726 0 0.0025273157341345592 -0.014207380318908809 0 0.002996074431606936 -0.012489473383924492 0 0.0047181172261586777 -0.014668459889095726 0 0.00065054440676736466 -0.015351718622241843 0 0.0004150191674175459 -0.016758191443148305 0 0.002996074431606936 -0.012489473383924492 0 0.0028765019976512178 -0.011918146627311225 0 0.0030136178248724855 -0.012259202792462849 0 0.0026689536986406357 -0.012041143235512355 0 0.0028765019976512178 -0.011918146627311225 0 0.0030136178248724855 -0.012259202792462849 0 0.0026689536986406357 -0.012041143235512355 0 0.0022597089416238852 -0.01196156503421719 0 0.0023363107897615035 -0.01224476547334476 0 0.0026689536986406357 -0.012041143235512355 0 0.0023173296070185295 -0.011838979810765014 0 0.0022597089416238852 -0.01196156503421719 0 0.0026689536986406357 -0.012041143235512355 0 0.0025713682120905579 -0.011831418575763843 0 0.0023173296070185295 -0.011838979810765014 0 0.0025713682120905579 -0.011831418575763843 0 0.0023250501667159864 -0.011776552288302504 0 0.0023173296070185295 -0.011838979810765014 0 0.0025713682120905579 -0.011831418575763843 0 0.0023996308264504105 -0.011730417611384143 0 0.0023250501667159864 -0.011776552288302504 0 0.0026689536986406357 -0.012041143235512355 0 0.0025713682120905579 -0.011831418575763843 0 0.0028765019976512178 -0.011918146627311225 0 0.0004150191674175459 -0.016758191443148305 0 -0.00034222716370695583 -0.021948371102933642 0 0.0035454599658936736 -0.016623791453285977 0 0.0047181172261586777 -0.014668459889095726 0 0.0062725672828870798 -0.016983669617163983 0 0.0025713682120905579 -0.011831418575763843 0 0.0028765019976512178 -0.011918146627311225 0 0.0025378094029356014 -0.011664964828360555 0 0.0025713682120905579 -0.011831418575763843 0 0.0025378094029356014 -0.011664964828360555 0 0.0023996308264504105 -0.011730417611384143 0 0.0025378094029356014 -0.011664964828360555 0 0.0023996308264504105 -0.011730417611384143 0 0.0023234297174618496 -0.011702652294493413 0 0.0025378094029356014 -0.011664964828360555 0 0.0023234297174618496 -0.011702652294493413 0 0.0023532059897599478 -0.011649847206292084 0 -0.00034222716370695583 -0.021948371102933642 0 0.0012327574679315688 -0.038561729208115451 0 0.0062725672828870798 -0.016983669617163983 0 0.0047505473878317779 -0.018742816337890413 0 0.0077957339083218023 -0.019333201093518486 0 0.0035454599658936736 -0.016623791453285977 0 0.0062725672828870798 -0.016983669617163983 0 0.0047505473878317779 -0.018742816337890413 0 0.002240308634652887 -0.011719593763578645 0 0.0021615549320112121 -0.011767544015864266 0 0.0021905052521617395 -0.011723103448835231 0 0.002240308634652887 -0.011719593763578645 0 0.0021996480833649011 -0.011757142901984799 0 0.0021615549320112121 -0.011767544015864266 0 0.002240308634652887 -0.011719593763578645 0 0.0023234297174618496 -0.011702652294493413 0 0.0021996480833649011 -0.011757142901984799 0 0.002240308634652887 -0.011719593763578645 0 0.0023234297174618496 -0.011702652294493413 0 0.0023532059897599478 -0.011649847206292084 0 0.0023234297174618496 -0.011702652294493413 0 0.0022512856333201511 -0.011752014960169728 0 0.0021996480833649011 -0.011757142901984799 0 0.0023996308264504105 -0.011730417611384143 0 0.0023234297174618496 -0.011702652294493413 0 0.0022512856333201511 -0.011752014960169728 0 0.0023996308264504105 -0.011730417611384143 0 0.0022512856333201511 -0.011752014960169728 0 0.0023250501667159864 -0.011776552288302504 0 0.0022512856333201511 -0.011752014960169728 0 0.0021996480833649011 -0.011757142901984799 0 0.0021801769563232249 -0.011775395601384003 0 0.0021996480833649011 -0.011757142901984799 0 0.0021701529832120988 -0.011771345527776445 0 0.0021615549320112121 -0.011767544015864266 0 0.0021996480833649011 -0.011757142901984799 0 0.0021701529832120988 -0.011771345527776445 0 0.0021713857332019844 -0.011779736347495713 0 0.0021996480833649011 -0.011757142901984799 0 0.0021713857332019844 -0.011779736347495713 0 0.0021801769563232249 -0.011775395601384003 0 0.0021713857332019844 -0.011779736347495713 0 0.0021696754496474198 -0.01178251920358585 0 0.0021822863291796027 -0.01177633807908662 0 0.0013327071516602909 -0.011336490311443454 0 0.0014381731929386089 -0.011208806115122955 0 0.0019433154283839374 -0.01175478230433491 0 0.0021713857332019844 -0.011779736347495713 0 0.0021696754496474198 -0.01178251920358585 0 0.0021801769563232249 -0.011775395601384003 0 0.0021696754496474198 -0.01178251920358585 0 0.0021342275816925776 -0.011781611689207321 0 0.0021822863291796027 -0.01177633807908662 0 0.0021696754496474198 -0.01178251920358585 0 0.0021801769563232249 -0.011775395601384003 0 0.0021342275816925776 -0.011781611689207321 0 0.0021801769563232249 -0.011775395601384003 0 0.0021342275816925776 -0.011781611689207321 0 0.0021784989784009029 -0.011778187381461507 0 0.0021342275816925776 -0.011781611689207321 0 0.0021822863291796027 -0.01177633807908662 0 0.0019433154283839374 -0.01175478230433491 0 0.0022512856333201511 -0.011752014960169728 0 0.0023250501667159864 -0.011776552288302504 0 0.0021784989784009029 -0.011778187381461507 0 0.0022512856333201511 -0.011752014960169728 0 0.0021801769563232249 -0.011775395601384003 0 0.0021784989784009029 -0.011778187381461507 0 0.0021342275816925776 -0.011781611689207321 0 0.0021784989784009029 -0.011778187381461507 0 0.0019433154283839374 -0.01175478230433491 0 0.0023250501667159864 -0.011776552288302504 0 0.0021784989784009029 -0.011778187381461507 0 0.0023173296070185295 -0.011838979810765014 0 0.0023173296070185295 -0.011838979810765014 0 0.0019433154283839374 -0.01175478230433491 0 0.0022597089416238852 -0.01196156503421719 0 0.0021784989784009029 -0.011778187381461507 0 0.0023173296070185295 -0.011838979810765014 0 0.0019433154283839374 -0.01175478230433491 0 0.0019433154283839374 -0.01175478230433491 0 0.0015903846270329961 -0.011883668981200189 0 0.0019565762758990933 -0.012030774633334738 0 0.0019433154283839374 -0.01175478230433491 0 0.0022597089416238852 -0.01196156503421719 0 0.0019565762758990933 -0.012030774633334738 0 0.0013327071516602909 -0.011336490311443454 0 0.0019433154283839374 -0.01175478230433491 0 0.0015903846270329961 -0.011883668981200189 0 0.00063532121493187297 -0.010185792594015924 0 0.0015903846270329961 -0.011883668981200189 0 0.00052605796752467379 -0.011306794344751667 0 -7.7497246862019847e-05 -0.011688145750115946 0 0.00023490223626441761 -0.011820530060943532 0 0.00043863924936051086 -0.012317437389981969 0 0.00074921828449998537 -0.012352964065009867 0 0.0015903846270329961 -0.011883668981200189 0 0.00052605796752467379 -0.011306794344751667 0 0.00085875969684024757 -0.0119361327352023 0 -0.00034438975776417949 -0.010780772474005927 0 -9.4549183060854973e-05 -0.011662392559801565 0 -0.0017573730718748791 -0.010927249620677419 0 0.00052605796752467379 -0.011306794344751667 0 -0.00034438975776417949 -0.010780772474005927 0 -9.4549183060854973e-05 -0.011662392559801565 0 0.00052605796752467379 -0.011306794344751667 0 -9.4549183060854973e-05 -0.011662392559801565 0 0.00085875969684024757 -0.0119361327352023 0 0.00063532121493187297 -0.010185792594015924 0 0.00052605796752467379 -0.011306794344751667 0 -0.00034438975776417949 -0.010780772474005927 0 -9.4549183060854973e-05 -0.011662392559801565 0 -0.0017573730718748791 -0.010927249620677419 0 -0.00037335911572068675 -0.012416142634615912 0 -0.00034438975776417949 -0.010780772474005927 0 -0.0017573730718748791 -0.010927249620677419 0 -0.00099456002718941393 -0.0097248495737768115 0 -0.0032421485010484907 -0.010575822447672221 0 -0.0029869340972402134 -0.0092492860062798089 0 -0.0045107955526054819 -0.011314302372354345 0 -0.0046964198199323688 -0.0087321039125193931 0 -0.002776227578939736 -0.0081100682541371937 0 -0.0017573730718748791 -0.010927249620677419 0 -0.00099456002718941393 -0.0097248495737768115 0 -0.002776227578939736 -0.0081100682541371937 0 0.0013327071516602909 -0.011336490311443454 0 0.0014381731929386089 -0.011208806115122955 0 0.00094111800416151229 -0.010675854446044518 0 -7.7497246862019847e-05 -0.011688145750115946 0 -0.00054975009152471316 -0.012263009494999399 0 0.00063532121493187297 -0.010185792594015924 0 -0.00099456002718941393 -0.0097248495737768115 0 -0.00075157812565137486 -0.0081430858843337343 0 0.00043863924936051086 -0.012317437389981969 0 -0.00054975009152471316 -0.012263009494999399 0 0.0021713857332019844 -0.011779736347495713 0 0.0021822863291796027 -0.01177633807908662 0 0.0021566648291029803 -0.011781153177945107 0 0.00063532121493187297 -0.010185792594015924 0 -0.00034438975776417949 -0.010780772474005927 0 -0.00099456002718941393 -0.0097248495737768115 0 -0.0075718474350023914 -0.011130239077391756 0 -0.0065656072150355209 -0.012542848949215667 0 -0.0082621854829430814 -0.012726082080402545 0 -0.0091031863303546873 -0.011267328219254164 0 -0.0075718474350023914 -0.011130239077391756 0 -0.0082621854829430814 -0.012726082080402545 0 -0.0091031863303546873 -0.011267328219254164 0 -0.0087783758425564462 -0.0096379397804034934 0 -0.0075718474350023914 -0.011130239077391756 0 -0.0045107955526054819 -0.011314302372354345 0 -0.0075718474350023914 -0.011130239077391756 0 -0.0065656072150355209 -0.012542848949215667 0 -0.0045107955526054819 -0.011314302372354345 0 -0.0075718474350023914 -0.011130239077391756 0 -0.0065167240321022347 -0.0094164814377669988 0 -0.0045107955526054819 -0.011314302372354345 0 -0.0065167240321022347 -0.0094164814377669988 0 -0.0046964198199323688 -0.0087321039125193931 0 -0.0087783758425564462 -0.0096379397804034934 0 -0.0075718474350023914 -0.011130239077391756 0 -0.0065167240321022347 -0.0094164814377669988 0 -0.0087783758425564462 -0.0096379397804034934 0 -0.0065167240321022347 -0.0094164814377669988 0 -0.007720684989798803 -0.0079384552470929022 0 -0.007720684989798803 -0.0079384552470929022 0 -0.0058016118217644099 -0.0075674006789478217 0 -0.0071940922223044769 -0.0064816971706965192 0 -0.0065167240321022347 -0.0094164814377669988 0 -0.0058016118217644099 -0.0075674006789478217 0 -0.0046964198199323688 -0.0087321039125193931 0 -0.0065167240321022347 -0.0094164814377669988 0 -0.007720684989798803 -0.0079384552470929022 0 -0.0058016118217644099 -0.0075674006789478217 0 -0.0058016118217644099 -0.0075674006789478217 0 -0.0046964198199323688 -0.0087321039125193931 0 -0.0038964345950852661 -0.0069672660598917267 0 -0.0058016118217644099 -0.0075674006789478217 0 -0.005869896098987048 -0.0056537214100390431 0 -0.0038964345950852661 -0.0069672660598917267 0 -0.005869896098987048 -0.0056537214100390431 0 -0.0038964345950852661 -0.0069672660598917267 0 -0.0041700905657151809 -0.0052085894141505884 0 -0.0058016118217644099 -0.0075674006789478217 0 -0.005869896098987048 -0.0056537214100390431 0 -0.0071940922223044769 -0.0064816971706965192 0 -0.0090091187012626417 -0.0062012231296768383 0 -0.0088170754088688786 -0.0040468230936942023 0 -0.0074818517083758401 -0.0050796422028395946 0 -0.005869896098987048 -0.0056537214100390431 0 -0.0071940922223044769 -0.0064816971706965192 0 -0.0074818517083758401 -0.0050796422028395946 0 -0.0090091187012626417 -0.0062012231296768383 0 -0.0071940922223044769 -0.0064816971706965192 0 -0.0074818517083758401 -0.0050796422028395946 0 -0.0090091187012626417 -0.0062012231296768383 0 -0.007720684989798803 -0.0079384552470929022 0 -0.0071940922223044769 -0.0064816971706965192 0 -0.00054975009152471316 -0.012263009494999399 0 0.00046365529501419628 -0.012402126389331634 0 0.0021701529832120988 -0.011771345527776445 0 0.0021566648291029803 -0.011781153177945107 0 0.0021615549320112121 -0.011767544015864266 0 0.0021701529832120988 -0.011771345527776445 0 0.0021713857332019844 -0.011779736347495713 0 0.0021566648291029803 -0.011781153177945107 0 -0.00099456002718941393 -0.0097248495737768115 0 -0.00075157812565137486 -0.0081430858843337343 0 -0.002776227578939736 -0.0081100682541371937 0 -0.00075157812565137486 -0.0081430858843337343 0 -0.0038964345950852661 -0.0069672660598917267 0 -0.0041700905657151809 -0.0052085894141505884 0 -0.00075157812565137486 -0.0081430858843337343 0 -0.002776227578939736 -0.0081100682541371937 0 -0.0038964345950852661 -0.0069672660598917267 0 -0.0046964198199323688 -0.0087321039125193931 0 -0.002776227578939736 -0.0081100682541371937 0 -0.0038964345950852661 -0.0069672660598917267 0 -0.00054975009152471316 -0.012263009494999399 0 -0.0054311114822574334 -0.016039762513005939 0 0.0020653354276613878 -0.012011701749396132 0 0.0020501805709946855 -0.011947843089437553 0 0.002024237692080013 -0.011927787697403863 0 0.0020501805709946855 -0.011947843089437553 0 0.002024237692080013 -0.011927787697403863 0 0.0020373209241635278 -0.011855598293925362 0 0.0021274890420523006 -0.011789069785685176 0 0.0021286575256569927 -0.011785743596839017 0 0.0020983137876121405 -0.011812865537261338 0 0.0021566648291029803 -0.011781153177945107 0 0.0021274890420523006 -0.011789069785685176 0 0.0021615549320112121 -0.011767544015864266 0 0.0021615549320112121 -0.011767544015864266 0 0.0021286575256569927 -0.011785743596839017 0 0.0021905052521617395 -0.011723103448835231 0 0.0021274890420523006 -0.011789069785685176 0 0.0021615549320112121 -0.011767544015864266 0 0.0021286575256569927 -0.011785743596839017 0 0.0021286575256569927 -0.011785743596839017 0 0.0020858550413905444 -0.011814984043527221 0 0.0021905052521617395 -0.011723103448835231 0 -0.0029853070164017831 -0.036488635093070168 0 -0.001082128999540645 -0.037650337247519386 0 0.0021286575256569927 -0.011785743596839017 0 0.0020983137876121405 -0.011812865537261338 0 0.0020858550413905444 -0.011814984043527221 0 0.0021274890420523006 -0.011789069785685176 0 0.0020983137876121405 -0.011812865537261338 0 0.0020373209241635278 -0.011855598293925362 0 0.00046365529501419628 -0.012402126389331634 0 0.00073260342056282346 -0.01238716631046393 0 0.0020983137876121405 -0.011812865537261338 0 0.0020373209241635278 -0.011855598293925362 0 0.0020858550413905444 -0.011814984043527221 0 -0.0077189237827194083 -0.064061017638001413 0 -0.0088694948363798824 -0.062211251790609164 0 -0.0072062640798836114 -0.061306404199299704 0 -0.0077189237827194083 -0.064061017638001413 0 -0.005604814105694759 -0.062676783401088981 0 -0.0046746560663344346 -0.064454052400637452 0 -0.0077189237827194083 -0.064061017638001413 0 -0.005604814105694759 -0.062676783401088981 0 -0.0072062640798836114 -0.061306404199299704 0 -0.0088170754088688786 -0.0040468230936942023 0 -0.0074818517083758401 -0.0050796422028395946 0 -0.0068730732569494482 -0.0027201874495911141 0 -0.005869896098987048 -0.0056537214100390431 0 -0.0074818517083758401 -0.0050796422028395946 0 -0.0068730732569494482 -0.0027201874495911141 0 -0.0054311114822574334 -0.016039762513005939 0 -0.0063617108937177392 -0.034105154069199888 0 -0.005869896098987048 -0.0056537214100390431 0 -0.0041700905657151809 -0.0052085894141505884 0 -0.0068730732569494482 -0.0027201874495911141 0 0.0020373209241635278 -0.011855598293925362 0 0.0020858550413905444 -0.011814984043527221 0 0.0018968229009134134 -0.011866693854418063 0 0.002024237692080013 -0.011927787697403863 0 0.0020373209241635278 -0.011855598293925362 0 0.0018968229009134134 -0.011866693854418063 0 -0.0029853070164017831 -0.036488635093070168 0 -0.0063617108937177392 -0.034105154069199888 0 -0.010724962293444596 -0.063683283433188978 0 -0.0088694948363798824 -0.062211251790609164 0 -0.010271418030750306 -0.061209519210097402 0 -0.0077189237827194083 -0.064061017638001413 0 -0.010724962293444596 -0.063683283433188978 0 -0.0088694948363798824 -0.062211251790609164 0 -0.011380238246415474 -0.034661943140434942 0 -0.0063617108937177392 -0.034105154069199888 0 -0.0032703980765302698 -0.047036874114313912 0 -0.0063617108937177392 -0.034105154069199888 0 -0.013050282988807437 -0.061549197570050208 0 -0.013326206582258008 -0.061877400010159643 0 -0.012411351190461634 -0.062431490260486729 0 -0.013050282988807437 -0.061549197570050208 0 -0.010724962293444596 -0.063683283433188978 0 -0.01158632933554816 -0.061746131322247023 0 -0.010724962293444596 -0.063683283433188978 0 -0.01158632933554816 -0.061746131322247023 0 -0.010271418030750306 -0.061209519210097402 0 -0.012156113787947124 -0.060720329776258693 0 -0.01158632933554816 -0.061746131322247023 0 -0.011270234680752046 -0.060758751884327403 0 -0.012467993433890372 -0.061171504073961408 0 -0.012156113787947124 -0.060720329776258693 0 -0.01158632933554816 -0.061746131322247023 0 -0.012467993433890372 -0.061171504073961408 0 -0.013050282988807437 -0.061549197570050208 0 -0.01158632933554816 -0.061746131322247023 0 -0.01158632933554816 -0.061746131322247023 0 -0.011270234680752046 -0.060758751884327403 0 -0.010271418030750306 -0.061209519210097402 0 -0.0088694948363798824 -0.062211251790609164 0 -0.010271418030750306 -0.061209519210097402 0 -0.0091821390906897792 -0.059914429969902601 0 -0.0088483858622117467 -0.05846440804104356 0 -0.0091821390906897792 -0.059914429969902601 0 -0.0098138416648783158 -0.058964631231510717 0 -0.0091821390906897792 -0.059914429969902601 0 -0.0098138416648783158 -0.058964631231510717 0 -0.010631275105658056 -0.059772586810640391 0 -0.010661292611254277 -0.058664709568294164 0 -0.0098138416648783158 -0.058964631231510717 0 -0.010631275105658056 -0.059772586810640391 0 -0.010271418030750306 -0.061209519210097402 0 -0.0091821390906897792 -0.059914429969902601 0 -0.010631275105658056 -0.059772586810640391 0 -0.011270234680752046 -0.060758751884327403 0 -0.010631275105658056 -0.059772586810640391 0 -0.011771993715450093 -0.059939361015025741 0 -0.011270234680752046 -0.060758751884327403 0 -0.010271418030750306 -0.061209519210097402 0 -0.010631275105658056 -0.059772586810640391 0 -0.010631275105658056 -0.059772586810640391 0 -0.011571898342379556 -0.059015187296939289 0 -0.011771993715450093 -0.059939361015025741 0 -0.010661292611254277 -0.058664709568294164 0 -0.010631275105658056 -0.059772586810640391 0 -0.011571898342379556 -0.059015187296939289 0 -0.012419174931769581 -0.059389655446756624 0 -0.01244306894829969 -0.058697951930665709 0 -0.011571898342379556 -0.059015187296939289 0 -0.012419174931769581 -0.059389655446756624 0 -0.011571898342379556 -0.059015187296939289 0 -0.011771993715450093 -0.059939361015025741 0 -0.012419174931769581 -0.059389655446756624 0 -0.012501125220579621 -0.060077494001510079 0 -0.011771993715450093 -0.059939361015025741 0 -0.012501125220579621 -0.060077494001510079 0 -0.012156113787947124 -0.060720329776258693 0 -0.011771993715450093 -0.059939361015025741 0 -0.012156113787947124 -0.060720329776258693 0 -0.011270234680752046 -0.060758751884327403 0 -0.011771993715450093 -0.059939361015025741 0 -0.0072062640798836114 -0.061306404199299704 0 -0.0056763586502945858 -0.05942649797445522 0 -0.0053360386324934166 -0.061060417585987355 0 -0.005604814105694759 -0.062676783401088981 0 -0.0072062640798836114 -0.061306404199299704 0 -0.0053360386324934166 -0.061060417585987355 0 -0.0088694948363798824 -0.062211251790609164 0 -0.0091821390906897792 -0.059914429969902601 0 -0.0072062640798836114 -0.061306404199299704 0 -0.0091821390906897792 -0.059914429969902601 0 -0.0072062640798836114 -0.061306404199299704 0 -0.0075761528628113858 -0.059109182330018904 0 -0.0088483858622117467 -0.05846440804104356 0 -0.0091821390906897792 -0.059914429969902601 0 -0.0075761528628113858 -0.059109182330018904 0 -0.0072062640798836114 -0.061306404199299704 0 -0.0075761528628113858 -0.059109182330018904 0 -0.0056763586502945858 -0.05942649797445522 0 -0.0067384654702081067 -0.058089572880100471 0 -0.0075761528628113858 -0.059109182330018904 0 -0.0056763586502945858 -0.05942649797445522 0 -0.0035582957168490878 -0.057762777827072488 0 -0.0037544099775561031 -0.05884418106695647 0 -0.00380193874854117 -0.058340536861659235 0 -0.0056763586502945858 -0.05942649797445522 0 -0.0041240547111694639 -0.060547435334197583 0 -0.0056763586502945858 -0.05942649797445522 0 -0.0053360386324934166 -0.061060417585987355 0 -0.0041240547111694639 -0.060547435334197583 0 -0.0053360386324934166 -0.061060417585987355 0 -0.0041240547111694639 -0.060547435334197583 0 -0.004034710530796186 -0.061399465429239894 0 -0.0041240547111694639 -0.060547435334197583 0 -0.004034710530796186 -0.061399465429239894 0 -0.0026876675127538116 -0.060793046184263365 0 -0.005604814105694759 -0.062676783401088981 0 -0.0053360386324934166 -0.061060417585987355 0 -0.004034710530796186 -0.061399465429239894 0 -0.004034710530796186 -0.061399465429239894 0 -0.0026876675127538116 -0.060793046184263365 0 -0.0027062462975770206 -0.063002790390099261 0 -0.0041240547111694639 -0.060547435334197583 0 -0.0026876675127538116 -0.060793046184263365 0 -0.0026724020356889877 -0.059595441141757154 0 -0.0026876675127538116 -0.060793046184263365 0 -0.0026724020356889877 -0.059595441141757154 0 -0.0012295953490011693 -0.060490552885170377 0 -0.0035286386833688621 -0.057896036937076865 0 -0.0041240547111694639 -0.060547435334197583 0 -0.0026724020356889877 -0.059595441141757154 0 -0.0035286386833688621 -0.057896036937076865 0 -0.0026724020356889877 -0.059595441141757154 0 -0.0012337666859640686 -0.058818338088718634 0 -0.0012337666859640686 -0.058818338088718634 0 0.00088898795203364109 -0.058949099689314437 0 -0.0012295953490011693 -0.060490552885170377 0 -0.0026724020356889877 -0.059595441141757154 0 -0.0012337666859640686 -0.058818338088718634 0 -0.0012295953490011693 -0.060490552885170377 0 0.0029664671441519846 -0.060045114303104011 0 0.00088898795203364109 -0.058949099689314437 0 0.00083454881102310865 -0.060866011606806762 0 0.00088898795203364109 -0.058949099689314437 0 0.00083454881102310865 -0.060866011606806762 0 -0.0012295953490011693 -0.060490552885170377 0 0.00083454881102310865 -0.060866011606806762 0 -0.0012295953490011693 -0.060490552885170377 0 -0.0011432534531583181 -0.062152701210347182 0 -0.0026876675127538116 -0.060793046184263365 0 -0.0012295953490011693 -0.060490552885170377 0 -0.0011432534531583181 -0.062152701210347182 0 -0.0011432534531583181 -0.062152701210347182 0 0.00086198322793953972 -0.062975796043649557 0 -0.0014887304799308485 -0.064699775038683863 0 0.002666258110377925 -0.061575883027055058 0 0.00083454881102310865 -0.060866011606806762 0 0.00086198322793953972 -0.062975796043649557 0 0.00083454881102310865 -0.060866011606806762 0 -0.0011432534531583181 -0.062152701210347182 0 0.00086198322793953972 -0.062975796043649557 0 0.0037295549638474926 -0.039780070169805969 0 0.0012327574679315688 -0.038561729208115451 0 0.0016450057134026821 -0.06517293287889607 0 0.00086198322793953972 -0.062975796043649557 0 -0.0014887304799308485 -0.064699775038683863 0 0.002240308634652887 -0.011719593763578645 0 0.0023532059897599478 -0.011649847206292084 0 0.0021905052521617395 -0.011723103448835231 0 -0.0017005908090543 -0.064850499536634881 0 -0.0046746560663344346 -0.064454052400637452 0 -0.0028754599381455707 -0.063178825281885093 0 0.0012327574679315688 -0.038561729208115451 0 -0.001082128999540645 -0.037650337247519386 0 0.0012327574679315688 -0.038561729208115451 0 0.003343655998135769 -0.051284690194281959 0 -0.005604814105694759 -0.062676783401088981 0 -0.0046746560663344346 -0.064454052400637452 0 -0.0042714517164191782 -0.062904165838840093 0 -0.0046746560663344346 -0.064454052400637452 0 -0.0042714517164191782 -0.062904165838840093 0 -0.0028754599381455707 -0.063178825281885093 0 -0.004034710530796186 -0.061399465429239894 0 -0.0042714517164191782 -0.062904165838840093 0 -0.0028754599381455707 -0.063178825281885093 0 -0.005604814105694759 -0.062676783401088981 0 -0.004034710530796186 -0.061399465429239894 0 -0.0042714517164191782 -0.062904165838840093 0 -0.0026876675127538116 -0.060793046184263365 0 -0.0011432534531583181 -0.062152701210347182 0 -0.0027062462975770206 -0.063002790390099261 0 0.0031825179751946786 -0.053942108626305517 0 0.003343655998135769 -0.051284690194281959 0 -0.0011432534531583181 -0.062152701210347182 0 -0.0014887304799308485 -0.064699775038683863 0 -0.0027062462975770206 -0.063002790390099261 0 0.066856286791110886 -0.051842182227458525 0 0.06563239621192174 -0.056256380658203764 0 0.065610721534555549 -0.054316753845854424 0 0.06560757823649413 -0.052098087108116246 0 0.06620195800512757 -0.05354299589165154 0 0.06563239621192174 -0.056256380658203764 0 0.066255928040312884 -0.051315713553962777 0 0.066560571636605351 -0.052848822889377416 0 0.06560757823649413 -0.052098087108116246 0 0.06620195800512757 -0.05354299589165154 0 0.067491059062978823 -0.051276307473836866 0 0.066856286791110886 -0.051842182227458525 0 0.065617232277648194 -0.051789387818317205 0 0.065610721534555549 -0.054316753845854424 0 0.064998857071494623 -0.052679386049745612 0 0.065617232277648194 -0.051789387818317205 0 0.064999630003505629 -0.049126612571988484 0 0.064998857071494623 -0.052679386049745612 0 0.065617232277648194 -0.051789387818317205 0 0.065610721534555549 -0.054316753845854424 0 0.066856286791110886 -0.051842182227458525 0 0.065617232277648194 -0.051789387818317205 0 0.065902721169181153 -0.050347036032913781 0 0.066255928040312884 -0.051315713553962777 0 0.065674177667518291 -0.048563658536089412 0 0.065617232277648194 -0.051789387818317205 0 0.065902721169181153 -0.050347036032913781 0 0.064999630003505629 -0.049126612571988484 0 0.066856286791110886 -0.051842182227458525 0 0.065902721169181153 -0.050347036032913781 0 0.066216932830068895 -0.048428731848760925 0 0.065902721169181153 -0.050347036032913781 0 0.064999630003505629 -0.049126612571988484 0 0.066216932830068895 -0.048428731848760925 0 0.06560757823649413 -0.052098087108116246 0 0.066225846156873394 -0.049402708924544625 0 0.066658720970947216 -0.050444762499426282 0 0.06560757823649413 -0.052098087108116246 0 0.066225846156873394 -0.049402708924544625 0 0.065027725704108141 -0.048345659247840692 0 0.066658720970947216 -0.050444762499426282 0 0.067529634891968879 -0.049303673251334341 0 0.067491059062978823 -0.051276307473836866 0 0.06560757823649413 -0.052098087108116246 0 0.066658720970947216 -0.050444762499426282 0 0.067491059062978823 -0.051276307473836866 0 0.066225846156873394 -0.049402708924544625 0 0.066658720970947216 -0.050444762499426282 0 0.067529634891968879 -0.049303673251334341 0 0.067529634891968879 -0.049303673251334341 0 0.069016590924238161 -0.050876964316929452 0 0.069744140224093865 -0.048902457712503532 0 0.067529634891968879 -0.049303673251334341 0 0.069016590924238161 -0.050876964316929452 0 0.067491059062978823 -0.051276307473836866 0 0.070976556178746666 -0.050602120824565708 0 0.072540291290756787 -0.048118648390869295 0 0.069744140224093865 -0.048902457712503532 0 0.069016590924238161 -0.050876964316929452 0 0.070976556178746666 -0.050602120824565708 0 0.069744140224093865 -0.048902457712503532 0 0.069016590924238161 -0.050876964316929452 0 0.070976556178746666 -0.050602120824565708 0 0.069717783613457276 -0.052723852802747578 0 0.069717783613457276 -0.052723852802747578 0 0.070748961595624868 -0.053976988335189678 0 0.071937875762361311 -0.052693201197170497 0 0.070976556178746666 -0.050602120824565708 0 0.069717783613457276 -0.052723852802747578 0 0.071937875762361311 -0.052693201197170497 0 0.069717783613457276 -0.052723852802747578 0 0.068285338811659282 -0.052807799478004035 0 0.069437918652368119 -0.055438526625784981 0 0.06620195800512757 -0.05354299589165154 0 0.068285338811659282 -0.052807799478004035 0 0.069437918652368119 -0.055438526625784981 0 0.069016590924238161 -0.050876964316929452 0 0.067491059062978823 -0.051276307473836866 0 0.068285338811659282 -0.052807799478004035 0 0.06620195800512757 -0.05354299589165154 0 0.067491059062978823 -0.051276307473836866 0 0.068285338811659282 -0.052807799478004035 0 0.069016590924238161 -0.050876964316929452 0 0.069717783613457276 -0.052723852802747578 0 0.068285338811659282 -0.052807799478004035 0 0.06620195800512757 -0.05354299589165154 0 0.065288644749115624 -0.057891348736686256 0 0.06563239621192174 -0.056256380658203764 0 0.064716819341439427 -0.05615078160470853 0 0.065122367826556518 -0.057333614882967579 0 0.065288644749115624 -0.057891348736686256 0 0.064903987044956826 -0.058091935369702218 0 0.06563239621192174 -0.056256380658203764 0 0.069437918652368119 -0.055438526625784981 0 0.072016164255868376 -0.057391626901909604 0 0.07189229076394589 -0.055039620722082239 0 0.069717783613457276 -0.052723852802747578 0 0.069437918652368119 -0.055438526625784981 0 0.070748961595624868 -0.053976988335189678 0 0.070748961595624868 -0.053976988335189678 0 0.07189229076394589 -0.055039620722082239 0 0.071937875762361311 -0.052693201197170497 0 0.069437918652368119 -0.055438526625784981 0 0.070748961595624868 -0.053976988335189678 0 0.07189229076394589 -0.055039620722082239 0 0.065288644749115624 -0.057891348736686256 0 0.064005443884101898 -0.059428723039964125 0 0.06257866759019233 -0.060944484861171801 0 0.065122367826556518 -0.057333614882967579 0 0.065025788461582371 -0.059415600293059208 0 0.064005443884101898 -0.059428723039964125 0 0.062772176606181271 -0.060498627100780494 0 0.06257866759019233 -0.060944484861171801 0 0.064005443884101898 -0.059428723039964125 0 0.064903987044956826 -0.058091935369702218 0 0.064024053720054999 -0.059468782390283095 0 0.064903987044956826 -0.058091935369702218 0 0.0650900647499187 -0.05733829468005399 0 0.064024053720054999 -0.059468782390283095 0 0.065288644749115624 -0.057891348736686256 0 0.064005443884101898 -0.059428723039964125 0 0.064903987044956826 -0.058091935369702218 0 0.064903987044956826 -0.058091935369702218 0 0.0650900647499187 -0.05733829468005399 0 0.06563239621192174 -0.056256380658203764 0 0.0650900647499187 -0.05733829468005399 0 0.06563239621192174 -0.056256380658203764 0 0.065610721534555549 -0.054316753845854424 0 0.064998857071494623 -0.052679386049745612 0 0.065610721534555549 -0.054316753845854424 0 0.064998482367609717 -0.056232789935680726 0 0.0650900647499187 -0.05733829468005399 0 0.065610721534555549 -0.054316753845854424 0 0.064998482367609717 -0.056232789935680726 0 0.0650900647499187 -0.05733829468005399 0 0.064998482367609717 -0.056232789935680726 0 0.064567228545288471 -0.059193891737662617 0 0.064998482367609717 -0.056232789935680726 0 0.064567228545288471 -0.059193891737662617 0 0.064997927599345223 -0.059777103557173625 0 0.0650900647499187 -0.05733829468005399 0 0.064567228545288471 -0.059193891737662617 0 0.064024053720054999 -0.059468782390283095 0 0.064567228545288471 -0.059193891737662617 0 0.063296917297759339 -0.059779306069989595 0 0.063200867289927035 -0.060028535388504951 0 0.06499727360699202 -0.059782855663159842 0 0.06351405858645047 -0.060814270674955942 0 0.064567228545288471 -0.059193891737662617 0 0.064997927599345223 -0.059777103557173625 0 0.063296917297759339 -0.059779306069989595 0 0.064994947407975318 -0.064996587975138867 0 0.063112210124543058 -0.063737945728829071 0 0.058078690765879702 -0.06499283011616086 0 0.06499845098205291 -0.059790068930295384 0 0.064994947407975318 -0.064996587975138867 0 0.063112210124543058 -0.063737945728829071 0 0.059965084257512888 -0.063294650153273735 0 0.058078690765879702 -0.06499283011616086 0 0.061801818545351238 -0.061384608675258981 0 0.058064214325113384 -0.06499784071022123 0 0.058489879843679295 -0.063819971764516661 0 0.063112210124543058 -0.063737945728829071 0 0.059965084257512888 -0.063294650153273735 0 0.058078690765879702 -0.06499283011616086 0 0.06351405858645047 -0.060814270674955942 0 0.062810050731316694 -0.061353927204784435 0 0.063296917297759339 -0.059779306069989595 0 0.059965084257512888 -0.063294650153273735 0 0.061625699536195171 -0.060912400350422745 0 0.061625699536195171 -0.060912400350422745 0 0.061335429234998684 -0.06119859550141981 0 0.061801818545351238 -0.061384608675258981 0 0.059965084257512888 -0.063294650153273735 0 0.061625699536195171 -0.060912400350422745 0 0.061801818545351238 -0.061384608675258981 0 0.061625699536195171 -0.060912400350422745 0 0.062184040423170717 -0.060663669754572304 0 0.061335429234998684 -0.06119859550141981 0 0.061625699536195171 -0.060912400350422745 0 0.062184040423170717 -0.060663669754572304 0 0.063200867289927035 -0.060028535388504951 0 0.062184040423170717 -0.060663669754572304 0 0.061088835602278242 -0.061353650678717585 0 0.061335429234998684 -0.06119859550141981 0 0.063296917297759339 -0.059779306069989595 0 0.061625699536195171 -0.060912400350422745 0 0.063200867289927035 -0.060028535388504951 0 0.062184040423170717 -0.060663669754572304 0 0.063200867289927035 -0.060028535388504951 0 0.064024053720054999 -0.059468782390283095 0 0.064567228545288471 -0.059193891737662617 0 0.063200867289927035 -0.060028535388504951 0 0.064024053720054999 -0.059468782390283095 0 0.064005443884101898 -0.059428723039964125 0 0.064024053720054999 -0.059468782390283095 0 0.062772176606181271 -0.060498627100780494 0 0.062184040423170717 -0.060663669754572304 0 0.064024053720054999 -0.059468782390283095 0 0.062772176606181271 -0.060498627100780494 0 0.062772176606181271 -0.060498627100780494 0 0.061088835602278242 -0.061353650678717585 0 0.06257866759019233 -0.060944484861171801 0 0.062184040423170717 -0.060663669754572304 0 0.062772176606181271 -0.060498627100780494 0 0.061088835602278242 -0.061353650678717585 0 0.063584379734398344 -0.061519884030733996 0 0.065025788461582371 -0.059415600293059208 0 0.061088835602278242 -0.061353650678717585 0 0.058465103272524854 -0.062340834978440285 0 0.06257866759019233 -0.060944484861171801 0 0.061088835602278242 -0.061353650678717585 0 0.058465103272524854 -0.062340834978440285 0 0.058326806940093116 -0.062090980865620427 0 0.074353599932959702 -0.059305725965644381 0 0.075076238881761501 -0.057760496956328178 0 0.072016164255868376 -0.057391626901909604 0 0.074353599932959702 -0.059305725965644381 0 0.075611034109775724 -0.059311913372705173 0 0.075076238881761501 -0.057760496956328178 0 0.058465103272524854 -0.062340834978440285 0 0.057361291830527711 -0.063078471179644505 0 0.056625311759061492 -0.063766670256457783 0 0.063584379734398344 -0.061519884030733996 0 0.058958973364177596 -0.062633037901870428 0 0.074353599932959702 -0.059305725965644381 0 0.075611034109775724 -0.059311913372705173 0 0.076558042781239524 -0.06119407686152515 0 0.058465103272524854 -0.062340834978440285 0 0.058326806940093116 -0.062090980865620427 0 0.057361291830527711 -0.063078471179644505 0 0.058326806940093116 -0.062090980865620427 0 0.057361291830527711 -0.063078471179644505 0 0.056914597103498332 -0.063707897581203141 0 0.057361291830527711 -0.063078471179644505 0 0.056104406294684633 -0.064440245394985052 0 0.056625311759061492 -0.063766670256457783 0 0.058326806940093116 -0.062090980865620427 0 0.055545268692527634 -0.06531320294632946 0 0.056914597103498332 -0.063707897581203141 0 0.058326806940093116 -0.062090980865620427 0 0.061335429234998684 -0.06119859550141981 0 0.061801818545351238 -0.061384608675258981 0 0.058444240011175666 -0.06359788323001557 0 0.058489879843679295 -0.063819971764516661 0 0.061088835602278242 -0.061353650678717585 0 0.058326806940093116 -0.062090980865620427 0 0.061335429234998684 -0.06119859550141981 0 0.055545268692527634 -0.06531320294632946 0 0.056104406294684633 -0.064440245394985052 0 0.055261436582966533 -0.065360716859511517 0 0.055545268692527634 -0.06531320294632946 0 0.056914597103498332 -0.063707897581203141 0 0.056104406294684633 -0.064440245394985052 0 0.057361291830527711 -0.063078471179644505 0 0.056914597103498332 -0.063707897581203141 0 0.056104406294684633 -0.064440245394985052 0 0.056104406294684633 -0.064440245394985052 0 0.054569186870068516 -0.065238564511025388 0 0.054910067263712559 -0.064920494096623357 0 0.056104406294684633 -0.064440245394985052 0 0.054569186870068516 -0.065238564511025388 0 0.055261436582966533 -0.065360716859511517 0 0.054569186870068516 -0.065238564511025388 0 0.05478346974268785 -0.064998599984367661 0 0.051508055779621621 -0.064999270395177083 0 0.054569186870068516 -0.065238564511025388 0 0.05478346974268785 -0.064998599984367661 0 0.055261436582966533 -0.065360716859511517 0 0.05806065760526271 -0.065000107591215814 0 0.055545268692527634 -0.06531320294632946 0 0.055261436582966533 -0.065360716859511517 0 0.05806065760526271 -0.065000107591215814 0 0.05478346974268785 -0.064998599984367661 0 0.055261436582966533 -0.065360716859511517 0 0.049580959705481507 -0.066129323562277117 0 0.051500897240420548 -0.064999564209477834 0 0.047912644572682711 -0.065000271243024571 0 0.049580959705481507 -0.066129323562277117 0 0.050087038631280403 -0.067835910278720657 0 0.048483886403250485 -0.066334771681679491 0 0.051511422171102696 -0.064998097524543316 0 0.055003154136627957 -0.064206838476808095 0 0.054569186870068516 -0.065238564511025388 0 0.051508055779621621 -0.064999270395177083 0 0.054910067263712559 -0.064920494096623357 0 0.049580959705481507 -0.066129323562277117 0 0.051500897240420548 -0.064999564209477834 0 0.051559395380186841 -0.06705911001927628 0 0.055003154136627957 -0.064206838476808095 0 0.058958973364177596 -0.062633037901870428 0 0.056104406294684633 -0.064440245394985052 0 0.054910067263712559 -0.064920494096623357 0 0.056625311759061492 -0.063766670256457783 0 0.051559395380186841 -0.06705911001927628 0 0.050087038631280403 -0.067835910278720657 0 0.051696274631816051 -0.069181563744282484 0 0.055346593122660923 -0.06283594723710785 0 0.058958973364177596 -0.062633037901870428 0 0.049580959705481507 -0.066129323562277117 0 0.051559395380186841 -0.06705911001927628 0 0.050087038631280403 -0.067835910278720657 0 0.048883372491801663 -0.066814152107684543 0 0.048587305253524123 -0.066878394087686407 0 0.048483886403250485 -0.066334771681679491 0 0.055346593122660923 -0.06283594723710785 0 0.054180766320567487 -0.062849910698377143 0 0.048704668563353863 -0.066982379329899089 0 0.048549423420567582 -0.06709814829025651 0 0.048587305253524123 -0.066878394087686407 0 0.048883372491801663 -0.066814152107684543 0 0.048704668563353863 -0.066982379329899089 0 0.048587305253524123 -0.066878394087686407 0 0.048704668563353863 -0.066982379329899089 0 0.048810045916861042 -0.067121858464692555 0 0.048549423420567582 -0.06709814829025651 0 0.048883372491801663 -0.066814152107684543 0 0.048704668563353863 -0.066982379329899089 0 0.048810045916861042 -0.067121858464692555 0 0.048883372491801663 -0.066814152107684543 0 0.048810045916861042 -0.067121858464692555 0 0.049096451317545739 -0.067038031050519448 0 0.048810045916861042 -0.067121858464692555 0 0.048949659889185107 -0.06722965002841913 0 0.048826913669849085 -0.067275537905941707 0 0.048810045916861042 -0.067121858464692555 0 0.048826913669849085 -0.067275537905941707 0 0.04862756780334903 -0.067326971853076109 0 0.048810045916861042 -0.067121858464692555 0 0.04862756780334903 -0.067326971853076109 0 0.048549423420567582 -0.06709814829025651 0 0.075611034109775724 -0.059311913372705173 0 0.076558042781239524 -0.06119407686152515 0 0.076456874008490577 -0.058963465898466544 0 0.049096451317545739 -0.067038031050519448 0 0.048949659889185107 -0.06722965002841913 0 0.049086469693284826 -0.06734508740223745 0 0.058958973364177596 -0.062633037901870428 0 0.06125460900642668 -0.062921926844162826 0 0.048810045916861042 -0.067121858464692555 0 0.049096451317545739 -0.067038031050519448 0 0.048949659889185107 -0.06722965002841913 0 0.048949659889185107 -0.06722965002841913 0 0.049086469693284826 -0.06734508740223745 0 0.048915649565138393 -0.067364180148376432 0 0.049086469693284826 -0.06734508740223745 0 0.048915649565138393 -0.067364180148376432 0 0.049010262553267556 -0.067450500379883496 0 0.075611034109775724 -0.059311913372705173 0 0.076456874008490577 -0.058963465898466544 0 0.075076238881761501 -0.057760496956328178 0 0.048826913669849085 -0.067275537905941707 0 0.048795252966886478 -0.06736884261391532 0 0.04862756780334903 -0.067326971853076109 0 0.048949659889185107 -0.06722965002841913 0 0.048826913669849085 -0.067275537905941707 0 0.048915649565138393 -0.067364180148376432 0 0.048826913669849085 -0.067275537905941707 0 0.048915649565138393 -0.067364180148376432 0 0.048795252966886478 -0.06736884261391532 0 0.048915649565138393 -0.067364180148376432 0 0.048860036643879896 -0.067437125059057995 0 0.048879055821971704 -0.067522075811505058 0 0.056688001287544233 -0.06334662000651746 0 0.057640326539552207 -0.06132678563893669 0 0.048915649565138393 -0.067364180148376432 0 0.048860036643879896 -0.067437125059057995 0 0.048795252966886478 -0.06736884261391532 0 0.048795252966886478 -0.06736884261391532 0 0.048723137504530993 -0.067448916589524358 0 0.04862756780334903 -0.067326971853076109 0 0.048860036643879896 -0.067437125059057995 0 0.048795252966886478 -0.06736884261391532 0 0.048723137504530993 -0.067448916589524358 0 0.051228154936097323 -0.06288654552275616 0 0.051928207236775034 -0.062138297788637699 0 0.048860036643879896 -0.067437125059057995 0 0.048800762670952701 -0.067492341283233698 0 0.048879055821971704 -0.067522075811505058 0 0.048860036643879896 -0.067437125059057995 0 0.048723137504530993 -0.067448916589524358 0 0.048710550261827121 -0.067565884627137779 0 0.048723137504530993 -0.067448916589524358 0 0.048710550261827121 -0.067565884627137779 0 0.048641153372370294 -0.067549299788751002 0 0.051928207236775034 -0.062138297788637699 0 0.057640326539552207 -0.06132678563893669 0 0.048915649565138393 -0.067364180148376432 0 0.04894106856223903 -0.067523851904798232 0 0.049010262553267556 -0.067450500379883496 0 0.078411003937858742 -0.056843221929279319 0 0.078675750762687402 -0.054882596552474093 0 0.077660881904008688 -0.05571316473204644 0 0.057640326539552207 -0.06132678563893669 0 0.058316704409615373 -0.057839886133943405 0 0.054113112264137758 -0.062295849161272038 0 0.055204339407568956 -0.061116557472800072 0 0.05444816682694216 -0.059618329728477505 0 0.055835719223322644 -0.062594434671092117 0 0.054113112264137758 -0.062295849161272038 0 0.055204339407568956 -0.061116557472800072 0 0.055835719223322644 -0.062594434671092117 0 0.055204339407568956 -0.061116557472800072 0 0.056778851240274028 -0.061747495182154721 0 0.053657258491710852 -0.057741392169272251 0 0.051133196325379902 -0.061117013581208295 0 0.055204339407568956 -0.061116557472800072 0 0.055383909369376524 -0.058584524467920104 0 0.056778851240274028 -0.061747495182154721 0 0.055204339407568956 -0.061116557472800072 0 0.05444816682694216 -0.059618329728477505 0 0.055383909369376524 -0.058584524467920104 0 0.078675750762687402 -0.054882596552474093 0 0.077463124583972157 -0.053917305154173853 0 0.077660881904008688 -0.05571316473204644 0 0.05444816682694216 -0.059618329728477505 0 0.054948026740085802 -0.058487169802019866 0 0.054785674529649789 -0.05694011506928276 0 0.078675750762687402 -0.054882596552474093 0 0.077463124583972157 -0.053917305154173853 0 0.078914575640391685 -0.052925532955931158 0 0.058316704409615373 -0.057839886133943405 0 0.057239099022647608 -0.055546987177176349 0 0.048434311430499574 -0.05391695285488661 0 0.048667500760941992 -0.054544786751236495 0 0.047768809585956223 -0.053771627714032606 0 0.053672986578136718 -0.057746072687780918 0 0.053657258491710852 -0.057741392169272251 0 0.05444816682694216 -0.059618329728477505 0 0.054948026740085802 -0.058487169802019866 0 0.055383909369376524 -0.058584524467920104 0 0.077463124583972157 -0.053917305154173853 0 0.076586187106266052 -0.055036150921985244 0 0.075894633158243158 -0.053155745999922871 0 0.077660881904008688 -0.05571316473204644 0 0.076586187106266052 -0.055036150921985244 0 0.076642590185022605 -0.056529833606651633 0 0.077463124583972157 -0.053917305154173853 0 0.077660881904008688 -0.05571316473204644 0 0.076586187106266052 -0.055036150921985244 0 0.063758312498938055 -0.061525946879500804 0 0.063081040504712416 -0.062823091870433292 0 0.06125460900642668 -0.062921926844162826 0 0.063081040504712416 -0.062823091870433292 0 0.049086469693284826 -0.06734508740223745 0 0.049101864441953962 -0.067553383814149062 0 0.049010262553267556 -0.067450500379883496 0 0.076456874008490577 -0.058963465898466544 0 0.076348058324089349 -0.056706089777879998 0 0.075076238881761501 -0.057760496956328178 0 0.078411003937858742 -0.056843221929279319 0 0.077660881904008688 -0.05571316473204644 0 0.076642590185022605 -0.056529833606651633 0 0.057640326539552207 -0.06132678563893669 0 0.063081040504712416 -0.062823091870433292 0 0.04894106856223903 -0.067523851904798232 0 0.049101864441953962 -0.067553383814149062 0 0.049010262553267556 -0.067450500379883496 0 0.075076238881761501 -0.057760496956328178 0 0.074247662770612052 -0.0562714836901239 0 0.072016164255868376 -0.057391626901909604 0 0.076348058324089349 -0.056706089777879998 0 0.075076238881761501 -0.057760496956328178 0 0.074247662770612052 -0.0562714836901239 0 0.076586187106266052 -0.055036150921985244 0 0.076676077751791749 -0.056675837424130078 0 0.074247662770612052 -0.0562714836901239 0 0.063081040504712416 -0.062823091870433292 0 0.067339762471745779 -0.06253221892718884 0 0.074247662770612052 -0.0562714836901239 0 0.072016164255868376 -0.057391626901909604 0 0.07189229076394589 -0.055039620722082239 0 0.074247662770612052 -0.0562714836901239 0 0.07189229076394589 -0.055039620722082239 0 0.073840155121647683 -0.053948020445268453 0 0.07189229076394589 -0.055039620722082239 0 0.073840155121647683 -0.053948020445268453 0 0.071937875762361311 -0.052693201197170497 0 0.074247662770612052 -0.0562714836901239 0 0.073840155121647683 -0.053948020445268453 0 0.075145345815765457 -0.054598096860051362 0 0.076586187106266052 -0.055036150921985244 0 0.074247662770612052 -0.0562714836901239 0 0.075145345815765457 -0.054598096860051362 0 0.076586187106266052 -0.055036150921985244 0 0.075145345815765457 -0.054598096860051362 0 0.075894633158243158 -0.053155745999922871 0 0.073840155121647683 -0.053948020445268453 0 0.075145345815765457 -0.054598096860051362 0 0.075894633158243158 -0.053155745999922871 0 0.073840155121647683 -0.053948020445268453 0 0.075894633158243158 -0.053155745999922871 0 0.07403804758936601 -0.051882134010241186 0 0.073840155121647683 -0.053948020445268453 0 0.07403804758936601 -0.051882134010241186 0 0.071937875762361311 -0.052693201197170497 0 0.07403804758936601 -0.051882134010241186 0 0.071937875762361311 -0.052693201197170497 0 0.072780025623630382 -0.050495346653822333 0 0.072780025623630382 -0.050495346653822333 0 0.075417760567811951 -0.049480360527184013 0 0.072540291290756787 -0.048118648390869295 0 0.070976556178746666 -0.050602120824565708 0 0.072780025623630382 -0.050495346653822333 0 0.072540291290756787 -0.048118648390869295 0 0.070976556178746666 -0.050602120824565708 0 0.071937875762361311 -0.052693201197170497 0 0.072780025623630382 -0.050495346653822333 0 0.075894633158243158 -0.053155745999922871 0 0.07403804758936601 -0.051882134010241186 0 0.075417760567811951 -0.049480360527184013 0 0.07403804758936601 -0.051882134010241186 0 0.072780025623630382 -0.050495346653822333 0 0.075417760567811951 -0.049480360527184013 0 0.074245716354241556 -0.05115428469183074 0 0.073568694028291429 -0.049587496596436589 0 0.075202104684473331 -0.050046167375185927 0 0.077936928554403123 -0.050266676237916814 0 0.077032689674565516 -0.051819882010793919 0 0.075894633158243158 -0.053155745999922871 0 0.075202104684473331 -0.050046167375185927 0 0.077032689674565516 -0.051819882010793919 0 0.056524697619525492 -0.052523850064573323 0 0.057239099022647608 -0.055546987177176349 0 0.063220921093545407 -0.051910240715062492 0 0.057239099022647608 -0.055546987177176349 0 0.061272305629631964 -0.050835521280888099 0 0.059981929544400299 -0.050446552890570477 0 0.060966560705930095 -0.053195076127367992 0 0.077936928554403123 -0.050266676237916814 0 0.078914575640391685 -0.052925532955931158 0 0.077032689674565516 -0.051819882010793919 0 0.048515075476893273 -0.055770764111802866 0 0.048667500760941992 -0.054544786751236495 0 0.047600655768819423 -0.05509332820127083 0 0.054948026740085802 -0.058487169802019866 0 0.055385188431018598 -0.058583746273603521 0 0.054785674529649789 -0.05694011506928276 0 0.053657258491710852 -0.057741392169272251 0 0.057239099022647608 -0.055546987177176349 0 0.077463124583972157 -0.053917305154173853 0 0.075894633158243158 -0.053155745999922871 0 0.077032689674565516 -0.051819882010793919 0 0.077463124583972157 -0.053917305154173853 0 0.078914575640391685 -0.052925532955931158 0 0.077032689674565516 -0.051819882010793919 0 0.046232505310098773 -0.055070975795052067 0 0.046704805103373805 -0.054593577995216004 0 0.046737893499647326 -0.055259332193671948 0 0.046232505310098773 -0.055070975795052067 0 0.046704805103373805 -0.054593577995216004 0 0.045762359755302476 -0.054556023322850082 0 0.046704805103373805 -0.054593577995216004 0 0.045762359755302476 -0.054556023322850082 0 0.046770205320308046 -0.053682147224716349 0 0.046704805103373805 -0.054593577995216004 0 0.047146285131230939 -0.054345636961735777 0 0.046780156359226464 -0.053733121184972928 0 0.049640615929414302 -0.056494948749815678 0 0.050493926313894738 -0.058425383551769856 0 0.047146285131230939 -0.054345636961735777 0 0.047468605393580068 -0.055151166267111765 0 0.047589600898305308 -0.053907089455535684 0 0.048667500760941992 -0.054544786751236495 0 0.047600655768819423 -0.05509332820127083 0 0.047768809585956223 -0.053771627714032606 0 0.046704805103373805 -0.054593577995216004 0 0.047468605393580068 -0.055151166267111765 0 0.046737893499647326 -0.055259332193671948 0 0.046704805103373805 -0.054593577995216004 0 0.047146285131230939 -0.054345636961735777 0 0.047468605393580068 -0.055151166267111765 0 0.047468605393580068 -0.055151166267111765 0 0.046985574185938073 -0.055852717868710239 0 0.046737893499647326 -0.055259332193671948 0 0.047468605393580068 -0.055151166267111765 0 0.046985574185938073 -0.055852717868710239 0 0.047395415449631502 -0.056469011578030449 0 0.049640615929414302 -0.056494948749815678 0 0.049333561092353241 -0.056376590971701862 0 0.048515075476893273 -0.055770764111802866 0 0.047600655768819423 -0.05509332820127083 0 0.047395415449631502 -0.056469011578030449 0 0.046985574185938073 -0.055852717868710239 0 0.046301710179271191 -0.055723096587561777 0 0.046836943426406014 -0.056613821454474127 0 0.046301710179271191 -0.055723096587561777 0 0.045368493501194387 -0.056155123701126484 0 0.046836943426406014 -0.056613821454474127 0 0.046985574185938073 -0.055852717868710239 0 0.046737893499647326 -0.055259332193671948 0 0.046301710179271191 -0.055723096587561777 0 0.046232505310098773 -0.055070975795052067 0 0.046737893499647326 -0.055259332193671948 0 0.046301710179271191 -0.055723096587561777 0 0.046232505310098773 -0.055070975795052067 0 0.046301710179271191 -0.055723096587561777 0 0.045679955107514651 -0.055378938374404829 0 0.046301710179271191 -0.055723096587561777 0 0.045368493501194387 -0.056155123701126484 0 0.045679955107514651 -0.055378938374404829 0 0.045368493501194387 -0.056155123701126484 0 0.045679955107514651 -0.055378938374404829 0 0.044779022807381601 -0.055457420496126363 0 0.045739547257659649 -0.052130352875796343 0 0.045349053817125097 -0.052657780971553131 0 0.044246921691856032 -0.055463578539511768 0 0.044444100378429385 -0.055562411692896538 0 0.043766917599449791 -0.054007974970298335 0 0.045368493501194387 -0.056155123701126484 0 0.044246921691856032 -0.055463578539511768 0 0.044779022807381601 -0.055457420496126363 0 0.044246921691856032 -0.055463578539511768 0 0.044401733855736161 -0.055309623169271904 0 0.044444100378429385 -0.055562411692896538 0 0.044246921691856032 -0.055463578539511768 0 0.044779022807381601 -0.055457420496126363 0 0.044401733855736161 -0.055309623169271904 0 0.044779022807381601 -0.055457420496126363 0 0.044401733855736161 -0.055309623169271904 0 0.044868508931975588 -0.055113523429271304 0 0.044401733855736161 -0.055309623169271904 0 0.044868508931975588 -0.055113523429271304 0 0.044394839367103853 -0.054937242673861644 0 0.044868508931975588 -0.055113523429271304 0 0.044394839367103853 -0.054937242673861644 0 0.045371240830336543 -0.054596402152341267 0 0.045679955107514651 -0.055378938374404829 0 0.044779022807381601 -0.055457420496126363 0 0.045762359755302476 -0.054556023322850082 0 0.046232505310098773 -0.055070975795052067 0 0.045679955107514651 -0.055378938374404829 0 0.045762359755302476 -0.054556023322850082 0 0.044779022807381601 -0.055457420496126363 0 0.044868508931975588 -0.055113523429271304 0 0.045719167049676462 -0.055071967569625305 0 0.047304672395370256 -0.057535927368930137 0 0.047665455981778578 -0.057935652487796842 0 0.044868508931975588 -0.055113523429271304 0 0.045719167049676462 -0.055071967569625305 0 0.045371240830336543 -0.054596402152341267 0 0.045371240830336543 -0.054596402152341267 0 0.045167106577797995 -0.053755680685580072 0 0.046714188575258095 -0.054261365861995953 0 0.044442600287780756 -0.061959052842531032 0 0.047951247509677157 -0.060052723462539481 0 0.044394839367103853 -0.054937242673861644 0 0.045371240830336543 -0.054596402152341267 0 0.045167106577797995 -0.053755680685580072 0 0.044394839367103853 -0.054937242673861644 0 0.045167106577797995 -0.053755680685580072 0 0.042580875700813606 -0.052837628426327159 0 0.044442600287780756 -0.061959052842531032 0 0.041063042595903862 -0.06242026781364815 0 0.043149562142561562 -0.074779312603227024 0 0.041179639305439754 -0.07207234713453263 0 0.039603239977255282 -0.074064046379189424 0 0.043149562142561562 -0.074779312603227024 0 0.045558996509008048 -0.0741288140615423 0 0.044133341453812792 -0.07224728995702269 0 0.043149562142561562 -0.074779312603227024 0 0.044133341453812792 -0.07224728995702269 0 0.041179639305439754 -0.07207234713453263 0 0.045558996509008048 -0.0741288140615423 0 0.047106420909098334 -0.072733316204748849 0 0.044133341453812792 -0.07224728995702269 0 0.045558996509008048 -0.0741288140615423 0 0.046637635111410718 -0.075498289444268285 0 0.047106420909098334 -0.072733316204748849 0 0.047951247509677157 -0.060052723462539481 0 0.048699740153084675 -0.064940168424870034 0 0.048699740153084675 -0.064940168424870034 0 0.047290504241821574 -0.066143692005895371 0 0.045719167049676462 -0.055071967569625305 0 0.045371240830336543 -0.054596402152341267 0 0.046714188575258095 -0.054261365861995953 0 0.043149562142561562 -0.074779312603227024 0 0.045558996509008048 -0.0741288140615423 0 0.046637635111410718 -0.075498289444268285 0 0.047933347945658997 -0.058608467098484433 0 0.047951247509677157 -0.060052723462539481 0 0.047665455981778578 -0.057935652487796842 0 0.047951247509677157 -0.060052723462539481 0 0.051148193173701631 -0.059873665579213815 0 0.050989192747485299 -0.059837606887195596 0 0.050969105828251329 -0.060041844239934104 0 0.050493926313894738 -0.058425383551769856 0 0.051133196325379902 -0.061117013581208295 0 0.051177073603127586 -0.057057913224423502 0 0.052526154630297715 -0.057357515396132659 0 0.05227861277887437 -0.059556465413213182 0 0.053657258491710852 -0.057741392169272251 0 0.050493926313894738 -0.058425383551769856 0 0.047146285131230939 -0.054345636961735777 0 0.046780156359226464 -0.053733121184972928 0 0.047589600898305308 -0.053907089455535684 0 0.047951247509677157 -0.060052723462539481 0 0.050493926313894738 -0.058425383551769856 0 0.047951247509677157 -0.060052723462539481 0 0.051133196325379902 -0.061117013581208295 0 0.048272880020994779 -0.061869589879363612 0 0.048275436456306262 -0.061880202706803493 0 0.048276259922597466 -0.061883676026484292 0 0.048275425334592691 -0.061879396322360863 0 0.048275436456306262 -0.061880202706803493 0 0.048276087686922237 -0.061880793060890817 0 0.051928207236775034 -0.062138297788637699 0 0.051133196325379902 -0.061117013581208295 0 0.049873476454574205 -0.062432598180233834 0 0.049325513417782484 -0.062919406539049205 0 0.049358497497438286 -0.062626694126376711 0 0.051133196325379902 -0.061117013581208295 0 0.050889716589476129 -0.062087915970937581 0 0.048272880020994779 -0.061869589879363612 0 0.048275425334592691 -0.061879396322360863 0 0.048275436456306262 -0.061880202706803493 0 0.048699740153084675 -0.064940168424870034 0 0.050672635277322554 -0.063000558494168565 0 0.048275436456306262 -0.061880202706803493 0 0.048276259922597466 -0.061883676026484292 0 0.048276253660459269 -0.061881931230610997 0 0.051928207236775034 -0.062138297788637699 0 0.050672635277322554 -0.063000558494168565 0 0.049873476454574205 -0.062432598180233834 0 0.049389784051098826 -0.062348757931683353 0 0.049358497497438286 -0.062626694126376711 0 0.050672635277322554 -0.063000558494168565 0 0.050889716589476129 -0.062087915970937581 0 0.048275436456306262 -0.061880202706803493 0 0.048276253660459269 -0.061881931230610997 0 0.048276087686922237 -0.061880793060890817 0 0.048723137504530993 -0.067448916589524358 0 0.048641153372370294 -0.067549299788751002 0 0.04862756780334903 -0.067326971853076109 0 0.050672635277322554 -0.063000558494168565 0 0.050372641605415915 -0.064405048362675285 0 0.048608345783160326 -0.067570420143819296 0 0.04862756780334903 -0.067326971853076109 0 0.048426250370926453 -0.067242301102562685 0 0.048699740153084675 -0.064940168424870034 0 0.04916677800428778 -0.066300129788588916 0 0.050410083790711963 -0.063650975386370767 0 0.049475825189533577 -0.063487670313495739 0 0.050208286606986362 -0.065206612536288011 0 0.050672635277322554 -0.063000558494168565 0 0.04916677800428778 -0.066300129788588916 0 0.047122857019018055 -0.072743591256545059 0 0.046171035768954649 -0.07128864527365987 0 0.047458457153142362 -0.070138134364826715 0 0.046171035768954649 -0.07128864527365987 0 0.045446461656570646 -0.06991431213756949 0 0.044133341453812792 -0.07224728995702269 0 0.047122857019018055 -0.072743591256545059 0 0.046171035768954649 -0.07128864527365987 0 0.044133341453812792 -0.07224728995702269 0 0.046171035768954649 -0.07128864527365987 0 0.045446461656570646 -0.06991431213756949 0 0.047458457153142362 -0.070138134364826715 0 0.045446461656570646 -0.06991431213756949 0 0.046829250453772966 -0.068432750551436272 0 0.047458457153142362 -0.070138134364826715 0 0.045446461656570646 -0.06991431213756949 0 0.046829250453772966 -0.068432750551436272 0 0.045182111784516275 -0.068093276770204755 0 0.04916677800428778 -0.066300129788588916 0 0.04836286710489323 -0.06640790501167676 0 0.046829250453772966 -0.068432750551436272 0 0.047448054229516125 -0.070108621267011964 0 0.047798379405701558 -0.067413199548787217 0 0.048426250370926453 -0.067242301102562685 0 0.048549423420567582 -0.06709814829025651 0 0.04829916976708068 -0.066944347019668698 0 0.04862756780334903 -0.067326971853076109 0 0.048426250370926453 -0.067242301102562685 0 0.048549423420567582 -0.06709814829025651 0 0.049126643139335832 -0.066783732839878235 0 0.04916677800428778 -0.066300129788588916 0 0.048549423420567582 -0.06709814829025651 0 0.048587305253524123 -0.066878394087686407 0 0.04829916976708068 -0.066944347019668698 0 0.047798379405701558 -0.067413199548787217 0 0.045989598681342871 -0.066588362347473853 0 0.048150469572087816 -0.064694754800538351 0 0.048587305253524123 -0.066878394087686407 0 0.04829916976708068 -0.066944347019668698 0 0.048483886403250485 -0.066334771681679491 0 0.046829250453772966 -0.068432750551436272 0 0.047798379405701558 -0.067413199548787217 0 0.045989598681342871 -0.066588362347473853 0 0.046829250453772966 -0.068432750551436272 0 0.045182111784516275 -0.068093276770204755 0 0.045989598681342871 -0.066588362347473853 0 0.045182111784516275 -0.068093276770204755 0 0.045989598681342871 -0.066588362347473853 0 0.044013774540646484 -0.066504155892856673 0 0.045989598681342871 -0.066588362347473853 0 0.045443313632196773 -0.064390596572321088 0 0.044013774540646484 -0.066504155892856673 0 0.045188216909002106 -0.065382352787340656 0 0.045256427108741046 -0.064999961019354624 0 0.047823428925019972 -0.065678028849169401 0 0.045989598681342871 -0.066588362347473853 0 0.045443313632196773 -0.064390596572321088 0 0.048150469572087816 -0.064694754800538351 0 0.046370056471992806 -0.065816122227148527 0 0.047783907656191213 -0.065454588668134792 0 0.045256427108741046 -0.064999961019354624 0 0.047911727450838083 -0.065000016611936245 0 0.047823428925019972 -0.065678028849169401 0 0.04829916976708068 -0.066944347019668698 0 0.047932447977767793 -0.065684982038518358 0 0.048483886403250485 -0.066334771681679491 0 0.04836286710489323 -0.06640790501167676 0 0.047783907656191213 -0.065454588668134792 0 0.049580959705481507 -0.066129323562277117 0 0.047912644572682711 -0.065000271243024571 0 0.047932447977767793 -0.065684982038518358 0 0.047910818672685505 -0.065002094494102158 0 0.047783907656191213 -0.065454588668134792 0 0.049580959705481507 -0.066129323562277117 0 0.047932447977767793 -0.065684982038518358 0 0.048483886403250485 -0.066334771681679491 0 0.046839939014480927 -0.066678940580861309 0 0.043476147162747232 -0.06826463644945259 0 0.042730565874232393 -0.064086160406239101 0 0.044013774540646484 -0.066504155892856673 0 0.041247503887241931 -0.066812427734703222 0 0.041721765461198504 -0.064999955800929612 0 0.041026661394458305 -0.067632827539352181 0 0.039981842616996506 -0.066349170279297084 0 0.041721765461198504 -0.064999955800929612 0 0.042531098705409442 -0.065091853763706645 0 0.041026661394458305 -0.067632827539352181 0 0.041725291900911003 -0.065010709572957542 0 0.046839939014480927 -0.066678940580861309 0 0.046370056471992806 -0.065816122227148527 0 0.046839939014480927 -0.066678940580861309 0 0.045443313632196773 -0.064390596572321088 0 0.042730565874232393 -0.064086160406239101 0 0.044013774540646484 -0.066504155892856673 0 0.045188216909002106 -0.065382352787340656 0 0.045256427108741046 -0.064999961019354624 0 0.042551493207309367 -0.06490776111005786 0 0.045182111784516275 -0.068093276770204755 0 0.044013774540646484 -0.066504155892856673 0 0.043626792661183252 -0.069032265636304643 0 0.044013774540646484 -0.066504155892856673 0 0.041247503887241931 -0.066812427734703222 0 0.043626792661183252 -0.069032265636304643 0 0.041247503887241931 -0.066812427734703222 0 0.041763607502419482 -0.069850058205509366 0 0.03974506097871449 -0.069564108280445902 0 0.041247503887241931 -0.066812427734703222 0 0.041763607502419482 -0.069850058205509366 0 0.043626792661183252 -0.069032265636304643 0 0.045446461656570646 -0.06991431213756949 0 0.045182111784516275 -0.068093276770204755 0 0.043626792661183252 -0.069032265636304643 0 0.045446461656570646 -0.06991431213756949 0 0.043626792661183252 -0.069032265636304643 0 0.044133341453812792 -0.07224728995702269 0 0.041763607502419482 -0.069850058205509366 0 0.043626792661183252 -0.069032265636304643 0 0.044133341453812792 -0.07224728995702269 0 0.041763607502419482 -0.069850058205509366 0 0.044133341453812792 -0.07224728995702269 0 0.041179639305439754 -0.07207234713453263 0 0.041763607502419482 -0.069850058205509366 0 0.041179639305439754 -0.07207234713453263 0 0.03974506097871449 -0.069564108280445902 0 0.040413011670653851 -0.071144067940591249 0 0.041324609002142271 -0.070084455655452751 0 0.041179639305439754 -0.07207234713453263 0 0.038243372969247978 -0.072411965450473209 0 0.03974506097871449 -0.069564108280445902 0 0.038243372969247978 -0.072411965450473209 0 0.036104089771524371 -0.071655163845960296 0 0.036246589852807994 -0.073332225759745795 0 0.038243372969247978 -0.072411965450473209 0 0.036841923745541447 -0.070199794650014524 0 0.036104089771524371 -0.071655163845960296 0 0.038243372969247978 -0.072411965450473209 0 0.036841923745541447 -0.070199794650014524 0 0.039562629811212537 -0.070071072649991281 0 0.036841923745541447 -0.070199794650014524 0 0.039562629811212537 -0.070071072649991281 0 0.038710152557531068 -0.067741924807160431 0 0.043476147162747232 -0.06826463644945259 0 0.041324609002142271 -0.070084455655452751 0 0.041026661394458305 -0.067632827539352181 0 0.038710152557531068 -0.067741924807160431 0 0.039981842616996506 -0.066349170279297084 0 0.041026661394458305 -0.067632827539352181 0 0.039562629811212537 -0.070071072649991281 0 0.038710152557531068 -0.067741924807160431 0 0.036841923745541447 -0.070199794650014524 0 0.038710152557531068 -0.067741924807160431 0 0.036322472998989358 -0.067358074561655615 0 0.038480548883522057 -0.06499995485305228 0 0.035239109645000613 -0.064999939546667246 0 0.036322472998989358 -0.067358074561655615 0 0.038710152557531068 -0.067741924807160431 0 0.038480548883522057 -0.06499995485305228 0 0.036322472998989358 -0.067358074561655615 0 0.038710152557531068 -0.067741924807160431 0 0.038480548883522057 -0.06499995485305228 0 0.039981842616996506 -0.066349170279297084 0 0.041721765461198504 -0.064999955800929612 0 0.038480548883522057 -0.06499995485305228 0 0.039981842616996506 -0.066349170279297084 0 0.032087859215807452 -0.067258418726405714 0 0.031998033037659544 -0.064999925082853419 0 0.03394048340415521 -0.066672533704997303 0 0.031998033037659544 -0.064999925082853419 0 0.03394048340415521 -0.066672533704997303 0 0.035239109645000613 -0.064999939546667246 0 0.03394048340415521 -0.066672533704997303 0 0.035239109645000613 -0.064999939546667246 0 0.036322472998989358 -0.067358074561655615 0 0.03394048340415521 -0.066672533704997303 0 0.036322472998989358 -0.067358074561655615 0 0.034027196073345992 -0.06871662524101857 0 0.036841923745541447 -0.070199794650014524 0 0.036322472998989358 -0.067358074561655615 0 0.034027196073345992 -0.06871662524101857 0 0.032087859215807452 -0.067258418726405714 0 0.03394048340415521 -0.066672533704997303 0 0.034027196073345992 -0.06871662524101857 0 0.031248435806353565 -0.070197010097380427 0 0.034027196073345992 -0.06871662524101857 0 0.034414304580187807 -0.07136553310036374 0 0.036841923745541447 -0.070199794650014524 0 0.034027196073345992 -0.06871662524101857 0 0.034414304580187807 -0.07136553310036374 0 0.036841923745541447 -0.070199794650014524 0 0.036104089771524371 -0.071655163845960296 0 0.034414304580187807 -0.07136553310036374 0 0.036104089771524371 -0.071655163845960296 0 0.034414304580187807 -0.07136553310036374 0 0.036246589852807994 -0.073332225759745795 0 0.030957227043247618 -0.069489054733431074 0 0.032675405291592949 -0.070283499790088563 0 0.034414304580187807 -0.07136553310036374 0 0.033027895168475652 -0.072621654425835944 0 0.036246589852807994 -0.073332225759745795 0 0.031009559020508205 -0.069972328967302502 0 0.034414304580187807 -0.07136553310036374 0 0.033027895168475652 -0.072621654425835944 0 0.034407531874038291 -0.050785461974478634 0 0.034793842688272431 -0.054968671454819831 0 0.037114579982693477 -0.053747319202498783 0 0.034793842688272431 -0.054968671454819831 0 0.037114579982693477 -0.053747319202498783 0 0.038056138021669218 -0.057322087997116904 0 0.037114579982693477 -0.053747319202498783 0 0.039408472347897294 -0.053948796077081043 0 0.038056138021669218 -0.057322087997116904 0 0.037114579982693477 -0.053747319202498783 0 0.038832003570428285 -0.051799068929892687 0 0.039408472347897294 -0.053948796077081043 0 0.033702392759455135 -0.061687625885891252 0 0.037478298787310078 -0.062191932679791548 0 0.034407531874038291 -0.050785461974478634 0 0.037114579982693477 -0.053747319202498783 0 0.038832003570428285 -0.051799068929892687 0 0.038243372969247978 -0.072411965450473209 0 0.036246589852807994 -0.073332225759745795 0 0.039603239977255282 -0.074064046379189424 0 0.038832003570428285 -0.051799068929892687 0 0.042580875700813606 -0.052837628426327159 0 0.039408472347897294 -0.053948796077081043 0 0.037478298787310078 -0.062191932679791548 0 0.041063042595903862 -0.06242026781364815 0 0.041179639305439754 -0.07207234713453263 0 0.038243372969247978 -0.072411965450473209 0 0.039603239977255282 -0.074064046379189424 0 0.044394839367103853 -0.054937242673861644 0 0.042580875700813606 -0.052837628426327159 0 0.041255365786088641 -0.055830654126163268 0 0.03904360816920887 -0.054201918963776338 0 0.038454831598135848 -0.053615407535841333 0 0.042580875700813606 -0.052837628426327159 0 0.039408472347897294 -0.053948796077081043 0 0.041255365786088641 -0.055830654126163268 0 0.039408472347897294 -0.053948796077081043 0 0.041621843650870266 -0.056652265263822388 0 0.038056138021669218 -0.057322087997116904 0 0.032814183679442853 -0.050612882157928168 0 0.032757405236180072 -0.050894321298593906 0 0.032470209806444147 -0.050683073896197854 0 0.038454831598135848 -0.053615407535841333 0 0.035454677033338294 -0.053820033027676954 0 0.044401733855736161 -0.055309623169271904 0 0.044394839367103853 -0.054937242673861644 0 0.04394286135744617 -0.055135521835909682 0 0.038454831598135848 -0.053615407535841333 0 0.038724209008723157 -0.05279479502285668 0 0.041545989424448766 -0.053603191621644342 0 0.038454831598135848 -0.053615407535841333 0 0.044401733855736161 -0.055309623169271904 0 0.04394286135744617 -0.055135521835909682 0 0.044444100378429385 -0.055562411692896538 0 0.03306536358239897 -0.05087680928784781 0 0.032757405236180072 -0.050894321298593906 0 0.033011498309830058 -0.051214756735333281 0 0.032814183679442853 -0.050612882157928168 0 0.03306536358239897 -0.05087680928784781 0 0.032757405236180072 -0.050894321298593906 0 0.032757405236180072 -0.050894321298593906 0 0.032539892072382601 -0.050903071097592505 0 0.032470209806444147 -0.050683073896197854 0 0.032757405236180072 -0.050894321298593906 0 0.032539892072382601 -0.050903071097592505 0 0.032564815056910432 -0.051126356410548308 0 0.032539892072382601 -0.050903071097592505 0 0.032367063072826781 -0.05091131816534164 0 0.032564815056910432 -0.051126356410548308 0 0.032367063072826781 -0.05091131816534164 0 0.032114193073860091 -0.051064880793599339 0 0.032564815056910432 -0.051126356410548308 0 0.032539892072382601 -0.050903071097592505 0 0.032367063072826781 -0.05091131816534164 0 0.032470209806444147 -0.050683073896197854 0 0.032367063072826781 -0.05091131816534164 0 0.032122724825578208 -0.050753893894083642 0 0.032114193073860091 -0.051064880793599339 0 0.032853430826545328 -0.053895579727065955 0 0.035454677033338294 -0.053820033027676954 0 0.034793842688272431 -0.054968671454819831 0 0.034535514721410518 -0.057996105407082867 0 0.038056138021669218 -0.057322087997116904 0 0.032367063072826781 -0.05091131816534164 0 0.032122724825578208 -0.050753893894083642 0 0.032470209806444147 -0.050683073896197854 0 0.031714856248112128 -0.051438478470712888 0 0.031881435066974974 -0.051946216894932756 0 0.032180565054644075 -0.051740483278496119 0 0.031714856248112128 -0.051438478470712888 0 0.031881435066974974 -0.051946216894932756 0 0.031374688636734253 -0.051860772634617816 0 0.031374688636734253 -0.051860772634617816 0 0.030920957109255905 -0.051582020420973325 0 0.03105239103686917 -0.052086834577153067 0 0.030407524245721754 -0.052214294626451684 0 0.030920957109255905 -0.051582020420973325 0 0.03105239103686917 -0.052086834577153067 0 0.031714856248112128 -0.051438478470712888 0 0.031374688636734253 -0.051860772634617816 0 0.030920957109255905 -0.051582020420973325 0 0.030931289918907968 -0.051767743590876714 0 0.030664097747639823 -0.051869077732016891 0 0.031714856248112128 -0.051438478470712888 0 0.030920957109255905 -0.051582020420973325 0 0.030837717289433245 -0.050801640181494516 0 0.030664097747639823 -0.051869077732016891 0 0.031977153619552626 -0.051566042684905729 0 0.031714856248112128 -0.051438478470712888 0 0.03088216498014101 -0.05081703216385431 0 0.031933662746507684 -0.05097945245596823 0 0.031977153619552626 -0.051566042684905729 0 0.032464011976409413 -0.051508317310268281 0 0.032757405236180072 -0.050894321298593906 0 0.032564815056910432 -0.051126356410548308 0 0.033011498309830058 -0.051214756735333281 0 0.031714856248112128 -0.051438478470712888 0 0.031933662746507684 -0.05097945245596823 0 0.03234090361251641 -0.051419757376828648 0 0.031933662746507684 -0.05097945245596823 0 0.033011498309830058 -0.051214756735333281 0 0.03234090361251641 -0.051419757376828648 0 0.033011498309830058 -0.051214756735333281 0 0.032750839709392632 -0.051531581023607789 0 0.03234090361251641 -0.051419757376828648 0 0.033011498309830058 -0.051214756735333281 0 0.032750839709392632 -0.051531581023607789 0 0.033180135961494855 -0.051484405013727433 0 0.032750839709392632 -0.051531581023607789 0 0.03305869540490658 -0.051747051433362189 0 0.033180135961494855 -0.051484405013727433 0 0.032750839709392632 -0.051531581023607789 0 0.032784518916988782 -0.051831667144909097 0 0.032478668940513371 -0.051655319596438057 0 0.032784518916988782 -0.051831667144909097 0 0.032445872440784861 -0.051891743134166252 0 0.032569502037877285 -0.052136102872352402 0 0.032784518916988782 -0.051831667144909097 0 0.032478668940513371 -0.051655319596438057 0 0.032445872440784861 -0.051891743134166252 0 0.032784518916988782 -0.051831667144909097 0 0.032949446393661319 -0.051922069838943069 0 0.032843753361431346 -0.052106446211944157 0 0.032750839709392632 -0.051531581023607789 0 0.032784518916988782 -0.051831667144909097 0 0.03305869540490658 -0.051747051433362189 0 0.032784518916988782 -0.051831667144909097 0 0.032949446393661319 -0.051922069838943069 0 0.03305869540490658 -0.051747051433362189 0 0.032949446393661319 -0.051922069838943069 0 0.03305869540490658 -0.051747051433362189 0 0.033109757166582127 -0.052004670260075152 0 0.031714856248112128 -0.051438478470712888 0 0.03234090361251641 -0.051419757376828648 0 0.032180565054644075 -0.051740483278496119 0 0.032750839709392632 -0.051531581023607789 0 0.03234090361251641 -0.051419757376828648 0 0.032478668940513371 -0.051655319596438057 0 0.03234090361251641 -0.051419757376828648 0 0.032478668940513371 -0.051655319596438057 0 0.032180565054644075 -0.051740483278496119 0 0.032478668940513371 -0.051655319596438057 0 0.032445872440784861 -0.051891743134166252 0 0.032180565054644075 -0.051740483278496119 0 0.032445872440784861 -0.051891743134166252 0 0.032180565054644075 -0.051740483278496119 0 0.032217846085500622 -0.05208707853334725 0 0.031881435066974974 -0.051946216894932756 0 0.032180565054644075 -0.051740483278496119 0 0.032217846085500622 -0.05208707853334725 0 0.031881435066974974 -0.051946216894932756 0 0.032217846085500622 -0.05208707853334725 0 0.031846632738566631 -0.052393040008785766 0 0.032217846085500622 -0.05208707853334725 0 0.032389651119301373 -0.052393397079775188 0 0.032569502037877285 -0.052136102872352402 0 0.032445872440784861 -0.051891743134166252 0 0.032217846085500622 -0.05208707853334725 0 0.032569502037877285 -0.052136102872352402 0 0.032389651119301373 -0.052393397079775188 0 0.032108767226824764 -0.052698286077858633 0 0.031846632738566631 -0.052393040008785766 0 0.032217846085500622 -0.05208707853334725 0 0.032389651119301373 -0.052393397079775188 0 0.031846632738566631 -0.052393040008785766 0 0.032989389466753172 -0.052201197449536482 0 0.033109757166582127 -0.052004670260075152 0 0.033220572411160387 -0.052278429502389173 0 0.032989389466753172 -0.052201197449536482 0 0.033109757166582127 -0.052004670260075152 0 0.032843753361431346 -0.052106446211944157 0 0.032949446393661319 -0.051922069838943069 0 0.033109757166582127 -0.052004670260075152 0 0.032843753361431346 -0.052106446211944157 0 0.032989389466753172 -0.052201197449536482 0 0.032843753361431346 -0.052106446211944157 0 0.032869867686000365 -0.052320196622956831 0 0.032843753361431346 -0.052106446211944157 0 0.032569502037877285 -0.052136102872352402 0 0.032869867686000365 -0.052320196622956831 0 0.032784518916988782 -0.051831667144909097 0 0.032843753361431346 -0.052106446211944157 0 0.032569502037877285 -0.052136102872352402 0 0.032389651119301373 -0.052393397079775188 0 0.032869867686000365 -0.052320196622956831 0 0.032780046967713666 -0.05273841599179175 0 0.032389651119301373 -0.052393397079775188 0 0.032569502037877285 -0.052136102872352402 0 0.032869867686000365 -0.052320196622956831 0 0.032989389466753172 -0.052201197449536482 0 0.032869867686000365 -0.052320196622956831 0 0.033220572411160387 -0.052278429502389173 0 0.032869867686000365 -0.052320196622956831 0 0.032780046967713666 -0.05273841599179175 0 0.033296506851057582 -0.052371095166487906 0 0.034719153073832269 -0.028956752490127764 0 0.03559460715153772 -0.029457695577080341 0 0.035653086855577602 -0.028336767974257469 0 0.034719153073832269 -0.028956752490127764 0 0.033805091043361213 -0.029584113720757754 0 0.034826833186349972 -0.030124995570079697 0 0.034719153073832269 -0.028956752490127764 0 0.034826833186349972 -0.030124995570079697 0 0.03559460715153772 -0.029457695577080341 0 0.033652891156802207 -0.0415837973463015 0 0.036200046633545889 -0.044574535375453167 0 0.032389651119301373 -0.052393397079775188 0 0.032780046967713666 -0.05273841599179175 0 0.032108767226824764 -0.052698286077858633 0 0.032780046967713666 -0.05273841599179175 0 0.032108767226824764 -0.052698286077858633 0 0.032247196042806153 -0.053097909632453935 0 0.033652891156802207 -0.0415837973463015 0 0.030728815008614289 -0.039014887672020236 0 0.030728815008614289 -0.039014887672020236 0 0.02888610264591996 -0.044443472763114014 0 0.032108767226824764 -0.052698286077858633 0 0.032247196042806153 -0.053097909632453935 0 0.031711011444521507 -0.052824008270439489 0 0.026627440101481863 -0.038292609868500235 0 0.026171608310848429 -0.038058206852397414 0 0.026305860141575172 -0.038561551138976441 0 0.031711011444521507 -0.052824008270439489 0 0.031846632738566631 -0.052393040008785766 0 0.031172252187517117 -0.052546511521076616 0 0.027091341270525916 -0.038537435212249845 0 0.026627440101481863 -0.038292609868500235 0 0.026674701829507628 -0.038811893137417196 0 0.02888610264591996 -0.044443472763114014 0 0.02645183200458345 -0.049336839239423474 0 0.032108767226824764 -0.052698286077858633 0 0.031711011444521507 -0.052824008270439489 0 0.031846632738566631 -0.052393040008785766 0 0.031846632738566631 -0.052393040008785766 0 0.031427324842419377 -0.05218486249517193 0 0.031172252187517117 -0.052546511521076616 0 0.031881435066974974 -0.051946216894932756 0 0.031374688636734253 -0.051860772634617816 0 0.031427324842419377 -0.05218486249517193 0 0.031881435066974974 -0.051946216894932756 0 0.031846632738566631 -0.052393040008785766 0 0.031427324842419377 -0.05218486249517193 0 0.030407524245721754 -0.052214294626451684 0 0.03105239103686917 -0.052086834577153067 0 0.03113535819109399 -0.052602437335773571 0 0.02355607041006021 -0.053543475722840544 0 0.02645183200458345 -0.049336839239423474 0 0.031374688636734253 -0.051860772634617816 0 0.031427324842419377 -0.05218486249517193 0 0.03105239103686917 -0.052086834577153067 0 0.031427324842419377 -0.05218486249517193 0 0.03105239103686917 -0.052086834577153067 0 0.03113535819109399 -0.052602437335773571 0 0.026765620507878476 -0.049474620350289981 0 0.02645183200458345 -0.049336839239423474 0 0.022295133634758345 -0.045352070939626891 0 0.02645183200458345 -0.049336839239423474 0 0.025799184344831135 -0.03857184397033718 0 0.026171608310848429 -0.038058206852397414 0 0.026305860141575172 -0.038561551138976441 0 0.017141657568214837 -0.060746185083711282 0 0.018305931451857955 -0.063684952594651206 0 0.020957073229604783 -0.059840967078766551 0 0.025799184344831135 -0.03857184397033718 0 0.026305860141575172 -0.038561551138976441 0 0.026261443890302778 -0.03907859458625107 0 0.032662983670118211 -0.030091217835465787 0 0.031679514325718944 -0.030759177908224283 0 0.033466520332693074 -0.030704199116858562 0 0.026305860141575172 -0.038561551138976441 0 0.026674701829507628 -0.038811893137417196 0 0.026261443890302778 -0.03907859458625107 0 0.026627440101481863 -0.038292609868500235 0 0.026305860141575172 -0.038561551138976441 0 0.026674701829507628 -0.038811893137417196 0 0.029726297397522236 -0.034946783011614094 0 0.028604539162628971 -0.031067295473812092 0 0.030991445025523725 -0.0087793026534112167 0 0.031617492248817845 -0.0098158215583670303 0 0.032289301972670936 -0.0090420213348500235 0 0.028604539162628971 -0.031067295473812092 0 0.030968523908406525 -0.030966098140830199 0 0.031698145331583154 -0.03070260674316273 0 0.033466520332693074 -0.030704199116858562 0 0.033114608710334573 -0.031456546349341905 0 0.031100352264749977 -0.031102361245875794 0 0.031698145331583154 -0.03070260674316273 0 0.033114608710334573 -0.031456546349341905 0 0.029333260873634436 -0.026798296074752148 0 0.032206732110533348 -0.022906115655504145 0 0.022003184650200264 -0.033803159982864768 0 0.028604539162628971 -0.031067295473812092 0 0.022707016349660269 -0.031445362434848433 0 0.027992958625724804 -0.032857052580074216 0 0.030285699122655559 -0.031296972289599927 0 0.029333260873634436 -0.026798296074752148 0 0.028604539162628971 -0.031067295473812092 0 0.030991445025523725 -0.0087793026534112167 0 0.030835523287799621 -0.0096152478979239352 0 0.031617492248817845 -0.0098158215583670303 0 0.030835523287799621 -0.0096152478979239352 0 0.031617492248817845 -0.0098158215583670303 0 0.030897814604647297 -0.010360742026974701 0 0.031617492248817845 -0.0098158215583670303 0 0.032678741952206852 -0.010107408369799955 0 0.032289301972670936 -0.0090420213348500235 0 0.035423636014567994 -0.013695227480623575 0 0.033947800674763239 -0.012393007945849747 0 0.031617492248817845 -0.0098158215583670303 0 0.032678741952206852 -0.010107408369799955 0 0.031821647995100573 -0.010938316543809239 0 0.031617492248817845 -0.0098158215583670303 0 0.030897814604647297 -0.010360742026974701 0 0.031821647995100573 -0.010938316543809239 0 0.034502759458208854 -0.0086361617227713478 0 0.036783535912470272 -0.0091016892115983964 0 0.035336373534330209 -0.010770295906010786 0 0.032678741952206852 -0.010107408369799955 0 0.033544368807907871 -0.009288560780417069 0 0.032289301972670936 -0.0090420213348500235 0 0.035423636014567994 -0.013695227480623575 0 0.034704654361089868 -0.020721179845356787 0 0.034502759458208854 -0.0086361617227713478 0 0.036018712082835087 -0.0072288915866538959 0 0.036783535912470272 -0.0091016892115983964 0 0.03506068657835585 -0.031747214938141699 0 0.033466520332693074 -0.030704199116858562 0 0.034826833186349972 -0.030124995570079697 0 0.03506068657835585 -0.031747214938141699 0 0.033466520332693074 -0.030704199116858562 0 0.033114608710334573 -0.031456546349341905 0 0.034704654361089868 -0.020721179845356787 0 0.032206732110533348 -0.022906115655504145 0 0.033627958356394476 -0.02945575075919123 0 0.033466520332693074 -0.030704199116858562 0 0.034826833186349972 -0.030124995570079697 0 0.033627958356394476 -0.02945575075919123 0 0.032662983670118211 -0.030091217835465787 0 0.033466520332693074 -0.030704199116858562 0 0.030728815008614289 -0.039014887672020236 0 0.029726297397522236 -0.034946783011614094 0 0.030728815008614289 -0.039014887672020236 0 0.030926438650531716 -0.037745145529777639 0 0.034826833186349972 -0.030124995570079697 0 0.036352976727512351 -0.030419457090370722 0 0.03559460715153772 -0.029457695577080341 0 0.036352976727512351 -0.030419457090370722 0 0.03661524673642122 -0.029506250032630792 0 0.03559460715153772 -0.029457695577080341 0 0.041662609721607687 -0.044373200197788912 0 0.04147500156395157 -0.046856964612550081 0 0.043623918732121257 -0.046919230293014383 0 0.042058629735178946 -0.035044362723120386 0 0.039169815388465409 -0.039323518831519882 0 0.036352976727512351 -0.030419457090370722 0 0.03749637784058707 -0.030610734962480624 0 0.03661524673642122 -0.029506250032630792 0 0.036352976727512351 -0.030419457090370722 0 0.036697478903977558 -0.031710030653509594 0 0.03749637784058707 -0.030610734962480624 0 0.036697478903977558 -0.031710030653509594 0 0.03749637784058707 -0.030610734962480624 0 0.037640665029044978 -0.031415421424364431 0 0.03506068657835585 -0.031747214938141699 0 0.034826833186349972 -0.030124995570079697 0 0.036352976727512351 -0.030419457090370722 0 0.034704654361089868 -0.020721179845356787 0 0.033213455252859465 -0.024845979720086758 0 0.035295390733655202 -0.031445317392567153 0 0.036352976727512351 -0.030419457090370722 0 0.036697478903977558 -0.031710030653509594 0 0.036018712082835087 -0.0072288915866538959 0 0.038003592960038024 -0.0075957993961146154 0 0.036783535912470272 -0.0091016892115983964 0 0.034704654361089868 -0.020721179845356787 0 0.038148273480561379 -0.022147462713019289 0 0.038003592960038024 -0.0075957993961146154 0 0.036783535912470272 -0.0091016892115983964 0 0.038916840052861723 -0.0094439767577956385 0 0.042708847405805959 -0.0069803058487073813 0 0.044221838765499365 -0.007759487595963877 0 0.043601812838869512 -0.0063404006159861843 0 0.042708847405805959 -0.0069803058487073813 0 0.044221838765499365 -0.007759487595963877 0 0.042734714479066349 -0.0084973048667888705 0 0.043847098788463233 -0.015312957920753248 0 0.044818548265992839 -0.025373732085864902 0 0.042708847405805959 -0.0069803058487073813 0 0.040667490184688307 -0.0078649379778599812 0 0.042734714479066349 -0.0084973048667888705 0 0.042708847405805959 -0.0069803058487073813 0 0.040667490184688307 -0.0078649379778599812 0 0.04218818860462243 -0.0057018161365673913 0 0.038148273480561379 -0.022147462713019289 0 0.044818548265992839 -0.025373732085864902 0 0.036697478903977558 -0.031710030653509594 0 0.038162007936257666 -0.031959236088272461 0 0.037640665029044978 -0.031415421424364431 0 0.038003592960038024 -0.0075957993961146154 0 0.038916840052861723 -0.0094439767577956385 0 0.039969302102280328 -0.0079657395487182699 0 0.038162007936257666 -0.031959236088272461 0 0.038368694324784604 -0.031658123913536604 0 0.037640665029044978 -0.031415421424364431 0 0.044818548265992839 -0.025373732085864902 0 0.045674567576228536 -0.029089158245999395 0 0.050790993244810623 -0.030148730580047755 0 0.049955136410136568 -0.029096074065436631 0 0.04948352451658676 -0.032049295802289449 0 0.048255627396786259 -0.028097182954068364 0 0.049343840473136204 -0.033898941165386678 0 0.071280150441594109 -0.039611905070348619 0 0.07120678950322612 -0.04000552811838938 0 0.071097694240216849 -0.039828811320505926 0 0.044516264599696077 -0.024474317603715622 0 0.045132678966666971 -0.023584387084675341 0 0.046054458470892047 -0.024736359253979833 0 0.045674567576228536 -0.029089158245999395 0 0.048255627396786259 -0.028097182954068364 0 0.042708847405805959 -0.0069803058487073813 0 0.04218818860462243 -0.0057018161365673913 0 0.043205104316018289 -0.0058634043724963957 0 0.042708847405805959 -0.0069803058487073813 0 0.043205104316018289 -0.0058634043724963957 0 0.043601812838869512 -0.0063404006159861843 0 0.044818548265992839 -0.025373732085864902 0 0.048255627396786259 -0.028097182954068364 0 0.048255627396786259 -0.028097182954068364 0 0.047780689339227606 -0.027317876592515899 0 0.071280150441594109 -0.039611905070348619 0 0.071097694240216849 -0.039828811320505926 0 0.071017782671354723 -0.039732187212733659 0 0.07120678950322612 -0.04000552811838938 0 0.071086931212249002 -0.039962435544934387 0 0.071097694240216849 -0.039828811320505926 0 0.045674567576228536 -0.029089158245999395 0 0.049343840473136204 -0.033898941165386678 0 0.071099225578792336 -0.040121016693394393 0 0.07120678950322612 -0.04000552811838938 0 0.071086931212249002 -0.039962435544934387 0 0.050065124360178015 -0.033666073144560348 0 0.049343840473136204 -0.033898941165386678 0 0.045674567576228536 -0.029089158245999395 0 0.042058629735178946 -0.035044362723120386 0 0.038368694324784604 -0.031658123913536604 0 0.03749637784058707 -0.030610734962480624 0 0.037640665029044978 -0.031415421424364431 0 0.038522909665458689 -0.043461757615905101 0 0.041662609721607687 -0.044373200197788912 0 0.03968572125233788 -0.04537805585983521 0 0.039663189109162507 -0.041796573473164123 0 0.038522909665458689 -0.043461757615905101 0 0.041662609721607687 -0.044373200197788912 0 0.041662609721607687 -0.044373200197788912 0 0.03968572125233788 -0.04537805585983521 0 0.04147500156395157 -0.046856964612550081 0 0.049343840473136204 -0.033898941165386678 0 0.052247094042712307 -0.041728293873943202 0 0.038522909665458689 -0.043461757615905101 0 0.03968572125233788 -0.04537805585983521 0 0.038106170480564291 -0.046934706537318592 0 0.071099225578792336 -0.040121016693394393 0 0.071094974859082019 -0.040120622822303838 0 0.071053619692047834 -0.040119450313726268 0 0.03968572125233788 -0.04537805585983521 0 0.038106170480564291 -0.046934706537318592 0 0.040041897337106613 -0.04842360530546734 0 0.038106170480564291 -0.046934706537318592 0 0.040041897337106613 -0.04842360530546734 0 0.037740809684158758 -0.050365252263103219 0 0.052247094042712307 -0.041728293873943202 0 0.054327721016031616 -0.045100287945092819 0 0.039633914056283727 -0.050461417586053013 0 0.040041897337106613 -0.04842360530546734 0 0.037740809684158758 -0.050365252263103219 0 0.039633914056283727 -0.050461417586053013 0 0.039064410017725565 -0.05184947710381578 0 0.037740809684158758 -0.050365252263103219 0 0.040971980039963427 -0.050292196586732688 0 0.040041897337106613 -0.04842360530546734 0 0.042349493916164681 -0.04917261445906107 0 0.040971980039963427 -0.050292196586732688 0 0.042349493916164681 -0.04917261445906107 0 0.042006792978172371 -0.050897145654172762 0 0.040971980039963427 -0.050292196586732688 0 0.040401044286569744 -0.051385873531291183 0 0.04126864475880173 -0.051334031881808774 0 0.040971980039963427 -0.050292196586732688 0 0.042006792978172371 -0.050897145654172762 0 0.04126864475880173 -0.051334031881808774 0 0.039633914056283727 -0.050461417586053013 0 0.040971980039963427 -0.050292196586732688 0 0.040401044286569744 -0.051385873531291183 0 0.039633914056283727 -0.050461417586053013 0 0.040971980039963427 -0.050292196586732688 0 0.040041897337106613 -0.04842360530546734 0 0.04147500156395157 -0.046856964612550081 0 0.040041897337106613 -0.04842360530546734 0 0.042349493916164681 -0.04917261445906107 0 0.03968572125233788 -0.04537805585983521 0 0.04147500156395157 -0.046856964612550081 0 0.040041897337106613 -0.04842360530546734 0 0.043623918732121257 -0.046919230293014383 0 0.045607975594977548 -0.049440984741908507 0 0.042349493916164681 -0.04917261445906107 0 0.04147500156395157 -0.046856964612550081 0 0.043623918732121257 -0.046919230293014383 0 0.042349493916164681 -0.04917261445906107 0 0.039169815388465409 -0.039323518831519882 0 0.036200046633545889 -0.044574535375453167 0 0.03661524673642122 -0.029506250032630792 0 0.03559460715153772 -0.029457695577080341 0 0.035653086855577602 -0.028336767974257469 0 0.033220572411160387 -0.052278429502389173 0 0.033291662766178225 -0.052365066321631203 0 0.033408252906417142 -0.051817342285296372 0 0.033291662766178225 -0.052365066321631203 0 0.034041801602070786 -0.051837463797443709 0 0.033408252906417142 -0.051817342285296372 0 0.032869867686000365 -0.052320196622956831 0 0.033220572411160387 -0.052278429502389173 0 0.033296506851057582 -0.052371095166487906 0 0.036220958168159949 -0.044650428446114554 0 0.036200046633545889 -0.044574535375453167 0 0.033109757166582127 -0.052004670260075152 0 0.033220572411160387 -0.052278429502389173 0 0.033408252906417142 -0.051817342285296372 0 0.036200046633545889 -0.044574535375453167 0 0.038733232947507683 -0.049598539905196026 0 0.045607975594977548 -0.049440984741908507 0 0.042349493916164681 -0.04917261445906107 0 0.04255135928943464 -0.051552532158333296 0 0.042349493916164681 -0.04917261445906107 0 0.042006792978172371 -0.050897145654172762 0 0.04255135928943464 -0.051552532158333296 0 0.034041801602070786 -0.051837463797443709 0 0.033408252906417142 -0.051817342285296372 0 0.033496988185073399 -0.051240090355754782 0 0.042006792978172371 -0.050897145654172762 0 0.041907064462317144 -0.052003015719169439 0 0.042531058372714335 -0.051593932133831531 0 0.042364293045683378 -0.051717928739149113 0 0.042335777014339299 -0.053069660719034399 0 0.043766917599449791 -0.054007974970298335 0 0.038733232947507683 -0.049598539905196026 0 0.038892562451087735 -0.051694684499768238 0 0.038874356487516901 -0.049730851730432887 0 0.038733232947507683 -0.049598539905196026 0 0.038799320087852661 -0.04959732990614707 0 0.038733232947507683 -0.049598539905196026 0 0.041907064462317144 -0.052003015719169439 0 0.042335777014339299 -0.053069660719034399 0 0.04137530550387556 -0.052868310127132813 0 0.041907064462317144 -0.052003015719169439 0 0.042364293045683378 -0.051717928739149113 0 0.042335777014339299 -0.053069660719034399 0 0.033408252906417142 -0.051817342285296372 0 0.033180135961494855 -0.051484405013727433 0 0.033496988185073399 -0.051240090355754782 0 0.03305869540490658 -0.051747051433362189 0 0.033109757166582127 -0.052004670260075152 0 0.033408252906417142 -0.051817342285296372 0 0.03305869540490658 -0.051747051433362189 0 0.033408252906417142 -0.051817342285296372 0 0.033180135961494855 -0.051484405013727433 0 0.03306536358239897 -0.05087680928784781 0 0.033011498309830058 -0.051214756735333281 0 0.033496988185073399 -0.051240090355754782 0 0.033011498309830058 -0.051214756735333281 0 0.033180135961494855 -0.051484405013727433 0 0.033496988185073399 -0.051240090355754782 0 0.042636809433882893 -0.054969299373825511 0 0.044246921691856032 -0.055463578539511768 0 0.043766917599449791 -0.054007974970298335 0 0.038724209008723157 -0.05279479502285668 0 0.038892562451087735 -0.051694684499768238 0 0.042335777014339299 -0.053069660719034399 0 0.04274938487223446 -0.053998368895774362 0 0.041700033891449738 -0.053808740003313628 0 0.042335777014339299 -0.053069660719034399 0 0.041700033891449738 -0.053808740003313628 0 0.04137530550387556 -0.052868310127132813 0 0.042335777014339299 -0.053069660719034399 0 0.043766917599449791 -0.054007974970298335 0 0.04274938487223446 -0.053998368895774362 0 0.042636809433882893 -0.054969299373825511 0 0.043766917599449791 -0.054007974970298335 0 0.04274938487223446 -0.053998368895774362 0 0.042636809433882893 -0.054969299373825511 0 0.04274938487223446 -0.053998368895774362 0 0.041700033891449738 -0.053808740003313628 0 0.042636809433882893 -0.054969299373825511 0 0.041700033891449738 -0.053808740003313628 0 0.040164507591265351 -0.054406043764790288 0 0.045739547257659649 -0.052130352875796343 0 0.047926187535706988 -0.050549677736130207 0 0.041700033891449738 -0.053808740003313628 0 0.040687446754402924 -0.053465139333230459 0 0.04137530550387556 -0.052868310127132813 0 0.041700033891449738 -0.053808740003313628 0 0.040687446754402924 -0.053465139333230459 0 0.040164507591265351 -0.054406043764790288 0 0.040005922653866731 -0.053493379947861096 0 0.040687446754402924 -0.053465139333230459 0 0.040273470267635537 -0.052665759674907935 0 0.040005922653866731 -0.053493379947861096 0 0.040687446754402924 -0.053465139333230459 0 0.040164507591265351 -0.054406043764790288 0 0.047926187535706988 -0.050549677736130207 0 0.056382582257857729 -0.048309056226957123 0 0.046836943426406014 -0.056613821454474127 0 0.047395415449631502 -0.056469011578030449 0 0.048356439277649439 -0.057047878075762483 0 0.040164507591265351 -0.054406043764790288 0 0.039079500314810611 -0.05333481904175176 0 0.03742348993608182 -0.053647240557597731 0 0.048515075476893273 -0.055770764111802866 0 0.047395415449631502 -0.056469011578030449 0 0.048356439277649439 -0.057047878075762483 0 0.046985574185938073 -0.055852717868710239 0 0.046836943426406014 -0.056613821454474127 0 0.047395415449631502 -0.056469011578030449 0 0.040005922653866731 -0.053493379947861096 0 0.039079500314810611 -0.05333481904175176 0 0.040273470267635537 -0.052665759674907935 0 0.040005922653866731 -0.053493379947861096 0 0.040164507591265351 -0.054406043764790288 0 0.039079500314810611 -0.05333481904175176 0 0.039079500314810611 -0.05333481904175176 0 0.039064410017725565 -0.05184947710381578 0 0.040273470267635537 -0.052665759674907935 0 0.039064410017725565 -0.05184947710381578 0 0.03742348993608182 -0.053647240557597731 0 0.037740809684158758 -0.050365252263103219 0 0.039079500314810611 -0.05333481904175176 0 0.039064410017725565 -0.05184947710381578 0 0.03742348993608182 -0.053647240557597731 0 0.039633914056283727 -0.050461417586053013 0 0.039064410017725565 -0.05184947710381578 0 0.040401044286569744 -0.051385873531291183 0 0.039064410017725565 -0.05184947710381578 0 0.040401044286569744 -0.051385873531291183 0 0.040273470267635537 -0.052665759674907935 0 0.040401044286569744 -0.051385873531291183 0 0.041081021052673639 -0.052076951912076536 0 0.040273470267635537 -0.052665759674907935 0 0.040401044286569744 -0.051385873531291183 0 0.04126864475880173 -0.051334031881808774 0 0.041081021052673639 -0.052076951912076536 0 0.042006792978172371 -0.050897145654172762 0 0.041907064462317144 -0.052003015719169439 0 0.04126864475880173 -0.051334031881808774 0 0.041907064462317144 -0.052003015719169439 0 0.04126864475880173 -0.051334031881808774 0 0.041081021052673639 -0.052076951912076536 0 0.041081021052673639 -0.052076951912076536 0 0.04137530550387556 -0.052868310127132813 0 0.040273470267635537 -0.052665759674907935 0 0.041907064462317144 -0.052003015719169439 0 0.041081021052673639 -0.052076951912076536 0 0.04137530550387556 -0.052868310127132813 0 0.040687446754402924 -0.053465139333230459 0 0.04137530550387556 -0.052868310127132813 0 0.040273470267635537 -0.052665759674907935 0 0.066425482112112383 -0.048067467627326714 0 0.068373079846647783 -0.043863943029148589 0 0.071140254333421041 -0.039973323471725122 0 0.071050283147574111 -0.039967809254473484 0 0.071059048348748405 -0.040027011745778197 0 0.056382582257857729 -0.048309056226957123 0 0.054327721016031616 -0.045100287945092819 0 0.061272305629631964 -0.050835521280888099 0 0.059981929544400299 -0.050446552890570477 0 0.061567147413642422 -0.048486602825957618 0 0.059981929544400299 -0.050446552890570477 0 0.059001268159789809 -0.047715281797555818 0 0.061567147413642422 -0.048486602825957618 0 0.066425482112112383 -0.048067467627326714 0 0.056382582257857729 -0.048309056226957123 0 0.056524697619525492 -0.052523850064573323 0 0.056382582257857729 -0.048309056226957123 0 0.075202104684473331 -0.050046167375185927 0 0.077936928554403123 -0.050266676237916814 0 0.076955185975898663 -0.047608039142117239 0 0.063220921093545407 -0.051910240715062492 0 0.066425482112112383 -0.048067467627326714 0 0.075417760567811951 -0.049480360527184013 0 0.072540291290756787 -0.048118648390869295 0 0.074729729969760753 -0.045779080969637086 0 0.075202104684473331 -0.050046167375185927 0 0.076955185975898663 -0.047608039142117239 0 0.074545541315213779 -0.04688530253490876 0 0.073568694028291429 -0.049587496596436589 0 0.071688330251998916 -0.04679225783762516 0 0.072540291290756787 -0.048118648390869295 0 0.074729729969760753 -0.045779080969637086 0 0.070603418489105618 -0.044548065237082775 0 0.071688330251998916 -0.04679225783762516 0 0.071430695036226219 -0.046186502720252202 0 0.073222208337706929 -0.044041627779727657 0 0.072085472186528068 -0.043689824979245194 0 0.072784277924111559 -0.042789614658709035 0 0.066425482112112383 -0.048067467627326714 0 0.071688330251998916 -0.04679225783762516 0 0.072085472186528068 -0.043689824979245194 0 0.071854745339258189 -0.042414367988517332 0 0.072784277924111559 -0.042789614658709035 0 0.071688330251998916 -0.04679225783762516 0 0.071561465425897919 -0.04397705548486254 0 0.071854745339258189 -0.042414367988517332 0 0.072346295214015102 -0.041562230431911568 0 0.072784277924111559 -0.042789614658709035 0 0.072923250064661799 -0.045098519769303978 0 0.072528879617625261 -0.043216268598657209 0 0.070603418489105618 -0.044548065237082775 0 0.072528879617625261 -0.043216268598657209 0 0.071009481472508573 -0.04241085247817903 0 0.070603418489105618 -0.044548065237082775 0 0.072528879617625261 -0.043216268598657209 0 0.071680265531304826 -0.041198489533342528 0 0.071009481472508573 -0.04241085247817903 0 0.071561465425897919 -0.04397705548486254 0 0.071484158656127478 -0.042999938272376394 0 0.071680265531304826 -0.041198489533342528 0 0.070799111216929736 -0.040914112463289194 0 0.071009481472508573 -0.04241085247817903 0 0.071342917121650931 -0.040078989537830331 0 0.071213682198663877 -0.040068481072322616 0 0.071205111239333693 -0.040017222979062433 0 0.071854745339258189 -0.042414367988517332 0 0.072346295214015102 -0.041562230431911568 0 0.071680265531304826 -0.041198489533342528 0 0.06943058791948839 -0.042237452900059848 0 0.068373079846647783 -0.043863943029148589 0 0.071342917121650931 -0.040078989537830331 0 0.071213682198663877 -0.040068481072322616 0 0.071246129982097506 -0.040159084767135859 0 0.071144279161888674 -0.040102276392850189 0 0.071213682198663877 -0.040068481072322616 0 0.071246129982097506 -0.040159084767135859 0 0.071144279161888674 -0.040102276392850189 0 0.071213682198663877 -0.040068481072322616 0 0.071139122782806791 -0.040041789073841726 0 0.071140254333421041 -0.039973323471725122 0 0.071139122782806791 -0.040041789073841726 0 0.071205111239333693 -0.040017222979062433 0 0.071213682198663877 -0.040068481072322616 0 0.071139122782806791 -0.040041789073841726 0 0.071205111239333693 -0.040017222979062433 0 0.071140254333421041 -0.039973323471725122 0 0.071139122782806791 -0.040041789073841726 0 0.071059048348748405 -0.040027011745778197 0 0.071053619692047834 -0.040119450313726268 0 0.071139122782806791 -0.040041789073841726 0 0.071059048348748405 -0.040027011745778197 0 0.071053619692047834 -0.040119450313726268 0 0.071144279161888674 -0.040102276392850189 0 0.071139122782806791 -0.040041789073841726 0 0.071099225578792336 -0.040121016693394393 0 0.071053619692047834 -0.040119450313726268 0 0.07108699806400709 -0.040141168108422581 0 0.071053619692047834 -0.040119450313726268 0 0.071144279161888674 -0.040102276392850189 0 0.07108699806400709 -0.040141168108422581 0 0.071144279161888674 -0.040102276392850189 0 0.07108699806400709 -0.040141168108422581 0 0.071152292239878678 -0.040146212351140478 0 0.07108699806400709 -0.040141168108422581 0 0.071074461277239417 -0.040166948836918417 0 0.071152292239878678 -0.040146212351140478 0 0.071099225578792336 -0.040121016693394393 0 0.07108699806400709 -0.040141168108422581 0 0.071074461277239417 -0.040166948836918417 0 0.071144279161888674 -0.040102276392850189 0 0.071246129982097506 -0.040159084767135859 0 0.071152292239878678 -0.040146212351140478 0 0.071246129982097506 -0.040159084767135859 0 0.071152292239878678 -0.040146212351140478 0 0.071277471273150705 -0.040244388145006887 0 0.071074461277239417 -0.040166948836918417 0 0.071152292239878678 -0.040146212351140478 0 0.071277471273150705 -0.040244388145006887 0 0.071246129982097506 -0.040159084767135859 0 0.071277471273150705 -0.040244388145006887 0 0.071359992940527861 -0.040294740059100179 0 0.071277471273150705 -0.040244388145006887 0 0.071336622216822604 -0.040266211601759458 0 0.071293986020464245 -0.040242962495943821 0 0.071277471273150705 -0.040244388145006887 0 0.071336622216822604 -0.040266211601759458 0 0.071359992940527861 -0.040294740059100179 0 0.071277471273150705 -0.040244388145006887 0 0.071247242140870234 -0.040242186787533378 0 0.071293986020464245 -0.040242962495943821 0 0.071074461277239417 -0.040166948836918417 0 0.071277471273150705 -0.040244388145006887 0 0.071247242140870234 -0.040242186787533378 0 0.071247242140870234 -0.040242186787533378 0 0.071301242295971234 -0.040278040632440275 0 0.071293986020464245 -0.040242962495943821 0 0.071336622216822604 -0.040266211601759458 0 0.071293986020464245 -0.040242962495943821 0 0.071346186549903434 -0.040191767529229754 0 0.071074461277239417 -0.040166948836918417 0 0.071247242140870234 -0.040242186787533378 0 0.071301242295971234 -0.040278040632440275 0 0.071074461277239417 -0.040166948836918417 0 0.070789557699837899 -0.039848654455854227 0 0.071022962139445187 -0.039996292100381518 0 0.064281096506365168 -0.03684781155916482 0 0.063023496514899496 -0.034700040230963465 0 0.071099225578792336 -0.040121016693394393 0 0.071074461277239417 -0.040166948836918417 0 0.071022962139445187 -0.039996292100381518 0 0.071099225578792336 -0.040121016693394393 0 0.071022962139445187 -0.039996292100381518 0 0.071086931212249002 -0.039962435544934387 0 0.070789557699837899 -0.039848654455854227 0 0.070972564203503841 -0.039846426763324838 0 0.071022962139445187 -0.039996292100381518 0 0.070972564203503841 -0.039846426763324838 0 0.071022962139445187 -0.039996292100381518 0 0.071086931212249002 -0.039962435544934387 0 0.070972564203503841 -0.039846426763324838 0 0.071086931212249002 -0.039962435544934387 0 0.071097694240216849 -0.039828811320505926 0 0.048255627396786259 -0.028097182954068364 0 0.058480248328751025 -0.026065050127694313 0 0.071280150441594109 -0.039611905070348619 0 0.071017782671354723 -0.039732187212733659 0 0.07090611780874731 -0.039624674500401774 0 0.071280150441594109 -0.039611905070348619 0 0.07090611780874731 -0.039624674500401774 0 0.070669800801193228 -0.039469187371315634 0 0.043202479961180866 -0.0058557624777022923 0 0.043601812838869512 -0.0063404006159861843 0 0.046715071302301618 -0.0063837961508373111 0 0.070972564203503841 -0.039846426763324838 0 0.071097694240216849 -0.039828811320505926 0 0.071017782671354723 -0.039732187212733659 0 0.07090611780874731 -0.039624674500401774 0 0.070860432968655906 -0.039719673174319167 0 0.070669800801193228 -0.039469187371315634 0 0.070789557699837899 -0.039848654455854227 0 0.070972564203503841 -0.039846426763324838 0 0.070860432968655906 -0.039719673174319167 0 0.071017782671354723 -0.039732187212733659 0 0.07090611780874731 -0.039624674500401774 0 0.070860432968655906 -0.039719673174319167 0 0.070972564203503841 -0.039846426763324838 0 0.071017782671354723 -0.039732187212733659 0 0.070860432968655906 -0.039719673174319167 0 0.070789557699837899 -0.039848654455854227 0 0.070860432968655906 -0.039719673174319167 0 0.070669800801193228 -0.039469187371315634 0 0.071301242295971234 -0.040278040632440275 0 0.071267412111045356 -0.040164369342467657 0 0.071254332748480906 -0.039879589637909316 0 0.071301242295971234 -0.040278040632440275 0 0.071293986020464245 -0.040242962495943821 0 0.071267412111045356 -0.040164369342467657 0 0.063023496514899496 -0.034700040230963465 0 0.058480248328751025 -0.026065050127694313 0 0.071293986020464245 -0.040242962495943821 0 0.071267412111045356 -0.040164369342467657 0 0.071317333842293024 -0.040164629713015647 0 0.071293986020464245 -0.040242962495943821 0 0.071317333842293024 -0.040164629713015647 0 0.071346186549903434 -0.040191767529229754 0 0.071317333842293024 -0.040164629713015647 0 0.071365754313214513 -0.040070363426536318 0 0.071346186549903434 -0.040191767529229754 0 0.071267412111045356 -0.040164369342467657 0 0.071317333842293024 -0.040164629713015647 0 0.071365754313214513 -0.040070363426536318 0 0.071267412111045356 -0.040164369342467657 0 0.071254332748480906 -0.039879589637909316 0 0.070898206394060179 -0.039795316140472319 0 0.065411236787526403 -0.031923787246092981 0 0.061551936983607364 -0.027703400188007609 0 0.046715071302301618 -0.0063837961508373111 0 0.045598849814921585 -0.0085340185336103113 0 0.047544145899111476 -0.0089841328734437381 0 0.047086587427050214 -0.0056759299663621011 0 0.048871159563622479 -0.0075451218567122516 0 0.047862001930530251 -0.0085539564132737084 0 0.058480248328751025 -0.026065050127694313 0 0.052425801078466124 -0.012967620296248986 0 0.058480248328751025 -0.026065050127694313 0 0.061551936983607364 -0.027703400188007609 0 0.047086587427050214 -0.0056759299663621011 0 0.048871159563622479 -0.0075451218567122516 0 0.048601178799266988 -0.0059150218356264434 0 0.044221838765499365 -0.007759487595963877 0 0.046715071302301618 -0.0063837961508373111 0 0.045598849814921585 -0.0085340185336103113 0 0.044221838765499365 -0.007759487595963877 0 0.043601812838869512 -0.0063404006159861843 0 0.046715071302301618 -0.0063837961508373111 0 0.065629485611834973 -0.029611093346798911 0 0.066817149014999397 -0.029801916256815511 0 0.071210440013248041 -0.039880778892472692 0 0.07105312233509653 -0.040019439406304834 0 0.070840090077294401 -0.039713995361184661 0 0.063395845466564002 -0.028492993156000283 0 0.064431860072286254 -0.028667050129302526 0 0.063559870251265846 -0.029533460791323671 0 0.066817149014999397 -0.029801916256815511 0 0.061981163541607501 -0.02462020774070952 0 0.065629485611834973 -0.029611093346798911 0 0.061551936983607364 -0.027703400188007609 0 0.063395845466564002 -0.028492993156000283 0 0.062360166022029685 -0.028320931935265938 0 0.063559870251265846 -0.029533460791323671 0 0.061551936983607364 -0.027703400188007609 0 0.061981163541607501 -0.02462020774070952 0 0.048871159563622479 -0.0075451218567122516 0 0.048601178799266988 -0.0059150218356264434 0 0.051519358119331372 -0.0086805596476864227 0 0.071210440013248041 -0.039880778892472692 0 0.071365754313214513 -0.040070363426536318 0 0.071304129522115428 -0.040112124738371432 0 0.071365754313214513 -0.040070363426536318 0 0.071346186549903434 -0.040191767529229754 0 0.071304129522115428 -0.040112124738371432 0 0.071346186549903434 -0.040191767529229754 0 0.071304129522115428 -0.040112124738371432 0 0.071401991799410161 -0.040293305458166145 0 0.071304129522115428 -0.040112124738371432 0 0.07105312233509653 -0.040019439406304834 0 0.0712571766997179 -0.040234615236688115 0 0.071210440013248041 -0.039880778892472692 0 0.071304129522115428 -0.040112124738371432 0 0.07105312233509653 -0.040019439406304834 0 0.07105312233509653 -0.040019439406304834 0 0.0712571766997179 -0.040234615236688115 0 0.070939177077854521 -0.040267371048787179 0 0.0712571766997179 -0.040234615236688115 0 0.07111319994095569 -0.040500969360134947 0 0.070939177077854521 -0.040267371048787179 0 0.0712571766997179 -0.040234615236688115 0 0.07111319994095569 -0.040500969360134947 0 0.071560247110606615 -0.04042409606315623 0 0.071336622216822604 -0.040266211601759458 0 0.071346186549903434 -0.040191767529229754 0 0.071401991799410161 -0.040293305458166145 0 0.071304129522115428 -0.040112124738371432 0 0.0712571766997179 -0.040234615236688115 0 0.071401991799410161 -0.040293305458166145 0 0.0712571766997179 -0.040234615236688115 0 0.071401991799410161 -0.040293305458166145 0 0.071560247110606615 -0.04042409606315623 0 0.071401991799410161 -0.040293305458166145 0 0.071560247110606615 -0.04042409606315623 0 0.071359992940527861 -0.040294740059100179 0 0.071336622216822604 -0.040266211601759458 0 0.071401991799410161 -0.040293305458166145 0 0.071359992940527861 -0.040294740059100179 0 0.071342917121650931 -0.040078989537830331 0 0.071560247110606615 -0.04042409606315623 0 0.071359992940527861 -0.040294740059100179 0 0.072346295214015102 -0.041562230431911568 0 0.071560247110606615 -0.04042409606315623 0 0.071680265531304826 -0.041198489533342528 0 0.06943058791948839 -0.042237452900059848 0 0.069733065990930806 -0.041756913845273504 0 0.071342917121650931 -0.040078989537830331 0 0.071246129982097506 -0.040159084767135859 0 0.071359992940527861 -0.040294740059100179 0 0.07111319994095569 -0.040500969360134947 0 0.071680265531304826 -0.041198489533342528 0 0.070799111216929736 -0.040914112463289194 0 0.07111319994095569 -0.040500969360134947 0 0.071560247110606615 -0.04042409606315623 0 0.071680265531304826 -0.041198489533342528 0 0.07111319994095569 -0.040500969360134947 0 0.070799111216929736 -0.040914112463289194 0 0.070553520079923535 -0.040547646795237272 0 0.069618980780925377 -0.04033903607699954 0 0.068714488092637041 -0.040176340171194778 0 0.070799111216929736 -0.040914112463289194 0 0.070236059223866207 -0.040813248265273765 0 0.070553520079923535 -0.040547646795237272 0 0.070799111216929736 -0.040914112463289194 0 0.068465815226857601 -0.040542596115313349 0 0.069311047563174397 -0.042469757382659894 0 0.070236059223866207 -0.040813248265273765 0 0.070553520079923535 -0.040547646795237272 0 0.07002040962050049 -0.040398463153808309 0 0.070553520079923535 -0.040547646795237272 0 0.070440452101266482 -0.040019364654216967 0 0.07002040962050049 -0.040398463153808309 0 0.070553520079923535 -0.040547646795237272 0 0.070939177077854521 -0.040267371048787179 0 0.070440452101266482 -0.040019364654216967 0 0.07111319994095569 -0.040500969360134947 0 0.070553520079923535 -0.040547646795237272 0 0.070939177077854521 -0.040267371048787179 0 0.07105312233509653 -0.040019439406304834 0 0.070939177077854521 -0.040267371048787179 0 0.070440452101266482 -0.040019364654216967 0 0.07105312233509653 -0.040019439406304834 0 0.070440452101266482 -0.040019364654216967 0 0.070840090077294401 -0.039713995361184661 0 0.067448030434265518 -0.034400478296194165 0 0.066817149014999397 -0.029801916256815511 0 0.067448030434265518 -0.034400478296194165 0 0.067288495667338188 -0.037286255770803002 0 0.070332425230481999 -0.035489209567453626 0 0.069535852363001929 -0.0330240980695789 0 0.072294171890079098 -0.033489096250920607 0 0.070332425230481999 -0.035489209567453626 0 0.069535852363001929 -0.0330240980695789 0 0.067421290946188359 -0.034895940451924665 0 0.06877078894394606 -0.030590805588989002 0 0.066817149014999397 -0.029801916256815511 0 0.069535852363001929 -0.0330240980695789 0 0.07220997254598141 -0.033431199287512509 0 0.071601466107812053 -0.03161508345546906 0 0.064999944096041221 -0.032604151265695935 0 0.067421290946188359 -0.034895940451924665 0 0.067379228641674671 -0.032059472011049618 0 0.064999944096041221 -0.032604151265695935 0 0.067421290946188359 -0.034895940451924665 0 0.06499999116030282 -0.036017584048747456 0 0.069535852363001929 -0.0330240980695789 0 0.067421290946188359 -0.034895940451924665 0 0.067379228641674671 -0.032059472011049618 0 0.070332425230481999 -0.035489209567453626 0 0.067421290946188359 -0.034895940451924665 0 0.068379601908724691 -0.037493003384140286 0 0.067421290946188359 -0.034895940451924665 0 0.06499999116030282 -0.036017584048747456 0 0.066424978009127361 -0.03746863790621701 0 0.06499999116030282 -0.036017584048747456 0 0.066424978009127361 -0.03746863790621701 0 0.064999983314422735 -0.039430986089677877 0 0.067421290946188359 -0.034895940451924665 0 0.066424978009127361 -0.03746863790621701 0 0.068379601908724691 -0.037493003384140286 0 0.066424978009127361 -0.03746863790621701 0 0.068379601908724691 -0.037493003384140286 0 0.066420090580661797 -0.039492939959057248 0 0.067288495667338188 -0.037286255770803002 0 0.066193642709876294 -0.039689233385051599 0 0.068714488092637041 -0.040176340171194778 0 0.066193642709876294 -0.039689233385051599 0 0.068465815226857601 -0.040542596115313349 0 0.066088047433571356 -0.040210734717198084 0 0.066358935467739841 -0.041460800139695046 0 0.070236059223866207 -0.040813248265273765 0 0.07002040962050049 -0.040398463153808309 0 0.069627119879855412 -0.04077997507436848 0 0.065002707897643425 -0.039432040286752679 0 0.066193642709876294 -0.039689233385051599 0 0.066424978009127361 -0.03746863790621701 0 0.064999983314422735 -0.039430986089677877 0 0.066420090580661797 -0.039492939959057248 0 0.066088047433571356 -0.040210734717198084 0 0.064999634521577879 -0.040943930479439422 0 0.066358935467739841 -0.041460800139695046 0 0.064999998088878325 -0.039431035671677425 0 0.066427900548828342 -0.039504833181128726 0 0.064999998864453873 -0.040942530579033118 0 0.066193642709876294 -0.039689233385051599 0 0.065001821273849014 -0.040940560951900136 0 0.066358935467739841 -0.041460800139695046 0 0.065000087067742823 -0.043258522415807167 0 0.067207659965148894 -0.042610407577699592 0 0.064999634521577879 -0.040943930479439422 0 0.066358935467739841 -0.041460800139695046 0 0.065000087067742823 -0.043258522415807167 0 0.065000087067742823 -0.043258522415807167 0 0.066477849516211468 -0.044514826631821637 0 0.067207659965148894 -0.042610407577699592 0 0.065000087067742823 -0.043258522415807167 0 0.066477849516211468 -0.044514826631821637 0 0.064998326933266876 -0.045574254202913264 0 0.066477849516211468 -0.044514826631821637 0 0.067207659965148894 -0.042610407577699592 0 0.068136285693678314 -0.043785177939291063 0 0.066477849516211468 -0.044514826631821637 0 0.068136285693678314 -0.043785177939291063 0 0.067980095565498222 -0.045759530963464218 0 0.068465815226857601 -0.040542596115313349 0 0.066358935467739841 -0.041460800139695046 0 0.067207659965148894 -0.042610407577699592 0 0.068465815226857601 -0.040542596115313349 0 0.067207659965148894 -0.042610407577699592 0 0.069311047563174397 -0.042469757382659894 0 0.070799111216929736 -0.040914112463289194 0 0.069311047563174397 -0.042469757382659894 0 0.071009481472508573 -0.04241085247817903 0 0.069311047563174397 -0.042469757382659894 0 0.071009481472508573 -0.04241085247817903 0 0.070603418489105618 -0.044548065237082775 0 0.069311047563174397 -0.042469757382659894 0 0.070603418489105618 -0.044548065237082775 0 0.068136285693678314 -0.043785177939291063 0 0.067207659965148894 -0.042610407577699592 0 0.069311047563174397 -0.042469757382659894 0 0.068136285693678314 -0.043785177939291063 0 0.067980095565498222 -0.045759530963464218 0 0.070128133620955879 -0.046931597834507274 0 0.068478881455089124 -0.047654425112561509 0 0.070603418489105618 -0.044548065237082775 0 0.067980095565498222 -0.045759530963464218 0 0.070128133620955879 -0.046931597834507274 0 0.070603418489105618 -0.044548065237082775 0 0.068136285693678314 -0.043785177939291063 0 0.067980095565498222 -0.045759530963464218 0 0.072540291290756787 -0.048118648390869295 0 0.070603418489105618 -0.044548065237082775 0 0.070128133620955879 -0.046931597834507274 0 0.072540291290756787 -0.048118648390869295 0 0.070128133620955879 -0.046931597834507274 0 0.069744140224093865 -0.048902457712503532 0 0.067529634891968879 -0.049303673251334341 0 0.069744140224093865 -0.048902457712503532 0 0.068478881455089124 -0.047654425112561509 0 0.070128133620955879 -0.046931597834507274 0 0.069744140224093865 -0.048902457712503532 0 0.068478881455089124 -0.047654425112561509 0 0.066737910127831007 -0.047548769543158793 0 0.065027725704108141 -0.048345659247840692 0 0.066096985029787725 -0.046252003422517021 0 0.067529634891968879 -0.049303673251334341 0 0.068478881455089124 -0.047654425112561509 0 0.066737910127831007 -0.047548769543158793 0 0.066225846156873394 -0.049402708924544625 0 0.067529634891968879 -0.049303673251334341 0 0.066737910127831007 -0.047548769543158793 0 0.067980095565498222 -0.045759530963464218 0 0.068478881455089124 -0.047654425112561509 0 0.066737910127831007 -0.047548769543158793 0 0.066225846156873394 -0.049402708924544625 0 0.066737910127831007 -0.047548769543158793 0 0.065027725704108141 -0.048345659247840692 0 0.065027725704108141 -0.048345659247840692 0 0.064998326933266876 -0.045574254202913264 0 0.066096985029787725 -0.046252003422517021 0 0.064999630003505629 -0.049126612571988484 0 0.066216932830068895 -0.048428731848760925 0 0.065000145037576826 -0.045574376845474239 0 0.065674177667518291 -0.048563658536089412 0 0.065000185515440762 -0.045578112332639358 0 0.066477849516211468 -0.044514826631821637 0 0.064998326933266876 -0.045574254202913264 0 0.066096985029787725 -0.046252003422517021 0 0.066477849516211468 -0.044514826631821637 0 0.067980095565498222 -0.045759530963464218 0 0.066096985029787725 -0.046252003422517021 0 0.067980095565498222 -0.045759530963464218 0 0.066737910127831007 -0.047548769543158793 0 0.066096985029787725 -0.046252003422517021 0 0.067231874122699167 -0.018413752533192985 0 0.068085733889810832 -0.019073655831972895 0 0.068423685968214618 -0.017872569944784516 0 0.067231874122699167 -0.018413752533192985 0 0.068085733889810832 -0.019073655831972895 0 0.066710682617903916 -0.019853093740122459 0 0.068085733889810832 -0.019073655831972895 0 0.068423685968214618 -0.017872569944784516 0 0.069401796433896573 -0.018668184671456544 0 0.068085733889810832 -0.019073655831972895 0 0.069401796433896573 -0.018668184671456544 0 0.068342128888437381 -0.020449218639596291 0 0.068085733889810832 -0.019073655831972895 0 0.066710682617903916 -0.019853093740122459 0 0.068342128888437381 -0.020449218639596291 0 0.067231874122699167 -0.018413752533192985 0 0.066710682617903916 -0.019853093740122459 0 0.064999952724174831 -0.017944936095653903 0 0.066710682617903916 -0.019853093740122459 0 0.064999952724174831 -0.017944936095653903 0 0.064999936592851082 -0.021620279994575987 0 0.067231874122699167 -0.018413752533192985 0 0.064999952724174831 -0.017944936095653903 0 0.06780073898220848 -0.016745694117221585 0 0.064999952724174831 -0.017944936095653903 0 0.06780073898220848 -0.016745694117221585 0 0.06687832029857789 -0.015086709876803979 0 0.067231874122699167 -0.018413752533192985 0 0.06780073898220848 -0.016745694117221585 0 0.068423685968214618 -0.017872569944784516 0 0.06780073898220848 -0.016745694117221585 0 0.068423685968214618 -0.017872569944784516 0 0.069374741371362819 -0.016963349575219406 0 0.06780073898220848 -0.016745694117221585 0 0.069374741371362819 -0.016963349575219406 0 0.068875398194760074 -0.015297136817927128 0 0.069374741371362819 -0.016963349575219406 0 0.070740349011479811 -0.017459189203205293 0 0.070496474569864159 -0.015650480836066995 0 0.069374741371362819 -0.016963349575219406 0 0.070740349011479811 -0.017459189203205293 0 0.069401796433896573 -0.018668184671456544 0 0.068423685968214618 -0.017872569944784516 0 0.069374741371362819 -0.016963349575219406 0 0.069401796433896573 -0.018668184671456544 0 0.070740349011479811 -0.017459189203205293 0 0.072722122443552098 -0.017852221614060498 0 0.072282045372079731 -0.016122122710339422 0 0.070740349011479811 -0.017459189203205293 0 0.072282045372079731 -0.016122122710339422 0 0.070496474569864159 -0.015650480836066995 0 0.062075400644780024 -0.02028057616863075 0 0.062503452539122525 -0.018488897140899362 0 0.070740349011479811 -0.017459189203205293 0 0.070183296827666164 -0.019277911984384652 0 0.072722122443552098 -0.017852221614060498 0 0.057887428459656359 -0.019441073232476354 0 0.057688266347330833 -0.019533594957129728 0 0.057738894245850395 -0.01975825350455538 0 0.05808047004825171 -0.019593225767399126 0 0.057887428459656359 -0.019441073232476354 0 0.057738894245850395 -0.01975825350455538 0 0.062075400644780024 -0.02028057616863075 0 0.058243167091852115 -0.019783341255147788 0 0.062621834265971996 -0.020499132682610357 0 0.062075400644780024 -0.02028057616863075 0 0.070740349011479811 -0.017459189203205293 0 0.069401796433896573 -0.018668184671456544 0 0.070183296827666164 -0.019277911984384652 0 0.069401796433896573 -0.018668184671456544 0 0.070269394640014429 -0.01937847183542827 0 0.068342128888437381 -0.020449218639596291 0 0.057250776860796063 -0.02763423675729839 0 0.059128544845375428 -0.025517901335769474 0 0.061097164121768972 -0.025647564705386129 0 0.062075400644780024 -0.02028057616863075 0 0.063401552345706741 -0.021306978063012686 0 0.057918680039260179 -0.025054670178649555 0 0.05554715265187278 -0.023818617097572388 0 0.060250267684704172 -0.023728037345432183 0 0.05554715265187278 -0.023818617097572388 0 0.057984826882672515 -0.02063563207284615 0 0.060050961577581913 -0.023747948947076467 0 0.059441600813857728 -0.022746470778188709 0 0.061093855368220408 -0.022571339970692241 0 0.059128544845375428 -0.025517901335769474 0 0.057918680039260179 -0.025054670178649555 0 0.060250267684704172 -0.023728037345432183 0 0.057250776860796063 -0.02763423675729839 0 0.059128544845375428 -0.025517901335769474 0 0.057918680039260179 -0.025054670178649555 0 0.057250776860796063 -0.02763423675729839 0 0.057918680039260179 -0.025054670178649555 0 0.054240789288052392 -0.025208170511551626 0 0.054240789288052392 -0.025208170511551626 0 0.05554715265187278 -0.023818617097572388 0 0.051239034746464941 -0.022773314680833375 0 0.057918680039260179 -0.025054670178649555 0 0.054240789288052392 -0.025208170511551626 0 0.05554715265187278 -0.023818617097572388 0 0.058243167091852115 -0.019783341255147788 0 0.054893755761572682 -0.018820186856342659 0 0.05554715265187278 -0.023818617097572388 0 0.055659842559307497 -0.017042805306722895 0 0.051239034746464941 -0.022773314680833375 0 0.054772279107028754 -0.018738696612479407 0 0.054893755761572682 -0.018820186856342659 0 0.055659842559307497 -0.017042805306722895 0 0.052860702763998103 -0.017675473613201421 0 0.052627729695335135 -0.020421529741451477 0 0.05554715265187278 -0.023818617097572388 0 0.057984826882672515 -0.02063563207284615 0 0.055659842559307497 -0.017042805306722895 0 0.057984826882672515 -0.02063563207284615 0 0.060255001305976448 -0.020739473088751573 0 0.060050961577581913 -0.023747948947076467 0 0.057984826882672515 -0.02063563207284615 0 0.058733277314710446 -0.017943392694391946 0 0.055659842559307497 -0.017042805306722895 0 0.057984826882672515 -0.02063563207284615 0 0.060255001305976448 -0.020739473088751573 0 0.058733277314710446 -0.017943392694391946 0 0.060255001305976448 -0.020739473088751573 0 0.061973676435840522 -0.017756800475447782 0 0.058733277314710446 -0.017943392694391946 0 0.062547948248184645 -0.021593607284242269 0 0.060255001305976448 -0.020739473088751573 0 0.061973676435840522 -0.017756800475447782 0 0.062547948248184645 -0.021593607284242269 0 0.060255001305976448 -0.020739473088751573 0 0.060050961577581913 -0.023747948947076467 0 0.061093855368220408 -0.022571339970692241 0 0.0641277510230127 -0.022034605207408287 0 0.060250267684704172 -0.023728037345432183 0 0.061097164121768972 -0.025647564705386129 0 0.064946058263988055 -0.023654955382693812 0 0.062547948248184645 -0.021593607284242269 0 0.060050961577581913 -0.023747948947076467 0 0.064327140468155283 -0.023586737599094229 0 0.066710682617903916 -0.019853093740122459 0 0.068342128888437381 -0.020449218639596291 0 0.066427222482005624 -0.021537690230242681 0 0.063401552345706741 -0.021306978063012686 0 0.0641277510230127 -0.022034605207408287 0 0.059128544845375428 -0.025517901335769474 0 0.060250267684704172 -0.023728037345432183 0 0.061097164121768972 -0.025647564705386129 0 0.066710682617903916 -0.019853093740122459 0 0.066427222482005624 -0.021537690230242681 0 0.064999936592851082 -0.021620279994575987 0 0.0641277510230127 -0.022034605207408287 0 0.064997685961561774 -0.022362196985335408 0 0.066469223176106915 -0.021598646468591703 0 0.064999993534805386 -0.02162049951839359 0 0.065000002633323464 -0.022363915521346086 0 0.0641277510230127 -0.022034605207408287 0 0.0649984390666873 -0.021622229179453011 0 0.064327140468155283 -0.023586737599094229 0 0.06530927885873046 -0.022492761635106266 0 0.065000775319627696 -0.022363368404316755 0 0.06530927885873046 -0.022492761635106266 0 0.065000775319627696 -0.022363368404316755 0 0.064999474571806243 -0.025777299119995725 0 0.062547948248184645 -0.021593607284242269 0 0.06530927885873046 -0.022492761635106266 0 0.061973676435840522 -0.017756800475447782 0 0.064495623169914723 -0.021989376464156909 0 0.064121482874290051 -0.021749689619260531 0 0.062547948248184645 -0.021593607284242269 0 0.064327140468155283 -0.023586737599094229 0 0.06530927885873046 -0.022492761635106266 0 0.06530927885873046 -0.022492761635106266 0 0.064999474571806243 -0.025777299119995725 0 0.06777477879675782 -0.024862567425684799 0 0.064999474571806243 -0.025777299119995725 0 0.06777477879675782 -0.024862567425684799 0 0.067520866733508739 -0.027580654606362911 0 0.064121482874290051 -0.021749689619260531 0 0.063290544060139037 -0.021566536159144493 0 0.06777477879675782 -0.024862567425684799 0 0.067520866733508739 -0.027580654606362911 0 0.069927405752166508 -0.027104126994582804 0 0.064999474571806243 -0.025777299119995725 0 0.067520866733508739 -0.027580654606362911 0 0.065000113853737038 -0.029190773526631755 0 0.065000113853737038 -0.029190773526631755 0 0.067979327965459663 -0.029746824327375181 0 0.067379228641674671 -0.032059472011049618 0 0.067520866733508739 -0.027580654606362911 0 0.065000113853737038 -0.029190773526631755 0 0.067979327965459663 -0.029746824327375181 0 0.067520866733508739 -0.027580654606362911 0 0.067979327965459663 -0.029746824327375181 0 0.069857062105333462 -0.029016696493435312 0 0.069535852363001929 -0.0330240980695789 0 0.067379228641674671 -0.032059472011049618 0 0.070081404045353068 -0.030821674434101911 0 0.067979327965459663 -0.029746824327375181 0 0.067379228641674671 -0.032059472011049618 0 0.070081404045353068 -0.030821674434101911 0 0.064999944096041221 -0.032604151265695935 0 0.065000113853737038 -0.029190773526631755 0 0.067379228641674671 -0.032059472011049618 0 0.071601466107812053 -0.03161508345546906 0 0.072035954862260554 -0.029318220570536888 0 0.074122027885718006 -0.031484146755883971 0 0.071601466107812053 -0.03161508345546906 0 0.070081404045353068 -0.030821674434101911 0 0.072035954862260554 -0.029318220570536888 0 0.07220997254598141 -0.033431199287512509 0 0.071601466107812053 -0.03161508345546906 0 0.074122027885718006 -0.031484146755883971 0 0.069535852363001929 -0.0330240980695789 0 0.071601466107812053 -0.03161508345546906 0 0.070081404045353068 -0.030821674434101911 0 0.067979327965459663 -0.029746824327375181 0 0.070081404045353068 -0.030821674434101911 0 0.069857062105333462 -0.029016696493435312 0 0.070081404045353068 -0.030821674434101911 0 0.069857062105333462 -0.029016696493435312 0 0.072035954862260554 -0.029318220570536888 0 0.069857062105333462 -0.029016696493435312 0 0.072035954862260554 -0.029318220570536888 0 0.069927405752166508 -0.027104126994582804 0 0.054444238771459916 -0.011029498940746381 0 0.054600570204255933 -0.014076677209818735 0 0.052970095023066759 -0.012925680203326139 0 0.054444238771459916 -0.011029498940746381 0 0.054600570204255933 -0.014076677209818735 0 0.057837621327673269 -0.013854831558086282 0 0.062382279772387618 -0.02212856361120057 0 0.063290544060139037 -0.021566536159144493 0 0.067520866733508739 -0.027580654606362911 0 0.069857062105333462 -0.029016696493435312 0 0.069927405752166508 -0.027104126994582804 0 0.061973676435840522 -0.017756800475447782 0 0.057837621327673269 -0.013854831558086282 0 0.058733277314710446 -0.017943392694391946 0 0.057837621327673269 -0.013854831558086282 0 0.058733277314710446 -0.017943392694391946 0 0.055659842559307497 -0.017042805306722895 0 0.054600570204255933 -0.014076677209818735 0 0.055659842559307497 -0.017042805306722895 0 0.052860702763998103 -0.017675473613201421 0 0.054600570204255933 -0.014076677209818735 0 0.057837621327673269 -0.013854831558086282 0 0.055659842559307497 -0.017042805306722895 0 0.051167954955651504 -0.01665486427520187 0 0.051742256013301929 -0.01453919206882141 0 0.052860702763998103 -0.017675473613201421 0 0.054600570204255933 -0.014076677209818735 0 0.051742256013301929 -0.01453919206882141 0 0.052860702763998103 -0.017675473613201421 0 0.051167954955651504 -0.01665486427520187 0 0.049903843699212025 -0.015632136410289078 0 0.051742256013301929 -0.01453919206882141 0 0.049903843699212025 -0.015632136410289078 0 0.047563299877502248 -0.015562623310809411 0 0.050072424738793302 -0.018288123879608053 0 0.050451731796208876 -0.016421645813033809 0 0.051643226147287398 -0.017123826270083492 0 0.051167954955651504 -0.01665486427520187 0 0.049903843699212025 -0.015632136410289078 0 0.050072424738793302 -0.018288123879608053 0 0.049903843699212025 -0.015632136410289078 0 0.049739599300331783 -0.013912711266927995 0 0.051742256013301929 -0.01453919206882141 0 0.049903843699212025 -0.015632136410289078 0 0.049739599300331783 -0.013912711266927995 0 0.047563299877502248 -0.015562623310809411 0 0.049739599300331783 -0.013912711266927995 0 0.051149909628218027 -0.01204217174598474 0 0.048507205349966186 -0.01178296814738054 0 0.049739599300331783 -0.013912711266927995 0 0.048507205349966186 -0.01178296814738054 0 0.047563299877502248 -0.015562623310809411 0 0.054600570204255933 -0.014076677209818735 0 0.051742256013301929 -0.01453919206882141 0 0.052970095023066759 -0.012925680203326139 0 0.049739599300331783 -0.013912711266927995 0 0.051742256013301929 -0.01453919206882141 0 0.051149909628218027 -0.01204217174598474 0 0.051742256013301929 -0.01453919206882141 0 0.052970095023066759 -0.012925680203326139 0 0.051149909628218027 -0.01204217174598474 0 0.062382279772387618 -0.02212856361120057 0 0.061981163541607501 -0.02462020774070952 0 0.054444238771459916 -0.011029498940746381 0 0.051635408627111669 -0.010256822612356936 0 0.051615258183907158 -0.0085651003093945056 0 0.054444238771459916 -0.011029498940746381 0 0.052970095023066759 -0.012925680203326139 0 0.051149909628218027 -0.01204217174598474 0 0.054444238771459916 -0.011029498940746381 0 0.051635408627111669 -0.010256822612356936 0 0.051149909628218027 -0.01204217174598474 0 0.051635408627111669 -0.010256822612356936 0 0.051149909628218027 -0.01204217174598474 0 0.050042824121579899 -0.010483163069156622 0 0.051635408627111669 -0.010256822612356936 0 0.050042824121579899 -0.010483163069156622 0 0.051014583776127616 -0.0091815504691951308 0 0.051149909628218027 -0.01204217174598474 0 0.048507205349966186 -0.01178296814738054 0 0.050042824121579899 -0.010483163069156622 0 0.048507205349966186 -0.01178296814738054 0 0.050042824121579899 -0.010483163069156622 0 0.049400679056788299 -0.0089312155338247563 0 0.048871159563622479 -0.0075451218567122516 0 0.049400679056788299 -0.0089312155338247563 0 0.051519358119331372 -0.0086805596476864227 0 0.049400679056788299 -0.0089312155338247563 0 0.051519358119331372 -0.0086805596476864227 0 0.051014583776127616 -0.0091815504691951308 0 0.048507205349966186 -0.01178296814738054 0 0.049400679056788299 -0.0089312155338247563 0 0.047862001930530251 -0.0085539564132737084 0 0.050042824121579899 -0.010483163069156622 0 0.049400679056788299 -0.0089312155338247563 0 0.051014583776127616 -0.0091815504691951308 0 0.048871159563622479 -0.0075451218567122516 0 0.049400679056788299 -0.0089312155338247563 0 0.047862001930530251 -0.0085539564132737084 0 0.051635408627111669 -0.010256822612356936 0 0.051615258183907158 -0.0085651003093945056 0 0.051014583776127616 -0.0091815504691951308 0 0.061981163541607501 -0.02462020774070952 0 0.061939640977465536 -0.024358181414197086 0 0.044221838765499365 -0.007759487595963877 0 0.045598849814921585 -0.0085340185336103113 0 0.044040101880613386 -0.0097736118928037422 0 0.045869373405968215 -0.0098773518758049159 0 0.045598849814921585 -0.0085340185336103113 0 0.044040101880613386 -0.0097736118928037422 0 0.045869373405968215 -0.0098773518758049159 0 0.045598849814921585 -0.0085340185336103113 0 0.047544145899111476 -0.0089841328734437381 0 0.051335766279082214 -0.011495099982929887 0 0.052425801078466124 -0.012967620296248986 0 0.048507205349966186 -0.01178296814738054 0 0.045869373405968215 -0.0098773518758049159 0 0.044836623689802166 -0.011605008264169029 0 0.048507205349966186 -0.01178296814738054 0 0.045869373405968215 -0.0098773518758049159 0 0.047544145899111476 -0.0089841328734437381 0 0.045869373405968215 -0.0098773518758049159 0 0.044836623689802166 -0.011605008264169029 0 0.044040101880613386 -0.0097736118928037422 0 0.044836623689802166 -0.011605008264169029 0 0.045776510910606104 -0.013961120744796249 0 0.043384253043334771 -0.0146414010617102 0 0.048507205349966186 -0.01178296814738054 0 0.044836623689802166 -0.011605008264169029 0 0.045776510910606104 -0.013961120744796249 0 0.048507205349966186 -0.01178296814738054 0 0.045776510910606104 -0.013961120744796249 0 0.047563299877502248 -0.015562623310809411 0 0.045776510910606104 -0.013961120744796249 0 0.047563299877502248 -0.015562623310809411 0 0.045310545459320603 -0.015998818504006442 0 0.045776510910606104 -0.013961120744796249 0 0.045310545459320603 -0.015998818504006442 0 0.043384253043334771 -0.0146414010617102 0 0.045310545459320603 -0.015998818504006442 0 0.045495139631615222 -0.018437860220675392 0 0.046846283511223302 -0.017129275214082695 0 0.045310545459320603 -0.015998818504006442 0 0.045495139631615222 -0.018437860220675392 0 0.043945358964782195 -0.01722922605896611 0 0.045495139631615222 -0.018437860220675392 0 0.047439546365519933 -0.018398985165612496 0 0.046520632488112744 -0.020292344487018936 0 0.045495139631615222 -0.018437860220675392 0 0.047439546365519933 -0.018398985165612496 0 0.046846283511223302 -0.017129275214082695 0 0.047563299877502248 -0.015562623310809411 0 0.046846283511223302 -0.017129275214082695 0 0.047903282036497401 -0.01701729475344925 0 0.047563299877502248 -0.015562623310809411 0 0.045310545459320603 -0.015998818504006442 0 0.046846283511223302 -0.017129275214082695 0 0.047439546365519933 -0.018398985165612496 0 0.046846283511223302 -0.017129275214082695 0 0.047903282036497401 -0.01701729475344925 0 0.047563299877502248 -0.015562623310809411 0 0.048834346448868603 -0.016627462323812001 0 0.047903282036497401 -0.01701729475344925 0 0.048834346448868603 -0.016627462323812001 0 0.048851621430261664 -0.017523099301339187 0 0.047903282036497401 -0.01701729475344925 0 0.051167954955651504 -0.01665486427520187 0 0.050072424738793302 -0.018288123879608053 0 0.052860702763998103 -0.017675473613201421 0 0.050072424738793302 -0.018288123879608053 0 0.052860702763998103 -0.017675473613201421 0 0.052627729695335135 -0.020421529741451477 0 0.051643226147287398 -0.017123826270083492 0 0.054893755761572682 -0.018820186856342659 0 0.048834346448868603 -0.016627462323812001 0 0.048851621430261664 -0.017523099301339187 0 0.05027383450330157 -0.017768365183105161 0 0.057887428459656359 -0.019441073232476354 0 0.057698589197162337 -0.019292385241488474 0 0.057688266347330833 -0.019533594957129728 0 0.057698589197162337 -0.019292385241488474 0 0.057428716928226806 -0.019642290009455405 0 0.057688266347330833 -0.019533594957129728 0 0.054893755761572682 -0.018820186856342659 0 0.053064392986897961 -0.019717694380189946 0 0.048851621430261664 -0.017523099301339187 0 0.05027383450330157 -0.017768365183105161 0 0.048651042085351905 -0.019903194228697293 0 0.052120696627539403 -0.019019988687032134 0 0.053064392986897961 -0.019717694380189946 0 0.047439546365519933 -0.018398985165612496 0 0.048851621430261664 -0.017523099301339187 0 0.048666934381570728 -0.020074349920737772 0 0.047439546365519933 -0.018398985165612496 0 0.048851621430261664 -0.017523099301339187 0 0.047903282036497401 -0.01701729475344925 0 0.057428716928226806 -0.019642290009455405 0 0.057688266347330833 -0.019533594957129728 0 0.057738894245850395 -0.01975825350455538 0 0.062503452539122525 -0.018488897140899362 0 0.056884009066325014 -0.018920582763571489 0 0.057428716928226806 -0.019642290009455405 0 0.057738894245850395 -0.01975825350455538 0 0.057402081623968593 -0.019922339214483848 0 0.072722122443552098 -0.017852221614060498 0 0.075201806001572294 -0.016487258209811641 0 0.072282045372079731 -0.016122122710339422 0 0.048811590876379075 -0.020005125662509074 0 0.048610146479978682 -0.022018302442410077 0 0.047168938243384514 -0.022156124362666119 0 0.053064392986897961 -0.019717694380189946 0 0.050790165311264471 -0.021538533266819468 0 0.053064392986897961 -0.019717694380189946 0 0.056884009066325014 -0.018920582763571489 0 0.048666934381570728 -0.020074349920737772 0 0.047168938243384514 -0.022156124362666119 0 0.046520632488112744 -0.020292344487018936 0 0.047168938243384514 -0.022156124362666119 0 0.045654057289885343 -0.021975085976037492 0 0.046520632488112744 -0.020292344487018936 0 0.044561794873133179 -0.020722961902903011 0 0.045654057289885343 -0.021975085976037492 0 0.043916441147156086 -0.022904623407891348 0 0.044561794873133179 -0.020722961902903011 0 0.045654057289885343 -0.021975085976037492 0 0.046520632488112744 -0.020292344487018936 0 0.045495139631615222 -0.018437860220675392 0 0.044561794873133179 -0.020722961902903011 0 0.043161012026573617 -0.018861732825689287 0 0.045495139631615222 -0.018437860220675392 0 0.044561794873133179 -0.020722961902903011 0 0.046520632488112744 -0.020292344487018936 0 0.047439546365519933 -0.018398985165612496 0 0.048666934381570728 -0.020074349920737772 0 0.046520632488112744 -0.020292344487018936 0 0.042527621034358143 -0.021025641253003831 0 0.040275266311815355 -0.021320484830496235 0 0.04029450488651138 -0.019049109118334552 0 0.042527621034358143 -0.021025641253003831 0 0.04029450488651138 -0.019049109118334552 0 0.043161012026573617 -0.018861732825689287 0 0.044561794873133179 -0.020722961902903011 0 0.042527621034358143 -0.021025641253003831 0 0.043161012026573617 -0.018861732825689287 0 0.044561794873133179 -0.020722961902903011 0 0.042527621034358143 -0.021025641253003831 0 0.043916441147156086 -0.022904623407891348 0 0.042527621034358143 -0.021025641253003831 0 0.040275266311815355 -0.021320484830496235 0 0.041655422276830258 -0.023205669088592822 0 0.040275266311815355 -0.021320484830496235 0 0.038090467596570858 -0.022148231370017504 0 0.039757598219019759 -0.023171526524544232 0 0.040275266311815355 -0.021320484830496235 0 0.038090467596570858 -0.022148231370017504 0 0.037396067430462553 -0.019283753799536792 0 0.038090467596570858 -0.022148231370017504 0 0.037396067430462553 -0.019283753799536792 0 0.036162279572197711 -0.021470294624710163 0 0.040275266311815355 -0.021320484830496235 0 0.037396067430462553 -0.019283753799536792 0 0.04029450488651138 -0.019049109118334552 0 0.04029450488651138 -0.019049109118334552 0 0.038416456716348121 -0.016841744867107312 0 0.041689883931960901 -0.016310516097041126 0 0.037396067430462553 -0.019283753799536792 0 0.038416456716348121 -0.016841744867107312 0 0.035246369120346635 -0.016931572045335769 0 0.037396067430462553 -0.019283753799536792 0 0.04029450488651138 -0.019049109118334552 0 0.038416456716348121 -0.016841744867107312 0 0.038416456716348121 -0.016841744867107312 0 0.039186249925967712 -0.014518402641394099 0 0.035941477781341366 -0.013990512882720636 0 0.038416456716348121 -0.016841744867107312 0 0.041689883931960901 -0.016310516097041126 0 0.039186249925967712 -0.014518402641394099 0 0.04029450488651138 -0.019049109118334552 0 0.042022606485882574 -0.016910530043216663 0 0.043161012026573617 -0.018861732825689287 0 0.041179324969935246 -0.017705108488964484 0 0.041934857048756567 -0.016456851751206474 0 0.042022606485882574 -0.016910530043216663 0 0.043161012026573617 -0.018861732825689287 0 0.043945358964782195 -0.01722922605896611 0 0.045495139631615222 -0.018437860220675392 0 0.043161012026573617 -0.018861732825689287 0 0.043945358964782195 -0.01722922605896611 0 0.045310545459320603 -0.015998818504006442 0 0.043945358964782195 -0.01722922605896611 0 0.043384253043334771 -0.0146414010617102 0 0.042022606485882574 -0.016910530043216663 0 0.043945358964782195 -0.01722922605896611 0 0.043384253043334771 -0.0146414010617102 0 0.041934857048756567 -0.016456851751206474 0 0.043193329924257347 -0.014361528000114867 0 0.041689883931960901 -0.016310516097041126 0 0.041154109481252921 -0.013635036976976355 0 0.039186249925967712 -0.014518402641394099 0 0.041689883931960901 -0.016310516097041126 0 0.043172086810033788 -0.013892547023151333 0 0.041154109481252921 -0.013635036976976355 0 0.043172086810033788 -0.013892547023151333 0 0.041154109481252921 -0.013635036976976355 0 0.041884270948316066 -0.011143833539511875 0 0.041154109481252921 -0.013635036976976355 0 0.041884270948316066 -0.011143833539511875 0 0.039816781634276217 -0.012317263593636179 0 0.043964259931562596 -0.013067243616015776 0 0.043193329924257347 -0.014361528000114867 0 0.044836623689802166 -0.011605008264169029 0 0.043172086810033788 -0.013892547023151333 0 0.041884270948316066 -0.011143833539511875 0 0.044836623689802166 -0.011605008264169029 0 0.041884270948316066 -0.011143833539511875 0 0.044040101880613386 -0.0097736118928037422 0 0.040667490184688307 -0.0078649379778599812 0 0.041884270948316066 -0.011143833539511875 0 0.042734714479066349 -0.0084973048667888705 0 0.041884270948316066 -0.011143833539511875 0 0.042734714479066349 -0.0084973048667888705 0 0.044040101880613386 -0.0097736118928037422 0 0.044221838765499365 -0.007759487595963877 0 0.042734714479066349 -0.0084973048667888705 0 0.044040101880613386 -0.0097736118928037422 0 0.036783535912470272 -0.0091016892115983964 0 0.037873892582349668 -0.01094119215842599 0 0.035336373534330209 -0.010770295906010786 0 0.040667490184688307 -0.0078649379778599812 0 0.041884270948316066 -0.011143833539511875 0 0.039174217761167709 -0.0099607294016771045 0 0.043847098788463233 -0.015312957920753248 0 0.041295987124146248 -0.013226412008093952 0 0.036783535912470272 -0.0091016892115983964 0 0.038916840052861723 -0.0094439767577956385 0 0.037873892582349668 -0.01094119215842599 0 0.039174217761167709 -0.0099607294016771045 0 0.037640976231986319 -0.011939791148748132 0 0.039816781634276217 -0.012317263593636179 0 0.041884270948316066 -0.011143833539511875 0 0.039174217761167709 -0.0099607294016771045 0 0.039816781634276217 -0.012317263593636179 0 0.037873892582349668 -0.01094119215842599 0 0.036846103800416093 -0.012463181120704022 0 0.035336373534330209 -0.010770295906010786 0 0.041295987124146248 -0.013226412008093952 0 0.039269601002061283 -0.013466554744479312 0 0.037640976231986319 -0.011939791148748132 0 0.039816781634276217 -0.012317263593636179 0 0.039186249925967712 -0.014518402641394099 0 0.041154109481252921 -0.013635036976976355 0 0.039816781634276217 -0.012317263593636179 0 0.039186249925967712 -0.014518402641394099 0 0.037640976231986319 -0.011939791148748132 0 0.039186249925967712 -0.014518402641394099 0 0.035941477781341366 -0.013990512882720636 0 0.035941477781341366 -0.013990512882720636 0 0.033094756371456174 -0.013392817273090288 0 0.033900584749584552 -0.015060630117446901 0 0.035941477781341366 -0.013990512882720636 0 0.034879407600051315 -0.012421360319972556 0 0.033094756371456174 -0.013392817273090288 0 0.036846103800416093 -0.012463181120704022 0 0.035941477781341366 -0.013990512882720636 0 0.034879407600051315 -0.012421360319972556 0 0.039269601002061283 -0.013466554744479312 0 0.038384543809606021 -0.013959480575935625 0 0.036846103800416093 -0.012463181120704022 0 0.034879407600051315 -0.012421360319972556 0 0.035336373534330209 -0.010770295906010786 0 0.034879407600051315 -0.012421360319972556 0 0.035336373534330209 -0.010770295906010786 0 0.033039495200985168 -0.011896657110286682 0 0.034502759458208854 -0.0086361617227713478 0 0.035336373534330209 -0.010770295906010786 0 0.032887205715202636 -0.01008390078429797 0 0.035336373534330209 -0.010770295906010786 0 0.032887205715202636 -0.01008390078429797 0 0.033039495200985168 -0.011896657110286682 0 0.030897814604647297 -0.010360742026974701 0 0.030931494222552456 -0.011068878952896656 0 0.031821647995100573 -0.010938316543809239 0 0.030931494222552456 -0.011068878952896656 0 0.031821647995100573 -0.010938316543809239 0 0.031159622302964308 -0.011766486940622453 0 0.033947800674763239 -0.012393007945849747 0 0.033121180250904242 -0.012441759979188628 0 0.032887205715202636 -0.01008390078429797 0 0.033039495200985168 -0.011896657110286682 0 0.031159622302964308 -0.011766486940622453 0 0.033039495200985168 -0.011896657110286682 0 0.031159622302964308 -0.011766486940622453 0 0.030882426774402085 -0.012838292861361884 0 0.033094756371456174 -0.013392817273090288 0 0.031612882530483444 -0.014233935566992977 0 0.030912920295328609 -0.012628733792042298 0 0.031775518759044608 -0.013029268760241883 0 0.030829491479836026 -0.012749949713564015 0 0.033039495200985168 -0.011896657110286682 0 0.033094756371456174 -0.013392817273090288 0 0.030882426774402085 -0.012838292861361884 0 0.034879407600051315 -0.012421360319972556 0 0.033039495200985168 -0.011896657110286682 0 0.033094756371456174 -0.013392817273090288 0 0.033094756371456174 -0.013392817273090288 0 0.031612882530483444 -0.014233935566992977 0 0.033900584749584552 -0.015060630117446901 0 0.031612882530483444 -0.014233935566992977 0 0.032201660031379725 -0.016565782181241065 0 0.029782915080496748 -0.014524386698970425 0 0.031612882530483444 -0.014233935566992977 0 0.032201660031379725 -0.016565782181241065 0 0.033900584749584552 -0.015060630117446901 0 0.032201660031379725 -0.016565782181241065 0 0.035246369120346635 -0.016931572045335769 0 0.033766658095148998 -0.018429236710658315 0 0.032201660031379725 -0.016565782181241065 0 0.033900584749584552 -0.015060630117446901 0 0.035246369120346635 -0.016931572045335769 0 0.035941477781341366 -0.013990512882720636 0 0.033900584749584552 -0.015060630117446901 0 0.035246369120346635 -0.016931572045335769 0 0.038416456716348121 -0.016841744867107312 0 0.035941477781341366 -0.013990512882720636 0 0.035246369120346635 -0.016931572045335769 0 0.035249660696023401 -0.018141892101482645 0 0.035139498108639373 -0.018875049912971634 0 0.037396067430462553 -0.019283753799536792 0 0.035246369120346635 -0.016931572045335769 0 0.033653550026390013 -0.020285835004468591 0 0.037396067430462553 -0.019283753799536792 0 0.033653550026390013 -0.020285835004468591 0 0.036162279572197711 -0.021470294624710163 0 0.038090467596570858 -0.022148231370017504 0 0.036162279572197711 -0.021470294624710163 0 0.036645760813623592 -0.023185250119808983 0 0.033653550026390013 -0.020285835004468591 0 0.036162279572197711 -0.021470294624710163 0 0.034867199279565823 -0.022827062919905428 0 0.033653550026390013 -0.020285835004468591 0 0.033502370550202207 -0.022890183601468182 0 0.034867199279565823 -0.022827062919905428 0 0.033653550026390013 -0.020285835004468591 0 0.032079035837036744 -0.023376260214924272 0 0.033502370550202207 -0.022890183601468182 0 0.035139498108639373 -0.018875049912971634 0 0.038032376713295929 -0.015665404868592345 0 0.031587557000151402 -0.019099644532874462 0 0.032332526028424326 -0.018291970674543218 0 0.032527564559449766 -0.020168997522223668 0 0.033766658095148998 -0.018429236710658315 0 0.032332526028424326 -0.018291970674543218 0 0.032527564559449766 -0.020168997522223668 0 0.031587557000151402 -0.019099644532874462 0 0.031083245894536687 -0.017995017163292746 0 0.032332526028424326 -0.018291970674543218 0 0.031587557000151402 -0.019099644532874462 0 0.031083245894536687 -0.017995017163292746 0 0.030633696912180021 -0.019165843056566344 0 0.032201660031379725 -0.016565782181241065 0 0.031083245894536687 -0.017995017163292746 0 0.032332526028424326 -0.018291970674543218 0 0.032201660031379725 -0.016565782181241065 0 0.033766658095148998 -0.018429236710658315 0 0.032332526028424326 -0.018291970674543218 0 0.032959712535960958 -0.01824485083278932 0 0.032689884725908114 -0.018509961881396059 0 0.032939398691089618 -0.019426613518452249 0 0.032461448232006959 -0.018871247843511418 0 0.032620839115844368 -0.018136905450166631 0 0.031594975819853002 -0.019409840819892759 0 0.032516720832788802 -0.017714356678312383 0 0.032620839115844368 -0.018136905450166631 0 0.031594975819853002 -0.019409840819892759 0 0.032461448232006959 -0.018871247843511418 0 0.032939398691089618 -0.019426613518452249 0 0.031594975819853002 -0.019409840819892759 0 0.032689884725908114 -0.018509961881396059 0 0.032461448232006959 -0.018871247843511418 0 0.032620839115844368 -0.018136905450166631 0 0.041950569669871152 -0.011843210154730378 0 0.041670217384355709 -0.011847022941323176 0 0.032959712535960958 -0.01824485083278932 0 0.032689884725908114 -0.018509961881396059 0 0.032620839115844368 -0.018136905450166631 0 0.032689884725908114 -0.018509961881396059 0 0.032461448232006959 -0.018871247843511418 0 0.032939398691089618 -0.019426613518452249 0 0.038032376713295929 -0.015665404868592345 0 0.033523017452748188 -0.020007372241713658 0 0.030991946497409842 -0.019820631962199898 0 0.031952008126280927 -0.019607621472348322 0 0.031278415011415733 -0.020739223507470837 0 0.030991946497409842 -0.019820631962199898 0 0.031330150666023071 -0.019438952238305138 0 0.031952008126280927 -0.019607621472348322 0 0.031587557000151402 -0.019099644532874462 0 0.031330150666023071 -0.019438952238305138 0 0.030633696912180021 -0.019165843056566344 0 0.030991946497409842 -0.019820631962199898 0 0.031330150666023071 -0.019438952238305138 0 0.030633696912180021 -0.019165843056566344 0 0.031587557000151402 -0.019099644532874462 0 0.031330150666023071 -0.019438952238305138 0 0.031952008126280927 -0.019607621472348322 0 0.037120438339555466 -0.015828722570529218 0 0.038032376713295929 -0.015665404868592345 0 0.032815773539650317 -0.024236177441069037 0 0.032079035837036744 -0.023376260214924272 0 0.033502370550202207 -0.022890183601468182 0 0.03297627310478745 -0.018239179535486084 0 0.032516720832788802 -0.017714356678312383 0 0.032620839115844368 -0.018136905450166631 0 0.041950569669871152 -0.011843210154730378 0 0.038032376713295929 -0.015665404868592345 0 0.032815773539650317 -0.024236177441069037 0 0.034867199279565823 -0.022827062919905428 0 0.036033437382023831 -0.025208870411022436 0 0.032815773539650317 -0.024236177441069037 0 0.033502370550202207 -0.022890183601468182 0 0.034867199279565823 -0.022827062919905428 0 0.034867199279565823 -0.022827062919905428 0 0.036645760813623592 -0.023185250119808983 0 0.036033437382023831 -0.025208870411022436 0 0.036162279572197711 -0.021470294624710163 0 0.034867199279565823 -0.022827062919905428 0 0.036645760813623592 -0.023185250119808983 0 0.036645760813623592 -0.023185250119808983 0 0.036033437382023831 -0.025208870411022436 0 0.038059811697292396 -0.024269626029933419 0 0.032959712535960958 -0.01824485083278932 0 0.034169475136146793 -0.019691632061697488 0 0.032939398691089618 -0.019426613518452249 0 0.061308676716911946 0.0042630882257391808 0 0.062185419311046222 0.0040687242929315463 0 0.061920773724036836 0.0037249723373911506 0 0.041950569669871152 -0.011843210154730378 0 0.048101384060074123 -0.011331440405668936 0 0.041950569669871152 -0.011843210154730378 0 0.047704146829562456 -0.0085119341931098689 0 0.034169475136146793 -0.019691632061697488 0 0.033475049729565755 -0.020338530346627994 0 0.032939398691089618 -0.019426613518452249 0 0.034169475136146793 -0.019691632061697488 0 0.034473023062804219 -0.02080931118213911 0 0.034081249780329025 -0.020451378410684298 0 0.034169475136146793 -0.019691632061697488 0 0.033475049729565755 -0.020338530346627994 0 0.034081249780329025 -0.020451378410684298 0 0.061920773724036836 0.0037249723373911506 0 0.062428593900858517 0.0037546388883355759 0 0.06238328576158203 0.0036081281817836419 0 0.047704146829562456 -0.0085119341931098689 0 0.053713352365425591 -0.0060531372802389459 0 0.062185419311046222 0.0040687242929315463 0 0.061920773724036836 0.0037249723373911506 0 0.062428593900858517 0.0037546388883355759 0 0.061920773724036836 0.0037249723373911506 0 0.06238328576158203 0.0036081281817836419 0 0.062479584795190002 0.003372566589589769 0 0.061920773724036836 0.0037249723373911506 0 0.062481181247078695 0.0033377465268919163 0 0.062479584795190002 0.003372566589589769 0 0.034169475136146793 -0.019691632061697488 0 0.034473023062804219 -0.02080931118213911 0 0.035361541682901551 -0.021088814180369331 0 0.034473023062804219 -0.02080931118213911 0 0.034338396636228008 -0.02139303249321366 0 0.034779780320368874 -0.021400321878180455 0 0.034473023062804219 -0.02080931118213911 0 0.034779780320368874 -0.021400321878180455 0 0.035361541682901551 -0.021088814180369331 0 0.053713352365425591 -0.0060531372802389459 0 0.053723407997269705 -0.0060162889501350581 0 0.033475049729565755 -0.020338530346627994 0 0.033972321960235981 -0.020956526586459273 0 0.033175368303963261 -0.02119042773392275 0 0.033475049729565755 -0.020338530346627994 0 0.034081249780329025 -0.020451378410684298 0 0.033972321960235981 -0.020956526586459273 0 0.034473023062804219 -0.02080931118213911 0 0.034081249780329025 -0.020451378410684298 0 0.033972321960235981 -0.020956526586459273 0 0.034338396636228008 -0.02139303249321366 0 0.033972321960235981 -0.020956526586459273 0 0.033847069163084643 -0.021710092760766294 0 0.034473023062804219 -0.02080931118213911 0 0.034338396636228008 -0.02139303249321366 0 0.033972321960235981 -0.020956526586459273 0 0.033972321960235981 -0.020956526586459273 0 0.033175368303963261 -0.02119042773392275 0 0.033847069163084643 -0.021710092760766294 0 0.033475049729565755 -0.020338530346627994 0 0.032352673215798676 -0.020519199434496257 0 0.033175368303963261 -0.02119042773392275 0 0.032352673215798676 -0.020519199434496257 0 0.033175368303963261 -0.02119042773392275 0 0.032176207878656743 -0.021742189222413364 0 0.033475049729565755 -0.020338530346627994 0 0.032352673215798676 -0.020519199434496257 0 0.032939398691089618 -0.019426613518452249 0 0.032352673215798676 -0.020519199434496257 0 0.032939398691089618 -0.019426613518452249 0 0.031594975819853002 -0.019409840819892759 0 0.033523017452748188 -0.020007372241713658 0 0.031706891336036637 -0.021649422831352478 0 0.032352673215798676 -0.020519199434496257 0 0.031594975819853002 -0.019409840819892759 0 0.030695107749072727 -0.021133318190878755 0 0.032352673215798676 -0.020519199434496257 0 0.032176207878656743 -0.021742189222413364 0 0.030695107749072727 -0.021133318190878755 0 0.031287699590506077 -0.022679534940307441 0 0.032176207878656743 -0.021742189222413364 0 0.030695107749072727 -0.021133318190878755 0 0.031287699590506077 -0.022679534940307441 0 0.032176207878656743 -0.021742189222413364 0 0.032473264115747968 -0.022992934749939645 0 0.033069023181288057 -0.022039779051391074 0 0.032176207878656743 -0.021742189222413364 0 0.032473264115747968 -0.022992934749939645 0 0.033069023181288057 -0.022039779051391074 0 0.032473264115747968 -0.022992934749939645 0 0.03380361729280288 -0.022777052722982992 0 0.033175368303963261 -0.02119042773392275 0 0.033069023181288057 -0.022039779051391074 0 0.032176207878656743 -0.021742189222413364 0 0.032473264115747968 -0.022992934749939645 0 0.03145044990907922 -0.023874999789601777 0 0.032462175366568286 -0.024077561072099442 0 0.032473264115747968 -0.022992934749939645 0 0.032462175366568286 -0.024077561072099442 0 0.033243261239869142 -0.023697206904478147 0 0.031287699590506077 -0.022679534940307441 0 0.032473264115747968 -0.022992934749939645 0 0.03145044990907922 -0.023874999789601777 0 0.031287699590506077 -0.022679534940307441 0 0.03145044990907922 -0.023874999789601777 0 0.03058358385271872 -0.023636646812604443 0 0.03145044990907922 -0.023874999789601777 0 0.031660301853907113 -0.024425377016437138 0 0.030599768252301009 -0.024182042584486318 0 0.033743432263603462 -0.013329889485406825 0 0.032786115146421956 -0.015033748165906987 0 0.03145044990907922 -0.023874999789601777 0 0.032462175366568286 -0.024077561072099442 0 0.031840097189825757 -0.024821919758366191 0 0.03418717461707084 -0.015716041488887257 0 0.033743432263603462 -0.013329889485406825 0 0.032462175366568286 -0.024077561072099442 0 0.033471097781027581 -0.024998433616699695 0 0.033243261239869142 -0.023697206904478147 0 0.032462175366568286 -0.024077561072099442 0 0.031840097189825757 -0.024821919758366191 0 0.033471097781027581 -0.024998433616699695 0 0.027065242751127042 0.0045042865110992763 0 0.023102955940013877 0.008343455028527489 0 0.029420024476613807 0.0075968313022913422 0 0.033743432263603462 -0.013329889485406825 0 0.035016281905658676 -0.0091079208058622435 0 0.030411033820654139 -0.022497986739279174 0 0.03017656747996381 -0.02375920111932658 0 0.029697304477974064 -0.021180549147821248 0 0.027065242751127042 0.0045042865110992763 0 0.023102955940013877 0.008343455028527489 0 0.025687999182170383 0.0010833620130145164 0 0.033743432263603462 -0.013329889485406825 0 0.030469311484592882 -0.011019861912964685 0 0.030603599821577641 -0.023504925220735485 0 0.03017656747996381 -0.02375920111932658 0 0.030599768252301009 -0.024182042584486318 0 0.030411033820654139 -0.022497986739279174 0 0.030603599821577641 -0.023504925220735485 0 0.030790825621447967 -0.0222350568459522 0 0.030411033820654139 -0.022497986739279174 0 0.030603599821577641 -0.023504925220735485 0 0.03017656747996381 -0.02375920111932658 0 0.035961819187027858 0.0067616898888089088 0 0.029420024476613807 0.0075968313022913422 0 0.03269236466424752 0.00299589664327115 0 0.044253256463553353 -0.005890273205722189 0 0.035016281905658676 -0.0091079208058622435 0 0.029420024476613807 0.0075968313022913422 0 0.029517370574520137 0.0034317880980826074 0 0.03269236466424752 0.00299589664327115 0 0.027065242751127042 0.0045042865110992763 0 0.029420024476613807 0.0075968313022913422 0 0.029517370574520137 0.0034317880980826074 0 0.035057594846522495 -0.02516036613335472 0 0.033471097781027581 -0.024998433616699695 0 0.034155692306211606 -0.023953079704827743 0 0.033471097781027581 -0.024998433616699695 0 0.033243261239869142 -0.023697206904478147 0 0.034155692306211606 -0.023953079704827743 0 0.035057594846522495 -0.02516036613335472 0 0.034155692306211606 -0.023953079704827743 0 0.035194687620358898 -0.023135397605174489 0 0.044253256463553353 -0.005890273205722189 0 0.048632345324438928 -0.0089407210331838693 0 0.034155692306211606 -0.023953079704827743 0 0.035194687620358898 -0.023135397605174489 0 0.03380361729280288 -0.022777052722982992 0 0.035194687620358898 -0.023135397605174489 0 0.03380361729280288 -0.022777052722982992 0 0.034618196498674758 -0.022082747107694443 0 0.033243261239869142 -0.023697206904478147 0 0.034155692306211606 -0.023953079704827743 0 0.03380361729280288 -0.022777052722982992 0 0.032473264115747968 -0.022992934749939645 0 0.033243261239869142 -0.023697206904478147 0 0.03380361729280288 -0.022777052722982992 0 0.033069023181288057 -0.022039779051391074 0 0.03380361729280288 -0.022777052722982992 0 0.033847069163084643 -0.021710092760766294 0 0.03380361729280288 -0.022777052722982992 0 0.033847069163084643 -0.021710092760766294 0 0.034618196498674758 -0.022082747107694443 0 0.034338396636228008 -0.02139303249321366 0 0.033847069163084643 -0.021710092760766294 0 0.034618196498674758 -0.022082747107694443 0 0.033175368303963261 -0.02119042773392275 0 0.033069023181288057 -0.022039779051391074 0 0.033847069163084643 -0.021710092760766294 0 0.053713352365425591 -0.0060531372802389459 0 0.048632345324438928 -0.0089407210331838693 0 0.035361541682901551 -0.021088814180369331 0 0.035194687620358898 -0.023135397605174489 0 0.034618196498674758 -0.022082747107694443 0 0.034338396636228008 -0.02139303249321366 0 0.034779780320368874 -0.021400321878180455 0 0.034618196498674758 -0.022082747107694443 0 0.034779780320368874 -0.021400321878180455 0 0.035361541682901551 -0.021088814180369331 0 0.034618196498674758 -0.022082747107694443 0 0.061264222825619385 0.0049216989384934786 0 0.061135307941762175 0.0030435558397223575 0 0.062075386838481433 0.0040235536245730973 0 0.053713352365425591 -0.0060531372802389459 0 0.056054029605289504 -0.0027327569300872271 0 0.063084740774374523 0.0033029336523726538 0 0.063240258133964056 0.0033227689954618577 0 0.063201594280469134 0.0033949983532199678 0 0.062817970235018394 0.0031991426456709493 0 0.063084740774374523 0.0033029336523726538 0 0.06281394233144412 0.0033930008104478739 0 0.062817970235018394 0.0031991426456709493 0 0.063084740774374523 0.0033029336523726538 0 0.063109599939943931 0.003224890997184612 0 0.062817970235018394 0.0031991426456709493 0 0.063109599939943931 0.003224890997184612 0 0.062986211380643392 0.0030716199171232274 0 0.063084740774374523 0.0033029336523726538 0 0.063109599939943931 0.003224890997184612 0 0.063306000074641766 0.0032728497475779947 0 0.063109599939943931 0.003224890997184612 0 0.062986211380643392 0.0030716199171232274 0 0.063428341450056977 0.0032369163480525619 0 0.062075386838481433 0.0040235536245730973 0 0.062986211380643392 0.0030716199171232274 0 0.062077174473018693 0.0030841412445971376 0 0.056054029605289504 -0.0027327569300872271 0 0.056928207527600458 -0.001914882596130344 0 0.062986211380643392 0.0030716199171232274 0 0.062077174473018693 0.0030841412445971376 0 0.062991604553988487 0.002313134002285513 0 0.062986211380643392 0.0030716199171232274 0 0.062991604553988487 0.002313134002285513 0 0.063502170549061696 0.002836826329542348 0 0.061135307941762175 0.0030435558397223575 0 0.062075386838481433 0.0040235536245730973 0 0.062077174473018693 0.0030841412445971376 0 0.061135307941762175 0.0030435558397223575 0 0.062077174473018693 0.0030841412445971376 0 0.061916076110217856 0.0021329383728875468 0 0.060946394692125198 0.0011718668223879157 0 0.061135307941762175 0.0030435558397223575 0 0.061916076110217856 0.0021329383728875468 0 0.061916076110217856 0.0021329383728875468 0 0.062991604553988487 0.002313134002285513 0 0.062583040215383259 0.00088716906155793121 0 0.062077174473018693 0.0030841412445971376 0 0.061916076110217856 0.0021329383728875468 0 0.062991604553988487 0.002313134002285513 0 0.062583040215383259 0.00088716906155793121 0 0.064006399896205352 0.0010870977784678216 0 0.063664213835624414 -0.0011139184886633086 0 0.062991604553988487 0.002313134002285513 0 0.062583040215383259 0.00088716906155793121 0 0.064006399896205352 0.0010870977784678216 0 0.058037892380863071 0.0015066573190794874 0 0.062583040215383259 0.00088716906155793121 0 0.060563774042634105 -0.001476847105708049 0 0.044253256463553353 -0.005890273205722189 0 0.055228048969480463 -0.0050424349639095574 0 0.060946394692125198 0.0011718668223879157 0 0.061916076110217856 0.0021329383728875468 0 0.062583040215383259 0.00088716906155793121 0 0.067750165782153454 0.0016678043817129652 0 0.069950658460081083 0.0024577211279637134 0 0.067469930187822796 -0.00062177695222125995 0 0.067750165782153454 0.0016678043817129652 0 0.065820696485616267 0.0045921587119474704 0 0.069950658460081083 0.0024577211279637134 0 0.070419605932605905 0.00092750261658029395 0 0.069618399584185697 0.00025271661034448437 0 0.064006399896205352 0.0010870977784678216 0 0.064392398832930117 0.002061224810467156 0 0.06571050036485622 -9.2572347789860666e-05 0 0.065592497030115549 0.0027080565140769502 0 0.065599228139866406 0.0015674349451028414 0 0.067750165782153454 0.0016678043817129652 0 0.065820696485616267 0.0045921587119474704 0 0.06571050036485622 -9.2572347789860666e-05 0 0.062991604553988487 0.002313134002285513 0 0.064392398832930117 0.002061224810467156 0 0.063502170549061696 0.002836826329542348 0 0.062991604553988487 0.002313134002285513 0 0.064006399896205352 0.0010870977784678216 0 0.064392398832930117 0.002061224810467156 0 0.065820696485616267 0.0045921587119474704 0 0.06914447750156652 0.0073023022873425882 0 0.069950658460081083 0.0024577211279637134 0 0.065820696485616267 0.0045921587119474704 0 0.06914447750156652 0.0073023022873425882 0 0.065715802498194115 0.0089781289189440078 0 0.064610892932655109 0.00058659785702735469 0 0.064255662834996771 0.0015182195910136134 0 0.065268354309228588 0.0020359875074977521 0 0.067415011254620044 0.0024536212497629859 0 0.065807102835731338 0.0032587675976467334 0 0.064610892932655109 0.00058659785702735469 0 0.063305714244130409 0.001237761723770682 0 0.064255662834996771 0.0015182195910136134 0 0.065592497030115549 0.0027080565140769502 0 0.065807102835731338 0.0032587675976467334 0 0.064392398832930117 0.002061224810467156 0 0.063502170549061696 0.002836826329542348 0 0.063765404594187031 0.0031930383140791694 0 0.065807102835731338 0.0032587675976467334 0 0.065700559271585288 0.0032938861452702925 0 0.062986211380643392 0.0030716199171232274 0 0.063502170549061696 0.002836826329542348 0 0.063428341450056977 0.0032369163480525619 0 0.063502170549061696 0.002836826329542348 0 0.063765404594187031 0.0031930383140791694 0 0.063428341450056977 0.0032369163480525619 0 0.063455686917751927 0.0032081885874572754 0 0.063306000074641766 0.0032728497475779947 0 0.06332998682584956 0.0033200954331696498 0 0.063305714244130409 0.001237761723770682 0 0.063298809600349948 0.0024339395965105432 0 0.063703407045465427 0.0018621382271095479 0 0.065807102835731338 0.0032587675976467334 0 0.065180529380224519 0.0030872959485511186 0 0.063455686917751927 0.0032081885874572754 0 0.063428341450056977 0.0032369163480525619 0 0.063306000074641766 0.0032728497475779947 0 0.063109599939943931 0.003224890997184612 0 0.063428341450056977 0.0032369163480525619 0 0.063306000074641766 0.0032728497475779947 0 0.063298809600349948 0.0024339395965105432 0 0.063703407045465427 0.0018621382271095479 0 0.063681335717100496 0.0023499398280348738 0 0.063084740774374523 0.0033029336523726538 0 0.063306000074641766 0.0032728497475779947 0 0.063240258133964056 0.0033227689954618577 0 0.063306000074641766 0.0032728497475779947 0 0.06332998682584956 0.0033200954331696498 0 0.063240258133964056 0.0033227689954618577 0 0.064255662834996771 0.0015182195910136134 0 0.064062661479581035 0.0020184600018732274 0 0.064521967226763108 0.0022969271591975213 0 0.064255662834996771 0.0015182195910136134 0 0.064521967226763108 0.0022969271591975213 0 0.065268354309228588 0.0020359875074977521 0 0.063305714244130409 0.001237761723770682 0 0.064255662834996771 0.0015182195910136134 0 0.063703407045465427 0.0018621382271095479 0 0.064255662834996771 0.0015182195910136134 0 0.063703407045465427 0.0018621382271095479 0 0.064062661479581035 0.0020184600018732274 0 0.064062661479581035 0.0020184600018732274 0 0.063681335717100496 0.0023499398280348738 0 0.064521967226763108 0.0022969271591975213 0 0.063703407045465427 0.0018621382271095479 0 0.064062661479581035 0.0020184600018732274 0 0.063681335717100496 0.0023499398280348738 0 0.063681335717100496 0.0023499398280348738 0 0.064521967226763108 0.0022969271591975213 0 0.065338101429469206 0.0035529039635451187 0 0.063681335717100496 0.0023499398280348738 0 0.063735869068807793 0.00309291113920662 0 0.064874642216454712 0.0033493218125159236 0 0.063735869068807793 0.00309291113920662 0 0.063450250852016332 0.0037247490562749308 0 0.064874642216454712 0.0033493218125159236 0 0.065079384682664096 -0.0026797495627312699 0 0.061285680724298998 -0.0079027068713028812 0 0.042343645187572838 -0.026984306152662587 0 0.044728543410431233 -0.026385483896928637 0 0.045429412830052147 -0.02789700223215422 0 0.054427022586035968 -0.0095709632040791998 0 0.061285680724298998 -0.0079027068713028812 0 0.043305311086231445 -0.025922559914953527 0 0.042343645187572838 -0.026984306152662587 0 0.044728543410431233 -0.026385483896928637 0 0.063450250852016332 0.0037247490562749308 0 0.063343113484450153 0.0034510474404332546 0 0.063067003009999067 0.0036088215922314374 0 0.042343645187572838 -0.026984306152662587 0 0.039236206915036348 -0.026116879525413944 0 0.041649627648708977 -0.025751371837536181 0 0.043305311086231445 -0.025922559914953527 0 0.042343645187572838 -0.026984306152662587 0 0.041649627648708977 -0.025751371837536181 0 0.063298809600349948 0.0024339395965105432 0 0.063735869068807793 0.00309291113920662 0 0.063343113484450153 0.0034510474404332546 0 0.063343113484450153 0.0034510474404332546 0 0.063201594280469134 0.0033949983532199678 0 0.063067003009999067 0.0036088215922314374 0 0.06332998682584956 0.0033200954331696498 0 0.063343113484450153 0.0034510474404332546 0 0.063201594280469134 0.0033949983532199678 0 0.065180529380224519 0.0030872959485511186 0 0.064984648451334837 0.0031524562776754053 0 0.063735869068807793 0.00309291113920662 0 0.063450250852016332 0.0037247490562749308 0 0.063343113484450153 0.0034510474404332546 0 0.063298809600349948 0.0024339395965105432 0 0.063681335717100496 0.0023499398280348738 0 0.063735869068807793 0.00309291113920662 0 0.06332998682584956 0.0033200954331696498 0 0.063240258133964056 0.0033227689954618577 0 0.063201594280469134 0.0033949983532199678 0 0.06281394233144412 0.0033930008104478739 0 0.06267350408914274 0.0035790527691838222 0 0.063067003009999067 0.0036088215922314374 0 0.063201594280469134 0.0033949983532199678 0 0.06281394233144412 0.0033930008104478739 0 0.063067003009999067 0.0036088215922314374 0 0.063084740774374523 0.0033029336523726538 0 0.063201594280469134 0.0033949983532199678 0 0.06281394233144412 0.0033930008104478739 0 0.062485304411976902 0.0033486526695743267 0 0.062479584795190002 0.003372566589589769 0 0.06281394233144412 0.0033930008104478739 0 0.062485304411976902 0.0033486526695743267 0 0.062817970235018394 0.0031991426456709493 0 0.06281394233144412 0.0033930008104478739 0 0.06238328576158203 0.0036081281817836419 0 0.062479584795190002 0.003372566589589769 0 0.06267350408914274 0.0035790527691838222 0 0.062479584795190002 0.003372566589589769 0 0.06281394233144412 0.0033930008104478739 0 0.06267350408914274 0.0035790527691838222 0 0.062428593900858517 0.0037546388883355759 0 0.06267350408914274 0.0035790527691838222 0 0.062855454785835749 0.0038552476926277572 0 0.062185419311046222 0.0040687242929315463 0 0.062428593900858517 0.0037546388883355759 0 0.062855454785835749 0.0038552476926277572 0 0.062428593900858517 0.0037546388883355759 0 0.06238328576158203 0.0036081281817836419 0 0.06267350408914274 0.0035790527691838222 0 0.054427022586035968 -0.0095709632040791998 0 0.051186865634859934 -0.010615691073173658 0 0.06267350408914274 0.0035790527691838222 0 0.062855454785835749 0.0038552476926277572 0 0.063067003009999067 0.0036088215922314374 0 0.063450250852016332 0.0037247490562749308 0 0.062855454785835749 0.0038552476926277572 0 0.063067003009999067 0.0036088215922314374 0 0.039236206915036348 -0.026116879525413944 0 0.040560583850241229 -0.024660569022472156 0 0.041649627648708977 -0.025751371837536181 0 0.039236206915036348 -0.026116879525413944 0 0.040560583850241229 -0.024660569022472156 0 0.038059811697292396 -0.024269626029933419 0 0.048101384060074123 -0.011331440405668936 0 0.051186865634859934 -0.010615691073173658 0 0.036033437382023831 -0.025208870411022436 0 0.039236206915036348 -0.026116879525413944 0 0.038059811697292396 -0.024269626029933419 0 0.038090467596570858 -0.022148231370017504 0 0.036645760813623592 -0.023185250119808983 0 0.038059811697292396 -0.024269626029933419 0 0.038090467596570858 -0.022148231370017504 0 0.038059811697292396 -0.024269626029933419 0 0.039757598219019759 -0.023171526524544232 0 0.040275266311815355 -0.021320484830496235 0 0.039757598219019759 -0.023171526524544232 0 0.041655422276830258 -0.023205669088592822 0 0.040560583850241229 -0.024660569022472156 0 0.038059811697292396 -0.024269626029933419 0 0.039757598219019759 -0.023171526524544232 0 0.040560583850241229 -0.024660569022472156 0 0.039757598219019759 -0.023171526524544232 0 0.041655422276830258 -0.023205669088592822 0 0.041655422276830258 -0.023205669088592822 0 0.043916441147156086 -0.022904623407891348 0 0.042670406641001246 -0.0248301507986032 0 0.042527621034358143 -0.021025641253003831 0 0.041655422276830258 -0.023205669088592822 0 0.043916441147156086 -0.022904623407891348 0 0.043916441147156086 -0.022904623407891348 0 0.042670406641001246 -0.0248301507986032 0 0.044383971487371623 -0.025129390414353771 0 0.043305311086231445 -0.025922559914953527 0 0.044383971487371623 -0.025129390414353771 0 0.044728543410431233 -0.026385483896928637 0 0.043305311086231445 -0.025922559914953527 0 0.042670406641001246 -0.0248301507986032 0 0.044383971487371623 -0.025129390414353771 0 0.040560583850241229 -0.024660569022472156 0 0.042670406641001246 -0.0248301507986032 0 0.041649627648708977 -0.025751371837536181 0 0.043305311086231445 -0.025922559914953527 0 0.042670406641001246 -0.0248301507986032 0 0.041649627648708977 -0.025751371837536181 0 0.040560583850241229 -0.024660569022472156 0 0.041655422276830258 -0.023205669088592822 0 0.042670406641001246 -0.0248301507986032 0 0.04711258781227811 -0.025023419807893878 0 0.045822767624816824 -0.023531977387226 0 0.047889600436490119 -0.023633851767003642 0 0.04711258781227811 -0.025023419807893878 0 0.045870802308783619 -0.025713457102674406 0 0.045822767624816824 -0.023531977387226 0 0.04711258781227811 -0.025023419807893878 0 0.047889600436490119 -0.023633851767003642 0 0.048786207921984827 -0.025425542959342191 0 0.04711258781227811 -0.025023419807893878 0 0.048786207921984827 -0.025425542959342191 0 0.047072589387120764 -0.026672180174279945 0 0.04711258781227811 -0.025023419807893878 0 0.045870802308783619 -0.025713457102674406 0 0.047072589387120764 -0.026672180174279945 0 0.044383971487371623 -0.025129390414353771 0 0.045870802308783619 -0.025713457102674406 0 0.045822767624816824 -0.023531977387226 0 0.044383971487371623 -0.025129390414353771 0 0.045870802308783619 -0.025713457102674406 0 0.044728543410431233 -0.026385483896928637 0 0.043916441147156086 -0.022904623407891348 0 0.044383971487371623 -0.025129390414353771 0 0.045822767624816824 -0.023531977387226 0 0.045654057289885343 -0.021975085976037492 0 0.043916441147156086 -0.022904623407891348 0 0.045822767624816824 -0.023531977387226 0 0.047168938243384514 -0.022156124362666119 0 0.045654057289885343 -0.021975085976037492 0 0.045822767624816824 -0.023531977387226 0 0.056884009066325014 -0.018920582763571489 0 0.04968621758759624 -0.022316149840519047 0 0.048610146479978682 -0.022018302442410077 0 0.047168938243384514 -0.022156124362666119 0 0.045822767624816824 -0.023531977387226 0 0.049158107156207116 -0.021772022493273042 0 0.045822767624816824 -0.023531977387226 0 0.047889600436490119 -0.023633851767003642 0 0.049158107156207116 -0.021772022493273042 0 0.047889600436490119 -0.023633851767003642 0 0.048786207921984827 -0.025425542959342191 0 0.075201806001572294 -0.016487258209811641 0 0.07331879803047954 -0.014749782995075207 0 0.07546398617352619 -0.013098917299621112 0 0.056884009066325014 -0.018920582763571489 0 0.063853016335833693 -0.016552878243849652 0 0.075201806001572294 -0.016487258209811641 0 0.07331879803047954 -0.014749782995075207 0 0.072282045372079731 -0.016122122710339422 0 0.07331879803047954 -0.014749782995075207 0 0.074269907655172579 -0.012731939743953797 0 0.072743589732846406 -0.012822369145939958 0 0.07331879803047954 -0.014749782995075207 0 0.072743589732846406 -0.012822369145939958 0 0.072119506580005502 -0.013596246563540139 0 0.068815572225961102 -0.013871722450659145 0 0.063853016335833693 -0.016552878243849652 0 0.07331879803047954 -0.014749782995075207 0 0.074269907655172579 -0.012731939743953797 0 0.075725703271420294 -0.012873067021313965 0 0.074269907655172579 -0.012731939743953797 0 0.075725703271420294 -0.012873067021313965 0 0.075807859383143925 -0.011936357834804828 0 0.063853016335833693 -0.016552878243849652 0 0.06412654317058121 -0.016152637462706315 0 0.074269907655172579 -0.012731939743953797 0 0.075807859383143925 -0.011936357834804828 0 0.073797850735836737 -0.011260768889249503 0 0.075807859383143925 -0.011936357834804828 0 0.075987629253709749 -0.011110810357253399 0 0.073797850735836737 -0.011260768889249503 0 0.073714715421114588 -0.011221127709879234 0 0.07511808141443703 -0.010624964747183163 0 0.075987629253709749 -0.011110810357253399 0 0.073797850735836737 -0.011260768889249503 0 0.07683962627744699 -0.0098348244557695183 0 0.075717149433039907 -0.01287580629464948 0 0.075807859383143925 -0.011936357834804828 0 0.077515280416767668 -0.011421531599536147 0 0.074269907655172579 -0.012731939743953797 0 0.072743589732846406 -0.012822369145939958 0 0.073797850735836737 -0.011260768889249503 0 0.074166028249424157 -0.010875181894722551 0 0.072861819486773741 -0.010034917316383557 0 0.073753523675760185 -0.0095622033998890629 0 0.074166028249424157 -0.010875181894722551 0 0.072861819486773741 -0.010034917316383557 0 0.072378608124488403 -0.011036874599383035 0 0.072861819486773741 -0.010034917316383557 0 0.073753523675760185 -0.0095622033998890629 0 0.072928169247651733 -0.0089845802644222227 0 0.074166028249424157 -0.010875181894722551 0 0.073753523675760185 -0.0095622033998890629 0 0.074504909037636388 -0.0097311917309556139 0 0.074166028249424157 -0.010875181894722551 0 0.074504909037636388 -0.0097311917309556139 0 0.075385011346410333 -0.0096794040956742749 0 0.073753523675760185 -0.0095622033998890629 0 0.074342677654446965 -0.0092887929625473393 0 0.074171627974686155 -0.0087443987116652185 0 0.073753523675760185 -0.0095622033998890629 0 0.074504909037636388 -0.0097311917309556139 0 0.074342677654446965 -0.0092887929625473393 0 0.074504909037636388 -0.0097311917309556139 0 0.074342677654446965 -0.0092887929625473393 0 0.074883874715000409 -0.0091471648471465328 0 0.074464312573047323 -0.0088988011095678804 0 0.074453754001218189 -0.0084352761640682887 0 0.074883874715000409 -0.0091471648471465328 0 0.074342677654446965 -0.0092887929625473393 0 0.074464312573047323 -0.0088988011095678804 0 0.074171627974686155 -0.0087443987116652185 0 0.074342677654446965 -0.0092887929625473393 0 0.074464312573047323 -0.0088988011095678804 0 0.074883874715000409 -0.0091471648471465328 0 0.074464312573047323 -0.0088988011095678804 0 0.074453754001218189 -0.0084352761640682887 0 0.074171627974686155 -0.0087443987116652185 0 0.070550348760268278 -0.0031621876310007424 0 0.070553059639680893 -0.0032260034712154333 0 0.074171627974686155 -0.0087443987116652185 0 0.073543704419307201 -0.0086462632579172253 0 0.073909867619665462 -0.0080788776463712082 0 0.074555729175758492 -0.008301893245033826 0 0.074171627974686155 -0.0087443987116652185 0 0.073909867619665462 -0.0080788776463712082 0 0.070550348760268278 -0.0031621876310007424 0 0.070733100776192756 -0.0032593838856025165 0 0.073753523675760185 -0.0095622033998890629 0 0.074171627974686155 -0.0087443987116652185 0 0.073543704419307201 -0.0086462632579172253 0 0.073753523675760185 -0.0095622033998890629 0 0.073543704419307201 -0.0086462632579172253 0 0.072928169247651733 -0.0089845802644222227 0 0.073543704419307201 -0.0086462632579172253 0 0.073081184945360547 -0.0081150811926678189 0 0.073909867619665462 -0.0080788776463712082 0 0.073543704419307201 -0.0086462632579172253 0 0.073081184945360547 -0.0081150811926678189 0 0.072928169247651733 -0.0089845802644222227 0 0.074453754001218189 -0.0084352761640682887 0 0.074883874715000409 -0.0091471648471465328 0 0.076722860511887467 -0.0092427956828866984 0 0.075385011346410333 -0.0096794040956742749 0 0.074883874715000409 -0.0091471648471465328 0 0.076722860511887467 -0.0092427956828866984 0 0.068244427742747638 0.0026599468567974896 0 0.066794752015604919 0.0031066194704165002 0 0.067097986756506883 0.0023190213676535791 0 0.070550348760268278 -0.0031621876310007424 0 0.068403776239556943 -0.0055941215593565304 0 0.074166028249424157 -0.010875181894722551 0 0.075385011346410333 -0.0096794040956742749 0 0.07683962627744699 -0.0098348244557695183 0 0.075385011346410333 -0.0096794040956742749 0 0.076722860511887467 -0.0092427956828866984 0 0.07683962627744699 -0.0098348244557695183 0 0.074504909037636388 -0.0097311917309556139 0 0.075385011346410333 -0.0096794040956742749 0 0.074883874715000409 -0.0091471648471465328 0 0.066794752015604919 0.0031066194704165002 0 0.065919471689877107 0.0027237601389146905 0 0.065338101429469206 0.0035529039635451187 0 0.076722860511887467 -0.0092427956828866984 0 0.07683962627744699 -0.0098348244557695183 0 0.079241683379508113 -0.010019827092871272 0 0.068403776239556943 -0.0055941215593565304 0 0.061285680724298998 -0.0079027068713028812 0 0.066794752015604919 0.0031066194704165002 0 0.065919471689877107 0.0027237601389146905 0 0.066277668070486018 0.0021996341179818238 0 0.07683962627744699 -0.0098348244557695183 0 0.077515280416767668 -0.011421531599536147 0 0.079241683379508113 -0.010019827092871272 0 0.075987629253709749 -0.011110810357253399 0 0.07683962627744699 -0.0098348244557695183 0 0.077515280416767668 -0.011421531599536147 0 0.063853016335833693 -0.016552878243849652 0 0.061632019483179361 -0.013711023416709916 0 0.075807859383143925 -0.011936357834804828 0 0.075987629253709749 -0.011110810357253399 0 0.077515280416767668 -0.011421531599536147 0 0.047072589387120764 -0.026672180174279945 0 0.044728543410431233 -0.026385483896928637 0 0.045429412830052147 -0.02789700223215422 0 0.045870802308783619 -0.025713457102674406 0 0.047072589387120764 -0.026672180174279945 0 0.044728543410431233 -0.026385483896928637 0 0.061632019483179361 -0.013711023416709916 0 0.061285680724298998 -0.0079027068713028812 0 0.065919471689877107 0.0027237601389146905 0 0.065338101429469206 0.0035529039635451187 0 0.065268354309228588 0.0020359875074977521 0 0.064521967226763108 0.0022969271591975213 0 0.065338101429469206 0.0035529039635451187 0 0.065268354309228588 0.0020359875074977521 0 0.065919471689877107 0.0027237601389146905 0 0.065268354309228588 0.0020359875074977521 0 0.066277668070486018 0.0021996341179818238 0 0.065268354309228588 0.0020359875074977521 0 0.066277668070486018 0.0021996341179818238 0 0.065890300240976613 0.001166962034407506 0 0.066277668070486018 0.0021996341179818238 0 0.065890300240976613 0.001166962034407506 0 0.067074592967998128 0.0013094304221939598 0 0.066794752015604919 0.0031066194704165002 0 0.066277668070486018 0.0021996341179818238 0 0.067097986756506883 0.0023190213676535791 0 0.066277668070486018 0.0021996341179818238 0 0.067074592967998128 0.0013094304221939598 0 0.067097986756506883 0.0023190213676535791 0 0.070570614383650448 0.00046014730369630595 0 0.070963748835493154 -0.0014264701532606101 0 0.065890300240976613 0.001166962034407506 0 0.065909387154013399 -5.1354916585524802e-05 0 0.067074592967998128 0.0013094304221939598 0 0.064610892932655109 0.00058659785702735469 0 0.065268354309228588 0.0020359875074977521 0 0.065890300240976613 0.001166962034407506 0 0.064610892932655109 0.00058659785702735469 0 0.065890300240976613 0.001166962034407506 0 0.065909387154013399 -5.1354916585524802e-05 0 0.067415011254620044 0.0024536212497629859 0 0.070570614383650448 0.00046014730369630595 0 0.06914447750156652 0.0073023022873425882 0 0.072615100161355778 0.0055839382700887405 0 0.069950658460081083 0.0024577211279637134 0 0.070570614383650448 0.00046014730369630595 0 0.070419605932605905 0.00092750261658029395 0 0.070570614383650448 0.00046014730369630595 0 0.073344986072679877 -0.00026635595707871068 0 0.079255291878091508 -0.0028511532444282493 0 0.076312337775448394 -0.0013864939953327606 0 0.076916787131515271 -0.0056078600265176658 0 0.073967746938738227 0.001512569640728893 0 0.074273036613576468 0.0011990026081863982 0 0.074249222107942131 0.0010442310629162133 0 0.073632109132961795 0.0027557146735699934 0 0.073967746938738227 0.001512569640728893 0 0.074273036613576468 0.0011990026081863982 0 0.073632109132961795 0.0027557146735699934 0 0.073967746938738227 0.001512569640728893 0 0.071593077088947743 0.0021015584586261079 0 0.073967746938738227 0.001512569640728893 0 0.071593077088947743 0.0021015584586261079 0 0.07116034330012054 5.4647895870262062e-05 0 0.073348578174465329 -0.00015058186268313584 0 0.073344986072679877 -0.00026635595707871068 0 0.073130240835415916 0.00019633318891576075 0 0.076312337775448394 -0.0013864939953327606 0 0.07452426331576173 -0.0030311922845727216 0 0.073130240835415916 0.00019633318891576075 0 0.074273036613576468 0.0011990026081863982 0 0.074249222107942131 0.0010442310629162133 0 0.076312337775448394 -0.0013864939953327606 0 0.07452426331576173 -0.0030311922845727216 0 0.076916787131515271 -0.0056078600265176658 0 0.073130240835415916 0.00019633318891576075 0 0.07452426331576173 -0.0030311922845727216 0 0.072251986875674051 -0.0030772659784535509 0 0.07452426331576173 -0.0030311922845727216 0 0.073932007151794737 -0.0050633087162471569 0 0.072251986875674051 -0.0030772659784535509 0 0.073932007151794737 -0.0050633087162471569 0 0.072664568841872765 -0.0061380513397909682 0 0.072002467747120519 -0.0048735415137280292 0 0.07452426331576173 -0.0030311922845727216 0 0.073932007151794737 -0.0050633087162471569 0 0.076916787131515271 -0.0056078600265176658 0 0.073932007151794737 -0.0050633087162471569 0 0.076916787131515271 -0.0056078600265176658 0 0.074714749550122597 -0.0066305934686247429 0 0.068244427742747638 0.0026599468567974896 0 0.067074592967998128 0.0013094304221939598 0 0.067097986756506883 0.0023190213676535791 0 0.074603128401520349 -0.0082880112586580356 0 0.076916787131515271 -0.0056078600265176658 0 0.074714749550122597 -0.0066305934686247429 0 0.070550348760268278 -0.0031621876310007424 0 0.070963748835493154 -0.0014264701532606101 0 0.073606400422029247 -0.006914143939467334 0 0.072388411321725091 -0.0074104483306985242 0 0.072664568841872765 -0.0061380513397909682 0 0.073932007151794737 -0.0050633087162471569 0 0.073606400422029247 -0.006914143939467334 0 0.072664568841872765 -0.0061380513397909682 0 0.073932007151794737 -0.0050633087162471569 0 0.073606400422029247 -0.006914143939467334 0 0.074714749550122597 -0.0066305934686247429 0 0.073606400422029247 -0.006914143939467334 0 0.074714749550122597 -0.0066305934686247429 0 0.073909867619665462 -0.0080788776463712082 0 0.074603128401520349 -0.0082880112586580356 0 0.074714749550122597 -0.0066305934686247429 0 0.073909867619665462 -0.0080788776463712082 0 0.073081184945360547 -0.0081150811926678189 0 0.073606400422029247 -0.006914143939467334 0 0.073909867619665462 -0.0080788776463712082 0 0.073081184945360547 -0.0081150811926678189 0 0.073606400422029247 -0.006914143939467334 0 0.072388411321725091 -0.0074104483306985242 0 0.073081184945360547 -0.0081150811926678189 0 0.072388411321725091 -0.0074104483306985242 0 0.072254314041472409 -0.0084573924288334421 0 0.072388411321725091 -0.0074104483306985242 0 0.071231102600008839 -0.0080327229954850841 0 0.072254314041472409 -0.0084573924288334421 0 0.072388411321725091 -0.0074104483306985242 0 0.071231102600008839 -0.0080327229954850841 0 0.071422641087624153 -0.0064044986784661242 0 0.072388411321725091 -0.0074104483306985242 0 0.071422641087624153 -0.0064044986784661242 0 0.072664568841872765 -0.0061380513397909682 0 0.071231102600008839 -0.0080327229954850841 0 0.069606256929831661 -0.006416172356537856 0 0.069274938663327651 -0.0083044036523678214 0 0.071231102600008839 -0.0080327229954850841 0 0.071422641087624153 -0.0064044986784661242 0 0.069606256929831661 -0.006416172356537856 0 0.069606256929831661 -0.006416172356537856 0 0.070074414200985841 -0.0044538804842347785 0 0.067639786571343896 -0.0058997051940664442 0 0.071422641087624153 -0.0064044986784661242 0 0.069606256929831661 -0.006416172356537856 0 0.070074414200985841 -0.0044538804842347785 0 0.070074414200985841 -0.0044538804842347785 0 0.072002467747120519 -0.0048735415137280292 0 0.072251986875674051 -0.0030772659784535509 0 0.071422641087624153 -0.0064044986784661242 0 0.072664568841872765 -0.0061380513397909682 0 0.072002467747120519 -0.0048735415137280292 0 0.071422641087624153 -0.0064044986784661242 0 0.070074414200985841 -0.0044538804842347785 0 0.072002467747120519 -0.0048735415137280292 0 0.073932007151794737 -0.0050633087162471569 0 0.072002467747120519 -0.0048735415137280292 0 0.072251986875674051 -0.0030772659784535509 0 0.070074414200985841 -0.0044538804842347785 0 0.072251986875674051 -0.0030772659784535509 0 0.070402389806263455 -0.0019220609535458056 0 0.073130240835415916 0.00019633318891576075 0 0.072251986875674051 -0.0030772659784535509 0 0.070402389806263455 -0.0019220609535458056 0 0.070074414200985841 -0.0044538804842347785 0 0.070402389806263455 -0.0019220609535458056 0 0.067733701486214562 -0.0028243800069612389 0 0.070402389806263455 -0.0019220609535458056 0 0.069228128014245854 -0.00059239345188497571 0 0.070883754040595118 0.0011093768290107247 0 0.070402389806263455 -0.0019220609535458056 0 0.069228128014245854 -0.00059239345188497571 0 0.067733701486214562 -0.0028243800069612389 0 0.073130240835415916 0.00019633318891576075 0 0.070402389806263455 -0.0019220609535458056 0 0.070883754040595118 0.0011093768290107247 0 0.069228128014245854 -0.00059239345188497571 0 0.067733701486214562 -0.0028243800069612389 0 0.067698987788821635 0.0013240187481497784 0 0.067733701486214562 -0.0028243800069612389 0 0.064999879121408838 -0.0027854307604897235 0 0.067698987788821635 0.0013240187481497784 0 0.064999879121408838 -0.0027854307604897235 0 0.067698987788821635 0.0013240187481497784 0 0.064999888613006138 0.0011187210010135532 0 0.067733701486214562 -0.0028243800069612389 0 0.064999879121408838 -0.0027854307604897235 0 0.067639786571343896 -0.0058997051940664442 0 0.064999879121408838 -0.0027854307604897235 0 0.067639786571343896 -0.0058997051940664442 0 0.064999879214296369 -0.0066897871471370092 0 0.070074414200985841 -0.0044538804842347785 0 0.067733701486214562 -0.0028243800069612389 0 0.067639786571343896 -0.0058997051940664442 0 0.067639786571343896 -0.0058997051940664442 0 0.067103138547178809 -0.0087842375616202957 0 0.069274938663327651 -0.0083044036523678214 0 0.069606256929831661 -0.006416172356537856 0 0.067639786571343896 -0.0058997051940664442 0 0.069274938663327651 -0.0083044036523678214 0 0.067639786571343896 -0.0058997051940664442 0 0.064999879214296369 -0.0066897871471370092 0 0.067103138547178809 -0.0087842375616202957 0 0.064999879214296369 -0.0066897871471370092 0 0.064999909362972216 -0.010593748044298641 0 0.067103138547178809 -0.0087842375616202957 0 0.064999909362972216 -0.010593748044298641 0 0.067858258570267629 -0.011054173345453458 0 0.067103138547178809 -0.0087842375616202957 0 0.064999951731486261 -0.010594164392021203 0 0.067917537170063005 -0.011207963751079278 0 0.066575128663477548 -0.012938577491477844 0 0.065002698837916664 -0.010594525535170696 0 0.067462581950305606 -0.011054123946494316 0 0.067858258570267629 -0.011054173345453458 0 0.068792932610339377 -0.0097256803443491711 0 0.067103138547178809 -0.0087842375616202957 0 0.068792932610339377 -0.0097256803443491711 0 0.067103138547178809 -0.0087842375616202957 0 0.069274938663327651 -0.0083044036523678214 0 0.069274938663327651 -0.0083044036523678214 0 0.0700884507631621 -0.0096987239375218182 0 0.070815263391924413 -0.0090667048745384157 0 0.071231102600008839 -0.0080327229954850841 0 0.069274938663327651 -0.0083044036523678214 0 0.070815263391924413 -0.0090667048745384157 0 0.0700884507631621 -0.0096987239375218182 0 0.070815263391924413 -0.0090667048745384157 0 0.071288628198202447 -0.010509528323194222 0 0.068792932610339377 -0.0097256803443491711 0 0.069274938663327651 -0.0083044036523678214 0 0.0700884507631621 -0.0096987239375218182 0 0.068792932610339377 -0.0097256803443491711 0 0.0700884507631621 -0.0096987239375218182 0 0.069977192908050115 -0.010644946465824244 0 0.072928169247651733 -0.0089845802644222227 0 0.072254314041472409 -0.0084573924288334421 0 0.071871117472017271 -0.0094332152248267406 0 0.073081184945360547 -0.0081150811926678189 0 0.072928169247651733 -0.0089845802644222227 0 0.072254314041472409 -0.0084573924288334421 0 0.071231102600008839 -0.0080327229954850841 0 0.072254314041472409 -0.0084573924288334421 0 0.071871117472017271 -0.0094332152248267406 0 0.071231102600008839 -0.0080327229954850841 0 0.070815263391924413 -0.0090667048745384157 0 0.071871117472017271 -0.0094332152248267406 0 0.070815263391924413 -0.0090667048745384157 0 0.071871117472017271 -0.0094332152248267406 0 0.071288628198202447 -0.010509528323194222 0 0.071871117472017271 -0.0094332152248267406 0 0.072087662488448917 -0.010251043761577807 0 0.071288628198202447 -0.010509528323194222 0 0.072861819486773741 -0.010034917316383557 0 0.072928169247651733 -0.0089845802644222227 0 0.071871117472017271 -0.0094332152248267406 0 0.072861819486773741 -0.010034917316383557 0 0.071871117472017271 -0.0094332152248267406 0 0.072087662488448917 -0.010251043761577807 0 0.072743589732846406 -0.012822369145939958 0 0.073797850735836737 -0.011260768889249503 0 0.070966170052792127 -0.012559885115867565 0 0.073714715421114588 -0.011221127709879234 0 0.071327142691140766 -0.012240819624728085 0 0.074166028249424157 -0.010875181894722551 0 0.072378608124488403 -0.011036874599383035 0 0.071182207281980575 -0.012228094574143424 0 0.072378608124488403 -0.011036874599383035 0 0.072087662488448917 -0.010251043761577807 0 0.071288628198202447 -0.010509528323194222 0 0.072861819486773741 -0.010034917316383557 0 0.072378608124488403 -0.011036874599383035 0 0.072087662488448917 -0.010251043761577807 0 0.072378608124488403 -0.011036874599383035 0 0.071288628198202447 -0.010509528323194222 0 0.071454410343414279 -0.011370779510835606 0 0.071288628198202447 -0.010509528323194222 0 0.071097562539700149 -0.011111009502600522 0 0.071454410343414279 -0.011370779510835606 0 0.072378608124488403 -0.011036874599383035 0 0.071454410343414279 -0.011370779510835606 0 0.071182207281980575 -0.012228094574143424 0 0.071097562539700149 -0.011111009502600522 0 0.071454410343414279 -0.011370779510835606 0 0.070825009637245875 -0.011670886059242741 0 0.071454410343414279 -0.011370779510835606 0 0.070825009637245875 -0.011670886059242741 0 0.071182207281980575 -0.012228094574143424 0 0.067858258570267629 -0.011054173345453458 0 0.068792932610339377 -0.0097256803443491711 0 0.069977192908050115 -0.010644946465824244 0 0.067462581950305606 -0.011054123946494316 0 0.068818100120323494 -0.011307426916120172 0 0.067917537170063005 -0.011207963751079278 0 0.070825009637245875 -0.011670886059242741 0 0.069435806603689323 -0.012199741996119874 0 0.067858258570267629 -0.011054173345453458 0 0.069977192908050115 -0.010644946465824244 0 0.070825009637245875 -0.011670886059242741 0 0.071288628198202447 -0.010509528323194222 0 0.071097562539700149 -0.011111009502600522 0 0.069977192908050115 -0.010644946465824244 0 0.0700884507631621 -0.0096987239375218182 0 0.071288628198202447 -0.010509528323194222 0 0.069977192908050115 -0.010644946465824244 0 0.070825009637245875 -0.011670886059242741 0 0.069435806603689323 -0.012199741996119874 0 0.071182207281980575 -0.012228094574143424 0 0.071097562539700149 -0.011111009502600522 0 0.069977192908050115 -0.010644946465824244 0 0.070825009637245875 -0.011670886059242741 0 0.069435806603689323 -0.012199741996119874 0 0.071182207281980575 -0.012228094574143424 0 0.068158040490318303 -0.013631943258341477 0 0.071327142691140766 -0.012240819624728085 0 0.069908125448851138 -0.012841838771696232 0 0.070041040646298097 -0.014217739049234882 0 0.070966170052792127 -0.012559885115867565 0 0.068158040490318303 -0.013631943258341477 0 0.07331879803047954 -0.014749782995075207 0 0.071463968786398088 -0.01428060050813279 0 0.072119506580005502 -0.013596246563540139 0 0.072743589732846406 -0.012822369145939958 0 0.070966170052792127 -0.012559885115867565 0 0.072119506580005502 -0.013596246563540139 0 0.070041040646298097 -0.014217739049234882 0 0.070966170052792127 -0.012559885115867565 0 0.071463968786398088 -0.01428060050813279 0 0.070966170052792127 -0.012559885115867565 0 0.071463968786398088 -0.01428060050813279 0 0.072119506580005502 -0.013596246563540139 0 0.07331879803047954 -0.014749782995075207 0 0.071463968786398088 -0.01428060050813279 0 0.072282045372079731 -0.016122122710339422 0 0.071463968786398088 -0.01428060050813279 0 0.072282045372079731 -0.016122122710339422 0 0.070496474569864159 -0.015650480836066995 0 0.070041040646298097 -0.014217739049234882 0 0.068875398194760074 -0.015297136817927128 0 0.068158040490318303 -0.013631943258341477 0 0.070041040646298097 -0.014217739049234882 0 0.070496474569864159 -0.015650480836066995 0 0.068875398194760074 -0.015297136817927128 0 0.070041040646298097 -0.014217739049234882 0 0.071463968786398088 -0.01428060050813279 0 0.070496474569864159 -0.015650480836066995 0 0.069374741371362819 -0.016963349575219406 0 0.070496474569864159 -0.015650480836066995 0 0.068875398194760074 -0.015297136817927128 0 0.06780073898220848 -0.016745694117221585 0 0.068875398194760074 -0.015297136817927128 0 0.06687832029857789 -0.015086709876803979 0 0.068875398194760074 -0.015297136817927128 0 0.06687832029857789 -0.015086709876803979 0 0.068158040490318303 -0.013631943258341477 0 0.064999952724174831 -0.017944936095653903 0 0.064999936474694348 -0.014269527921289058 0 0.06687832029857789 -0.015086709876803979 0 0.064999936474694348 -0.014269527921289058 0 0.06687832029857789 -0.015086709876803979 0 0.066575128663477548 -0.012938577491477844 0 0.064999951731486261 -0.010594164392021203 0 0.064999936474694348 -0.014269527921289058 0 0.066575128663477548 -0.012938577491477844 0 0.067917537170063005 -0.011207963751079278 0 0.069435806603689323 -0.012199741996119874 0 0.068158040490318303 -0.013631943258341477 0 0.067917537170063005 -0.011207963751079278 0 0.066575128663477548 -0.012938577491477844 0 0.068158040490318303 -0.013631943258341477 0 0.06687832029857789 -0.015086709876803979 0 0.066575128663477548 -0.012938577491477844 0 0.068158040490318303 -0.013631943258341477 0 0.0018437525601398093 -0.016243089913650151 0 0.0017515259695132395 -0.014707130048169743 0 0.0032953658197999317 -0.016507829357283822 0 0.0035305790287812845 -0.016612910512653574 0 0.0022317101007236812 -0.015949700557412468 0 0.0035017765719110635 -0.017966347690974743 0 0.0025028930711298871 -0.015758936097810823 0 0.003435812248184063 -0.017372774320666039 0 0.0018437525601398093 -0.016243089913650151 0 0.0012583450053583816 -0.015264612741514874 0 0.0017515259695132395 -0.014707130048169743 0 0.0018437525601398093 -0.016243089913650151 0 0.00034044870240177219 -0.016352415187629057 0 0.0012583450053583816 -0.015264612741514874 0 0.0012583450053583816 -0.015264612741514874 0 0.0011825080733710578 -0.014769809607841562 0 0.0017515259695132395 -0.014707130048169743 0 0.0012583450053583816 -0.015264612741514874 0 0.0011825080733710578 -0.014769809607841562 0 0.00050616520063984701 -0.014870970258867102 0 0.0011825080733710578 -0.014769809607841562 0 0.0017515259695132395 -0.014707130048169743 0 0.0012047408316529706 -0.014280869946120576 0 0.0011825080733710578 -0.014769809607841562 0 0.00050616520063984701 -0.014870970258867102 0 0.00085710842100328462 -0.014629439627696705 0 0.0035305790287812845 -0.016612910512653574 0 0.0022136486744345936 -0.015447221253429292 0 0.0049388084169802501 -0.016210206977617173 0 0.0035305790287812845 -0.016612910512653574 0 0.0022136486744345936 -0.015447221253429292 0 0.0022317101007236812 -0.015949700557412468 0 0.0022136486744345936 -0.015447221253429292 0 0.0049388084169802501 -0.016210206977617173 0 0.004976955016248303 -0.01423758884402801 0 0.0049388084169802501 -0.016210206977617173 0 0.0065011053987597423 -0.017228948510631784 0 0.0068164074888084269 -0.01595717287362209 0 0.0049388084169802501 -0.016210206977617173 0 0.004976955016248303 -0.01423758884402801 0 0.0068164074888084269 -0.01595717287362209 0 0.0065011053987597423 -0.017228948510631784 0 0.0047220348887918005 -0.017476309429570378 0 0.0058478484594566716 -0.018126912048346794 0 0.0049388084169802501 -0.016210206977617173 0 0.0065011053987597423 -0.017228948510631784 0 0.0047220348887918005 -0.017476309429570378 0 0.0035305790287812845 -0.016612910512653574 0 0.0049388084169802501 -0.016210206977617173 0 0.0047220348887918005 -0.017476309429570378 0 0.0035305790287812845 -0.016612910512653574 0 0.0047220348887918005 -0.017476309429570378 0 0.0035017765719110635 -0.017966347690974743 0 0.0047220348887918005 -0.017476309429570378 0 0.0046836531087226787 -0.019760987683314284 0 0.0035017765719110635 -0.017966347690974743 0 0.0047220348887918005 -0.017476309429570378 0 0.0058478484594566716 -0.018126912048346794 0 0.0046836531087226787 -0.019760987683314284 0 0.0044304045951342854 -0.019124134341500038 0 0.003435812248184063 -0.017372774320666039 0 0.0058478484594566716 -0.018126912048346794 0 0.0059463237549821522 -0.019237434252205803 0 0.0077605958992705429 -0.018007689027428126 0 0.0058478484594566716 -0.018126912048346794 0 0.0059463237549821522 -0.019237434252205803 0 0.0046836531087226787 -0.019760987683314284 0 0.0059463237549821522 -0.019237434252205803 0 0.0060744829967657437 -0.02031778218316645 0 0.0067665103808627102 -0.019984890801514242 0 0.0059463237549821522 -0.019237434252205803 0 0.0060744829967657437 -0.02031778218316645 0 0.0046836531087226787 -0.019760987683314284 0 0.0048198386632802726 -0.019079984804531578 0 0.0035074751927147373 -0.019845530085926221 0 0.0027090629989954974 -0.018282840774369587 0 0.0035074751927147373 -0.019845530085926221 0 0.0027090629989954974 -0.018282840774369587 0 0.0021671439538951264 -0.020045041806748858 0 0.0018437525601398093 -0.016243089913650151 0 0.0027090629989954974 -0.018282840774369587 0 0.0032953658197999317 -0.016507829357283822 0 0.0048198386632802726 -0.019079984804531578 0 0.0027090629989954974 -0.018282840774369587 0 0.0032953658197999317 -0.016507829357283822 0 0.0018437525601398093 -0.016243089913650151 0 0.0027090629989954974 -0.018282840774369587 0 0.0012440113592981775 -0.017513890160076921 0 0.00034044870240177219 -0.016352415187629057 0 0.0012440113592981775 -0.017513890160076921 0 -0.00042111130270752739 -0.017594479879697852 0 0.0018437525601398093 -0.016243089913650151 0 0.00034044870240177219 -0.016352415187629057 0 0.0012440113592981775 -0.017513890160076921 0 0.0027090629989954974 -0.018282840774369587 0 0.0012440113592981775 -0.017513890160076921 0 0.0010329078800166778 -0.018900341471975279 0 0.0012440113592981775 -0.017513890160076921 0 0.0010329078800166778 -0.018900341471975279 0 -0.00042111130270752739 -0.017594479879697852 0 0.0027090629989954974 -0.018282840774369587 0 0.0010329078800166778 -0.018900341471975279 0 0.0021671439538951264 -0.020045041806748858 0 0.0010329078800166778 -0.018900341471975279 0 0.0021671439538951264 -0.020045041806748858 0 0.00044192039483595489 -0.020609295174943365 0 0.0010329078800166778 -0.018900341471975279 0 0.00044192039483595489 -0.020609295174943365 0 -0.00077447438383347351 -0.019650547914062406 0 -0.00077447438383347351 -0.019650547914062406 0 -0.00079404810903202885 -0.021565883272877014 0 -0.0019164921307269812 -0.020906480537659256 0 0.00044192039483595489 -0.020609295174943365 0 -0.00077447438383347351 -0.019650547914062406 0 -0.00079404810903202885 -0.021565883272877014 0 0.0010329078800166778 -0.018900341471975279 0 -0.00077447438383347351 -0.019650547914062406 0 -0.00042111130270752739 -0.017594479879697852 0 -0.00077447438383347351 -0.019650547914062406 0 -0.0029950232345678398 -0.01994546060260443 0 -0.0022524989985331645 -0.018122079928162449 0 -0.00077447438383347351 -0.019650547914062406 0 -0.0029950232345678398 -0.01994546060260443 0 -0.0019164921307269812 -0.020906480537659256 0 -0.0029950232345678398 -0.01994546060260443 0 -0.004238873269496026 -0.018379090148694766 0 -0.0055701407227279941 -0.021132871380018424 0 -0.0029950232345678398 -0.01994546060260443 0 -0.0055701407227279941 -0.021132871380018424 0 -0.0033548845046983125 -0.021546477381628733 0 -0.0029950232345678398 -0.01994546060260443 0 -0.0033548845046983125 -0.021546477381628733 0 -0.0019164921307269812 -0.020906480537659256 0 -0.0029950232345678398 -0.01994546060260443 0 -0.004238873269496026 -0.018379090148694766 0 -0.0022524989985331645 -0.018122079928162449 0 -0.004238873269496026 -0.018379090148694766 0 -0.005920436908986965 -0.016937439368774752 0 -0.0025155362724836781 -0.01515454263591382 0 -0.004238873269496026 -0.018379090148694766 0 -0.0022524989985331645 -0.018122079928162449 0 -0.0025155362724836781 -0.01515454263591382 0 0.00034044870240177219 -0.016352415187629057 0 -0.00042111130270752739 -0.017594479879697852 0 -0.0025155362724836781 -0.01515454263591382 0 -0.00042111130270752739 -0.017594479879697852 0 -0.0022524989985331645 -0.018122079928162449 0 -0.0025155362724836781 -0.01515454263591382 0 -0.00077447438383347351 -0.019650547914062406 0 -0.00042111130270752739 -0.017594479879697852 0 -0.0022524989985331645 -0.018122079928162449 0 -0.010252392381386964 -0.021321886294072598 0 -0.007324533509641711 -0.020134112918021193 0 -0.0055701407227279941 -0.021132871380018424 0 -0.010252392381386964 -0.021321886294072598 0 -0.0089457471191793266 -0.019871828004149893 0 -0.007324533509641711 -0.020134112918021193 0 -0.010231666822614 -0.019071618881200361 0 -0.0089457471191793266 -0.019871828004149893 0 -0.007999430886101333 -0.018967687480053303 0 -0.010252392381386964 -0.021321886294072598 0 -0.010231666822614 -0.019071618881200361 0 -0.0089457471191793266 -0.019871828004149893 0 -0.0089457471191793266 -0.019871828004149893 0 -0.007999430886101333 -0.018967687480053303 0 -0.007324533509641711 -0.020134112918021193 0 -0.004238873269496026 -0.018379090148694766 0 -0.0061985412640559335 -0.018787403758312129 0 -0.0055701407227279941 -0.021132871380018424 0 -0.007999430886101333 -0.018967687480053303 0 -0.0061985412640559335 -0.018787403758312129 0 -0.007324533509641711 -0.020134112918021193 0 -0.0061985412640559335 -0.018787403758312129 0 -0.007324533509641711 -0.020134112918021193 0 -0.0055701407227279941 -0.021132871380018424 0 -0.004238873269496026 -0.018379090148694766 0 -0.0061985412640559335 -0.018787403758312129 0 -0.005920436908986965 -0.016937439368774752 0 -0.005920436908986965 -0.016937439368774752 0 -0.0071298996877773137 -0.016833440222165073 0 -0.0073235508939011058 -0.017698947024301259 0 -0.005920436908986965 -0.016937439368774752 0 -0.0070670949353219513 -0.015729314885507696 0 -0.0071258176964779001 -0.015994876411456371 0 -0.005920436908986965 -0.016937439368774752 0 -0.0071298996877773137 -0.016833440222165073 0 -0.0071258176964779001 -0.015994876411456371 0 -0.0075116043456321885 -0.016427674256106067 0 -0.0071298996877773137 -0.016833440222165073 0 -0.0071258176964779001 -0.015994876411456371 0 -0.007999430886101333 -0.018967687480053303 0 -0.0061985412640559335 -0.018787403758312129 0 -0.0073235508939011058 -0.017698947024301259 0 -0.0061985412640559335 -0.018787403758312129 0 -0.005920436908986965 -0.016937439368774752 0 -0.0073235508939011058 -0.017698947024301259 0 -0.011061505743619242 -0.016769528058925974 0 -0.010231666822614 -0.019071618881200361 0 -0.0089349642554151475 -0.017833995726018695 0 -0.0098290747328514585 -0.017673714120458598 0 -0.0058122324483445009 -0.017074319720157115 0 -0.011061505743619242 -0.016769528058925974 0 -0.0081826225244639953 -0.016876455942462155 0 -0.0070891970166478717 -0.015702189629086559 0 -0.011061505743619242 -0.016769528058925974 0 -0.0081826225244639953 -0.016876455942462155 0 -0.0089349642554151475 -0.017833995726018695 0 -0.007999430886101333 -0.018967687480053303 0 -0.0073235508939011058 -0.017698947024301259 0 -0.0089349642554151475 -0.017833995726018695 0 -0.0073235508939011058 -0.017698947024301259 0 -0.0081826225244639953 -0.016876455942462155 0 -0.0089349642554151475 -0.017833995726018695 0 -0.0071298996877773137 -0.016833440222165073 0 -0.0073235508939011058 -0.017698947024301259 0 -0.0081826225244639953 -0.016876455942462155 0 -0.0075116043456321885 -0.016427674256106067 0 -0.0081826225244639953 -0.016876455942462155 0 -0.0070891970166478717 -0.015702189629086559 0 -0.0075116043456321885 -0.016427674256106067 0 -0.0071298996877773137 -0.016833440222165073 0 -0.0081826225244639953 -0.016876455942462155 0 -0.010231666822614 -0.019071618881200361 0 -0.007999430886101333 -0.018967687480053303 0 -0.0089349642554151475 -0.017833995726018695 0 -0.011443424032794129 -0.018619264483095886 0 -0.0097717936191745822 -0.01697107931496044 0 -0.0082946298078879696 -0.018214725513384471 0 -0.0097717936191745822 -0.01697107931496044 0 -0.0082946298078879696 -0.018214725513384471 0 -0.0083801153535478547 -0.016529569219748588 0 -0.0012866967477197728 -0.01597539320983726 0 -0.00072858050836474174 -0.015412121158502396 0 -0.0010667072116009491 -0.014834892321805607 0 -0.0012866967477197728 -0.01597539320983726 0 -0.00072858050836474174 -0.015412121158502396 0 -4.5973501125186258e-05 -0.015722545473844537 0 -0.005920436908986965 -0.016937439368774752 0 -0.0070670949353219513 -0.015729314885507696 0 -0.0025155362724836781 -0.01515454263591382 0 -0.0058122324483445009 -0.017074319720157115 0 -0.0048383556083765392 -0.01527899595459971 0 -0.0075116043456321885 -0.016427674256106067 0 -0.0070891970166478717 -0.015702189629086559 0 -0.0071258176964779001 -0.015994876411456371 0 -0.0058122324483445009 -0.017074319720157115 0 -0.005813155727875649 -0.017070663253745424 0 -0.0082946298078879696 -0.018214725513384471 0 -0.0077600983797879199 -0.015319323656535331 0 -0.0083801153535478547 -0.016529569219748588 0 -0.00072858050836474174 -0.015412121158502396 0 -0.0010667072116009491 -0.014834892321805607 0 -0.00040727863001201506 -0.014939910104151827 0 -0.0077600983797879199 -0.015319323656535331 0 -0.0082060527539710958 -0.015863215442249903 0 -0.0081929908695705482 -0.015269326063084863 0 -0.0077600983797879199 -0.015319323656535331 0 -0.0083801153535478547 -0.016529569219748588 0 -0.0082060527539710958 -0.015863215442249903 0 -0.01164648286952338 -0.015882271237314869 0 -0.0097717936191745822 -0.01697107931496044 0 -0.010921263173256569 -0.01434289329877194 0 -0.010346797312530879 -0.015986841315232179 0 -0.010580972847129222 -0.015398550192357606 0 -0.0097717936191745822 -0.01697107931496044 0 -0.0081929908695705482 -0.015269326063084863 0 -0.0099756582589003249 -0.014324535313620488 0 -0.0097717936191745822 -0.01697107931496044 0 -0.0082060527539710958 -0.015863215442249903 0 -0.0081929908695705482 -0.015269326063084863 0 -0.0097717936191745822 -0.01697107931496044 0 -0.0083801153535478547 -0.016529569219748588 0 -0.0082060527539710958 -0.015863215442249903 0 0.0012583450053583816 -0.015264612741514874 0 -4.5973501125186258e-05 -0.015722545473844537 0 0.00050616520063984701 -0.014870970258867102 0 0.00034044870240177219 -0.016352415187629057 0 0.0012583450053583816 -0.015264612741514874 0 -0.0025155362724836781 -0.01515454263591382 0 -0.00052917180266467696 -0.015660075023556437 0 -0.0020073814085427859 -0.016004258684443082 0 -0.0058122324483445009 -0.017074319720157115 0 -0.0020073814085427859 -0.016004258684443082 0 -0.00072858050836474174 -0.015412121158502396 0 -4.5973501125186258e-05 -0.015722545473844537 0 -0.00040727863001201506 -0.014939910104151827 0 -0.00040727863001201506 -0.014939910104151827 0 0.00050616520063984701 -0.014870970258867102 0 -5.3974178745445137e-05 -0.01440558217792131 0 -4.5973501125186258e-05 -0.015722545473844537 0 -0.00040727863001201506 -0.014939910104151827 0 0.00050616520063984701 -0.014870970258867102 0 -0.0010667072116009491 -0.014834892321805607 0 -0.00040727863001201506 -0.014939910104151827 0 -0.00058247615072907339 -0.014386773489449235 0 0.00059943440046605749 -0.014371500800976201 0 0.00033953494804262466 -0.013874292463390028 0 0.0012047408316529706 -0.014280869946120576 0 0.00050616520063984701 -0.014870970258867102 0 0.00059943440046605749 -0.014371500800976201 0 0.00085710842100328462 -0.014629439627696705 0 0.00059943440046605749 -0.014371500800976201 0 -5.3974178745445137e-05 -0.01440558217792131 0 0.00033953494804262466 -0.013874292463390028 0 0.00050616520063984701 -0.014870970258867102 0 0.00059943440046605749 -0.014371500800976201 0 -5.3974178745445137e-05 -0.01440558217792131 0 -0.00040727863001201506 -0.014939910104151827 0 -5.3974178745445137e-05 -0.01440558217792131 0 -0.00058247615072907339 -0.014386773489449235 0 -5.3974178745445137e-05 -0.01440558217792131 0 -0.00058247615072907339 -0.014386773489449235 0 -0.00036040983263045835 -0.01394460157544258 0 -0.00036040983263045835 -0.01394460157544258 0 -0.0010046646821303504 -0.013803142681840543 0 -0.00036325647848902938 -0.013333577216531596 0 -0.00058247615072907339 -0.014386773489449235 0 -0.00036040983263045835 -0.01394460157544258 0 -0.0010046646821303504 -0.013803142681840543 0 -0.00036040983263045835 -0.01394460157544258 0 0.00033953494804262466 -0.013874292463390028 0 -0.00036325647848902938 -0.013333577216531596 0 0.00033953494804262466 -0.013874292463390028 0 0.00047214769267970658 -0.013065479420859883 0 0.0012685513660305055 -0.013474590396653429 0 -5.3974178745445137e-05 -0.01440558217792131 0 -0.00036040983263045835 -0.01394460157544258 0 0.00033953494804262466 -0.013874292463390028 0 -0.0081590837546972779 -0.014805654485176427 0 -0.0077526039226766966 -0.015043573076897524 0 -0.0080798203535844496 -0.015183353017640381 0 -0.0081929908695705482 -0.015269326063084863 0 -0.0077526039226766966 -0.015043573076897524 0 -0.0080798203535844496 -0.015183353017640381 0 -0.0099793228356751668 -0.015569688334215707 0 -0.010580972847129222 -0.015398550192357606 0 -0.0048383556083765392 -0.01527899595459971 0 -0.0042061239045782578 -0.013950839059566863 0 -0.0077600983797879199 -0.015319323656535331 0 -0.0081929908695705482 -0.015269326063084863 0 -0.0077526039226766966 -0.015043573076897524 0 -0.0077600983797879199 -0.015319323656535331 0 -0.0077526039226766966 -0.015043573076897524 0 -0.0070517794505475994 -0.014900513210182036 0 -0.0010667072116009491 -0.014834892321805607 0 -0.00058247615072907339 -0.014386773489449235 0 -0.0010046646821303504 -0.013803142681840543 0 -0.0077526039226766966 -0.015043573076897524 0 -0.0070517794505475994 -0.014900513210182036 0 -0.0077809318034453767 -0.014631260575535794 0 -0.0081590837546972779 -0.014805654485176427 0 -0.0077526039226766966 -0.015043573076897524 0 -0.0077809318034453767 -0.014631260575535794 0 -0.0083301778869176533 -0.014218688548919408 0 -0.0077809318034453767 -0.014631260575535794 0 -0.0075574969171119041 -0.014043872571610614 0 -0.01056260311302243 -0.013942088146987445 0 -0.0095251098615450301 -0.013827239404724648 0 -0.0070517794505475994 -0.014900513210182036 0 -0.0077809318034453767 -0.014631260575535794 0 -0.0075574969171119041 -0.014043872571610614 0 -0.0042061239045782578 -0.013950839059566863 0 -0.003697271818065403 -0.012479009647183126 0 -0.0070517794505475994 -0.014900513210182036 0 -0.0075574969171119041 -0.014043872571610614 0 -0.0059197969979722601 -0.013654298236358194 0 -0.0075574969171119041 -0.014043872571610614 0 -0.0065656072150355209 -0.012542848949215667 0 -0.0059197969979722601 -0.013654298236358194 0 -0.0045107955526054819 -0.011314302372354345 0 -0.0065656072150355209 -0.012542848949215667 0 -0.0059197969979722601 -0.013654298236358194 0 -0.0075574969171119041 -0.014043872571610614 0 -0.0065656072150355209 -0.012542848949215667 0 -0.0082621854829430814 -0.012726082080402545 0 -0.009395271068728268 -0.014543575630459594 0 -0.0075574969171119041 -0.014043872571610614 0 -0.0082621854829430814 -0.012726082080402545 0 0.00033953494804262466 -0.013874292463390028 0 0.00047214769267970658 -0.013065479420859883 0 -0.00036325647848902938 -0.013333577216531596 0 0.00047214769267970658 -0.013065479420859883 0 -0.00036325647848902938 -0.013333577216531596 0 -0.00037335911572068675 -0.012416142634615912 0 -0.00036325647848902938 -0.013333577216531596 0 -0.0012217755017829611 -0.012611299400442557 0 -0.00037335911572068675 -0.012416142634615912 0 -0.0010046646821303504 -0.013803142681840543 0 -0.00036325647848902938 -0.013333577216531596 0 -0.0012217755017829611 -0.012611299400442557 0 -0.0032421485010484907 -0.010575822447672221 0 -0.003697271818065403 -0.012479009647183126 0 -0.0017573730718748791 -0.010927249620677419 0 -0.0012217755017829611 -0.012611299400442557 0 -0.00037335911572068675 -0.012416142634615912 0 -9.4549183060854973e-05 -0.011662392559801565 0 -0.00037335911572068675 -0.012416142634615912 0 0.00053465567744367417 -0.012368189605835087 0 0.00047214769267970658 -0.013065479420859883 0 -0.00037335911572068675 -0.012416142634615912 0 0.00053465567744367417 -0.012368189605835087 0 -9.4549183060854973e-05 -0.011662392559801565 0 0.00053465567744367417 -0.012368189605835087 0 0.00085875969684024757 -0.0119361327352023 0 0.00047214769267970658 -0.013065479420859883 0 0.00053465567744367417 -0.012368189605835087 0 0.0015269426951204531 -0.012495167771165853 0 0.00053465567744367417 -0.012368189605835087 0 0.00085875969684024757 -0.0119361327352023 0 0.0015269426951204531 -0.012495167771165853 0 0.0015903846270329961 -0.011883668981200189 0 0.0015269426951204531 -0.012495167771165853 0 0.0019565762758990933 -0.012030774633334738 0 0.0015903846270329961 -0.011883668981200189 0 0.00085875969684024757 -0.0119361327352023 0 0.0015269426951204531 -0.012495167771165853 0 0.0015269426951204531 -0.012495167771165853 0 0.0023363107897615035 -0.01224476547334476 0 0.0020312097399134061 -0.012994223990307661 0 0.0022597089416238852 -0.01196156503421719 0 0.0023363107897615035 -0.01224476547334476 0 0.0019565762758990933 -0.012030774633334738 0 0.0015269426951204531 -0.012495167771165853 0 0.0023363107897615035 -0.01224476547334476 0 0.0019565762758990933 -0.012030774633334738 0 0.00047214769267970658 -0.013065479420859883 0 0.0015269426951204531 -0.012495167771165853 0 0.0012685513660305055 -0.013474590396653429 0 0.0015269426951204531 -0.012495167771165853 0 0.0020312097399134061 -0.012994223990307661 0 0.0012685513660305055 -0.013474590396653429 0 0.00033953494804262466 -0.013874292463390028 0 0.0012685513660305055 -0.013474590396653429 0 0.0012047408316529706 -0.014280869946120576 0 0.0012685513660305055 -0.013474590396653429 0 0.002174000034791874 -0.014157776688183452 0 0.0012047408316529706 -0.014280869946120576 0 0.0020312097399134061 -0.012994223990307661 0 0.0012685513660305055 -0.013474590396653429 0 0.002174000034791874 -0.014157776688183452 0 0.0020312097399134061 -0.012994223990307661 0 0.002174000034791874 -0.014157776688183452 0 0.0028154663378886038 -0.013555858007843072 0 0.0022136486744345936 -0.015447221253429292 0 0.002174000034791874 -0.014157776688183452 0 0.0012047408316529706 -0.014280869946120576 0 0.0022136486744345936 -0.015447221253429292 0 0.002174000034791874 -0.014157776688183452 0 0.0033239248663793027 -0.014657931488482618 0 0.0025028930711298871 -0.015758936097810823 0 0.0020875822631581452 -0.015036559126854377 0 0.0022136486744345936 -0.015447221253429292 0 0.0022317101007236812 -0.015949700557412468 0 0.0012047408316529706 -0.014280869946120576 0 0.0011825080733710578 -0.014769809607841562 0 0.00085710842100328462 -0.014629439627696705 0 0.0012047408316529706 -0.014280869946120576 0 0.00059943440046605749 -0.014371500800976201 0 0.00085710842100328462 -0.014629439627696705 0 0.0012047408316529706 -0.014280869946120576 0 0.0033239248663793027 -0.014657931488482618 0 0.0028154663378886038 -0.013555858007843072 0 0.0054503734054936886 -0.01390322817572648 0 0.004976955016248303 -0.01423758884402801 0 0.0066093206287689511 -0.014549795636332718 0 0.0068164074888084269 -0.01595717287362209 0 0.0032223335440819717 -0.015050292928919637 0 0.0043162102274214575 -0.014483235354200194 0 0.002174000034791874 -0.014157776688183452 0 0.0033239248663793027 -0.014657931488482618 0 0.0028154663378886038 -0.013555858007843072 0 0.0043162102274214575 -0.014483235354200194 0 0.0061825244306983832 -0.013543000736646901 0 0.004976955016248303 -0.01423758884402801 0 0.0066093206287689511 -0.014549795636332718 0 0.0070321388792975188 -0.013372891790944374 0 0.0028154663378886038 -0.013555858007843072 0 0.0031405317133299856 -0.012421690610420756 0 0.0054503734054936886 -0.01390322817572648 0 0.0023363107897615035 -0.01224476547334476 0 0.0020312097399134061 -0.012994223990307661 0 0.0031405317133299856 -0.012421690610420756 0 0.0020312097399134061 -0.012994223990307661 0 0.0028154663378886038 -0.013555858007843072 0 0.0031405317133299856 -0.012421690610420756 0 0.0026689536986406357 -0.012041143235512355 0 0.0023363107897615035 -0.01224476547334476 0 0.0031405317133299856 -0.012421690610420756 0 0.0026689536986406357 -0.012041143235512355 0 0.0031405317133299856 -0.012421690610420756 0 0.0030136178248724855 -0.012259202792462849 0 0.0031405317133299856 -0.012421690610420756 0 0.0030136178248724855 -0.012259202792462849 0 0.0029501859209323891 -0.011969654717895493 0 0.0045312271889886334 -0.014417230161800167 0 0.0058773915124347457 -0.015056030888236071 0 0.002996074431606936 -0.012489473383924492 0 0.0030136178248724855 -0.012259202792462849 0 0.0029501859209323891 -0.011969654717895493 0 0.0031405317133299856 -0.012421690610420756 0 0.0059882648660023489 -0.011436203952527721 0 0.0054503734054936886 -0.01390322817572648 0 0.0059882648660023489 -0.011436203952527721 0 0.0086188889715144313 -0.012391917661536817 0 0.0054503734054936886 -0.01390322817572648 0 0.0073961269530461752 -0.012908014103533753 0 0.0061825244306983832 -0.013543000736646901 0 0.0020863898668745779 -0.012624435789321316 0 0.0029501859209323891 -0.011969654717895493 0 0.001054367571697233 -0.011966514269318003 0 0.0059882648660023489 -0.011436203952527721 0 0.0092713038558417428 -0.010778908645850882 0 0.0086188889715144313 -0.012391917661536817 0 0.0020863898668745779 -0.012624435789321316 0 0.002996074431606936 -0.012489473383924492 0 0.0029501859209323891 -0.011969654717895493 0 0.0058773915124347457 -0.015056030888236071 0 0.01186623258237637 -0.017446126245136626 0 0.017026527055375697 -0.016366308427897817 0 0.017040759277261598 -0.016368113486373615 0 0.017037154548713452 -0.016366443047190385 0 0.017026527055375697 -0.016366308427897817 0 0.017047070528403697 -0.016362459447695092 0 0.017040759277261598 -0.016368113486373615 0 0.01186623258237637 -0.017446126245136626 0 0.015829306138641051 -0.018642615417430085 0 0.017040759277261598 -0.016368113486373615 0 0.017039932071220586 -0.01636531950578252 0 0.017037154548713452 -0.016366443047190385 0 0.0092713038558417428 -0.010778908645850882 0 0.0095426122996898344 -0.012829809163992052 0 0.0086188889715144313 -0.012391917661536817 0 0.0095426122996898344 -0.012829809163992052 0 0.0086188889715144313 -0.012391917661536817 0 0.0085727582755885205 -0.013738885706518053 0 0.01186623258237637 -0.017446126245136626 0 0.013841534546358029 -0.015198562681627495 0 0.0095426122996898344 -0.012829809163992052 0 0.009892571385003688 -0.014242240103166314 0 0.0085727582755885205 -0.013738885706518053 0 0.009892571385003688 -0.014242240103166314 0 0.0085727582755885205 -0.013738885706518053 0 0.0088434076379986376 -0.016011057780244687 0 0.013841534546358029 -0.015198562681627495 0 0.016282389939938954 -0.014379732307437273 0 0.017039932071220586 -0.01636531950578252 0 0.017037154548713452 -0.016366443047190385 0 0.017036755037973698 -0.016352683180763144 0 0.019502852413651336 -0.01399401461453853 0 0.016282389939938954 -0.014379732307437273 0 0.026933446665523494 -0.012335702379624908 0 0.026356286378661099 -0.013197921899988477 0 0.027270686401590336 -0.013075861854166614 0 0.016282389939938954 -0.014379732307437273 0 0.021196418716328876 -0.014566950076077194 0 0.026356286378661099 -0.013197921899988477 0 0.027402379781637096 -0.013840709823281998 0 0.026659201913481121 -0.014566353133899777 0 0.026356286378661099 -0.013197921899988477 0 0.027270686401590336 -0.013075861854166614 0 0.027402379781637096 -0.013840709823281998 0 0.016282389939938954 -0.014379732307437273 0 0.011429962125526065 -0.016533508799751177 0 0.0075671837515289293 -0.014698767185121499 0 0.0085727582755885205 -0.013738885706518053 0 0.0088434076379986376 -0.016011057780244687 0 0.0066093206287689511 -0.014549795636332718 0 0.0075671837515289293 -0.014698767185121499 0 0.0068164074888084269 -0.01595717287362209 0 0.0066093206287689511 -0.014549795636332718 0 0.0075671837515289293 -0.014698767185121499 0 0.0070321388792975188 -0.013372891790944374 0 0.0086188889715144313 -0.012391917661536817 0 0.0070321388792975188 -0.013372891790944374 0 0.0085727582755885205 -0.013738885706518053 0 0.0075671837515289293 -0.014698767185121499 0 0.0070321388792975188 -0.013372891790944374 0 0.0085727582755885205 -0.013738885706518053 0 0.030217766249523988 -0.011525380414699117 0 0.029330477219564742 -0.01236907398735154 0 0.030882426774402085 -0.012838292861361884 0 0.031159622302964308 -0.011766486940622453 0 0.030217766249523988 -0.011525380414699117 0 0.030882426774402085 -0.012838292861361884 0 0.030931494222552456 -0.011068878952896656 0 0.031159622302964308 -0.011766486940622453 0 0.030217766249523988 -0.011525380414699117 0 0.030931494222552456 -0.011068878952896656 0 0.030217766249523988 -0.011525380414699117 0 0.030367105132819386 -0.010810838452942851 0 0.030897814604647297 -0.010360742026974701 0 0.030931494222552456 -0.011068878952896656 0 0.030367105132819386 -0.010810838452942851 0 0.029919609746188677 -0.010607883421288497 0 0.030367105132819386 -0.010810838452942851 0 0.029880874382082263 -0.010946069232605908 0 0.030217766249523988 -0.011525380414699117 0 0.030367105132819386 -0.010810838452942851 0 0.029880874382082263 -0.010946069232605908 0 0.030217766249523988 -0.011525380414699117 0 0.029880874382082263 -0.010946069232605908 0 0.029366490128289163 -0.011187327582709867 0 0.029880874382082263 -0.010946069232605908 0 0.029541166007982626 -0.010653988452559411 0 0.029366490128289163 -0.011187327582709867 0 0.029919609746188677 -0.010607883421288497 0 0.029880874382082263 -0.010946069232605908 0 0.029541166007982626 -0.010653988452559411 0 0.029541166007982626 -0.010653988452559411 0 0.029155951045965134 -0.010680898956699315 0 0.029366490128289163 -0.011187327582709867 0 0.029155951045965134 -0.010680898956699315 0 0.029366490128289163 -0.011187327582709867 0 0.028616677764053734 -0.010996169836628893 0 0.029366490128289163 -0.011187327582709867 0 0.029330477219564742 -0.01236907398735154 0 0.028647435665680152 -0.011587174599881079 0 0.030217766249523988 -0.011525380414699117 0 0.029366490128289163 -0.011187327582709867 0 0.029330477219564742 -0.01236907398735154 0 0.029000910891393158 -0.012196213302394995 0 0.027679119829223359 -0.011911118429225065 0 0.02793260548483038 -0.012809057233120816 0 0.029330477219564742 -0.01236907398735154 0 0.028647435665680152 -0.011587174599881079 0 0.027679119829223359 -0.011911118429225065 0 0.029413855159980563 -0.01234269534614707 0 0.02863839934269027 -0.012121690765801999 0 0.028647435665680152 -0.011587174599881079 0 0.028118657833381269 -0.011497671184171877 0 0.027679119829223359 -0.011911118429225065 0 0.020516132394325808 -0.017804338939113047 0 0.020907229285634508 -0.014803497101078623 0 0.029366490128289163 -0.011187327582709867 0 0.028647435665680152 -0.011587174599881079 0 0.028616677764053734 -0.010996169836628893 0 0.028489897623492823 -0.010358797916280353 0 0.028616677764053734 -0.010996169836628893 0 0.027638557035667959 -0.011355174290624454 0 0.028925655575403292 -0.010314978545398904 0 0.029155951045965134 -0.010680898956699315 0 0.028616677764053734 -0.010996169836628893 0 0.028616677764053734 -0.010996169836628893 0 0.028118657833381269 -0.011497671184171877 0 0.027638557035667959 -0.011355174290624454 0 0.028647435665680152 -0.011587174599881079 0 0.028616677764053734 -0.010996169836628893 0 0.028118657833381269 -0.011497671184171877 0 0.017083722668812248 -0.016362268307197513 0 0.017047070528403697 -0.016362459447695092 0 0.017059055307937311 -0.016370594224420859 0 0.017047070528403697 -0.016362459447695092 0 0.017040759277261598 -0.016368113486373615 0 0.017059055307937311 -0.016370594224420859 0 0.019502852413651336 -0.01399401461453853 0 0.020907229285634508 -0.014803497101078623 0 0.026933446665523494 -0.012335702379624908 0 0.027638557035667959 -0.011355174290624454 0 0.027679119829223359 -0.011911118429225065 0 0.017040759277261598 -0.016368113486373615 0 0.017039932071220586 -0.01636531950578252 0 0.017059055307937311 -0.016370594224420859 0 0.028118657833381269 -0.011497671184171877 0 0.027638557035667959 -0.011355174290624454 0 0.027679119829223359 -0.011911118429225065 0 0.026933446665523494 -0.012335702379624908 0 0.027679119829223359 -0.011911118429225065 0 0.027458085080094362 -0.012537274466411412 0 0.027679119829223359 -0.011911118429225065 0 0.027458085080094362 -0.012537274466411412 0 0.02793260548483038 -0.012809057233120816 0 0.026933446665523494 -0.012335702379624908 0 0.027458085080094362 -0.012537274466411412 0 0.027270686401590336 -0.013075861854166614 0 0.027458085080094362 -0.012537274466411412 0 0.027270686401590336 -0.013075861854166614 0 0.02793260548483038 -0.012809057233120816 0 0.027270686401590336 -0.013075861854166614 0 0.027723942759372962 -0.013489965941619535 0 0.02793260548483038 -0.012809057233120816 0 0.027270686401590336 -0.013075861854166614 0 0.027402379781637096 -0.013840709823281998 0 0.027723942759372962 -0.013489965941619535 0 0.027402379781637096 -0.013840709823281998 0 0.027723942759372962 -0.013489965941619535 0 0.027624977528685295 -0.014019195157491116 0 0.027723942759372962 -0.013489965941619535 0 0.028610353995456823 -0.01353905577075926 0 0.02793260548483038 -0.012809057233120816 0 0.027723942759372962 -0.013489965941619535 0 0.028610353995456823 -0.01353905577075926 0 0.027624977528685295 -0.014019195157491116 0 0.028610353995456823 -0.01353905577075926 0 0.028719034621300585 -0.014561854517898324 0 0.027624977528685295 -0.014019195157491116 0 0.029000910891393158 -0.012196213302394995 0 0.028610353995456823 -0.01353905577075926 0 0.02793260548483038 -0.012809057233120816 0 0.029000910891393158 -0.012196213302394995 0 0.028610353995456823 -0.01353905577075926 0 0.029823223477266302 -0.013295831789343448 0 0.028610353995456823 -0.01353905577075926 0 0.029782915080496748 -0.014524386698970425 0 0.028719034621300585 -0.014561854517898324 0 0.028610353995456823 -0.01353905577075926 0 0.029823223477266302 -0.013295831789343448 0 0.029782915080496748 -0.014524386698970425 0 0.031612882530483444 -0.014233935566992977 0 0.029823223477266302 -0.013295831789343448 0 0.029782915080496748 -0.014524386698970425 0 0.031612882530483444 -0.014233935566992977 0 0.029823223477266302 -0.013295831789343448 0 0.030912920295328609 -0.012628733792042298 0 0.029413855159980563 -0.01234269534614707 0 0.030829491479836026 -0.012749949713564015 0 0.029000910891393158 -0.012196213302394995 0 0.029823223477266302 -0.013295831789343448 0 0.030912920295328609 -0.012628733792042298 0 0.032201660031379725 -0.016565782181241065 0 0.029782915080496748 -0.014524386698970425 0 0.029696852013904297 -0.016842296676925751 0 0.032201660031379725 -0.016565782181241065 0 0.031083245894536687 -0.017995017163292746 0 0.029696852013904297 -0.016842296676925751 0 0.029778870344142918 -0.015689644052534073 0 0.029729836138799447 -0.016567473766475934 0 0.029782915080496748 -0.014524386698970425 0 0.028719034621300585 -0.014561854517898324 0 0.029703341048145135 -0.016050727726208774 0 0.029703341048145135 -0.016050727726208774 0 0.028427618029702166 -0.015602948818214628 0 0.028390731583063534 -0.017140107825771571 0 0.028719034621300585 -0.014561854517898324 0 0.029703341048145135 -0.016050727726208774 0 0.028427618029702166 -0.015602948818214628 0 0.028427618029702166 -0.015602948818214628 0 0.027300570537797882 -0.016328374222313244 0 0.028390731583063534 -0.017140107825771571 0 0.028427618029702166 -0.015602948818214628 0 0.027624977528685295 -0.014019195157491116 0 0.027300570537797882 -0.016328374222313244 0 0.028719034621300585 -0.014561854517898324 0 0.028427618029702166 -0.015602948818214628 0 0.027624977528685295 -0.014019195157491116 0 0.027624977528685295 -0.014019195157491116 0 0.027404901801030921 -0.013497389045987166 0 0.027431059668962691 -0.013032413031918844 0 0.027402379781637096 -0.013840709823281998 0 0.027624977528685295 -0.014019195157491116 0 0.027404901801030921 -0.013497389045987166 0 0.027402379781637096 -0.013840709823281998 0 0.027404901801030921 -0.013497389045987166 0 0.02757356681062887 -0.013433830238261073 0 0.027404901801030921 -0.013497389045987166 0 0.02722661538993526 -0.013156382027036092 0 0.02757356681062887 -0.013433830238261073 0 0.027551899358461817 -0.014404536721990718 0 0.02739248029658321 -0.015171624503165846 0 0.027404901801030921 -0.013497389045987166 0 0.02722661538993526 -0.013156382027036092 0 0.027431059668962691 -0.013032413031918844 0 0.02722661538993526 -0.013156382027036092 0 0.027431059668962691 -0.013032413031918844 0 0.026733116856654585 -0.012923711243728268 0 0.027431059668962691 -0.013032413031918844 0 0.027359929037136459 -0.015626987451793872 0 0.026733116856654585 -0.012923711243728268 0 0.027300570537797882 -0.016328374222313244 0 0.026945013310717261 -0.018305958518599036 0 0.028390731583063534 -0.017140107825771571 0 0.02739248029658321 -0.015171624503165846 0 0.026999183216728333 -0.017176197428676546 0 0.026945013310717261 -0.018305958518599036 0 0.028390731583063534 -0.017140107825771571 0 0.028529172956914022 -0.01860689276391864 0 0.029703341048145135 -0.016050727726208774 0 0.028390731583063534 -0.017140107825771571 0 0.029634800476624586 -0.017845500412182667 0 0.029729836138799447 -0.016567473766475934 0 0.029654872886511956 -0.017990481497390385 0 0.028390731583063534 -0.017140107825771571 0 0.029634800476624586 -0.017845500412182667 0 0.028529172956914022 -0.01860689276391864 0 0.031083245894536687 -0.017995017163292746 0 0.02975953166784619 -0.018598207903537486 0 0.030633696912180021 -0.019165843056566344 0 0.031083245894536687 -0.017995017163292746 0 0.029696852013904297 -0.016842296676925751 0 0.02975953166784619 -0.018598207903537486 0 0.010144123490488167 -0.015060188301459986 0 0.01043423032045855 -0.017418276594720398 0 0.0083467338713571915 -0.017668968537944002 0 0.0068164074888084269 -0.01595717287362209 0 0.0088434076379986376 -0.016011057780244687 0 0.0077605958992705429 -0.018007689027428126 0 0.011429962125526065 -0.016533508799751177 0 0.0090028610344800534 -0.018213612952279325 0 0.0065011053987597423 -0.017228948510631784 0 0.0058478484594566716 -0.018126912048346794 0 0.0077605958992705429 -0.018007689027428126 0 0.0065011053987597423 -0.017228948510631784 0 0.0068164074888084269 -0.01595717287362209 0 0.0077605958992705429 -0.018007689027428126 0 0.0075671837515289293 -0.014698767185121499 0 0.0068164074888084269 -0.01595717287362209 0 0.0088434076379986376 -0.016011057780244687 0 0.011971314427754001 -0.012427957938111335 0 0.010144123490488167 -0.015060188301459986 0 0.01258888635710519 -0.015339246662501825 0 0.023095504763385059 -0.013461227843000861 0 0.021196418716328876 -0.014566950076077194 0 0.02722661538993526 -0.013156382027036092 0 0.02757356681062887 -0.013433830238261073 0 0.026733116856654585 -0.012923711243728268 0 0.021196418716328876 -0.014566950076077194 0 0.021967444207635026 -0.014160888218560016 0 0.026193628080809203 -0.010423436694072001 0 0.026733116856654585 -0.012923711243728268 0 0.023700938141977816 -0.01251083387897782 0 0.010144123490488167 -0.015060188301459986 0 0.01258888635710519 -0.015339246662501825 0 0.01043423032045855 -0.017418276594720398 0 0.021196418716328876 -0.014566950076077194 0 0.01759400555691977 -0.015698887585729078 0 0.023700938141977816 -0.01251083387897782 0 0.025154312893550957 -0.014240754989710818 0 0.023316933149701857 -0.014471030101882247 0 0.026733116856654585 -0.012923711243728268 0 0.023700938141977816 -0.01251083387897782 0 0.025154312893550957 -0.014240754989710818 0 0.027359929037136459 -0.015626987451793872 0 0.026733116856654585 -0.012923711243728268 0 0.025154312893550957 -0.014240754989710818 0 0.027359929037136459 -0.015626987451793872 0 0.025154312893550957 -0.014240754989710818 0 0.024632086746329419 -0.016134301768901023 0 0.025154312893550957 -0.014240754989710818 0 0.023316933149701857 -0.014471030101882247 0 0.024632086746329419 -0.016134301768901023 0 0.023316933149701857 -0.014471030101882247 0 0.022628467273475863 -0.01612995529453326 0 0.024632086746329419 -0.016134301768901023 0 0.023316933149701857 -0.014471030101882247 0 0.020653593725489909 -0.013979935351808361 0 0.022628467273475863 -0.01612995529453326 0 0.01759400555691977 -0.015698887585729078 0 0.014399872847330304 -0.017367718108293302 0 0.01043423032045855 -0.017418276594720398 0 0.0083150193437944407 -0.01934070630054243 0 0.0083467338713571915 -0.017668968537944002 0 0.023700938141977816 -0.01251083387897782 0 0.023316933149701857 -0.014471030101882247 0 0.020653593725489909 -0.013979935351808361 0 0.0079857273579677993 -0.019244455803039118 0 0.0090028610344800534 -0.018213612952279325 0 0.0059463237549821522 -0.019237434252205803 0 0.0067665103808627102 -0.019984890801514242 0 0.0077605958992705429 -0.018007689027428126 0 0.014399872847330304 -0.017367718108293302 0 0.011160182465204772 -0.019594158840821316 0 0.0067665103808627102 -0.019984890801514242 0 0.0083150193437944407 -0.01934070630054243 0 0.0065218351740835038 -0.020881003187302835 0 0.0067665103808627102 -0.019984890801514242 0 0.0083150193437944407 -0.01934070630054243 0 0.0083467338713571915 -0.017668968537944002 0 0.020653593725489909 -0.013979935351808361 0 0.01820527847728285 -0.017201996811492707 0 0.020839032533959592 -0.017671392485127772 0 0.020653593725489909 -0.013979935351808361 0 0.01820527847728285 -0.017201996811492707 0 0.015428522615926593 -0.016239273540830833 0 0.01820527847728285 -0.017201996811492707 0 0.017806754199403044 -0.019727340323951317 0 0.020839032533959592 -0.017671392485127772 0 0.01820527847728285 -0.017201996811492707 0 0.017806754199403044 -0.019727340323951317 0 0.015310406152507425 -0.019487544879574693 0 0.017806754199403044 -0.019727340323951317 0 0.021396731882858136 -0.02123876903892697 0 0.013455445510288969 -0.023736694450671836 0 0.017806754199403044 -0.019727340323951317 0 0.020839032533959592 -0.017671392485127772 0 0.021396731882858136 -0.02123876903892697 0 0.023404026102761509 -0.018535672213719479 0 0.023824033794591887 -0.02072716782518513 0 0.021396731882858136 -0.02123876903892697 0 0.020839032533959592 -0.017671392485127772 0 0.023404026102761509 -0.018535672213719479 0 0.021396731882858136 -0.02123876903892697 0 0.020653593725489909 -0.013979935351808361 0 0.020839032533959592 -0.017671392485127772 0 0.022628467273475863 -0.01612995529453326 0 0.020839032533959592 -0.017671392485127772 0 0.022628467273475863 -0.01612995529453326 0 0.023404026102761509 -0.018535672213719479 0 0.024632086746329419 -0.016134301768901023 0 0.026529648679281034 -0.019505564891725179 0 0.023404026102761509 -0.018535672213719479 0 0.022628467273475863 -0.01612995529453326 0 0.024632086746329419 -0.016134301768901023 0 0.023404026102761509 -0.018535672213719479 0 0.027359929037136459 -0.015626987451793872 0 0.024632086746329419 -0.016134301768901023 0 0.026529648679281034 -0.019505564891725179 0 0.026529648679281034 -0.019505564891725179 0 0.023404026102761509 -0.018535672213719479 0 0.023824033794591887 -0.02072716782518513 0 0.023824033794591887 -0.02072716782518513 0 0.025743431122242179 -0.02214220992705709 0 0.023513231026691273 -0.021931538354028259 0 0.026529648679281034 -0.019505564891725179 0 0.023824033794591887 -0.02072716782518513 0 0.025743431122242179 -0.02214220992705709 0 0.026472099707868121 -0.019560583062721619 0 0.026142042603701933 -0.020905777088777364 0 0.025743431122242179 -0.02214220992705709 0 0.023513231026691273 -0.021931538354028259 0 0.024273308412574718 -0.023064095106105409 0 0.023513231026691273 -0.021931538354028259 0 0.022856632694544868 -0.022489423936280874 0 0.024273308412574718 -0.023064095106105409 0 0.023513231026691273 -0.021931538354028259 0 0.022856632694544868 -0.022489423936280874 0 0.022432066863469872 -0.021944359154623255 0 0.023513231026691273 -0.021931538354028259 0 0.022432066863469872 -0.021944359154623255 0 0.0224997390298926 -0.021494001112318403 0 0.022432066863469872 -0.021944359154623255 0 0.021776696833205829 -0.022367906779902101 0 0.021781289140707007 -0.021566676932615415 0 0.022856632694544868 -0.022489423936280874 0 0.022432066863469872 -0.021944359154623255 0 0.021776696833205829 -0.022367906779902101 0 0.022856632694544868 -0.022489423936280874 0 0.021776696833205829 -0.022367906779902101 0 0.023297612122985051 -0.023348188477218493 0 0.028591537417140607 -0.014381181431972222 0 0.027623189104791158 -0.016752314631279731 0 0.020788318721474273 -0.020515908168643949 0 0.021232087879642893 -0.021175597005117144 0 0.021180530133160829 -0.02079118599493799 0 0.020788318721474273 -0.020515908168643949 0 0.021109626156732467 -0.020304848323348917 0 0.021180530133160829 -0.02079118599493799 0 0.021232087879642893 -0.021175597005117144 0 0.021396731882858136 -0.02123876903892697 0 0.021232110909844993 -0.021123042892723241 0 0.021776696833205829 -0.022367906779902101 0 0.021781289140707007 -0.021566676932615415 0 0.021232087879642893 -0.021175597005117144 0 0.017483021116389406 -0.017536854589527081 0 0.014712132417468453 -0.016407411207643843 0 0.021781289140707007 -0.021566676932615415 0 0.021232087879642893 -0.021175597005117144 0 0.021396731882858136 -0.02123876903892697 0 0.023824033794591887 -0.02072716782518513 0 0.021396731882858136 -0.02123876903892697 0 0.0224997390298926 -0.021494001112318403 0 0.023824033794591887 -0.02072716782518513 0 0.023513231026691273 -0.021931538354028259 0 0.0224997390298926 -0.021494001112318403 0 0.022432066863469872 -0.021944359154623255 0 0.021781289140707007 -0.021566676932615415 0 0.0224997390298926 -0.021494001112318403 0 0.021781289140707007 -0.021566676932615415 0 0.021396731882858136 -0.02123876903892697 0 0.0224997390298926 -0.021494001112318403 0 0.030991946497409842 -0.019820631962199898 0 0.029577504173891159 -0.019729578321018126 0 0.029942528234389875 -0.020771745060554098 0 0.030991946497409842 -0.019820631962199898 0 0.031278415011415733 -0.020739223507470837 0 0.029942528234389875 -0.020771745060554098 0 0.02975953166784619 -0.018598207903537486 0 0.030633696912180021 -0.019165843056566344 0 0.029577504173891159 -0.019729578321018126 0 0.030991946497409842 -0.019820631962199898 0 0.030633696912180021 -0.019165843056566344 0 0.029577504173891159 -0.019729578321018126 0 0.029654872886511956 -0.017990481497390385 0 0.029606656066142285 -0.018785143158576545 0 0.029634800476624586 -0.017845500412182667 0 0.029577504173891159 -0.019729578321018126 0 0.028529172956914022 -0.01860689276391864 0 0.029577504173891159 -0.019729578321018126 0 0.028199228975756937 -0.019996416639943882 0 0.029942528234389875 -0.020771745060554098 0 0.029577504173891159 -0.019729578321018126 0 0.028199228975756937 -0.019996416639943882 0 0.028529172956914022 -0.01860689276391864 0 0.026945013310717261 -0.018305958518599036 0 0.028199228975756937 -0.019996416639943882 0 0.028529172956914022 -0.01860689276391864 0 0.026999183216728333 -0.017176197428676546 0 0.026472099707868121 -0.019560583062721619 0 0.026945013310717261 -0.018305958518599036 0 0.02648683851970024 -0.020166420598997755 0 0.028199228975756937 -0.019996416639943882 0 0.02648683851970024 -0.020166420598997755 0 0.025743431122242179 -0.02214220992705709 0 0.028330272196328683 -0.021496998925457134 0 0.025743431122242179 -0.02214220992705709 0 0.028330272196328683 -0.021496998925457134 0 0.026976318423216395 -0.022865156746953306 0 0.02648683851970024 -0.020166420598997755 0 0.028199228975756937 -0.019996416639943882 0 0.028330272196328683 -0.021496998925457134 0 0.028330272196328683 -0.021496998925457134 0 0.028838174002221932 -0.022706716196202334 0 0.026976318423216395 -0.022865156746953306 0 0.028199228975756937 -0.019996416639943882 0 0.028330272196328683 -0.021496998925457134 0 0.029942528234389875 -0.020771745060554098 0 0.028330272196328683 -0.021496998925457134 0 0.03054298105059931 -0.021995659952946337 0 0.029942528234389875 -0.020771745060554098 0 0.028330272196328683 -0.021496998925457134 0 0.03054298105059931 -0.021995659952946337 0 0.028838174002221932 -0.022706716196202334 0 0.031278415011415733 -0.020739223507470837 0 0.03054298105059931 -0.021995659952946337 0 0.029942528234389875 -0.020771745060554098 0 0.03058358385271872 -0.023636646812604443 0 0.029887916493645413 -0.023048955896931154 0 0.029835406239120805 -0.024091772637825835 0 0.031287699590506077 -0.022679534940307441 0 0.03058358385271872 -0.023636646812604443 0 0.029887916493645413 -0.023048955896931154 0 0.031287699590506077 -0.022679534940307441 0 0.030695107749072727 -0.021133318190878755 0 0.029887916493645413 -0.023048955896931154 0 0.031706891336036637 -0.021649422831352478 0 0.031065255366427087 -0.022371822956906911 0 0.03054298105059931 -0.021995659952946337 0 0.029887916493645413 -0.023048955896931154 0 0.028838174002221932 -0.022706716196202334 0 0.029887916493645413 -0.023048955896931154 0 0.028764504258570127 -0.023751490057258823 0 0.029835406239120805 -0.024091772637825835 0 0.029887916493645413 -0.023048955896931154 0 0.028764504258570127 -0.023751490057258823 0 0.028838174002221932 -0.022706716196202334 0 0.028764504258570127 -0.023751490057258823 0 0.028838174002221932 -0.022706716196202334 0 0.027761789950310402 -0.023523760287042027 0 0.028764504258570127 -0.023751490057258823 0 0.027761789950310402 -0.023523760287042027 0 0.027572129079907658 -0.024278852064513714 0 0.028838174002221932 -0.022706716196202334 0 0.026976318423216395 -0.022865156746953306 0 0.027761789950310402 -0.023523760287042027 0 0.026976318423216395 -0.022865156746953306 0 0.02663615821356553 -0.023946515965986508 0 0.027761789950310402 -0.023523760287042027 0 0.02663615821356553 -0.023946515965986508 0 0.027572129079907658 -0.024278852064513714 0 0.026230738725009244 -0.024977773995890407 0 0.02663615821356553 -0.023946515965986508 0 0.027761789950310402 -0.023523760287042027 0 0.027572129079907658 -0.024278852064513714 0 0.03313603623053251 -0.019868922405678967 0 0.034396006222850058 -0.015491878086003599 0 0.027572129079907658 -0.024278852064513714 0 0.028408166336018649 -0.024982857522799853 0 0.026230738725009244 -0.024977773995890407 0 0.037099101949803426 -0.022893515698090176 0 0.035879858219881607 -0.023228892655372715 0 0.037906269941767858 -0.023666163132895664 0 0.037099101949803426 -0.022893515698090176 0 0.037090706858837981 -0.02192946543825295 0 0.03819486622693901 -0.023237218183469386 0 0.037099101949803426 -0.022893515698090176 0 0.037090706858837981 -0.02192946543825295 0 0.036114977682823506 -0.022312248766936812 0 0.037090706858837981 -0.02192946543825295 0 0.036114977682823506 -0.022312248766936812 0 0.035760013854548953 -0.021044794353298389 0 0.037099101949803426 -0.022893515698090176 0 0.036114977682823506 -0.022312248766936812 0 0.035879858219881607 -0.023228892655372715 0 0.035043465915487682 -0.022097732414157169 0 0.035879858219881607 -0.023228892655372715 0 0.03335039335516983 -0.022490410458825529 0 0.036114977682823506 -0.022312248766936812 0 0.035043465915487682 -0.022097732414157169 0 0.035879858219881607 -0.023228892655372715 0 0.036114977682823506 -0.022312248766936812 0 0.035043465915487682 -0.022097732414157169 0 0.035760013854548953 -0.021044794353298389 0 0.028764504258570127 -0.023751490057258823 0 0.028408166336018649 -0.024982857522799853 0 0.029835406239120805 -0.024091772637825835 0 0.028764504258570127 -0.023751490057258823 0 0.027572129079907658 -0.024278852064513714 0 0.028408166336018649 -0.024982857522799853 0 0.028408166336018649 -0.024982857522799853 0 0.029835406239120805 -0.024091772637825835 0 0.030390071780533792 -0.024526008158090664 0 0.03313603623053251 -0.019868922405678967 0 0.03199323176564417 -0.021289516873709724 0 0.035043465915487682 -0.022097732414157169 0 0.03335039335516983 -0.022490410458825529 0 0.034202202045195439 -0.021363009066455503 0 0.03335039335516983 -0.022490410458825529 0 0.031902526303437588 -0.022024859631038046 0 0.030790825621447967 -0.0222350568459522 0 0.03199323176564417 -0.021289516873709724 0 0.031252774103075275 -0.021420801298895481 0 0.030603599821577641 -0.023504925220735485 0 0.030390071780533792 -0.024526008158090664 0 0.030599768252301009 -0.024182042584486318 0 0.030603599821577641 -0.023504925220735485 0 0.030390071780533792 -0.024526008158090664 0 0.030790825621447967 -0.0222350568459522 0 0.029835406239120805 -0.024091772637825835 0 0.030390071780533792 -0.024526008158090664 0 0.030599768252301009 -0.024182042584486318 0 0.03145044990907922 -0.023874999789601777 0 0.03058358385271872 -0.023636646812604443 0 0.030599768252301009 -0.024182042584486318 0 0.03058358385271872 -0.023636646812604443 0 0.029835406239120805 -0.024091772637825835 0 0.030599768252301009 -0.024182042584486318 0 0.05246320701655232 0.02814478106156543 0 0.052418744706667075 0.030248629826132113 0 0.053822295563486562 0.031538359487256772 0 0.05246320701655232 0.02814478106156543 0 0.052418744706667075 0.030248629826132113 0 0.051249338047012788 0.030693218552121232 0 0.05286016647730938 0.027378111798697514 0 0.051867240085004852 0.028588564228081904 0 0.051489167952395172 0.030574115669117625 0 0.0066608931990555127 0.0015857139753773688 0 0.0073224537332907524 0.0018376457400879082 0 0.0075003033756045161 0.0035455809190774708 0 0.030094743450915128 -0.0006026254610551451 0 0.033402746332376332 0.014787426028908047 0 0.030094743450915128 -0.0006026254610551451 0 0.021014694123124091 0.016164155438347261 0 0.030094743450915128 -0.0006026254610551451 0 0.035140515536690967 -0.0045440906604670263 0 0.023115330753918407 -0.023994905206817567 0 0.023922783638313645 -0.023805956234037567 0 0.023916611095039918 -0.024576241384503782 0 0.05286016647730938 0.027378111798697514 0 0.051867240085004852 0.028588564228081904 0 0.051147276594609818 0.028879551420269871 0 0.051867240085004852 0.028588564228081904 0 0.051170419423007825 0.02891631568807802 0 0.051489167952395172 0.030574115669117625 0 0.035324402061726858 -0.0043339775642187847 0 0.035140515536690967 -0.0045440906604670263 0 0.0080413852929157228 0.0021781280197964189 0 0.0073224537332907524 0.0018376457400879082 0 0.0075003033756045161 0.0035455809190774708 0 0.0080413852929157228 0.0021781280197964189 0 0.0082640804386226799 0.002934901465016375 0 0.0086149762858293167 0.0024258954786748163 0 0.0080413852929157228 0.0021781280197964189 0 0.0078945990216205564 0.001307974430939923 0 0.0089345266919166697 0.0013641376106084452 0 0.0080413852929157228 0.0021781280197964189 0 0.0073224537332907524 0.0018376457400879082 0 0.0078945990216205564 0.001307974430939923 0 0.0066608931990555127 0.0015857139753773688 0 0.0073224537332907524 0.0018376457400879082 0 0.0078945990216205564 0.001307974430939923 0 0.020788318721474273 -0.020515908168643949 0 0.0203479045762467 -0.019364447147074845 0 0.021109626156732467 -0.020304848323348917 0 0.030094743450915128 -0.0006026254610551451 0 0.019606514470309724 -0.005939847980576003 0 0.0066608931990555127 0.0015857139753773688 0 0.0078945990216205564 0.001307974430939923 0 0.008188236651986423 6.5100026374988534e-05 0 0.0078945990216205564 0.001307974430939923 0 0.008188236651986423 6.5100026374988534e-05 0 0.0089345266919166697 0.0013641376106084452 0 0.021776696833205829 -0.022367906779902101 0 0.0229443973077391 -0.024177508937928444 0 0.023297612122985051 -0.023348188477218493 0 0.028591537417140607 -0.014381181431972222 0 0.030094743450915128 -0.0006026254610551451 0 0.030094743450915128 -0.0006026254610551451 0 0.028624504254932397 -0.0043022562137719619 0 0.023115330753918407 -0.023994905206817567 0 0.023297612122985051 -0.023348188477218493 0 0.023922783638313645 -0.023805956234037567 0 0.022856632694544868 -0.022489423936280874 0 0.023297612122985051 -0.023348188477218493 0 0.024273308412574718 -0.023064095106105409 0 0.024273308412574718 -0.023064095106105409 0 0.025727393893686862 -0.023419043248187166 0 0.024715977418648102 -0.023839292608366675 0 0.023297612122985051 -0.023348188477218493 0 0.024273308412574718 -0.023064095106105409 0 0.023922783638313645 -0.023805956234037567 0 0.024273308412574718 -0.023064095106105409 0 0.023922783638313645 -0.023805956234037567 0 0.024715977418648102 -0.023839292608366675 0 0.025743431122242179 -0.02214220992705709 0 0.026976318423216395 -0.022865156746953306 0 0.025727393893686862 -0.023419043248187166 0 0.025743431122242179 -0.02214220992705709 0 0.024273308412574718 -0.023064095106105409 0 0.025727393893686862 -0.023419043248187166 0 0.026976318423216395 -0.022865156746953306 0 0.02663615821356553 -0.023946515965986508 0 0.025727393893686862 -0.023419043248187166 0 0.02663615821356553 -0.023946515965986508 0 0.025727393893686862 -0.023419043248187166 0 0.025448768735792642 -0.02414837367870603 0 0.025727393893686862 -0.023419043248187166 0 0.025448768735792642 -0.02414837367870603 0 0.024715977418648102 -0.023839292608366675 0 0.02663615821356553 -0.023946515965986508 0 0.025448768735792642 -0.02414837367870603 0 0.026230738725009244 -0.024977773995890407 0 0.025448768735792642 -0.02414837367870603 0 0.023916611095039918 -0.024576241384503782 0 0.026230738725009244 -0.024977773995890407 0 0.035140515536690967 -0.0045440906604670263 0 0.034396006222850058 -0.015491878086003599 0 0.025448768735792642 -0.02414837367870603 0 0.024715977418648102 -0.023839292608366675 0 0.023916611095039918 -0.024576241384503782 0 0.023922783638313645 -0.023805956234037567 0 0.024715977418648102 -0.023839292608366675 0 0.023916611095039918 -0.024576241384503782 0 0.047970271974620012 0.032276285617407884 0 0.050138941842747864 0.033599559988397962 0 0.051489167952395172 0.030574115669117625 0 0.0345362250954264 0.019214930466378954 0 0.033402746332376332 0.014787426028908047 0 0.035140515536690967 -0.0045440906604670263 0 0.039073789078360371 0.00091197613178463496 0 0.051170419423007825 0.02891631568807802 0 0.047970271974620012 0.032276285617407884 0 0.051489167952395172 0.030574115669117625 0 0.037099101949803426 -0.022893515698090176 0 0.03819486622693901 -0.023237218183469386 0 0.037906269941767858 -0.023666163132895664 0 0.039039108999956142 -0.023956366242383609 0 0.03819486622693901 -0.023237218183469386 0 0.037906269941767858 -0.023666163132895664 0 0.047970271974620012 0.032276285617407884 0 0.050138941842747864 0.033599559988397962 0 0.047931156089735513 0.035617003364610135 0 0.045109323267874216 0.035435101634318816 0 0.047970271974620012 0.032276285617407884 0 0.047931156089735513 0.035617003364610135 0 0.039206867346263996 0.0053516693942903546 0 0.039073789078360371 0.00091197613178463496 0 0.050138941842747864 0.033599559988397962 0 0.051332101924044145 0.0356629449898343 0 0.047931156089735513 0.035617003364610135 0 0.052247375344425383 0.032775280610578647 0 0.05456752047350618 0.032667620569812858 0 0.051332101924044145 0.0356629449898343 0 0.0034297663650693674 0.023579904654297934 0 0.0056435964773193601 0.021740464619198752 0 0.0040732105614288104 0.020638336873237156 0 0.050138941842747864 0.033599559988397962 0 0.052247375344425383 0.032775280610578647 0 0.051332101924044145 0.0356629449898343 0 0.016730094094621291 0.015332200379932364 0 0.023260033138194459 0.02283499635548011 0 0.052247375344425383 0.032775280610578647 0 0.052379282172180568 0.031455793240975069 0 0.051249338047012788 0.030693218552121232 0 0.050138941842747864 0.033599559988397962 0 0.052247375344425383 0.032775280610578647 0 0.051249338047012788 0.030693218552121232 0 0.052247375344425383 0.032775280610578647 0 0.052379282172180568 0.031455793240975069 0 0.05417991442986745 0.031752600949947467 0 0.052247375344425383 0.032775280610578647 0 0.05417991442986745 0.031752600949947467 0 0.05456752047350618 0.032667620569812858 0 0.027789410022941483 0.021105516549855693 0 0.021014694123124091 0.016164155438347261 0 0.052379282172180568 0.031455793240975069 0 0.052418744706667075 0.030248629826132113 0 0.05417991442986745 0.031752600949947467 0 0.052379282172180568 0.031455793240975069 0 0.052418744706667075 0.030248629826132113 0 0.051249338047012788 0.030693218552121232 0 0.0082640804386226799 0.002934901465016375 0 0.007873659369870889 0.0038671551330954827 0 0.0092856614018142509 0.0026539588446774388 0 0.0080413852929157228 0.0021781280197964189 0 0.0082640804386226799 0.002934901465016375 0 0.0075003033756045161 0.0035455809190774708 0 0.018499623851957359 0.010731537702748265 0 0.020054755495481399 0.014307376268155191 0 0.021356486729665596 0.013208124276971149 0 0.021014694123124091 0.016164155438347261 0 0.016730094094621291 0.015332200379932364 0 0.021014694123124091 0.016164155438347261 0 0.016253976633487224 0.014402698575272184 0 0.016730094094621291 0.015332200379932364 0 0.016253976633487224 0.014402698575272184 0 0.0082640804386226799 0.002934901465016375 0 0.0075003033756045161 0.0035455809190774708 0 0.007873659369870889 0.0038671551330954827 0 0.010607541176439103 0.011247981234173501 0 0.010515281898251579 0.011325562006631916 0 0.0098504319098356597 0.010763952527133039 0 0.010607541176439103 0.011247981234173501 0 0.0098504319098356597 0.010763952527133039 0 0.010103555512585767 0.010162090716429246 0 0.016253976633487224 0.014402698575272184 0 0.0031002649577427863 0.0078959314238132728 0 0.016730094094621291 0.015332200379932364 0 0.0062513271946354797 0.014358333249199447 0 -0.027622167703850464 -0.0031005955074900711 0 -0.027087244407623171 -0.0030583811769090983 0 -0.027160876041707062 -0.0039766560361899437 0 0.0074077423162914723 0.0042052332235007657 0 0.0089178957107372888 0.0055119877135966786 0 0.0088241301631742167 0.0039973176280287698 0 -0.027087244407623171 -0.0030583811769090983 0 -0.0268033545696089 -0.0035888498354373303 0 -0.025849488520853513 -0.0025772781932430094 0 -0.027622167703850464 -0.0031005955074900711 0 -0.027087244407623171 -0.0030583811769090983 0 -0.02693466306096938 -0.0023821608444217547 0 -0.027087244407623171 -0.0030583811769090983 0 -0.0268033545696089 -0.0035888498354373303 0 -0.027160876041707062 -0.0039766560361899437 0 -0.0268033545696089 -0.0035888498354373303 0 -0.026820787108528563 -0.0039579576365477015 0 -0.027160876041707062 -0.0039766560361899437 0 0.0089178957107372888 0.0055119877135966786 0 0.0098994875308116032 0.0030938871227999551 0 0.0088241301631742167 0.0039973176280287698 0 0.0074077423162914723 0.0042052332235007657 0 0.0088241301631742167 0.0039973176280287698 0 0.0092856614018142509 0.0026539588446774388 0 0.0098994875308116032 0.0030938871227999551 0 0.0088241301631742167 0.0039973176280287698 0 0.0092856614018142509 0.0026539588446774388 0 0.0031002649577427863 0.0078959314238132728 0 -0.0024468543666212816 0.0026877729649522103 0 0.016253976633487224 0.014402698575272184 0 0.01530075202216101 0.012014607991283741 0 -0.026343909914516586 -0.0032792947854579889 0 -0.026629028381682514 -0.0035389022157664898 0 -0.026384338211694933 -0.003714745637310223 0 -0.026343909914516586 -0.0032792947854579889 0 -0.026629028381682514 -0.0035389022157664898 0 -0.026629024790712576 -0.0031755623807642481 0 -0.0268033545696089 -0.0035888498354373303 0 -0.026629028381682514 -0.0035389022157664898 0 -0.02660425341060731 -0.0033416173018080675 0 -0.024046371124644025 -0.0022536900993511098 0 -0.020916695924708975 0.00092795272744465953 0 -0.021557941143181658 -0.00059638436106514885 0 -0.020916695924708975 0.00092795272744465953 0 -0.026820787108528563 -0.0039579576365477015 0 -0.026629028381682514 -0.0035389022157664898 0 -0.026654531326130576 -0.0041046678347642605 0 -0.0268033545696089 -0.0035888498354373303 0 -0.026820787108528563 -0.0039579576365477015 0 -0.026629028381682514 -0.0035389022157664898 0 -0.026384338211694933 -0.003714745637310223 0 -0.026448819613566578 -0.0040842965563715741 0 -0.026072901568503941 -0.0039373739605397789 0 -0.026384338211694933 -0.003714745637310223 0 -0.026448819613566578 -0.0040842965563715741 0 -0.026654531326130576 -0.0041046678347642605 0 -0.026629028381682514 -0.0035389022157664898 0 -0.026384338211694933 -0.003714745637310223 0 -0.026654531326130576 -0.0041046678347642605 0 -0.02647233564973436 -0.0045583208230082278 0 -0.026654531326130576 -0.0041046678347642605 0 -0.026589169563346095 -0.0044938620381844135 0 -0.02647233564973436 -0.0045583208230082278 0 -0.026448819613566578 -0.0040842965563715741 0 -0.026072901568503941 -0.0039373739605397789 0 -0.02647233564973436 -0.0045583208230082278 0 -0.026448819613566578 -0.0040842965563715741 0 -0.026654531326130576 -0.0041046678347642605 0 -0.026820787108528563 -0.0039579576365477015 0 -0.026654531326130576 -0.0041046678347642605 0 -0.02681186350421778 -0.0044151037232618697 0 -0.026654531326130576 -0.0041046678347642605 0 -0.026589169563346095 -0.0044938620381844135 0 -0.02681186350421778 -0.0044151037232618697 0 -0.026589169563346095 -0.0044938620381844135 0 -0.02681186350421778 -0.0044151037232618697 0 -0.026561328920343758 -0.0045003604785132691 0 -0.02647233564973436 -0.0045583208230082278 0 -0.026589169563346095 -0.0044938620381844135 0 -0.026574644778934134 -0.0044680528656539627 0 0.0092856614018142509 0.0026539588446774388 0 0.010668461233955529 0.00107241351993043 0 0.0089345266919166697 0.0013641376106084452 0 0.0080413852929157228 0.0021781280197964189 0 0.0086149762858293167 0.0024258954786748163 0 0.0089345266919166697 0.0013641376106084452 0 0.0082640804386226799 0.002934901465016375 0 0.0086149762858293167 0.0024258954786748163 0 0.0092856614018142509 0.0026539588446774388 0 0.0086149762858293167 0.0024258954786748163 0 0.0092856614018142509 0.0026539588446774388 0 0.0089345266919166697 0.0013641376106084452 0 -0.026820787108528563 -0.0039579576365477015 0 -0.027160876041707062 -0.0039766560361899437 0 -0.02681186350421778 -0.0044151037232618697 0 -0.0024468543666212816 0.0026877729649522103 0 -0.0050353249674491797 -0.00035117988947339481 0 0.0098994875308116032 0.0030938871227999551 0 0.0092856614018142509 0.0026539588446774388 0 0.010668461233955529 0.00107241351993043 0 -0.0050353249674491797 -0.00035117988947339481 0 -0.0059480557324572509 -0.0029592294195743499 0 0.010668461233955529 0.00107241351993043 0 0.0097550758856244993 3.8715393245705562e-05 0 0.011432258895111142 -0.00085540135763053032 0 0.008188236651986423 6.5100026374988534e-05 0 0.0097550758856244993 3.8715393245705562e-05 0 0.0089345266919166697 0.0013641376106084452 0 0.010668461233955529 0.00107241351993043 0 0.0097550758856244993 3.8715393245705562e-05 0 0.0089345266919166697 0.0013641376106084452 0 0.008188236651986423 6.5100026374988534e-05 0 0.0097550758856244993 3.8715393245705562e-05 0 0.009673564714275348 -0.0013441501164163307 0 0.019606514470309724 -0.005939847980576003 0 0.014105593460514619 -0.010338833413361521 0 0.021109626156732467 -0.020304848323348917 0 0.021180530133160829 -0.02079118599493799 0 0.021397644271110836 -0.020917221297838087 0 0.021232087879642893 -0.021175597005117144 0 0.021180530133160829 -0.02079118599493799 0 0.021274000616237108 -0.021015764036137558 0 0.021274000616237108 -0.021015764036137558 0 0.021397644271110836 -0.020917221297838087 0 0.021232110909844993 -0.021123042892723241 0 0.021180530133160829 -0.02079118599493799 0 0.021274000616237108 -0.021015764036137558 0 0.021397644271110836 -0.020917221297838087 0 0.021232087879642893 -0.021175597005117144 0 0.021274000616237108 -0.021015764036137558 0 0.021232110909844993 -0.021123042892723241 0 0.009673564714275348 -0.0013441501164163307 0 0.011432258895111142 -0.00085540135763053032 0 0.011136198558733287 -0.0027318409149212279 0 0.021397644271110836 -0.020917221297838087 0 0.021508405547912748 -0.021089700941821006 0 0.021232110909844993 -0.021123042892723241 0 0.014105593460514619 -0.010338833413361521 0 0.0053830661623496699 -0.012091814000380972 0 0.0097550758856244993 3.8715393245705562e-05 0 0.009673564714275348 -0.0013441501164163307 0 0.011432258895111142 -0.00085540135763053032 0 -0.026589169563346095 -0.0044938620381844135 0 -0.026561328920343758 -0.0045003604785132691 0 -0.026574644778934134 -0.0044680528656539627 0 -0.026561328920343758 -0.0045003604785132691 0 -0.026574644778934134 -0.0044680528656539627 0 -0.026584747405626896 -0.0044230674743009433 0 -0.026574644778934134 -0.0044680528656539627 0 -0.026584747405626896 -0.0044230674743009433 0 -0.026739385628464309 -0.0043909342328391863 0 -0.026584747405626896 -0.0044230674743009433 0 -0.026529241253748715 -0.0043869317715659797 0 -0.026596296677788137 -0.0043689119649943297 0 -0.026561328920343758 -0.0045003604785132691 0 -0.026584747405626896 -0.0044230674743009433 0 -0.026529241253748715 -0.0043869317715659797 0 0.011432258895111142 -0.00085540135763053032 0 0.011136198558733287 -0.0027318409149212279 0 0.012198444660634035 -0.0027633755139140161 0 -0.0059480557324572509 -0.0029592294195743499 0 -0.0051253069650038395 -0.00777845916591525 0 -0.0032306872931857794 -0.0096590014835037617 0 -0.0045720381131972212 -0.008758069750850828 0 -0.0048343315866984267 -0.0082570072356331556 0 -0.0032306872931857794 -0.0096590014835037617 0 -0.0041715756849903911 -0.0096417613794717912 0 -0.0045720381131972212 -0.008758069750850828 0 0.0053830661623496699 -0.012091814000380972 0 -0.0051253069650038395 -0.00777845916591525 0 0.0040695111217778487 -0.023612747464163683 0 0.001688789147082618 -0.021120172584527894 0 0.0042357374849427637 -0.021346571162978566 0 0.0053830661623496699 -0.012091814000380972 0 -0.0043930649409147449 -0.014554447231234871 0 -0.0051253069650038395 -0.00777845916591525 0 -0.012502612541587143 -0.010695795382969808 0 -0.0042001270013703705 -0.0096277211022744568 0 -0.0054067493587235844 -0.00960831318927622 0 -0.0045720381131972212 -0.008758069750850828 0 -2.0218673124627074e-05 -0.025427154685798144 0 0.0012948650450134789 -0.022394034841763302 0 -0.00046528292736626795 -0.023427860091027247 0 -0.0054067493587235844 -0.00960831318927622 0 -0.0045720381131972212 -0.008758069750850828 0 -0.0048343315866984267 -0.0082570072356331556 0 -0.012502612541587143 -0.010695795382969808 0 -0.0043930649409147449 -0.014554447231234871 0 -0.0051253069650038395 -0.00777845916591525 0 -0.0049773694733900031 -0.008098837940054112 0 -6.4398545426184607e-06 -0.022589179727485805 0 0.00094263532187751091 -0.022060486015363052 0 0.0012948650450134789 -0.022394034841763302 0 -6.4398545426184607e-06 -0.022589179727485805 0 0.0012948650450134789 -0.022394034841763302 0 -0.00046528292736626795 -0.023427860091027247 0 -6.4398545426184607e-06 -0.022589179727485805 0 0.00094263532187751091 -0.022060486015363052 0 0.00014259150161255029 -0.021710356786244868 0 -0.0043007561283362064 -0.014647594070314044 0 -0.0043930649409147449 -0.014554447231234871 0 -0.0041641469907146966 -0.015525740328093299 0 -0.0043930649409147449 -0.014554447231234871 0 0.0021671439538951264 -0.020045041806748858 0 0.001688789147082618 -0.021120172584527894 0 0.0029172516461346176 -0.020572326466441648 0 0.0021671439538951264 -0.020045041806748858 0 0.00094263532187751091 -0.022060486015363052 0 0.0013466150989746635 -0.022424356322872249 0 0.0021671439538951264 -0.020045041806748858 0 0.00044192039483595489 -0.020609295174943365 0 0.00094263532187751091 -0.022060486015363052 0 0.00044192039483595489 -0.020609295174943365 0 0.00094263532187751091 -0.022060486015363052 0 0.00014259150161255029 -0.021710356786244868 0 0.0048198386632802726 -0.019079984804531578 0 0.0035074751927147373 -0.019845530085926221 0 0.0042357374849427637 -0.021346571162978566 0 0.001688789147082618 -0.021120172584527894 0 0.0042357374849427637 -0.021346571162978566 0 0.0029172516461346176 -0.020572326466441648 0 0.0035074751927147373 -0.019845530085926221 0 0.0042357374849427637 -0.021346571162978566 0 0.0029172516461346176 -0.020572326466441648 0 0.0035074751927147373 -0.019845530085926221 0 0.0021671439538951264 -0.020045041806748858 0 0.0029172516461346176 -0.020572326466441648 0 0.0060744829967657437 -0.02031778218316645 0 0.0046836531087226787 -0.019760987683314284 0 0.0063097602999198088 -0.021385719103342457 0 0.0048198386632802726 -0.019079984804531578 0 0.0042357374849427637 -0.021346571162978566 0 0.0063097602999198088 -0.021385719103342457 0 0.0044304045951342854 -0.019124134341500038 0 0.0049725692734690395 -0.02009032054434148 0 0.0042357374849427637 -0.021346571162978566 0 0.0063097602999198088 -0.021385719103342457 0 0.0056605356185508958 -0.021779313965794484 0 0.0060744829967657437 -0.02031778218316645 0 0.0063097602999198088 -0.021385719103342457 0 0.0065218351740835038 -0.020881003187302835 0 0.0060744829967657437 -0.02031778218316645 0 0.0067665103808627102 -0.019984890801514242 0 0.0065218351740835038 -0.020881003187302835 0 0.01820527847728285 -0.017201996811492707 0 0.015428522615926593 -0.016239273540830833 0 0.015310406152507425 -0.019487544879574693 0 0.012754895835896682 -0.020470528984879374 0 0.013455445510288969 -0.023736694450671836 0 0.0068314711258850641 -0.022648832571651303 0 0.0063097602999198088 -0.021385719103342457 0 0.0065218351740835038 -0.020881003187302835 0 0.0068314711258850641 -0.022648832571651303 0 0.015428522615926593 -0.016239273540830833 0 0.012754895835896682 -0.020470528984879374 0 0.0068314711258850641 -0.022648832571651303 0 0.011160182465204772 -0.019594158840821316 0 0.009097280962559821 -0.021318689909150687 0 0.015428522615926593 -0.016239273540830833 0 0.012754895835896682 -0.020470528984879374 0 0.015310406152507425 -0.019487544879574693 0 0.017806754199403044 -0.019727340323951317 0 0.015310406152507425 -0.019487544879574693 0 0.013455445510288969 -0.023736694450671836 0 0.012754895835896682 -0.020470528984879374 0 0.015310406152507425 -0.019487544879574693 0 0.013455445510288969 -0.023736694450671836 0 0.0040695111217778487 -0.023612747464163683 0 0.0042357374849427637 -0.021346571162978566 0 0.0056605356185508958 -0.021779313965794484 0 0.0053830661623496699 -0.012091814000380972 0 0.014712132417468453 -0.016407411207643843 0 0.0040695111217778487 -0.023612747464163683 0 0.013455445510288969 -0.023736694450671836 0 0.0068314711258850641 -0.022648832571651303 0 0.0040695111217778487 -0.023612747464163683 0 0.0068314711258850641 -0.022648832571651303 0 0.0056605356185508958 -0.021779313965794484 0 0.0063097602999198088 -0.021385719103342457 0 0.0068314711258850641 -0.022648832571651303 0 0.0056605356185508958 -0.021779313965794484 0 -0.027410537631650571 -0.010932575876417378 0 -0.026588761106828378 -0.010331643496530844 0 -0.027232801472686256 -0.012607991096727169 0 -0.027410537631650571 -0.010932575876417378 0 -0.027232801472686256 -0.012607991096727169 0 -0.02814226433360437 -0.010873597123123106 0 -0.0071752213216107101 -0.022802792383882234 0 -0.0043419811392530266 -0.022604654601340014 0 -0.0046353471976451092 -0.024504715488182314 0 -0.015113573820734087 -0.016662777494220796 0 -0.015139050332602074 -0.014747302433918122 0 -0.027410537631650571 -0.010932575876417378 0 -0.02814226433360437 -0.010873597123123106 0 -0.027529943303181238 -0.010090066075431442 0 -0.027410537631650571 -0.010932575876417378 0 -0.026588761106828378 -0.010331643496530844 0 -0.027529943303181238 -0.010090066075431442 0 -0.025155245929162181 -0.011077298530969584 0 -0.026588761106828378 -0.010331643496530844 0 -0.025555466182201673 -0.0094810641881135933 0 -0.025155245929162181 -0.011077298530969584 0 -0.026588761106828378 -0.010331643496530844 0 -0.027232801472686256 -0.012607991096727169 0 -0.013829497500520075 -0.018565172012955787 0 -0.0093208932202591133 -0.019236122113968985 0 -0.0096975932383532373 -0.021063842340779838 0 -0.0071752213216107101 -0.022802792383882234 0 -0.0055701407227279941 -0.021132871380018424 0 -0.013829497500520075 -0.018565172012955787 0 -0.015113573820734087 -0.016662777494220796 0 -0.02445017958286173 -0.016005687806632838 0 -0.025155245929162181 -0.011077298530969584 0 -0.027232801472686256 -0.012607991096727169 0 -0.0071752213216107101 -0.022802792383882234 0 -0.0055701407227279941 -0.021132871380018424 0 -0.0043419811392530266 -0.022604654601340014 0 -0.0055701407227279941 -0.021132871380018424 0 -0.0033548845046983125 -0.021546477381628733 0 -0.0043419811392530266 -0.022604654601340014 0 -0.0033548845046983125 -0.021546477381628733 0 -0.0019164921307269812 -0.020906480537659256 0 -0.0022846862551278166 -0.02234841233817824 0 -0.0043419811392530266 -0.022604654601340014 0 -0.0022846862551278166 -0.02234841233817824 0 -0.0033836672629613176 -0.023721443202142055 0 -0.0033548845046983125 -0.021546477381628733 0 -0.0043419811392530266 -0.022604654601340014 0 -0.0022846862551278166 -0.02234841233817824 0 0.00044192039483595489 -0.020609295174943365 0 0.00014259150161255029 -0.021710356786244868 0 -0.00079404810903202885 -0.021565883272877014 0 -0.00079404810903202885 -0.021565883272877014 0 -0.0019164921307269812 -0.020906480537659256 0 -0.0022846862551278166 -0.02234841233817824 0 -0.0022846862551278166 -0.02234841233817824 0 -0.0012394592304896927 -0.022723564899681747 0 -0.0019525590406137936 -0.023879140574554165 0 -0.00079404810903202885 -0.021565883272877014 0 -0.0022846862551278166 -0.02234841233817824 0 -0.0012394592304896927 -0.022723564899681747 0 -6.4398545426184607e-06 -0.022589179727485805 0 -0.00079404810903202885 -0.021565883272877014 0 -0.0012394592304896927 -0.022723564899681747 0 -6.4398545426184607e-06 -0.022589179727485805 0 -0.0012394592304896927 -0.022723564899681747 0 -0.00046528292736626795 -0.023427860091027247 0 -6.4398545426184607e-06 -0.022589179727485805 0 0.00014259150161255029 -0.021710356786244868 0 -0.00079404810903202885 -0.021565883272877014 0 -2.0218673124627074e-05 -0.025427154685798144 0 -0.0019525590406137936 -0.023879140574554165 0 -0.0033391704028264873 -0.025401133490272204 0 -0.012502612541587143 -0.010695795382969808 0 -0.015195513475711632 -0.013277265326580355 0 -0.0012394592304896927 -0.022723564899681747 0 -0.00046528292736626795 -0.023427860091027247 0 -0.0019525590406137936 -0.023879140574554165 0 -2.0218673124627074e-05 -0.025427154685798144 0 -0.00046528292736626795 -0.023427860091027247 0 -0.0019525590406137936 -0.023879140574554165 0 -0.0043419811392530266 -0.022604654601340014 0 -0.0033836672629613176 -0.023721443202142055 0 -0.0046353471976451092 -0.024504715488182314 0 -0.0019525590406137936 -0.023879140574554165 0 -0.0033836672629613176 -0.023721443202142055 0 -0.0033391704028264873 -0.025401133490272204 0 -0.0022846862551278166 -0.02234841233817824 0 -0.0019525590406137936 -0.023879140574554165 0 -0.0033836672629613176 -0.023721443202142055 0 -0.028521409130034453 -0.010369232088333827 0 -0.02814226433360437 -0.010873597123123106 0 -0.028212130724455196 -0.009911554518230269 0 -0.0033836672629613176 -0.023721443202142055 0 -0.0033391704028264873 -0.025401133490272204 0 -0.0046353471976451092 -0.024504715488182314 0 -0.015195513475711632 -0.013277265326580355 0 -0.015139050332602074 -0.014747302433918122 0 -0.02814226433360437 -0.010873597123123106 0 -0.028212130724455196 -0.009911554518230269 0 -0.027529943303181238 -0.010090066075431442 0 -0.028212130724455196 -0.009911554518230269 0 -0.027835249344205899 -0.0093786290622688059 0 -0.027529943303181238 -0.010090066075431442 0 -0.028212130724455196 -0.009911554518230269 0 -0.028553555487627419 -0.0093069155728636721 0 -0.028958565350865335 -0.0099713897604506632 0 -0.028521409130034453 -0.010369232088333827 0 -0.028212130724455196 -0.009911554518230269 0 -0.028958565350865335 -0.0099713897604506632 0 -0.015195513475711632 -0.013277265326580355 0 -0.016852991400454355 -0.012372960349658554 0 -0.028212130724455196 -0.009911554518230269 0 -0.028553555487627419 -0.0093069155728636721 0 -0.027835249344205899 -0.0093786290622688059 0 -0.029810887219426256 -0.010338967245069051 0 -0.028958565350865335 -0.0099713897604506632 0 -0.029181198062157562 -0.008810544573262493 0 -0.029810887219426256 -0.010338967245069051 0 -0.028394846149769115 -0.010361679455526771 0 -0.028958565350865335 -0.0099713897604506632 0 -0.012502612541587143 -0.010695795382969808 0 -0.020306055854640358 -0.009261593593966248 0 -0.026584747405626896 -0.0044230674743009433 0 -0.026596296677788137 -0.0043689119649943297 0 -0.026739385628464309 -0.0043909342328391863 0 -0.028553555487627419 -0.0093069155728636721 0 -0.028958565350865335 -0.0099713897604506632 0 -0.029181198062157562 -0.008810544573262493 0 -0.028553555487627419 -0.0093069155728636721 0 -0.029181198062157562 -0.008810544573262493 0 -0.02805247265511026 -0.008345131800839449 0 -0.029181198062157562 -0.008810544573262493 0 -0.02805247265511026 -0.008345131800839449 0 -0.028407159274964205 -0.0072820527331229528 0 -0.028553555487627419 -0.0093069155728636721 0 -0.027835249344205899 -0.0093786290622688059 0 -0.02805247265511026 -0.008345131800839449 0 -0.027835249344205899 -0.0093786290622688059 0 -0.02805247265511026 -0.008345131800839449 0 -0.027342565860068425 -0.0085633668301110782 0 -0.027342565860068425 -0.0085633668301110782 0 -0.02659672211719288 -0.008925994394392598 0 -0.026904437941002737 -0.0076590937062776046 0 -0.02805247265511026 -0.008345131800839449 0 -0.027342565860068425 -0.0085633668301110782 0 -0.026904437941002737 -0.0076590937062776046 0 -0.027835249344205899 -0.0093786290622688059 0 -0.027342565860068425 -0.0085633668301110782 0 -0.02659672211719288 -0.008925994394392598 0 -0.027835249344205899 -0.0093786290622688059 0 -0.027529943303181238 -0.010090066075431442 0 -0.02659672211719288 -0.008925994394392598 0 -0.026588761106828378 -0.010331643496530844 0 -0.027529943303181238 -0.010090066075431442 0 -0.02659672211719288 -0.008925994394392598 0 -0.026588761106828378 -0.010331643496530844 0 -0.025555466182201673 -0.0094810641881135933 0 -0.02659672211719288 -0.008925994394392598 0 -0.02659672211719288 -0.008925994394392598 0 -0.025683897908494187 -0.0082653993308900945 0 -0.026904437941002737 -0.0076590937062776046 0 -0.025555466182201673 -0.0094810641881135933 0 -0.02659672211719288 -0.008925994394392598 0 -0.025683897908494187 -0.0082653993308900945 0 -0.025678046844317796 -0.0071387181473679387 0 -0.025683897908494187 -0.0082653993308900945 0 -0.026904437941002737 -0.0076590937062776046 0 -0.026904437941002737 -0.0076590937062776046 0 -0.027298582617675381 -0.0067422429142949573 0 -0.028407159274964205 -0.0072820527331229528 0 -0.026904437941002737 -0.0076590937062776046 0 -0.026576015627730792 -0.006344348552632776 0 -0.027298582617675381 -0.0067422429142949573 0 -0.026576015627730792 -0.006344348552632776 0 -0.027298582617675381 -0.0067422429142949573 0 -0.027456300216947858 -0.0057372303975876211 0 -0.025678046844317796 -0.0071387181473679387 0 -0.026904437941002737 -0.0076590937062776046 0 -0.026576015627730792 -0.006344348552632776 0 -0.025678046844317796 -0.0071387181473679387 0 -0.02535839319210249 -0.0062310565465448159 0 -0.026576015627730792 -0.006344348552632776 0 -0.026574644778934134 -0.0044680528656539627 0 -0.026739385628464309 -0.0043909342328391863 0 -0.027119493976490425 -0.0046922251603912319 0 -0.02647233564973436 -0.0045583208230082278 0 -0.026574644778934134 -0.0044680528656539627 0 -0.027119493976490425 -0.0046922251603912319 0 -0.020306055854640358 -0.009261593593966248 0 -0.023461997969945119 -0.007883985200098682 0 -0.02805247265511026 -0.008345131800839449 0 -0.026904437941002737 -0.0076590937062776046 0 -0.028407159274964205 -0.0072820527331229528 0 -0.023461997969945119 -0.007883985200098682 0 -0.024287783577870366 -0.0073659210488585397 0 -0.027298582617675381 -0.0067422429142949573 0 -0.028407159274964205 -0.0072820527331229528 0 -0.027456300216947858 -0.0057372303975876211 0 -0.027119493976490425 -0.0046922251603912319 0 -0.026963704370249999 -0.0055101006484094767 0 -0.027456300216947858 -0.0057372303975876211 0 -0.026674283212155661 -0.0044805045650319819 0 -0.026665096945133211 -0.0043852284355936329 0 -0.02647233564973436 -0.0045583208230082278 0 -0.027119493976490425 -0.0046922251603912319 0 -0.026963704370249999 -0.0055101006484094767 0 -0.026072901568503941 -0.0039373739605397789 0 -0.025884803597362432 -0.0035407294795118801 0 -0.026145783962715757 -0.0034813776245536106 0 -0.026384338211694933 -0.003714745637310223 0 -0.026072901568503941 -0.0039373739605397789 0 -0.026145783962715757 -0.0034813776245536106 0 -0.026665096945133211 -0.0043852284355936329 0 -0.026550159849892049 -0.0039583699149698774 0 -0.027456300216947858 -0.0057372303975876211 0 -0.027464416598513539 -0.0054962586601754043 0 -0.02692956938562854 -0.0057109802354502288 0 -0.026963704370249999 -0.0055101006484094767 0 -0.027456300216947858 -0.0057372303975876211 0 -0.027464416598513539 -0.0054962586601754043 0 -0.026550159849892049 -0.0039583699149698774 0 -0.026165971476156402 -0.0029857141954550384 0 -0.025884803597362432 -0.0035407294795118801 0 -0.026023121345426874 -0.0032732628501932837 0 -0.025848346338315863 -0.0028728275202144168 0 -0.025884803597362432 -0.0035407294795118801 0 -0.026023121345426874 -0.0032732628501932837 0 -0.026145783962715757 -0.0034813776245536106 0 -0.026343909914516586 -0.0032792947854579889 0 -0.026384338211694933 -0.003714745637310223 0 -0.026145783962715757 -0.0034813776245536106 0 -0.026023121345426874 -0.0032732628501932837 0 -0.026145783962715757 -0.0034813776245536106 0 -0.026148372137913382 -0.0031513946496475637 0 -0.026343909914516586 -0.0032792947854579889 0 -0.026145783962715757 -0.0034813776245536106 0 -0.026148372137913382 -0.0031513946496475637 0 -0.02535839319210249 -0.0062310565465448159 0 -0.026576015627730792 -0.006344348552632776 0 -0.026316747157622476 -0.0055732999136247144 0 -0.026576015627730792 -0.006344348552632776 0 -0.027456300216947858 -0.0057372303975876211 0 -0.02692956938562854 -0.0057109802354502288 0 -0.026576015627730792 -0.006344348552632776 0 -0.026316747157622476 -0.0055732999136247144 0 -0.02692956938562854 -0.0057109802354502288 0 -0.027464416598513539 -0.0054962586601754043 0 -0.02692956938562854 -0.0057109802354502288 0 -0.026880073639802285 -0.0052621062123439392 0 -0.026316747157622476 -0.0055732999136247144 0 -0.02692956938562854 -0.0057109802354502288 0 -0.026880073639802285 -0.0052621062123439392 0 -0.027464416598513539 -0.0054962586601754043 0 -0.026880073639802285 -0.0052621062123439392 0 -0.026949729781594579 -0.0045419926892074653 0 -0.025622900114475218 -0.0053052921472642118 0 -0.026316747157622476 -0.0055732999136247144 0 -0.026265316839387803 -0.0048278256693443152 0 -0.025622900114475218 -0.0053052921472642118 0 -0.026265316839387803 -0.0048278256693443152 0 -0.025526311491307258 -0.0045302266748857524 0 -0.026316747157622476 -0.0055732999136247144 0 -0.026880073639802285 -0.0052621062123439392 0 -0.026265316839387803 -0.0048278256693443152 0 -0.026265316839387803 -0.0048278256693443152 0 -0.026949729781594579 -0.0045419926892074653 0 -0.026256439295242132 -0.0036514787332093779 0 -0.026265316839387803 -0.0048278256693443152 0 -0.026256439295242132 -0.0036514787332093779 0 -0.025526311491307258 -0.0045302266748857524 0 -0.026880073639802285 -0.0052621062123439392 0 -0.026265316839387803 -0.0048278256693443152 0 -0.026949729781594579 -0.0045419926892074653 0 -0.024996942117265702 -0.0026376373611400774 0 -0.025173561217996247 -0.00088367645389503897 0 -0.025894161900528147 -0.0017782876781240308 0 -0.025173561217996247 -0.00088367645389503897 0 -0.023460294819485236 -0.00077207081158376842 0 -0.024539377394149284 0.00055181905696955434 0 -0.024996942117265702 -0.0026376373611400774 0 -0.025173561217996247 -0.00088367645389503897 0 -0.023460294819485236 -0.00077207081158376842 0 -0.026165971476156402 -0.0029857141954550384 0 -0.025675453352892133 -0.0014880663999402683 0 -0.025675453352892133 -0.0014880663999402683 0 -0.025113045938078941 -0.0033598772260264686 0 -0.021282685569237628 0.003124328947009316 0 -0.023574156198309312 0.0020633957219173067 0 -0.026343909914516586 -0.0032792947854579889 0 -0.026333108230120236 -0.002949099875342075 0 -0.026148372137913382 -0.0031513946496475637 0 -0.026333108230120236 -0.002949099875342075 0 -0.026148372137913382 -0.0031513946496475637 0 -0.025848346338315863 -0.0028728275202144168 0 -0.028721136745231211 -0.0018911569891374368 0 -0.025848346338315863 -0.0028728275202144168 0 -0.026966221444772842 -0.0016686803854937581 0 -0.025884803597362432 -0.0035407294795118801 0 -0.024996942117265702 -0.0026376373611400774 0 -0.025848346338315863 -0.0028728275202144168 0 -0.026023121345426874 -0.0032732628501932837 0 -0.026148372137913382 -0.0031513946496475637 0 -0.025848346338315863 -0.0028728275202144168 0 -0.025848346338315863 -0.0028728275202144168 0 -0.025894161900528147 -0.0017782876781240308 0 -0.026966221444772842 -0.0016686803854937581 0 -0.024996942117265702 -0.0026376373611400774 0 -0.025848346338315863 -0.0028728275202144168 0 -0.025894161900528147 -0.0017782876781240308 0 -0.025173561217996247 -0.00088367645389503897 0 -0.025894161900528147 -0.0017782876781240308 0 -0.02642894600780071 -0.0007156301328824123 0 -0.025173561217996247 -0.00088367645389503897 0 -0.02642894600780071 -0.0007156301328824123 0 -0.026117958775193302 0.00056278550192590123 0 -0.025894161900528147 -0.0017782876781240308 0 -0.02642894600780071 -0.0007156301328824123 0 -0.026966221444772842 -0.0016686803854937581 0 -0.02642894600780071 -0.0007156301328824123 0 -0.026966221444772842 -0.0016686803854937581 0 -0.027935899110231737 -0.0011269566974314211 0 -0.028721136745231211 -0.0018911569891374368 0 -0.026966221444772842 -0.0016686803854937581 0 -0.027935899110231737 -0.0011269566974314211 0 -0.028721136745231211 -0.0018911569891374368 0 -0.027935899110231737 -0.0011269566974314211 0 -0.028469074606663178 -0.00021414233387639868 0 -0.021282685569237628 0.003124328947009316 0 -0.02034256023416825 0.0051644486959343747 0 -0.027935899110231737 -0.0011269566974314211 0 -0.028469074606663178 -0.00021414233387639868 0 -0.027196217589258047 3.728401316497594e-06 0 -0.02642894600780071 -0.0007156301328824123 0 -0.027935899110231737 -0.0011269566974314211 0 -0.027196217589258047 3.728401316497594e-06 0 -0.028469074606663178 -0.00021414233387639868 0 -0.027196217589258047 3.728401316497594e-06 0 -0.027090658678039 0.0014620073947591394 0 -0.02034256023416825 0.0051644486959343747 0 -0.017971913176886841 0.0095299203892676414 0 -0.018756674941928102 0.0080229315927000631 0 -0.018760971451206969 0.0080239703002385025 0 -0.018750696062265648 0.008023068319279146 0 -0.01698976310433092 0.013086110113213024 0 -0.019414850374412505 0.010204469276491936 0 -0.017386733523019553 0.0100642142569596 0 -0.02034256023416825 0.0051644486959343747 0 -0.022041874947964103 0.0048800243319589648 0 -0.026117958775193302 0.00056278550192590123 0 -0.027090658678039 0.0014620073947591394 0 -0.02580515255669415 0.0018456873215587494 0 -0.027196217589258047 3.728401316497594e-06 0 -0.026117958775193302 0.00056278550192590123 0 -0.027090658678039 0.0014620073947591394 0 -0.02642894600780071 -0.0007156301328824123 0 -0.027196217589258047 3.728401316497594e-06 0 -0.026117958775193302 0.00056278550192590123 0 -0.020342438514483831 0.0074903634435823123 0 -0.019414850374412505 0.010204469276491936 0 -0.021998448636155483 0.0071723918858644679 0 -0.022041874947964103 0.0048800243319589648 0 -0.023115027059219528 0.0043809004192073217 0 -0.027090658678039 0.0014620073947591394 0 -0.02580515255669415 0.0018456873215587494 0 -0.026011946597505078 0.0027152887135185049 0 -0.02069778650150025 0.0071313116477330039 0 -0.0181390612377599 0.0093446854686701514 0 -0.018650971528622606 0.0055550764621915237 0 -0.017971913176886841 0.0095299203892676414 0 -0.018048881674206176 0.0078393280904268201 0 -0.020123835572125527 0.0076291115594720373 0 -0.017971913176886841 0.0095299203892676414 0 -0.020342438514483831 0.0074903634435823123 0 -0.019414850374412505 0.010204469276491936 0 -0.017386733523019553 0.0100642142569596 0 -0.015897357188405611 0.017592089560054324 0 -0.016945582699692253 0.010806146323813756 0 -0.013450972658641681 0.01401437815890676 0 -0.025455805826785891 0.0014148600859736717 0 -0.025593184724677583 0.0014457215045475668 0 -0.025480408282301817 0.0019734844557930961 0 -0.025455805826785891 0.0014148600859736717 0 -0.025334111215720993 0.0016034377342099913 0 -0.0254902687943389 0.0011320123243149392 0 -0.025675453352892133 -0.0014880663999402683 0 -0.025385255796957426 -0.00081214676344734389 0 -0.02546743892689975 0.0013436079505124909 0 -0.025455805826785891 0.0014148600859736717 0 -0.0254902687943389 0.0011320123243149392 0 -0.02546743892689975 0.0013436079505124909 0 -0.025455805826785891 0.0014148600859736717 0 -0.025593184724677583 0.0014457215045475668 0 -0.025675453352892133 -0.0014880663999402683 0 -0.025903350902543067 -0.0004267845826041794 0 -0.025173561217996247 -0.00088367645389503897 0 -0.026117958775193302 0.00056278550192590123 0 -0.024539377394149284 0.00055181905696955434 0 -0.025903350902543067 -0.0004267845826041794 0 -0.026041729963702041 -1.582625410228723e-05 0 -0.026117958775193302 0.00056278550192590123 0 -0.024539377394149284 0.00055181905696955434 0 -0.02580515255669415 0.0018456873215587494 0 -0.025593184724677583 0.0014457215045475668 0 -0.025480408282301817 0.0019734844557930961 0 -0.02580515255669415 0.0018456873215587494 0 -0.02580515255669415 0.0018456873215587494 0 -0.025502133393323984 0.0025705486234928873 0 -0.026011946597505078 0.0027152887135185049 0 -0.025480408282301817 0.0019734844557930961 0 -0.025502133393323984 0.0025705486234928873 0 -0.025228406652405198 0.0027638369831628619 0 -0.025480408282301817 0.0019734844557930961 0 -0.02580515255669415 0.0018456873215587494 0 -0.025502133393323984 0.0025705486234928873 0 -0.025276907690737645 0.0021749733276366424 0 -0.025068477329595468 0.0034404843171865415 0 -0.024938924967350399 0.0017947834780539117 0 -0.025480408282301817 0.0019734844557930961 0 -0.025276907690737645 0.0021749733276366424 0 -0.025228406652405198 0.0027638369831628619 0 -0.025455805826785891 0.0014148600859736717 0 -0.025480408282301817 0.0019734844557930961 0 -0.025276907690737645 0.0021749733276366424 0 -0.025334111215720993 0.0016034377342099913 0 -0.025276907690737645 0.0021749733276366424 0 -0.024938924967350399 0.0017947834780539117 0 -0.025455805826785891 0.0014148600859736717 0 -0.025334111215720993 0.0016034377342099913 0 -0.025276907690737645 0.0021749733276366424 0 -0.025068477329595468 0.0034404843171865415 0 -0.025228406652405198 0.0027638369831628619 0 -0.024576110748900034 0.0035122187051206634 0 -0.025276907690737645 0.0021749733276366424 0 -0.025068477329595468 0.0034404843171865415 0 -0.025228406652405198 0.0027638369831628619 0 -0.023528665199532391 0.0045469557546680217 0 -0.021789293410349939 0.0060237533572629377 0 -0.026158060307774469 0.0044387992054869575 0 -0.027306681966178449 0.0070740910825053231 0 -0.025097390084801247 0.0067638664323700715 0 -0.025068477329595468 0.0034404843171865415 0 -0.024576110748900034 0.0035122187051206634 0 -0.024714082645885121 0.0014097672859857094 0 -0.022989649565271723 0.002958457745329093 0 -0.024576110748900034 0.0035122187051206634 0 -0.024714082645885121 0.0014097672859857094 0 -0.022989649565271723 0.002958457745329093 0 -0.024576110748900034 0.0035122187051206634 0 -0.023464304855014367 0.0044791144100588629 0 -0.022989649565271723 0.002958457745329093 0 -0.023464304855014367 0.0044791144100588629 0 -0.022046335203224195 0.0039350719952290615 0 -0.024576110748900034 0.0035122187051206634 0 -0.023464304855014367 0.0044791144100588629 0 -0.021998448636155483 0.0071723918858644679 0 -0.025502133393323984 0.0025705486234928873 0 -0.025228406652405198 0.0027638369831628619 0 -0.024576110748900034 0.0035122187051206634 0 -0.023588180490351666 0.0039995800310631789 0 -0.023115027059219528 0.0043809004192073217 0 -0.025502133393323984 0.0025705486234928873 0 -0.024576110748900034 0.0035122187051206634 0 -0.026011946597505078 0.0027152887135185049 0 -0.020123835572125527 0.0076291115594720373 0 -0.02135793681525491 0.0065321481586206641 0 -0.02069778650150025 0.0071313116477330039 0 -0.023464304855014367 0.0044791144100588629 0 -0.021053676310615051 0.0048715167416079281 0 -0.020342438514483831 0.0074903634435823123 0 -0.023464304855014367 0.0044791144100588629 0 -0.021998448636155483 0.0071723918858644679 0 -0.02069778650150025 0.0071313116477330039 0 -0.021053676310615051 0.0048715167416079281 0 -0.018650971528622606 0.0055550764621915237 0 -0.018650971528622606 0.0055550764621915237 0 -0.020662306684817642 0.003381126994273708 0 -0.018600673150788682 0.0025480848316483356 0 -0.018048881674206176 0.0078393280904268201 0 -0.018296874506502057 0.0056875241199720126 0 -0.016945582699692253 0.010806146323813756 0 -0.018600673150788682 0.0025480848316483356 0 -0.012708683560011359 0.0056364842570266419 0 -0.021053676310615051 0.0048715167416079281 0 -0.018650971528622606 0.0055550764621915237 0 -0.020662306684817642 0.003381126994273708 0 -0.021053676310615051 0.0048715167416079281 0 -0.022046335203224195 0.0039350719952290615 0 -0.020662306684817642 0.003381126994273708 0 -0.023464304855014367 0.0044791144100588629 0 -0.021053676310615051 0.0048715167416079281 0 -0.022046335203224195 0.0039350719952290615 0 -0.022989649565271723 0.002958457745329093 0 -0.020662306684817642 0.003381126994273708 0 -0.022107853149965294 0.001641956657409811 0 -0.022989649565271723 0.002958457745329093 0 -0.022046335203224195 0.0039350719952290615 0 -0.020662306684817642 0.003381126994273708 0 -0.022107853149965294 0.001641956657409811 0 -0.020389588025799359 0.0017603656772095522 0 -0.020954734650168588 0.00021938564581848777 0 -0.020662306684817642 0.003381126994273708 0 -0.022107853149965294 0.001641956657409811 0 -0.020389588025799359 0.0017603656772095522 0 -0.020662306684817642 0.003381126994273708 0 -0.020389588025799359 0.0017603656772095522 0 -0.018600673150788682 0.0025480848316483356 0 -0.020389588025799359 0.0017603656772095522 0 -0.019423101630300234 0.0007598424981431547 0 -0.018600673150788682 0.0025480848316483356 0 -0.019423101630300234 0.0007598424981431547 0 -0.019619967559608955 -0.00041486659371092792 0 -0.020954734650168588 0.00021938564581848777 0 -0.020389588025799359 0.0017603656772095522 0 -0.019423101630300234 0.0007598424981431547 0 -0.020954734650168588 0.00021938564581848777 0 -0.022107853149965294 0.001641956657409811 0 -0.020954734650168588 0.00021938564581848777 0 -0.022564083351795005 -2.88641530495961e-06 0 -0.020954734650168588 0.00021938564581848777 0 -0.021286526829287021 -0.0011071673114750838 0 -0.022564083351795005 -2.88641530495961e-06 0 -0.016672202111870701 0.0014131740138429417 0 -0.015821953623569977 -0.00068765224960489683 0 -0.012708683560011359 0.0056364842570266419 0 -0.016672202111870701 0.0014131740138429417 0 -0.018600673150788682 0.0025480848316483356 0 -0.012708683560011359 0.0056364842570266419 0 -0.016672202111870701 0.0014131740138429417 0 -0.018600673150788682 0.0025480848316483356 0 -0.018091091770031421 0.00065678812641308914 0 -0.019423101630300234 0.0007598424981431547 0 -0.018600673150788682 0.0025480848316483356 0 -0.018091091770031421 0.00065678812641308914 0 -0.019423101630300234 0.0007598424981431547 0 -0.018774446940068891 -0.000338463231263408 0 -0.018091091770031421 0.00065678812641308914 0 -0.019423101630300234 0.0007598424981431547 0 -0.019619967559608955 -0.00041486659371092792 0 -0.018774446940068891 -0.000338463231263408 0 -0.018774446940068891 -0.000338463231263408 0 -0.018091091770031421 0.00065678812641308914 0 -0.017269448952560159 -0.0006930342504158271 0 -0.016672202111870701 0.0014131740138429417 0 -0.018091091770031421 0.00065678812641308914 0 -0.017269448952560159 -0.0006930342504158271 0 -0.016672202111870701 0.0014131740138429417 0 -0.017269448952560159 -0.0006930342504158271 0 -0.015821953623569977 -0.00068765224960489683 0 -0.013800108063798526 0.0035483916285166893 0 -0.012499647607948444 0.0070726310109023019 0 -0.017269448952560159 -0.0006930342504158271 0 -0.015821953623569977 -0.00068765224960489683 0 -0.018087048876246271 -0.0058272856321325587 0 -0.013388282708707153 0.0022182104786021895 0 -0.012513636293977793 -0.00013818855982953367 0 -0.014458277292164499 -0.0011128290153402487 0 -0.017269448952560159 -0.0006930342504158271 0 -0.020142839216900129 -0.0026171875816897827 0 -0.018087048876246271 -0.0058272856321325587 0 -0.015888971542197917 0.0046203251892194428 0 -0.014957863044577727 0.0055090166204817869 0 -0.018774446940068891 -0.000338463231263408 0 -0.017269448952560159 -0.0006930342504158271 0 -0.019825701381532331 -0.0016580086819220105 0 -0.014957863044577727 0.0055090166204817869 0 -0.012499647607948444 0.0070726310109023019 0 -0.0096257145713764813 0.014355328847624593 0 -0.0093187555031925967 0.014574913489860815 0 -0.0095399980689197649 0.014644860220451828 0 -0.021286526829287021 -0.0011071673114750838 0 -0.019821705656397303 -0.0014902085546228629 0 -0.022820466659060838 -0.003364377596526268 0 -0.021286526829287021 -0.0011071673114750838 0 -0.022564083351795005 -2.88641530495961e-06 0 -0.022820466659060838 -0.003364377596526268 0 -0.014957863044577727 0.0055090166204817869 0 -0.01749586612500997 0.0096918001309146268 0 -0.019619967559608955 -0.00041486659371092792 0 -0.020954734650168588 0.00021938564581848777 0 -0.020087686961714663 -0.0011381512874768327 0 -0.021286526829287021 -0.0011071673114750838 0 -0.020087686961714663 -0.0011381512874768327 0 -0.019821705656397303 -0.0014902085546228629 0 -0.020954734650168588 0.00021938564581848777 0 -0.021286526829287021 -0.0011071673114750838 0 -0.020087686961714663 -0.0011381512874768327 0 -0.019619967559608955 -0.00041486659371092792 0 -0.018774446940068891 -0.000338463231263408 0 -0.019825701381532331 -0.0016580086819220105 0 -0.019619967559608955 -0.00041486659371092792 0 -0.020087686961714663 -0.0011381512874768327 0 -0.019825701381532331 -0.0016580086819220105 0 -0.014957188045104998 0.0054647996024388447 0 -0.014957863044577727 0.0055090166204817869 0 -0.0096257145713764813 0.014355328847624593 0 -0.0095399980689197649 0.014644860220451828 0 -0.0097523537042346637 0.014575306234240868 0 -0.026302835594041275 0.0088968722926263677 0 -0.027306681966178449 0.0070740910825053231 0 -0.028479857308234133 0.0096869466093776752 0 -0.021789293410349939 0.0060237533572629377 0 -0.01749586612500997 0.0096918001309146268 0 -0.024714082645885121 0.0014097672859857094 0 -0.022564083351795005 -2.88641530495961e-06 0 -0.022820466659060838 -0.003364377596526268 0 -0.026302835594041275 0.0088968722926263677 0 -0.027306681966178449 0.0070740910825053231 0 -0.025097390084801247 0.0067638664323700715 0 -0.022989649565271723 0.002958457745329093 0 -0.022107853149965294 0.001641956657409811 0 -0.024714082645885121 0.0014097672859857094 0 -0.022107853149965294 0.001641956657409811 0 -0.024714082645885121 0.0014097672859857094 0 -0.022564083351795005 -2.88641530495961e-06 0 -0.0034193195671767371 0.0037813443402578981 0 -0.0060930343788127084 0.00044312258747805172 0 -0.0064948254027397201 0.0046181021605771842 0 -0.0034044638092132458 0.0058642341259824062 0 -0.00037596490611282107 0.0077322448943678993 0 0.0014778911855628262 0.0029513006053493878 0 -0.0011943237053098647 -0.00022170298065650603 0 0.0014778911855628262 0.0029513006053493878 0 0.00050199114236736456 -0.0041301504682880958 0 -0.0034044638092132458 0.0058642341259824062 0 -0.0011943237053098647 -0.00022170298065650603 0 0.0014778911855628262 0.0029513006053493878 0 -0.0034584671914376199 0.0054956378856685084 0 -0.0024995507865075532 0.0032043939847915324 0 -0.0034193195671767371 0.0037813443402578981 0 -0.0011943237053098647 -0.00022170298065650603 0 -0.0060930343788127084 0.00044312258747805172 0 -0.0060930343788127084 0.00044312258747805172 0 -0.0091428181239547168 0.0024487103102418398 0 -0.010553581985725202 -0.0012118313882627635 0 -0.011607925426163375 0.0014187257164437704 0 -0.0091428181239547168 0.0024487103102418398 0 -0.010553581985725202 -0.0012118313882627635 0 -0.012513636293977793 -0.00013818855982953367 0 -0.011607925426163375 0.0014187257164437704 0 -0.010553581985725202 -0.0012118313882627635 0 -0.013388282708707153 0.0022182104786021895 0 -0.012513636293977793 -0.00013818855982953367 0 -0.011607925426163375 0.0014187257164437704 0 -0.013800108063798526 0.0035483916285166893 0 -0.013600826260168845 0.0039358878532876236 0 -0.011626116430870895 0.0034933237474341411 0 -0.0091428181239547168 0.0024487103102418398 0 -0.0091262500410002733 0.0060198610264797434 0 -0.013388282708707153 0.0022182104786021895 0 -0.011626116430870895 0.0034933237474341411 0 -0.012708683560011359 0.0056364842570266419 0 -0.013388282708707153 0.0022182104786021895 0 -0.011607925426163375 0.0014187257164437704 0 -0.011626116430870895 0.0034933237474341411 0 -0.011607925426163375 0.0014187257164437704 0 -0.011626116430870895 0.0034933237474341411 0 -0.0091428181239547168 0.0024487103102418398 0 -0.0060930343788127084 0.00044312258747805172 0 -0.0064948254027397201 0.0046181021605771842 0 -0.0091428181239547168 0.0024487103102418398 0 -0.0064948254027397201 0.0046181021605771842 0 -0.0091428181239547168 0.0024487103102418398 0 -0.0091262500410002733 0.0060198610264797434 0 -0.0064948254027397201 0.0046181021605771842 0 -0.0091262500410002733 0.0060198610264797434 0 -0.0051278485045164789 0.0083480557367597297 0 -0.0091262500410002733 0.0060198610264797434 0 -0.010599774807203336 0.010711670359876186 0 -0.0051278485045164789 0.0083480557367597297 0 -0.0091262500410002733 0.0060198610264797434 0 -0.012708683560011359 0.0056364842570266419 0 -0.010599774807203336 0.010711670359876186 0 -0.011626116430870895 0.0034933237474341411 0 -0.0091262500410002733 0.0060198610264797434 0 -0.012708683560011359 0.0056364842570266419 0 -0.016945582699692253 0.010806146323813756 0 -0.012708683560011359 0.0056364842570266419 0 -0.010599774807203336 0.010711670359876186 0 -0.016945582699692253 0.010806146323813756 0 -0.010599774807203336 0.010711670359876186 0 -0.013450972658641681 0.01401437815890676 0 -0.010599774807203336 0.010711670359876186 0 -0.0051278485045164789 0.0083480557367597297 0 -0.0071669998204051547 0.013818355947370095 0 -0.0032725663673981793 0.013399355555375398 0 -0.0040918168799198816 0.015455415494617842 0 -0.0068256200029752001 0.015336218813466355 0 -0.0051716603968612078 0.009687569255609825 0 -0.006894052181285846 0.013850520134204271 0 -0.0032725663673981793 0.013399355555375398 0 -0.0050873506082581245 0.011119306314447965 0 -0.0013686159262365459 0.011005937534197121 0 -0.0032725663673981793 0.013399355555375398 0 -0.0050873506082581245 0.011119306314447965 0 -0.0068256200029752001 0.015336218813466355 0 -0.0032725663673981793 0.013399355555375398 0 -0.0025195545850225346 0.014542855788240413 0 -0.0040918168799198816 0.015455415494617842 0 -0.0034044638092132458 0.0058642341259824062 0 -0.0050873506082581245 0.011119306314447965 0 -0.0013686159262365459 0.011005937534197121 0 -0.0034584671914376199 0.0054956378856685084 0 -0.0051716603968612078 0.009687569255609825 0 -0.0034193195671767371 0.0037813443402578981 0 -0.0064948254027397201 0.0046181021605771842 0 -0.0051278485045164789 0.0083480557367597297 0 -0.0034044638092132458 0.0058642341259824062 0 -0.00037596490611282107 0.0077322448943678993 0 -0.0013686159262365459 0.011005937534197121 0 -0.00037596490611282107 0.0077322448943678993 0 -0.0013686159262365459 0.011005937534197121 0 0.0020282009689835379 0.010844663702531733 0 -0.0013686159262365459 0.011005937534197121 0 0.00048121235170877594 0.01307274416732861 0 0.0020282009689835379 0.010844663702531733 0 -0.0013686159262365459 0.011005937534197121 0 0.00048121235170877594 0.01307274416732861 0 -0.0013994530187149811 0.013711053899170413 0 -0.0032725663673981793 0.013399355555375398 0 -0.0013686159262365459 0.011005937534197121 0 -0.0013994530187149811 0.013711053899170413 0 -0.0013994530187149811 0.013711053899170413 0 -0.0025195545850225346 0.014542855788240413 0 -0.0012816323539229363 0.015584887606796509 0 -0.0032725663673981793 0.013399355555375398 0 -0.0013994530187149811 0.013711053899170413 0 -0.0025195545850225346 0.014542855788240413 0 0.00048121235170877594 0.01307274416732861 0 -0.0013994530187149811 0.013711053899170413 0 -0.0012816323539229363 0.015584887606796509 0 -3.4613198056770181e-06 0.015597177189001731 0 -0.0038875535476200472 0.017643196752659983 0 -0.0016447180162745152 0.017988073434010418 0 -0.00092189089153791432 0.016142385904155128 0 -0.0020753777569835355 0.015584437360557124 0 -0.005772336315687035 0.017669939091622577 0 -3.4613198056770181e-06 0.015597177189001731 0 0.00010775844828047319 0.01733417554383274 0 -0.0016447180162745152 0.017988073434010418 0 -0.00025153142215190744 0.015894631282358691 0 -0.0028113316727259962 0.016750339940393162 0 -3.4613198056770181e-06 0.015597177189001731 0 -0.005772336315687035 0.017669939091622577 0 -0.0038875535476200472 0.017643196752659983 0 -0.0012816323539229363 0.015584887606796509 0 -0.0040918168799198816 0.015455415494617842 0 -0.0061786501670338338 0.017477912643919943 0 -0.0025195545850225346 0.014542855788240413 0 -0.0012816323539229363 0.015584887606796509 0 -0.0040918168799198816 0.015455415494617842 0 -0.0020753777569835355 0.015584437360557124 0 -0.005772336315687035 0.017669939091622577 0 -0.0061786501670338338 0.017477912643919943 0 -0.0012410259894740155 0.015324733387456421 0 -0.0032447936772089028 0.016284925902294019 0 -0.0040918168799198816 0.015455415494617842 0 -0.0068256200029752001 0.015336218813466355 0 -0.0061786501670338338 0.017477912643919943 0 -0.0038875535476200472 0.017643196752659983 0 -0.0032961897518212655 0.020771181478443316 0 -0.0016447180162745152 0.017988073434010418 0 -0.0038875535476200472 0.017643196752659983 0 -0.004905363910807173 0.019198371456621306 0 -0.0032961897518212655 0.020771181478443316 0 -0.005772336315687035 0.017669939091622577 0 -0.0038875535476200472 0.017643196752659983 0 -0.0050825836240180385 0.018235733235356717 0 -0.0057552619945369088 0.018439223876348582 0 -0.004905363910807173 0.019198371456621306 0 -0.0066365728833989099 0.019106091269195401 0 -0.005772336315687035 0.017669939091622577 0 -0.0057552619945369088 0.018439223876348582 0 -0.0066196173835451483 0.018421605107435849 0 -0.005772336315687035 0.017669939091622577 0 -0.0057552619945369088 0.018439223876348582 0 -0.0050825836240180385 0.018235733235356717 0 -0.0038875535476200472 0.017643196752659983 0 -0.0050825836240180385 0.018235733235356717 0 -0.004905363910807173 0.019198371456621306 0 -0.0057552619945369088 0.018439223876348582 0 -0.0050825836240180385 0.018235733235356717 0 -0.004905363910807173 0.019198371456621306 0 -0.004905363910807173 0.019198371456621306 0 -0.0066365728833989099 0.019106091269195401 0 -0.0063257735434031001 0.020399237022897421 0 -0.004905363910807173 0.019198371456621306 0 -0.0032961897518212655 0.020771181478443316 0 -0.0063257735434031001 0.020399237022897421 0 -0.0032961897518212655 0.020771181478443316 0 -0.0016447180162745152 0.017988073434010418 0 0.0010905490087071781 0.01878576275387614 0 0.00070356096880498523 0.018405098469071533 0 0.0018898182094811233 0.018846023259886522 0 0.002668851139475193 0.017657235593156857 0 -0.0054018100319741455 0.012761418494802947 0 -0.00082797798274913893 0.014166761765635536 0 0.00010775844828047319 0.01733417554383274 0 -0.0016447180162745152 0.017988073434010418 0 0.0010905490087071781 0.01878576275387614 0 -0.010599774807203336 0.010711670359876186 0 -0.010302733722997814 0.016859087270002116 0 -0.013450972658641681 0.01401437815890676 0 -0.012689296299709623 0.01344684068473808 0 -0.013078502865451461 0.014181925693792155 0 -0.015897357188405611 0.017592089560054324 0 -0.010302733722997814 0.016859087270002116 0 -0.013450972658641681 0.01401437815890676 0 -0.0068256200029752001 0.015336218813466355 0 -0.0061786501670338338 0.017477912643919943 0 -0.0091637346372075313 0.019302766407809507 0 -0.010045966216219634 0.016124477850451124 0 -0.0071669998204051547 0.013818355947370095 0 -0.0091637346372075313 0.019302766407809507 0 -0.006894052181285846 0.013850520134204271 0 -0.0078417503293854145 0.016076730169680708 0 -0.010599774807203336 0.010711670359876186 0 -0.010045966216219634 0.016124477850451124 0 -0.0071669998204051547 0.013818355947370095 0 -0.010045966216219634 0.016124477850451124 0 -0.0091637346372075313 0.019302766407809507 0 -0.0093781188862048469 0.021533531482003036 0 -0.0066196173835451483 0.018421605107435849 0 -0.0066365728833989099 0.019106091269195401 0 -0.0091637346372075313 0.019302766407809507 0 -0.0061786501670338338 0.017477912643919943 0 -0.0066196173835451483 0.018421605107435849 0 -0.0091637346372075313 0.019302766407809507 0 -0.005772336315687035 0.017669939091622577 0 -0.0061786501670338338 0.017477912643919943 0 -0.0066196173835451483 0.018421605107435849 0 -0.0057552619945369088 0.018439223876348582 0 -0.0066196173835451483 0.018421605107435849 0 -0.0066365728833989099 0.019106091269195401 0 -0.0066365728833989099 0.019106091269195401 0 -0.0063257735434031001 0.020399237022897421 0 -0.0077575947946836241 0.0201318721972037 0 -0.0063257735434031001 0.020399237022897421 0 -0.0077575947946836241 0.0201318721972037 0 -0.0078328484525146142 0.021186679315196084 0 -0.0066365728833989099 0.019106091269195401 0 -0.0077575947946836241 0.0201318721972037 0 -0.0091637346372075313 0.019302766407809507 0 -0.0077575947946836241 0.0201318721972037 0 -0.0091637346372075313 0.019302766407809507 0 -0.0093781188862048469 0.021533531482003036 0 -0.0077575947946836241 0.0201318721972037 0 -0.0093781188862048469 0.021533531482003036 0 -0.0078328484525146142 0.021186679315196084 0 -0.018760971451206969 0.0080239703002385025 0 -0.018750696062265648 0.008023068319279146 0 -0.018743937675317242 0.0080230887687575032 0 -0.015897357188405611 0.017592089560054324 0 -0.010302733722997814 0.016859087270002116 0 -0.0098899015290774325 0.022744930735878931 0 -0.013078502865451461 0.014181925693792155 0 -0.014859280232861207 0.010400217707198145 0 -0.017971913176886841 0.0095299203892676414 0 -0.014859280232861207 0.010400217707198145 0 -0.021330551112749833 0.0040622191464636482 0 -0.021252556088969591 0.0046606260333808243 0 -0.021642714476563737 0.0041839345595757688 0 -0.021282685569237628 0.003124328947009316 0 -0.019943118649625929 0.0046327540437095249 0 -0.02034256023416825 0.0051644486959343747 0 -0.019943118649625929 0.0046327540437095249 0 -0.018756674941928102 0.0080229315927000631 0 -0.018749919581577821 0.0080229289513826779 0 -0.018750696062265648 0.008023068319279146 0 -0.018750696062265648 0.008023068319279146 0 -0.01874341573445492 0.0080231217616667481 0 -0.018743937675317242 0.0080230887687575032 0 -0.018749919581577821 0.0080229289513826779 0 -0.018750696062265648 0.008023068319279146 0 -0.01874341573445492 0.0080231217616667481 0 -0.019943118649625929 0.0046327540437095249 0 -0.016492049980006071 0.0073621909231511374 0 -0.014031618020297548 0.009154792871229776 0 -0.0082620278944831229 0.0073652326425744531 0 -0.025750148573972384 -0.001702968044139008 0 -0.026070412809247538 -0.0015770272702331043 0 -0.026102584853437735 -0.0021245855015792846 0 -0.016492049980006071 0.0073621909231511374 0 -0.014031618020297548 0.009154792871229776 0 -0.017581783735046822 0.0084395209566015695 0 -0.017601661891588932 0.0081624908788291602 0 -0.017370530244198462 0.0083585865405936665 0 -0.016492049980006071 0.0073621909231511374 0 -0.014859280232861207 0.010400217707198145 0 -0.0093781188862048469 0.021533531482003036 0 -0.0078328484525146142 0.021186679315196084 0 -0.0079071908658158926 0.022679992407394933 0 -0.014859280232861207 0.010400217707198145 0 -0.014031618020297548 0.009154792871229776 0 -0.0063257735434031001 0.020399237022897421 0 -0.0078328484525146142 0.021186679315196084 0 -0.0079071908658158926 0.022679992407394933 0 -0.026070412809247538 -0.0015770272702331043 0 -0.026102584853437735 -0.0021245855015792846 0 -0.02693466306096938 -0.0023821608444217547 0 -0.025849488520853513 -0.0025772781932430094 0 -0.026102584853437735 -0.0021245855015792846 0 -0.02693466306096938 -0.0023821608444217547 0 -0.016492049980006071 0.0073621909231511374 0 -0.020916695924708975 0.00092795272744465953 0 -0.025750148573972384 -0.001702968044139008 0 -0.025849488520853513 -0.0025772781932430094 0 -0.026102584853437735 -0.0021245855015792846 0 -0.021965369632173177 0.00098997793758045052 0 -0.021282685569237628 0.003124328947009316 0 -0.026343909914516586 -0.0032792947854579889 0 -0.026282126341697836 -0.0029825928232754505 0 -0.026427489187060765 -0.0031098242778989163 0 -0.016933253418166004 0.0053283780474376553 0 -0.017729490828018564 0.0056386125182624021 0 -0.01783410473430689 0.0042278919339864447 0 -0.026343909914516586 -0.0032792947854579889 0 -0.026629024790712576 -0.0031755623807642481 0 -0.026427489187060765 -0.0031098242778989163 0 -0.026438534063814138 -0.002920974619819822 0 -0.026629024790712576 -0.0031755623807642481 0 -0.026427489187060765 -0.0031098242778989163 0 -0.019943118649625929 0.0046327540437095249 0 -0.020916695924708975 0.00092795272744465953 0 -0.026282126341697836 -0.0029825928232754505 0 -0.026438534063814138 -0.002920974619819822 0 -0.026427489187060765 -0.0031098242778989163 0 0.001089510680180869 0.019537727779861864 0 0.0019768683494519727 0.019743027248990377 0 0.0018898182094811233 0.018846023259886522 0 0.0019768683494519727 0.019743027248990377 0 0.0018898182094811233 0.018846023259886522 0 0.0031698076291297758 0.018842522035217323 0 0.00070356096880498523 0.018405098469071533 0 0.001089510680180869 0.019537727779861864 0 0.0018898182094811233 0.018846023259886522 0 -0.0032961897518212655 0.020771181478443316 0 -0.0063257735434031001 0.020399237022897421 0 -0.0079071908658158926 0.022679992407394933 0 -0.0012515209694061434 0.019124909197449413 0 0.00017880359182134803 0.019379763267537632 0 0.00030093095276798227 0.020436718923890485 0 -0.0054018100319741455 0.012761418494802947 0 -0.014031618020297548 0.009154792871229776 0 0.00070356096880498523 0.018405098469071533 0 -0.0012515209694061434 0.019124909197449413 0 0.00017880359182134803 0.019379763267537632 0 0.00070356096880498523 0.018405098469071533 0 0.001089510680180869 0.019537727779861864 0 0.00017880359182134803 0.019379763267537632 0 0.001089510680180869 0.019537727779861864 0 0.00017880359182134803 0.019379763267537632 0 0.00030093095276798227 0.020436718923890485 0 -0.027087244407623171 -0.0030583811769090983 0 -0.025849488520853513 -0.0025772781932430094 0 -0.02693466306096938 -0.0023821608444217547 0 0.001089510680180869 0.019537727779861864 0 0.00030093095276798227 0.020436718923890485 0 0.0014763848508042824 0.020389531169834878 0 0.0031002649577427863 0.0078959314238132728 0 -0.0082620278944831229 0.0073652326425744531 0 0.0018114350445939467 0.021680074039374012 0 0.00030093095276798227 0.020436718923890485 0 0.0014763848508042824 0.020389531169834878 0 0.001089510680180869 0.019537727779861864 0 0.0019768683494519727 0.019743027248990377 0 0.0014763848508042824 0.020389531169834878 0 0.0062370769808936617 0.014923680669074691 0 0.0062513271946354797 0.014358333249199447 0 0.0019768683494519727 0.019743027248990377 0 0.0014763848508042824 0.020389531169834878 0 0.0023109974994041226 0.020527116208317122 0 0.0018114350445939467 0.021680074039374012 0 0.0014763848508042824 0.020389531169834878 0 0.0023109974994041226 0.020527116208317122 0 0.0031002649577427863 0.0078959314238132728 0 0.0062513271946354797 0.014358333249199447 0 0.0034297663650693674 0.023579904654297934 0 0.0022758635307967971 0.02102539208816338 0 0.0040732105614288104 0.020638336873237156 0 0.0019768683494519727 0.019743027248990377 0 0.0023310345356714821 0.020550319851487635 0 0.0031698076291297758 0.018842522035217323 0 0.0062513271946354797 0.014358333249199447 0 0.0048845023716137526 0.017068734576126458 0 0.0022758635307967971 0.02102539208816338 0 0.0031698076291297758 0.018842522035217323 0 0.0040732105614288104 0.020638336873237156 0 0.0031698076291297758 0.018842522035217323 0 0.0052602027334135689 0.019057897201229763 0 0.0039491140094474308 0.018078242502932097 0 0.0031698076291297758 0.018842522035217323 0 0.0052602027334135689 0.019057897201229763 0 0.0040732105614288104 0.020638336873237156 0 0.0052602027334135689 0.019057897201229763 0 0.0056435964773193601 0.021740464619198752 0 0.0040732105614288104 0.020638336873237156 0 0.051332101924044145 0.0356629449898343 0 0.047931156089735513 0.035617003364610135 0 0.048181569722539258 0.038716705421413249 0 0.023260033138194459 0.02283499635548011 0 0.02592267578946144 0.026819918688271171 0 0.047931156089735513 0.035617003364610135 0 0.048181569722539258 0.038716705421413249 0 0.045163364157469729 0.038628604284512799 0 0.02592267578946144 0.026819918688271171 0 0.027171395108629346 0.029158071192601467 0 0.0052602027334135689 0.019057897201229763 0 0.0056435964773193601 0.021740464619198752 0 0.0079651841995148649 0.019912969687432513 0 0.0052602027334135689 0.019057897201229763 0 0.0079651841995148649 0.019912969687432513 0 0.0073976488220530824 0.017781996637290329 0 0.0052602027334135689 0.019057897201229763 0 0.0073976488220530824 0.017781996637290329 0 0.0047597712878974891 0.016799575889590117 0 0.0079651841995148649 0.019912969687432513 0 0.0073976488220530824 0.017781996637290329 0 0.010423832274124325 0.017938093691137486 0 0.0073976488220530824 0.017781996637290329 0 0.008607751971487736 0.015943100254609838 0 0.010423832274124325 0.017938093691137486 0 0.008607751971487736 0.015943100254609838 0 0.0067720886957396203 0.015683527774160474 0 0.0079231654357961416 0.013429615876249417 0 0.0073976488220530824 0.017781996637290329 0 0.008607751971487736 0.015943100254609838 0 0.0067720886957396203 0.015683527774160474 0 0.0073976488220530824 0.017781996637290329 0 0.0067720886957396203 0.015683527774160474 0 0.0047597712878974891 0.016799575889590117 0 0.0047597712878974891 0.016799575889590117 0 0.0027380796538691945 0.015930874257137396 0 0.0046769888039404376 0.014376321089809546 0 0.0067720886957396203 0.015683527774160474 0 0.0047597712878974891 0.016799575889590117 0 0.0046769888039404376 0.014376321089809546 0 0.0047597712878974891 0.016799575889590117 0 0.0027380796538691945 0.015930874257137396 0 0.0015076673301405873 0.01689338821053336 0 -0.00092189089153791432 0.016142385904155128 0 -0.0020753777569835355 0.015584437360557124 0 0.0017781097516933674 0.01382095071396789 0 -3.4613198056770181e-06 0.015597177189001731 0 0.0027380796538691945 0.015930874257137396 0 0.0046769888039404376 0.014376321089809546 0 -0.00025153142215190744 0.015894631282358691 0 0.0038108986061544015 0.014565655390628538 0 -3.4613198056770181e-06 0.015597177189001731 0 0.00010775844828047319 0.01733417554383274 0 0.0015076673301405873 0.01689338821053336 0 -3.4613198056770181e-06 0.015597177189001731 0 0.0027380796538691945 0.015930874257137396 0 0.0015076673301405873 0.01689338821053336 0 0.001006243795355147 0.014354453303793742 0 -0.00082797798274913893 0.014166761765635536 0 0.0047597712878974891 0.016799575889590117 0 0.002668851139475193 0.017657235593156857 0 0.0039491140094474308 0.018078242502932097 0 0.0047597712878974891 0.016799575889590117 0 0.0015076673301405873 0.01689338821053336 0 0.0010905490087071781 0.01878576275387614 0 0.00010775844828047319 0.01733417554383274 0 0.0015076673301405873 0.01689338821053336 0 0.0010905490087071781 0.01878576275387614 0 0.0018898182094811233 0.018846023259886522 0 0.0031698076291297758 0.018842522035217323 0 0.002668851139475193 0.017657235593156857 0 0.0031698076291297758 0.018842522035217323 0 0.002668851139475193 0.017657235593156857 0 0.0039491140094474308 0.018078242502932097 0 0.0052602027334135689 0.019057897201229763 0 0.0047597712878974891 0.016799575889590117 0 0.0039491140094474308 0.018078242502932097 0 0.032285915823158866 -0.017815819580079446 0 0.031242598202443191 -0.014899241907159994 0 0.027913213297964458 -0.014265627415372399 0 0.032218134254404979 -0.020123109636173437 0 0.033764977329555433 -0.019983616043306049 0 0.031458880190203722 -0.019205190998156128 0 0.033764977329555433 -0.019983616043306049 0 0.031458880190203722 -0.019205190998156128 0 0.031416556841862286 -0.018158982698762909 0 0.033655509073757049 -0.01740171766420635 0 0.031742316008590961 -0.014144708711672824 0 0.032218134254404979 -0.020123109636173437 0 0.033068795226864733 -0.021144148079762459 0 0.033764977329555433 -0.019983616043306049 0 0.032218134254404979 -0.020123109636173437 0 0.032004527023219521 -0.02074689197732706 0 0.033068795226864733 -0.021144148079762459 0 0.032004527023219521 -0.02074689197732706 0 0.031902526303437588 -0.022024859631038046 0 0.033068795226864733 -0.021144148079762459 0 0.03335039335516983 -0.022490410458825529 0 0.031902526303437588 -0.022024859631038046 0 0.033068795226864733 -0.021144148079762459 0 0.033068795226864733 -0.021144148079762459 0 0.034202202045195439 -0.021363009066455503 0 0.033764977329555433 -0.019983616043306049 0 0.034202202045195439 -0.021363009066455503 0 0.033764977329555433 -0.019983616043306049 0 0.035760013854548953 -0.021044794353298389 0 0.03335039335516983 -0.022490410458825529 0 0.033068795226864733 -0.021144148079762459 0 0.034202202045195439 -0.021363009066455503 0 0.042340640939110934 0.038564713017761917 0 0.042387840957406171 0.041669369035345398 0 0.039739884849308085 0.041703544934192385 0 0.032285915823158866 -0.017815819580079446 0 0.034510425040177685 -0.018721682895170882 0 0.031242598202443191 -0.014899241907159994 0 0.037653883879216331 0.0093779129341957299 0 0.035425835836032246 0.01324649645419658 0 0.045163364157469729 0.038628604284512799 0 0.045137170600756692 0.041743174065610733 0 0.042387840957406171 0.041669369035345398 0 0.042340640939110934 0.038564713017761917 0 0.045163364157469729 0.038628604284512799 0 0.042387840957406171 0.041669369035345398 0 0.033655509073757049 -0.01740171766420635 0 0.034992844962897854 -0.018898208821595267 0 0.035043465915487682 -0.022097732414157169 0 0.034202202045195439 -0.021363009066455503 0 0.035760013854548953 -0.021044794353298389 0 0.039206867346263996 0.0053516693942903546 0 0.037653883879216331 0.0093779129341957299 0 0.037090706858837981 -0.02192946543825295 0 0.034510425040177685 -0.018721682895170882 0 0.035760013854548953 -0.021044794353298389 0 0.032285915823158866 -0.017815819580079446 0 0.034510425040177685 -0.018721682895170882 0 0.035760013854548953 -0.021044794353298389 0 0.045109323267874216 0.035435101634318816 0 0.042340640939110934 0.038564713017761917 0 0.045163364157469729 0.038628604284512799 0 0.045109323267874216 0.035435101634318816 0 0.047931156089735513 0.035617003364610135 0 0.045163364157469729 0.038628604284512799 0 0.048181569722539258 0.038716705421413249 0 0.045163364157469729 0.038628604284512799 0 0.045137170600756692 0.041743174065610733 0 0.008607751971487736 0.015943100254609838 0 0.010423832274124325 0.017938093691137486 0 0.010530535782351297 0.014882888757042582 0 0.010423832274124325 0.017938093691137486 0 0.012859342454808152 0.015861906372650166 0 0.010530535782351297 0.014882888757042582 0 0.027171395108629346 0.029158071192601467 0 0.028133371839812456 0.030956260322145737 0 0.045137170600756692 0.041743174065610733 0 0.0422040664748956 0.04468482646409818 0 0.042387840957406171 0.041669369035345398 0 0.0422040664748956 0.04468482646409818 0 0.042387840957406171 0.041669369035345398 0 0.039739884849308085 0.041703544934192385 0 0.0422040664748956 0.04468482646409818 0 0.039343573708405764 0.04499073794542393 0 0.039739884849308085 0.041703544934192385 0 0.0422040664748956 0.04468482646409818 0 0.039343573708405764 0.04499073794542393 0 0.039423058311929604 0.047363949119051701 0 0.039343573708405764 0.04499073794542393 0 0.039739884849308085 0.041703544934192385 0 0.037533755739197247 0.044738124383981739 0 0.039343573708405764 0.04499073794542393 0 0.037533755739197247 0.044738124383981739 0 0.038038347292269556 0.046302288952902275 0 0.031242598202443191 -0.014899241907159994 0 0.027913213297964458 -0.014265627415372399 0 0.02734029887968473 -0.010882075525733682 0 0.035425835836032246 0.01324649645419658 0 0.033225579299224865 0.016964863432257386 0 0.015274953609101178 0.013777358489133938 0 0.014127614350903456 0.011145450355494756 0 0.017685157485098479 0.011712458812179347 0 0.029700940650230545 0.033036123704986854 0 0.033161572174382377 0.036476536501310726 0 0.039343573708405764 0.04499073794542393 0 0.039423058311929604 0.047363949119051701 0 0.038038347292269556 0.046302288952902275 0 0.039423058311929604 0.047363949119051701 0 0.038038347292269556 0.046302288952902275 0 0.037885835023943791 0.047644260452735697 0 0.028133371839812456 0.030956260322145737 0 0.029700940650230545 0.033036123704986854 0 0.012859342454808152 0.015861906372650166 0 0.015274953609101178 0.013777358489133938 0 0.013080470191086799 0.013200686822004494 0 0.015274953609101178 0.013777358489133938 0 0.013080470191086799 0.013200686822004494 0 0.014127614350903456 0.011145450355494756 0 0.010997615461417252 0.012033261271303598 0 0.012475629219007623 0.010191209977196318 0 0.014127614350903456 0.011145450355494756 0 0.010686634430744859 0.012276167425594535 0 0.012391579700299771 0.011696754953118048 0 0.013080470191086799 0.013200686822004494 0 0.011020889404099173 0.012333862139210791 0 0.014127614350903456 0.011145450355494756 0 0.013080470191086799 0.013200686822004494 0 0.010530535782351297 0.014882888757042582 0 0.011020889404099173 0.012333862139210791 0 0.012859342454808152 0.015861906372650166 0 0.013080470191086799 0.013200686822004494 0 0.010530535782351297 0.014882888757042582 0 0.010530535782351297 0.014882888757042582 0 0.011020889404099173 0.012333862139210791 0 0.0079231654357961416 0.013429615876249417 0 0.010686634430744859 0.012276167425594535 0 0.0075208347797901974 0.013342926816422258 0 0.010997615461417252 0.012033261271303598 0 0.0097151185285309621 0.0099168046380333462 0 0.0085283332263611077 0.01080191865141414 0 0.010997615461417252 0.012033261271303598 0 0.0097151185285309621 0.0099168046380333462 0 0.011104430660318266 0.0099344895191755284 0 0.0097151185285309621 0.0099168046380333462 0 0.01059522848316562 0.0089973682734534512 0 0.011104430660318266 0.0099344895191755284 0 0.0097151185285309621 0.0099168046380333462 0 0.0094446843322525051 0.0086236778603984866 0 0.01059522848316562 0.0089973682734534512 0 0.0097151185285309621 0.0099168046380333462 0 0.0094446843322525051 0.0086236778603984866 0 0.0082303905759401174 0.0094033700104844287 0 0.02200069778299843 0.016062057367721521 0 0.022374297069802755 0.016384695138036906 0 0.0094446843322525051 0.0086236778603984866 0 0.009912504913768324 0.007665818272725171 0 0.0084909605007091327 0.0078115356769087162 0 0.010050780223248455 0.0078568886764723359 0 0.010974490462198732 0.0080473650968426891 0 0.01083642973312075 0.0067093531422606151 0 0.0094446843322525051 0.0086236778603984866 0 0.010050780223248455 0.0078568886764723359 0 0.010974490462198732 0.0080473650968426891 0 0.0094446843322525051 0.0086236778603984866 0 0.010974490462198732 0.0080473650968426891 0 0.01059522848316562 0.0089973682734534512 0 0.010974490462198732 0.0080473650968426891 0 0.01059522848316562 0.0089973682734534512 0 0.011868085659563684 0.0086246410753731233 0 0.010974490462198732 0.0080473650968426891 0 0.011868085659563684 0.0086246410753731233 0 0.012055605681045991 0.0072879369972776815 0 0.011868085659563684 0.0086246410753731233 0 0.013520495228322675 0.0071520817807140284 0 0.012055605681045991 0.0072879369972776815 0 0.011868085659563684 0.0086246410753731233 0 0.012475629219007623 0.010191209977196318 0 0.013900275640355659 0.0090412568319065377 0 0.010997615461417252 0.012033261271303598 0 0.011104430660318266 0.0099344895191755284 0 0.012475629219007623 0.010191209977196318 0 0.01059522848316562 0.0089973682734534512 0 0.011868085659563684 0.0086246410753731233 0 0.011104430660318266 0.0099344895191755284 0 0.011868085659563684 0.0086246410753731233 0 0.011104430660318266 0.0099344895191755284 0 0.012475629219007623 0.010191209977196318 0 0.012475629219007623 0.010191209977196318 0 0.014127614350903456 0.011145450355494756 0 0.013900275640355659 0.0090412568319065377 0 0.011868085659563684 0.0086246410753731233 0 0.013900275640355659 0.0090412568319065377 0 0.013520495228322675 0.0071520817807140284 0 0.013900275640355659 0.0090412568319065377 0 0.013520495228322675 0.0071520817807140284 0 0.016633477111430792 0.0086114003803652479 0 0.014127614350903456 0.011145450355494756 0 0.017685157485098479 0.011712458812179347 0 0.016633477111430792 0.0086114003803652479 0 0.014127614350903456 0.011145450355494756 0 0.013900275640355659 0.0090412568319065377 0 0.016633477111430792 0.0086114003803652479 0 0.0041521900989729176 0.011070282348669781 0 0.0033986572466718763 0.013117477779456028 0 0.0060339856842194558 0.01163865813618711 0 0.0041521900989729176 0.011070282348669781 0 0.0060339856842194558 0.01163865813618711 0 0.0050741408145017746 0.009868439994871905 0 0.0041521900989729176 0.011070282348669781 0 0.0020282009689835379 0.010844663702531733 0 0.0037053854231697504 0.00971764677165219 0 0.0041521900989729176 0.011070282348669781 0 0.0020282009689835379 0.010844663702531733 0 0.0033986572466718763 0.013117477779456028 0 0.00048121235170877594 0.01307274416732861 0 -0.0012816323539229363 0.015584887606796509 0 0.0033986572466718763 0.013117477779456028 0 -0.0012410259894740155 0.015324733387456421 0 0.0021783197656219358 0.013664278477441002 0 -0.00092189089153791432 0.016142385904155128 0 0.0017781097516933674 0.01382095071396789 0 0.0035379433053266151 0.014643332469092905 0 0.00048121235170877594 0.01307274416732861 0 0.0020282009689835379 0.010844663702531733 0 0.0033986572466718763 0.013117477779456028 0 0.0021783197656219358 0.013664278477441002 0 0.0051386072170427474 0.0122292908461411 0 0.0017781097516933674 0.01382095071396789 0 0.0035379433053266151 0.014643332469092905 0 0.0053206092330796394 0.012221151499004912 0 0.0067720886957396203 0.015683527774160474 0 0.0046769888039404376 0.014376321089809546 0 0.0079231654357961416 0.013429615876249417 0 0.0035379433053266151 0.014643332469092905 0 0.0075273925821963961 0.013234511337578773 0 0.0053206092330796394 0.012221151499004912 0 0.0038108986061544015 0.014565655390628538 0 0.0075208347797901974 0.013342926816422258 0 0.008607751971487736 0.015943100254609838 0 0.010530535782351297 0.014882888757042582 0 0.0079231654357961416 0.013429615876249417 0 0.0075273925821963961 0.013234511337578773 0 0.0085283332263611077 0.01080191865141414 0 0.0053206092330796394 0.012221151499004912 0 0.010997615461417252 0.012033261271303598 0 0.0075273925821963961 0.013234511337578773 0 0.0085283332263611077 0.01080191865141414 0 0.0085283332263611077 0.01080191865141414 0 0.0060339856842194558 0.01163865813618711 0 0.006804276190500635 0.0096755308461734576 0 0.0066170265549126963 0.011525863066932582 0 0.0051386072170427474 0.0122292908461411 0 0.0060339856842194558 0.01163865813618711 0 0.006804276190500635 0.0096755308461734576 0 0.0050741408145017746 0.009868439994871905 0 0.006804276190500635 0.0096755308461734576 0 0.0055763025250043508 0.0087594806932505542 0 0.0050741408145017746 0.009868439994871905 0 0.0097151185285309621 0.0099168046380333462 0 0.0085283332263611077 0.01080191865141414 0 0.0082303905759401174 0.0094033700104844287 0 0.0085283332263611077 0.01080191865141414 0 0.006804276190500635 0.0096755308461734576 0 0.0082303905759401174 0.0094033700104844287 0 0.006804276190500635 0.0096755308461734576 0 0.0082303905759401174 0.0094033700104844287 0 0.0075913733864942483 0.0083733502530868829 0 0.0094446843322525051 0.0086236778603984866 0 0.008436633616638484 0.0085357981997702687 0 0.0084909605007091327 0.0078115356769087162 0 0.0094446843322525051 0.0086236778603984866 0 0.0082303905759401174 0.0094033700104844287 0 0.008436633616638484 0.0085357981997702687 0 0.0082303905759401174 0.0094033700104844287 0 0.008436633616638484 0.0085357981997702687 0 0.0075913733864942483 0.0083733502530868829 0 0.008436633616638484 0.0085357981997702687 0 0.0075913733864942483 0.0083733502530868829 0 0.0084909605007091327 0.0078115356769087162 0 0.0075913733864942483 0.0083733502530868829 0 0.0074677548140641625 0.0074150607242300694 0 0.0084909605007091327 0.0078115356769087162 0 0.0074677548140641625 0.0074150607242300694 0 0.0084909605007091327 0.0078115356769087162 0 0.008084613897411469 0.0064848951824964902 0 0.009912504913768324 0.007665818272725171 0 0.0084909605007091327 0.0078115356769087162 0 0.008084613897411469 0.0064848951824964902 0 0.006804276190500635 0.0096755308461734576 0 0.0075913733864942483 0.0083733502530868829 0 0.0063662026556758101 0.0078779022677802416 0 0.006804276190500635 0.0096755308461734576 0 0.0055763025250043508 0.0087594806932505542 0 0.0063662026556758101 0.0078779022677802416 0 0.0055763025250043508 0.0087594806932505542 0 0.0063662026556758101 0.0078779022677802416 0 0.0053624343787027342 0.0075413714808277785 0 0.0075913733864942483 0.0083733502530868829 0 0.0074677548140641625 0.0074150607242300694 0 0.0063662026556758101 0.0078779022677802416 0 0.0074677548140641625 0.0074150607242300694 0 0.0063662026556758101 0.0078779022677802416 0 0.0065853054068014689 0.0067889725259524048 0 0.0063662026556758101 0.0078779022677802416 0 0.0053624343787027342 0.0075413714808277785 0 0.0065853054068014689 0.0067889725259524048 0 0.0053624343787027342 0.0075413714808277785 0 0.0041244485311396819 0.0072818835553641577 0 0.0043272651246298467 0.0085509544396746989 0 0.0055763025250043508 0.0087594806932505542 0 0.0053624343787027342 0.0075413714808277785 0 0.0043272651246298467 0.0085509544396746989 0 0.0055763025250043508 0.0087594806932505542 0 0.0043272651246298467 0.0085509544396746989 0 0.0050741408145017746 0.009868439994871905 0 0.0043272651246298467 0.0085509544396746989 0 0.0037053854231697504 0.00971764677165219 0 0.0050741408145017746 0.009868439994871905 0 0.0041521900989729176 0.011070282348669781 0 0.0037053854231697504 0.00971764677165219 0 0.0050741408145017746 0.009868439994871905 0 0.0038819537576554345 0.008080586947238998 0 0.0043850930703628454 0.0058939050632540275 0 -0.00037596490611282107 0.0077322448943678993 0 0.0020282009689835379 0.010844663702531733 0 0.0014778911855628262 0.0029513006053493878 0 0.0020282009689835379 0.010844663702531733 0 0.0037053854231697504 0.00971764677165219 0 0.0024527914511324957 0.0084202421711241197 0 0.0043272651246298467 0.0085509544396746989 0 0.0037053854231697504 0.00971764677165219 0 0.0024527914511324957 0.0084202421711241197 0 0.0041244485311396819 0.0072818835553641577 0 0.0043272651246298467 0.0085509544396746989 0 0.0024527914511324957 0.0084202421711241197 0 0.0041244485311396819 0.0072818835553641577 0 0.0024527914511324957 0.0084202421711241197 0 0.0035567934681292909 0.0062524868381638524 0 0.0024527914511324957 0.0084202421711241197 0 0.0035567934681292909 0.0062524868381638524 0 0.0023538703260357311 0.0056937941778290591 0 0.0043850930703628454 0.0058939050632540275 0 0.0066703608701502281 0.0045771102850464956 0 0.0035567934681292909 0.0062524868381638524 0 0.0039151895544096921 0.0048640817665703273 0 0.0023538703260357311 0.0056937941778290591 0 0.0039151895544096921 0.0048640817665703273 0 0.0023538703260357311 0.0056937941778290591 0 0.0021814678367228241 0.0029629860272430962 0 0.0039151895544096921 0.0048640817665703273 0 0.0055369747318530687 0.0046956456658004252 0 0.0045726296751708939 0.0033285288884625547 0 0.0039151895544096921 0.0048640817665703273 0 0.0055369747318530687 0.0046956456658004252 0 0.0052406317234202568 0.0059971814494156105 0 0.0041244485311396819 0.0072818835553641577 0 0.0035567934681292909 0.0062524868381638524 0 0.0052406317234202568 0.0059971814494156105 0 0.0035567934681292909 0.0062524868381638524 0 0.0039151895544096921 0.0048640817665703273 0 0.0052406317234202568 0.0059971814494156105 0 0.0053624343787027342 0.0075413714808277785 0 0.0041244485311396819 0.0072818835553641577 0 0.0052406317234202568 0.0059971814494156105 0 0.0053624343787027342 0.0075413714808277785 0 0.0052406317234202568 0.0059971814494156105 0 0.0065853054068014689 0.0067889725259524048 0 0.0052406317234202568 0.0059971814494156105 0 0.0065853054068014689 0.0067889725259524048 0 0.0069307720791461306 0.0055983144796502484 0 0.0065853054068014689 0.0067889725259524048 0 0.0069307720791461306 0.0055983144796502484 0 0.008084613897411469 0.0064848951824964902 0 0.009912504913768324 0.007665818272725171 0 0.008084613897411469 0.0064848951824964902 0 0.0082937078381395326 0.0053155807159304567 0 0.0074677548140641625 0.0074150607242300694 0 0.0065853054068014689 0.0067889725259524048 0 0.008084613897411469 0.0064848951824964902 0 0.0069307720791461306 0.0055983144796502484 0 0.008084613897411469 0.0064848951824964902 0 0.0082278848747811776 0.0054544048348445428 0 0.022443868889989584 0.018902956694371278 0 0.022827549086900944 0.020838561312600128 0 0.025063318376191322 0.027838053750956139 0 0.024829085022822203 0.027486785077735512 0 0.025118094717006899 0.027532840138485136 0 0.022827549086900944 0.020838561312600128 0 0.02433232858576799 0.027646431388781003 0 0.0069307720791461306 0.0055983144796502484 0 0.0082278848747811776 0.0054544048348445428 0 0.0070622882464914808 0.0037070936141185124 0 0.02463773730887521 0.02471656955114802 0 0.024564655165861694 0.025144405321447273 0 0.024353694926241204 0.024879625205085174 0 0.022827549086900944 0.020838561312600128 0 0.02641563915842441 0.029854117044278324 0 0.0055369747318530687 0.0046956456658004252 0 0.0069307720791461306 0.0055983144796502484 0 0.0070622882464914808 0.0037070936141185124 0 0.0055369747318530687 0.0046956456658004252 0 0.0052406317234202568 0.0059971814494156105 0 0.0069307720791461306 0.0055983144796502484 0 0.0055369747318530687 0.0046956456658004252 0 0.0070622882464914808 0.0037070936141185124 0 0.0045726296751708939 0.0033285288884625547 0 0.032346914183537037 0.038393389354780011 0 0.034484815235692752 0.041709038917317517 0 0.035575725526369874 0.039002489854309229 0 0.02433232858576799 0.027646431388781003 0 0.019438272415008572 0.023272384973097672 0 0.02433232858576799 0.027646431388781003 0 0.033263175436007777 0.040623007271515563 0 0.035002505238412529 0.042087498925492239 0 0.034192796882863724 0.041939413775092645 0 0.034800549771416445 0.04298841170908306 0 0.02641563915842441 0.029854117044278324 0 0.029065494328889711 0.039741202708945302 0 0.034192796882863724 0.041939413775092645 0 0.034800549771416445 0.04298841170908306 0 0.03400197404506658 0.043254629014491779 0 0.02433232858576799 0.027646431388781003 0 0.02641563915842441 0.029854117044278324 0 0.034800549771416445 0.04298841170908306 0 0.03400197404506658 0.043254629014491779 0 0.034878107142260209 0.044067231017639381 0 0.035002505238412529 0.042087498925492239 0 0.034800549771416445 0.04298841170908306 0 0.035905922613974094 0.043572367468156049 0 0.034800549771416445 0.04298841170908306 0 0.035905922613974094 0.043572367468156049 0 0.034878107142260209 0.044067231017639381 0 0.034484815235692752 0.041709038917317517 0 0.037022697712397447 0.041511075821453913 0 0.035575725526369874 0.039002489854309229 0 0.037022697712397447 0.041511075821453913 0 0.038844449959814779 0.04311312063185798 0 0.038670221322392728 0.039606104437175826 0 0.019438272415008572 0.023272384973097672 0 0.01365222164213082 0.01986853091230641 0 0.0039151895544096921 0.0048640817665703273 0 0.0045726296751708939 0.0033285288884625547 0 0.0021814678367228241 0.0029629860272430962 0 0.037022697712397447 0.041511075821453913 0 0.035575725526369874 0.039002489854309229 0 0.038670221322392728 0.039606104437175826 0 0.024116587710926077 0.029566835575552237 0 0.022498330402319369 0.035232630314634465 0 0.024116587710926077 0.029566835575552237 0 0.027332408882130815 0.030714431206507499 0 0.015587716629136572 0.0057228747050039859 0 0.013520495228322675 0.0071520817807140284 0 0.016633477111430792 0.0086114003803652479 0 0.015587716629136572 0.0057228747050039859 0 0.013520495228322675 0.0071520817807140284 0 0.013326773788560193 0.0057351839072229778 0 0.013520495228322675 0.0071520817807140284 0 0.013326773788560193 0.0057351839072229778 0 0.012096373041753308 0.0060443188525053856 0 0.015587716629136572 0.0057228747050039859 0 0.013326773788560193 0.0057351839072229778 0 0.014672724220175881 0.0029970627971548616 0 0.013326773788560193 0.0057351839072229778 0 0.012446851998637048 0.0047864765458867052 0 0.014672724220175881 0.0029970627971548616 0 0.025666540883641981 0.028693796677050201 0 0.023224638053646138 0.019666104874376727 0 0.01207656032887711 0.0047288734182643162 0 0.012096373041753308 0.0060443188525053856 0 0.01083642973312075 0.0067093531422606151 0 0.012446851998637048 0.0047864765458867052 0 0.01207656032887711 0.0047288734182643162 0 0.012537000884551539 0.0054115889582157682 0 0.025360557670241392 0.028540523347105565 0 0.025666540883641981 0.028693796677050201 0 0.01207656032887711 0.0047288734182643162 0 0.012537000884551539 0.0054115889582157682 0 0.012096373041753308 0.0060443188525053856 0 0.013326773788560193 0.0057351839072229778 0 0.012446851998637048 0.0047864765458867052 0 0.012537000884551539 0.0054115889582157682 0 0.013326773788560193 0.0057351839072229778 0 0.012537000884551539 0.0054115889582157682 0 0.012096373041753308 0.0060443188525053856 0 0.013520495228322675 0.0071520817807140284 0 0.012096373041753308 0.0060443188525053856 0 0.012055605681045991 0.0072879369972776815 0 0.010974490462198732 0.0080473650968426891 0 0.012055605681045991 0.0072879369972776815 0 0.01083642973312075 0.0067093531422606151 0 0.012096373041753308 0.0060443188525053856 0 0.012055605681045991 0.0072879369972776815 0 0.01083642973312075 0.0067093531422606151 0 0.024258139770480986 0.024106044665703284 0 0.024082445140246933 0.024444557263179102 0 0.024336822935283688 0.024610924707259601 0 0.024258139770480986 0.024106044665703284 0 0.02463773730887521 0.02471656955114802 0 0.024336822935283688 0.024610924707259601 0 0.022374297069802755 0.016384695138036906 0 0.022827549086900944 0.020838561312600128 0 0.022374297069802755 0.016384695138036906 0 0.023224638053646138 0.019666104874376727 0 0.024564655165861694 0.025144405321447273 0 0.023792114217164342 0.025015238562365809 0 0.024353694926241204 0.024879625205085174 0 0.02463773730887521 0.02471656955114802 0 0.024336822935283688 0.024610924707259601 0 0.024353694926241204 0.024879625205085174 0 0.023792114217164342 0.025015238562365809 0 0.024336822935283688 0.024610924707259601 0 0.024353694926241204 0.024879625205085174 0 0.02641563915842441 0.029854117044278324 0 0.025666540883641981 0.028693796677050201 0 0.023791608520216084 0.02502567389753033 0 0.024082445140246933 0.024444557263179102 0 0.024336822935283688 0.024610924707259601 0 0.025666540883641981 0.028693796677050201 0 0.025684584857013616 0.027696846313313248 0 0.034166490853825442 0.043421355519501686 0 0.034041807173887113 0.044231938254355119 0 0.033404327778831656 0.04397360546102521 0 0.034166490853825442 0.043421355519501686 0 0.0331631510947046 0.043252157401559015 0 0.033404327778831656 0.04397360546102521 0 0.034041807173887113 0.044231938254355119 0 0.033367489348250449 0.044577271430124417 0 0.033404327778831656 0.04397360546102521 0 0.033367489348250449 0.044577271430124417 0 0.032998694711520164 0.044397066008401327 0 0.033404327778831656 0.04397360546102521 0 0.032998694711520164 0.044397066008401327 0 0.033404327778831656 0.04397360546102521 0 0.032827270942538872 0.043943887051827751 0 0.025666540883641981 0.028693796677050201 0 0.026706164105753639 0.03847570803157959 0 0.0331631510947046 0.043252157401559015 0 0.033404327778831656 0.04397360546102521 0 0.032827270942538872 0.043943887051827751 0 0.025666540883641981 0.028693796677050201 0 0.022498330402319369 0.035232630314634465 0 0.031175753937929603 0.047577390124805073 0 0.031596984347579404 0.046921228694381978 0 0.032226980503154631 0.046976531954770355 0 0.012446851998637048 0.0047864765458867052 0 0.012081010857338622 0.0047328948399557825 0 0.014672724220175881 0.0029970627971548616 0 0.031596984347579404 0.046921228694381978 0 0.032188806923295489 0.046810462502082983 0 0.032226980503154631 0.046976531954770355 0 0.032998694711520164 0.044397066008401327 0 0.032827270942538872 0.043943887051827751 0 0.032552193068986476 0.044664722125887062 0 0.031596984347579404 0.046921228694381978 0 0.032032971392090805 0.046073348518693165 0 0.032188806923295489 0.046810462502082983 0 0.026706164105753639 0.03847570803157959 0 0.028031778079181672 0.041730997011673855 0 0.022498330402319369 0.035232630314634465 0 0.026302330685696703 0.037761658206278775 0 0.03265775004361926 0.046352964561646975 0 0.03223740701349765 0.04705919044705463 0 0.033850577415026131 0.046252161997955794 0 0.032188806923295489 0.046810462502082983 0 0.03265775004361926 0.046352964561646975 0 0.03223740701349765 0.04705919044705463 0 0.032032971392090805 0.046073348518693165 0 0.032188806923295489 0.046810462502082983 0 0.03265775004361926 0.046352964561646975 0 0.033035566613071332 0.049964836490857832 0 0.032088988686392428 0.047734253546666001 0 0.033869852850771417 0.04823716989259632 0 0.022667080505700307 0.035623893549179143 0 0.022498330402319369 0.035232630314634465 0 0.032549347499814911 0.045158799862010386 0 0.032324837570207154 0.045733626269381898 0 0.032845411619622372 0.044970970190960226 0 0.032549347499814911 0.045158799862010386 0 0.033000316480635165 0.045116626214668235 0 0.032845411619622372 0.044970970190960226 0 0.032549347499814911 0.045158799862010386 0 0.033000316480635165 0.045116626214668235 0 0.033023973667521078 0.045601648415308324 0 0.032032971392090805 0.046073348518693165 0 0.03265775004361926 0.046352964561646975 0 0.033023973667521078 0.045601648415308324 0 0.028031778079181672 0.041730997011673855 0 0.028555430345662047 0.042483239218546062 0 0.03265775004361926 0.046352964561646975 0 0.033023973667521078 0.045601648415308324 0 0.033850577415026131 0.046252161997955794 0 0.032032971392090805 0.046073348518693165 0 0.032549347499814911 0.045158799862010386 0 0.033023973667521078 0.045601648415308324 0 0.032552193068986476 0.044664722125887062 0 0.032549347499814911 0.045158799862010386 0 0.032674046846651983 0.045066259117370208 0 0.032998694711520164 0.044397066008401327 0 0.032552193068986476 0.044664722125887062 0 0.03297870027919083 0.044847784852268507 0 0.032552193068986476 0.044664722125887062 0 0.032674046846651983 0.045066259117370208 0 0.03297870027919083 0.044847784852268507 0 0.032674046846651983 0.045066259117370208 0 0.032940816540370142 0.045317963196048042 0 0.03297870027919083 0.044847784852268507 0 0.032549347499814911 0.045158799862010386 0 0.03260632889874196 0.045367982909381516 0 0.032324837570207154 0.045733626269381898 0 0.032674046846651983 0.045066259117370208 0 0.03260632889874196 0.045367982909381516 0 0.032940816540370142 0.045317963196048042 0 0.032549347499814911 0.045158799862010386 0 0.032674046846651983 0.045066259117370208 0 0.03260632889874196 0.045367982909381516 0 0.03260632889874196 0.045367982909381516 0 0.032940816540370142 0.045317963196048042 0 0.032680811395797885 0.045755700655829436 0 0.033419518355518402 0.04547830268476119 0 0.032940816540370142 0.045317963196048042 0 0.033117805358479344 0.045980762777497582 0 0.032940816540370142 0.045317963196048042 0 0.033117805358479344 0.045980762777497582 0 0.032680811395797885 0.045755700655829436 0 0.033419518355518402 0.04547830268476119 0 0.032940816540370142 0.045317963196048042 0 0.033378458196518045 0.045042015894716465 0 0.032940816540370142 0.045317963196048042 0 0.03297870027919083 0.044847784852268507 0 0.033378458196518045 0.045042015894716465 0 0.033367489348250449 0.044577271430124417 0 0.032998694711520164 0.044397066008401327 0 0.03297870027919083 0.044847784852268507 0 0.033367489348250449 0.044577271430124417 0 0.03297870027919083 0.044847784852268507 0 0.033378458196518045 0.045042015894716465 0 0.033367489348250449 0.044577271430124417 0 0.033378458196518045 0.045042015894716465 0 0.033921767731585922 0.045020063485082217 0 0.029065494328889711 0.039741202708945302 0 0.030561768728147441 0.043109107600404331 0 0.034041807173887113 0.044231938254355119 0 0.033367489348250449 0.044577271430124417 0 0.033921767731585922 0.045020063485082217 0 0.033419518355518402 0.04547830268476119 0 0.033921767731585922 0.045020063485082217 0 0.033798270041494466 0.045882827207978927 0 0.030561768728147441 0.043109107600404331 0 0.031008992021980555 0.04409440995833535 0 0.033419518355518402 0.04547830268476119 0 0.033378458196518045 0.045042015894716465 0 0.033921767731585922 0.045020063485082217 0 0.033798270041494466 0.045882827207978927 0 0.033961391139477819 0.046928960335933766 0 0.033464044830549475 0.046469741834471168 0 0.033798270041494466 0.045882827207978927 0 0.033961391139477819 0.046928960335933766 0 0.034566979118929662 0.046378770911502491 0 0.034158661562328073 0.04742946250382607 0 0.033454005210795092 0.047375432277499588 0 0.034288613531280945 0.047884499134885308 0 0.032865008100945947 0.047167739244128704 0 0.033871873395498436 0.048487885057400239 0 0.033961391139477819 0.046928960335933766 0 0.032865008100945947 0.047167739244128704 0 0.033464044830549475 0.046469741834471168 0 0.032865008100945947 0.047167739244128704 0 0.032909291638805099 0.048240035517612974 0 0.033871873395498436 0.048487885057400239 0 0.032865008100945947 0.047167739244128704 0 0.033117805358479344 0.045980762777497582 0 0.032699905612295389 0.046333243196817669 0 0.033419518355518402 0.04547830268476119 0 0.033798270041494466 0.045882827207978927 0 0.033117805358479344 0.045980762777497582 0 0.033798270041494466 0.045882827207978927 0 0.033464044830549475 0.046469741834471168 0 0.033117805358479344 0.045980762777497582 0 0.032865008100945947 0.047167739244128704 0 0.033464044830549475 0.046469741834471168 0 0.033117805358479344 0.045980762777497582 0 0.033117805358479344 0.045980762777497582 0 0.032680811395797885 0.045755700655829436 0 0.032699905612295389 0.046333243196817669 0 0.032680811395797885 0.045755700655829436 0 0.032324837570207154 0.045733626269381898 0 0.032367929891667049 0.046231875224162014 0 0.03260632889874196 0.045367982909381516 0 0.032680811395797885 0.045755700655829436 0 0.032324837570207154 0.045733626269381898 0 0.032367929891667049 0.046231875224162014 0 0.032040527347168307 0.046514317911536922 0 0.032579316749817316 0.046876478175072143 0 0.032367929891667049 0.046231875224162014 0 0.032040527347168307 0.046514317911536922 0 0.031896235093066314 0.045851080736049835 0 0.032324837570207154 0.045733626269381898 0 0.032367929891667049 0.046231875224162014 0 0.031896235093066314 0.045851080736049835 0 0.032367929891667049 0.046231875224162014 0 0.032699905612295389 0.046333243196817669 0 0.032579316749817316 0.046876478175072143 0 0.032680811395797885 0.045755700655829436 0 0.032367929891667049 0.046231875224162014 0 0.032699905612295389 0.046333243196817669 0 0.032865008100945947 0.047167739244128704 0 0.032699905612295389 0.046333243196817669 0 0.032579316749817316 0.046876478175072143 0 0.032865008100945947 0.047167739244128704 0 0.032579316749817316 0.046876478175072143 0 0.032909291638805099 0.048240035517612974 0 0.035044929652478865 0.046732488025606124 0 0.034838879535368836 0.047583058454305452 0 0.034868133999101325 0.048227607011008207 0 0.032040527347168307 0.046514317911536922 0 0.032579316749817316 0.046876478175072143 0 0.032909291638805099 0.048240035517612974 0 0.033578332760566522 0.046661991971399239 0 0.033905177606671617 0.047676658595212654 0 0.034838879535368836 0.047583058454305452 0 0.034951234157458315 0.046959366069215705 0 0.034852058454055937 0.04733940090067229 0 0.035044929652478865 0.046732488025606124 0 0.034838879535368836 0.047583058454305452 0 0.034951234157458315 0.046959366069215705 0 0.035044929652478865 0.046732488025606124 0 0.034994689467495066 0.046785828235468147 0 0.035012164556387441 0.046726888416582187 0 0.034994689467495066 0.046785828235468147 0 0.035002795573300709 0.046698078433265254 0 0.035012164556387441 0.046726888416582187 0 0.035002795573300709 0.046698078433265254 0 0.034951234157458315 0.046959366069215705 0 0.034883011691069873 0.0470490621967267 0 0.034994689467495066 0.046785828235468147 0 0.035002795573300709 0.046698078433265254 0 0.034951234157458315 0.046959366069215705 0 0.035044929652478865 0.046732488025606124 0 0.034994689467495066 0.046785828235468147 0 0.034951234157458315 0.046959366069215705 0 0.034883011691069873 0.0470490621967267 0 0.034852058454055937 0.04733940090067229 0 0.034743108068923945 0.0476756924041443 0 0.034951234157458315 0.046959366069215705 0 0.034883011691069873 0.0470490621967267 0 0.034852058454055937 0.04733940090067229 0 0.034883011691069873 0.0470490621967267 0 0.035012724844082306 0.046558268738313834 0 0.034818448622278925 0.047084983023737849 0 0.035002795573300709 0.046698078433265254 0 0.034883011691069873 0.0470490621967267 0 0.035012724844082306 0.046558268738313834 0 0.035002795573300709 0.046698078433265254 0 0.035163578269442684 0.046233344621511407 0 0.035012724844082306 0.046558268738313834 0 0.035012164556387441 0.046726888416582187 0 0.03475539346227062 0.046508597172103275 0 0.034847220947429043 0.046486226805717387 0 0.035044929652478865 0.046732488025606124 0 0.035012164556387441 0.046726888416582187 0 0.034847220947429043 0.046486226805717387 0 0.033578332760566522 0.046661991971399239 0 0.033473118567592788 0.045788956240388749 0 0.032977252406742152 0.045595332056157373 0 0.033473118567592788 0.045788956240388749 0 0.032040527347168307 0.046514317911536922 0 0.031896235093066314 0.045851080736049835 0 0.030773650124940585 0.044945805077759152 0 0.035012164556387441 0.046726888416582187 0 0.035372612253921562 0.045875230709425376 0 0.035163578269442684 0.046233344621511407 0 0.035002795573300709 0.046698078433265254 0 0.035012164556387441 0.046726888416582187 0 0.035163578269442684 0.046233344621511407 0 0.035060452069346805 0.04617514484109729 0 0.035130551992868825 0.046070131708231397 0 0.032324837570207154 0.045733626269381898 0 0.031896235093066314 0.045851080736049835 0 0.030773650124940585 0.044945805077759152 0 0.036774952640561367 0.044811442602751897 0 0.035752482818868017 0.044718034794806717 0 0.036028386115310243 0.046356864005651727 0 0.036774952640561367 0.044811442602751897 0 0.037495450554995279 0.046481501800874486 0 0.038789004207786214 0.045872619376414688 0 0.036774952640561367 0.044811442602751897 0 0.038789004207786214 0.045872619376414688 0 0.038844449959814779 0.04311312063185798 0 0.037022697712397447 0.041511075821453913 0 0.036774952640561367 0.044811442602751897 0 0.038844449959814779 0.04311312063185798 0 0.033263175436007777 0.040623007271515563 0 0.035095578985869895 0.043181610947676745 0 0.034484815235692752 0.041709038917317517 0 0.037022697712397447 0.041511075821453913 0 0.036774952640561367 0.044811442602751897 0 0.035905922613974094 0.043572367468156049 0 0.036774952640561367 0.044811442602751897 0 0.035752482818868017 0.044718034794806717 0 0.035905922613974094 0.043572367468156049 0 0.034878107142260209 0.044067231017639381 0 0.035752482818868017 0.044718034794806717 0 0.034878107142260209 0.044067231017639381 0 0.034984050060486806 0.045378791794556256 0 0.035752482818868017 0.044718034794806717 0 0.033852257996662652 0.044578864085009946 0 0.034878107142260209 0.044067231017639381 0 0.034984050060486806 0.045378791794556256 0 0.03400197404506658 0.043254629014491779 0 0.033852257996662652 0.044578864085009946 0 0.034878107142260209 0.044067231017639381 0 0.033852257996662652 0.044578864085009946 0 0.033798270041494466 0.045882827207978927 0 0.034984050060486806 0.045378791794556256 0 0.034984050060486806 0.045378791794556256 0 0.035752482818868017 0.044718034794806717 0 0.036028386115310243 0.046356864005651727 0 0.034566979118929662 0.046378770911502491 0 0.035220142615021474 0.047172051399096609 0 0.036028386115310243 0.046356864005651727 0 0.034984050060486806 0.045378791794556256 0 0.034566979118929662 0.046378770911502491 0 0.036028386115310243 0.046356864005651727 0 0.033798270041494466 0.045882827207978927 0 0.034984050060486806 0.045378791794556256 0 0.034566979118929662 0.046378770911502491 0 0.034158661562328073 0.04742946250382607 0 0.035375441810145472 0.047514862977089282 0 0.034288613531280945 0.047884499134885308 0 0.035393345173843266 0.047991565477459919 0 0.034623439036728564 0.048988686505094851 0 0.033961391139477819 0.046928960335933766 0 0.034566979118929662 0.046378770911502491 0 0.035220142615021474 0.047172051399096609 0 0.035375441810145472 0.047514862977089282 0 0.036158636509423518 0.047557649953705504 0 0.035393345173843266 0.047991565477459919 0 0.036952347904596228 0.0476769176015314 0 0.03612144451944118 0.048639426353771539 0 0.036028386115310243 0.046356864005651727 0 0.037320974910428364 0.047140405412768586 0 0.036952347904596228 0.0476769176015314 0 0.035220142615021474 0.047172051399096609 0 0.036028386115310243 0.046356864005651727 0 0.036952347904596228 0.0476769176015314 0 0.036774952640561367 0.044811442602751897 0 0.036028386115310243 0.046356864005651727 0 0.037495450554995279 0.046481501800874486 0 0.037495450554995279 0.046481501800874486 0 0.037736064048658077 0.047769193783367872 0 0.038789004207786214 0.045872619376414688 0 0.036028386115310243 0.046356864005651727 0 0.037495450554995279 0.046481501800874486 0 0.037320974910428364 0.047140405412768586 0 0.037495450554995279 0.046481501800874486 0 0.037320974910428364 0.047140405412768586 0 0.037736064048658077 0.047769193783367872 0 0.037320974910428364 0.047140405412768586 0 0.036952347904596228 0.0476769176015314 0 0.037736064048658077 0.047769193783367872 0 0.019957727330149944 0.043829469534730131 0 0.018935791079748129 0.042304961830008467 0 0.019179800035770581 0.04534725611960741 0 0.037321169055506857 0.048216380903189332 0 0.037971343510111707 0.047848841930440734 0 0.038056464117459596 0.048808683602373039 0 0.025652769743730933 0.043736521894453532 0 0.026610245223683104 0.046085267989435894 0 0.018935791079748129 0.042304961830008467 0 0.020187734945063762 0.042801376114189736 0 0.02063705583206777 0.041902513770986929 0 0.019957727330149944 0.043829469534730131 0 0.018935791079748129 0.042304961830008467 0 0.020187734945063762 0.042801376114189736 0 0.017100545554305357 0.04530961753037626 0 0.017527601927250058 0.044220450292736808 0 0.018142712907609937 0.045760953908751512 0 0.014967666565469554 0.039574985830154459 0 0.01573722239005915 0.047211905336469774 0 0.017100545554305357 0.04530961753037626 0 0.018142712907609937 0.045760953908751512 0 0.017679015745738672 0.046338773849735636 0 0.019432375730911177 0.044893065767411471 0 0.020146956690530297 0.048893955619684126 0 0.019957727330149944 0.043829469534730131 0 0.02126654809093742 0.04300936766361927 0 0.020248039851650138 0.04558487554961585 0 0.019432375730911177 0.044893065767411471 0 0.024635273417676441 0.047039381508963862 0 0.019957727330149944 0.043829469534730131 0 0.020187734945063762 0.042801376114189736 0 0.02126654809093742 0.04300936766361927 0 0.02063705583206777 0.041902513770986929 0 0.021246252007313338 0.042995336868706609 0 0.02217878871525281 0.040653979011797986 0 0.020187734945063762 0.042801376114189736 0 0.02063705583206777 0.041902513770986929 0 0.02126654809093742 0.04300936766361927 0 0.019415779114379427 0.044755723554443405 0 0.019432375730911177 0.044893065767411471 0 0.019432375730911177 0.044893065767411471 0 0.014967666565469554 0.039574985830154459 0 0.02063705583206777 0.041902513770986929 0 0.02217878871525281 0.040653979011797986 0 0.020141692391201556 0.039996644341284492 0 0.025652769743730933 0.043736521894453532 0 0.023864900335610419 0.039608437927789591 0 0.018935791079748129 0.042304961830008467 0 0.018693291982475393 0.039280705939463076 0 0.020141692391201556 0.039996644341284492 0 0.037321169055506857 0.048216380903189332 0 0.037971343510111707 0.047848841930440734 0 0.037850913430746563 0.046864331769455772 0 0.029833655352053779 0.044144141522373913 0 0.023864900335610419 0.039608437927789591 0 0.018935791079748129 0.042304961830008467 0 0.02063705583206777 0.041902513770986929 0 0.020141692391201556 0.039996644341284492 0 0.018951563105900873 0.037596744323918095 0 0.021526074776588373 0.031985129176486653 0 0.018356791955167522 0.030114047604949838 0 0.023864900335610419 0.039608437927789591 0 0.015175205319788885 0.030151646836507322 0 0.023864900335610419 0.039608437927789591 0 0.021334854630611209 0.034396834120526298 0 0.018693291982475393 0.039280705939463076 0 0.020141692391201556 0.039996644341284492 0 0.020261948125132153 0.035839714534573082 0 0.02217878871525281 0.040653979011797986 0 0.020141692391201556 0.039996644341284492 0 0.020261948125132153 0.035839714534573082 0 0.0080186306671106763 0.033258829891825013 0 0.0061230197609185768 0.028513730262373888 0 0.0097910144979125834 0.028727238135373166 0 0.014967666565469554 0.039574985830154459 0 0.015175205319788885 0.030151646836507322 0 0.011618287479350823 0.022240190738148466 0 0.01090849722549125 0.020439187344696585 0 0.012339833840531604 0.020641041882726325 0 0.0061230197609185768 0.028513730262373888 0 0.0097910144979125834 0.028727238135373166 0 0.0072289193058383567 0.02608309873986157 0 0.015175205319788885 0.030151646836507322 0 0.0096780632549570561 0.02278201702666394 0 0.021526074776588373 0.031985129176486653 0 0.018356791955167522 0.030114047604949838 0 0.019719620657272501 0.027429232758543597 0 0.015175205319788885 0.030151646836507322 0 0.014467453992657564 0.024834191150061982 0 0.0070202638209128573 0.035503743768802262 0 0.0064449688742842003 0.035823432359198659 0 0.0069511568465129604 0.036642808417145123 0 0.0070202638209128573 0.035503743768802262 0 0.0069511568465129604 0.036642808417145123 0 0.0074952444051376785 0.035887197942262521 0 0.0070202638209128573 0.035503743768802262 0 0.0064449688742842003 0.035823432359198659 0 0.0067753065204015327 0.034924029581257378 0 0.0080134925373964872 0.031693294775862205 0 0.0017217537330516239 0.02153773279965969 0 0.0097910144979125834 0.028727238135373166 0 0.0072289193058383567 0.02608309873986157 0 0.0099939850061826502 0.024978163394200854 0 0.0061124897232685167 0.036742800705772745 0 0.0064449688742842003 0.035823432359198659 0 0.0069511568465129604 0.036642808417145123 0 0.014967666565469554 0.039574985830154459 0 0.0080134925373964872 0.031693294775862205 0 0.0086511281528554619 0.043150073120718883 0 0.0043023926650102157 0.038732354244587992 0 0.0061124897232685167 0.036742800705772745 0 0.0069511568465129604 0.036642808417145123 0 0.0063868127798082687 0.037415522024826675 0 0.0086511281528554619 0.043150073120718883 0 0.01573722239005915 0.047211905336469774 0 0.0055979813495866037 0.046974671071661922 0 0.0047776446663227914 0.048048049450594148 0 0.0056579409028948754 0.048115373089871405 0 0.0055979813495866037 0.046974671071661922 0 0.0056579409028948754 0.048115373089871405 0 0.0065601343273818504 0.047997035860593867 0 0.0063544142571204795 0.054661757673243189 0 0.0037105672341302041 0.051876563804333052 0 0.0024115053654730424 0.060112936678426598 0 0.0029352435869990194 0.06026458805216163 0 0.0027637062398939865 0.059060361544053114 0 0.0044098672499788853 0.061105131969677387 0 0.004321087392348431 0.060333203589497883 0 0.0029352435869990194 0.06026458805216163 0 0.0027637062398939865 0.059060361544053114 0 0.0037575392948163738 0.059395693933998704 0 0.0027637062398939865 0.059060361544053114 0 0.0037575392948163738 0.059395693933998704 0 0.0034430102973895282 0.058598589369168876 0 0.0055979813495866037 0.046974671071661922 0 0.0065601343273818504 0.047997035860593867 0 0.0069503931527808826 0.046963505854866271 0 0.0052653201085989766 0.061462093083793197 0 0.0059581756109315714 0.063292350420609364 0 0.0077217294913120441 0.06248909182470818 0 0.0052653201085989766 0.061462093083793197 0 0.0044230551292567481 0.063433409667109669 0 0.0059581756109315714 0.063292350420609364 0 0.0014694195602011036 0.062825435734545965 0 0.0032311763978085961 0.062691463153345284 0 0.0033019879443413704 0.060586524768405779 0 0.0052653201085989766 0.061462093083793197 0 0.0032311763978085961 0.062691463153345284 0 0.0044230551292567481 0.063433409667109669 0 0.0052653201085989766 0.061462093083793197 0 0.0032311763978085961 0.062691463153345284 0 0.0033019879443413704 0.060586524768405779 0 0.0037575392948163738 0.059395693933998704 0 0.0040327413672577332 0.058163801753745775 0 0.0034430102973895282 0.058598589369168876 0 0.004321087392348431 0.060333203589497883 0 0.0047727312565563748 0.059574429974707944 0 0.0033019879443413704 0.060586524768405779 0 0.0054866466570089069 0.059921505852775392 0 0.0052406197259646349 0.058253104413061002 0 0.0052653201085989766 0.061462093083793197 0 0.0054866466570089069 0.059921505852775392 0 0.0071420951577209572 0.06053249367661722 0 0.0052653201085989766 0.061462093083793197 0 0.0033019879443413704 0.060586524768405779 0 0.0054866466570089069 0.059921505852775392 0 0.0052406197259646349 0.058253104413061002 0 0.0040327413672577332 0.058163801753745775 0 0.0069376680755028853 0.057725618209535062 0 0.0040327413672577332 0.058163801753745775 0 0.0044432420602232743 0.057565312534737352 0 0.0050433508181692453 0.057715218360612497 0 0.0039467591300445474 0.054451790480307349 0 0.0038910936693760641 0.053094307440331674 0 0.0054866466570089069 0.059921505852775392 0 0.0052406197259646349 0.058253104413061002 0 0.0067278626977266102 0.059153208240928068 0 0.0037575392948163738 0.059395693933998704 0 0.0052406197259646349 0.058253104413061002 0 0.0040327413672577332 0.058163801753745775 0 0.0040327413672577332 0.058163801753745775 0 0.0038762105808516742 0.057573521355454536 0 0.0044432420602232743 0.057565312534737352 0 0.0040327413672577332 0.058163801753745775 0 0.0034430102973895282 0.058598589369168876 0 0.0032538468312593946 0.057790517542176768 0 0.0040327413672577332 0.058163801753745775 0 0.0038762105808516742 0.057573521355454536 0 0.0032538468312593946 0.057790517542176768 0 0.0038762105808516742 0.057573521355454536 0 0.0032538468312593946 0.057790517542176768 0 0.0037306325652208148 0.05682026615588328 0 0.0038762105808516742 0.057573521355454536 0 0.0044432420602232743 0.057565312534737352 0 0.0037306325652208148 0.05682026615588328 0 0.0044432420602232743 0.057565312534737352 0 0.0050433508181692453 0.057715218360612497 0 0.0049002176097147935 0.057125318700113392 0 0.0044432420602232743 0.057565312534737352 0 0.0037306325652208148 0.05682026615588328 0 0.0049002176097147935 0.057125318700113392 0 0.0055979813495866037 0.046974671071661922 0 0.0069503931527808826 0.046963505854866271 0 0.0064162996109224909 0.045883717789913528 0 0.0037105672341302041 0.051876563804333052 0 0.00096247672995507987 0.04762414158534857 0 0.0027637062398939865 0.059060361544053114 0 0.0034430102973895282 0.058598589369168876 0 0.0032538468312593946 0.057790517542176768 0 0.0069503931527808826 0.046963505854866271 0 0.0064162996109224909 0.045883717789913528 0 0.0073363775264086405 0.045917483392425906 0 0.0073363775264086405 0.045917483392425906 0 0.007237794962989901 0.044790328376547374 0 0.0077240482358327265 0.044872921784398487 0 0.0064162996109224909 0.045883717789913528 0 0.0073363775264086405 0.045917483392425906 0 0.007237794962989901 0.044790328376547374 0 0.0043023926650102157 0.038732354244587992 0 -0.0019163048378210757 0.032787596759984119 0 0.00096247672995507987 0.04762414158534857 0 -0.0020978255251951207 0.037658103962108801 0 0.0074952444051376785 0.035887197942262521 0 0.007411602212448765 0.035052172723174277 0 0.0080277608050614308 0.035164732054673624 0 0.0070202638209128573 0.035503743768802262 0 0.0074952444051376785 0.035887197942262521 0 0.007411602212448765 0.035052172723174277 0 -0.00056490876218740502 0.026797155182144899 0 -0.0019163048378210757 0.032787596759984119 0 -0.0092539143269461232 0.015066194172090909 0 -0.0093484685567371811 0.015097753578025768 0 -0.0093714151911362727 0.015101486839475649 0 -0.0019163048378210757 0.032787596759984119 0 -0.0020978255251951207 0.037658103962108801 0 -0.0093484685567371811 0.015097753578025768 0 -0.0093714151911362727 0.015101486839475649 0 -0.0093040674607409654 0.015092374132760966 0 -0.0092539143269461232 0.015066194172090909 0 -0.0093714151911362727 0.015101486839475649 0 -0.0092739611186976167 0.015133050897671597 0 -0.0092539143269461232 0.015066194172090909 0 -0.0092739611186976167 0.015133050897671597 0 -0.0092012472150402383 0.015111652231487232 0 -0.0092739611186976167 0.015133050897671597 0 -0.0092060144189744474 0.015174884804327738 0 -0.0092012472150402383 0.015111652231487232 0 -0.013252905888755823 0.028195251629560453 0 -0.013332140673566537 0.028179945708243944 0 -0.013346825185518154 0.028146994545005341 0 -0.0020978255251951207 0.037658103962108801 0 -0.0036965152849345725 0.042000538890142262 0 -0.013141801968654283 0.028139797159053095 0 -0.013252905888755823 0.028195251629560453 0 -0.013346825185518154 0.028146994545005341 0 -0.013050411639530369 0.028156226927337113 0 -0.013173570233653198 0.028190510046283309 0 -0.013200911735512588 0.02823585203736886 0 -0.0019163048378210757 0.032787596759984119 0 -0.0090842527185856607 0.024471290849725089 0 -0.013173570233653198 0.028190510046283309 0 -0.013141801968654283 0.028139797159053095 0 -0.013252905888755823 0.028195251629560453 0 -0.0024265668351997373 0.036618846774718536 0 -0.0020978255251951207 0.037658103962108801 0 -0.013050411639530369 0.028156226927337113 0 -0.013173570233653198 0.028190510046283309 0 -0.013123817219778502 0.028138608610656392 0 -0.0093714151911362727 0.015101486839475649 0 -0.0093040674607409654 0.015092374132760966 0 -0.0093798907422217442 0.014966109242361117 0 -0.013173570233653198 0.028190510046283309 0 -0.013200911735512588 0.02823585203736886 0 -0.013252905888755823 0.028195251629560453 0 -0.013200911735512588 0.02823585203736886 0 -0.013252905888755823 0.028195251629560453 0 -0.013261120124937987 0.028234184495021998 0 -0.013252905888755823 0.028195251629560453 0 -0.013261120124937987 0.028234184495021998 0 -0.013307308246136178 0.028211290894278238 0 -0.013261120124937987 0.028234184495021998 0 -0.013307308246136178 0.028211290894278238 0 -0.013299373472568588 0.028238750466432032 0 -0.013252905888755823 0.028195251629560453 0 -0.013307308246136178 0.028211290894278238 0 -0.013332140673566537 0.028179945708243944 0 -0.0090842527185856607 0.024471290849725089 0 -0.016450745305730593 0.019542837039681658 0 -0.013261120124937987 0.028234184495021998 0 -0.013297863218380206 0.028282811393369352 0 -0.013299373472568588 0.028238750466432032 0 -0.013297863218380206 0.028282811393369352 0 -0.013299373472568588 0.028238750466432032 0 -0.013336814505623693 0.028211883761246385 0 -0.013200911735512588 0.02823585203736886 0 -0.013261120124937987 0.028234184495021998 0 -0.013297863218380206 0.028282811393369352 0 -0.0093040674607409654 0.015092374132760966 0 -0.0091277422848708607 0.014876720803007939 0 -0.0093053208396614798 0.014878299847297135 0 -0.0093040674607409654 0.015092374132760966 0 -0.0093053208396614798 0.014878299847297135 0 -0.0093798907422217442 0.014966109242361117 0 -0.0093053208396614798 0.014878299847297135 0 -0.0093798907422217442 0.014966109242361117 0 -0.0094095414723684399 0.014778476352623311 0 -0.0093053208396614798 0.014878299847297135 0 -0.0093731080466497533 0.014680129590843093 0 -0.0094095414723684399 0.014778476352623311 0 -0.0091277422848708607 0.014876720803007939 0 -0.0093053208396614798 0.014878299847297135 0 -0.0093731080466497533 0.014680129590843093 0 -0.026064776555029114 0.011328298589598071 0 -0.028479857308234133 0.0096869466093776752 0 -0.027110911331089706 0.01029275407192806 0 -0.016450745305730593 0.019542837039681658 0 -0.01749586612500997 0.0096918001309146268 0 -0.026302835594041275 0.0088968722926263677 0 -0.028479857308234133 0.0096869466093776752 0 -0.027110911331089706 0.01029275407192806 0 -0.01749586612500997 0.0096918001309146268 0 -0.0171723271902866 0.010063856704367264 0 -0.026302835594041275 0.0088968722926263677 0 -0.027110911331089706 0.01029275407192806 0 -0.025722843524104155 0.010787775206054952 0 -0.021061658920345557 0.017613635846816921 0 -0.018365784016079249 0.019047147130045572 0 -0.026064776555029114 0.011328298589598071 0 -0.027110911331089706 0.01029275407192806 0 -0.025649992295334923 0.010828104763181615 0 -0.016450745305730593 0.019542837039681658 0 -0.018365784016079249 0.019047147130045572 0 -0.0092739611186976167 0.015133050897671597 0 -0.0093162445735912175 0.015189042317448682 0 -0.0092060144189744474 0.015174884804327738 0 -0.0093162445735912175 0.015189042317448682 0 -0.0092914443650793134 0.015239598992507236 0 -0.0092060144189744474 0.015174884804327738 0 -0.0093714151911362727 0.015101486839475649 0 -0.0093798907422217442 0.014966109242361117 0 -0.0095726169908291713 0.014901954120234625 0 -0.0093714151911362727 0.015101486839475649 0 -0.0092739611186976167 0.015133050897671597 0 -0.0093162445735912175 0.015189042317448682 0 -0.0099113407155652037 0.013559944919714439 0 -0.010376216103347389 0.012388711897074304 0 -0.0093798907422217442 0.014966109242361117 0 -0.0095726169908291713 0.014901954120234625 0 -0.0094095414723684399 0.014778476352623311 0 -0.0095726169908291713 0.014901954120234625 0 -0.0095399980689197649 0.014644860220451828 0 -0.0097523537042346637 0.014575306234240868 0 -0.0095726169908291713 0.014901954120234625 0 -0.0094095414723684399 0.014778476352623311 0 -0.0095399980689197649 0.014644860220451828 0 -0.0093187555031925967 0.014574913489860815 0 -0.0094095414723684399 0.014778476352623311 0 -0.0095399980689197649 0.014644860220451828 0 -0.014458277292164499 -0.0011128290153402487 0 -0.012329985068000499 -0.0018274062473484537 0 -0.011782993788517443 -0.0047198047013176378 0 -0.010376216103347389 0.012388711897074304 0 -0.012499647607948444 0.0070726310109023019 0 -0.012499647607948444 0.0070726310109023019 0 -0.0062150163904954288 0.0094290880351065309 0 -0.012513636293977793 -0.00013818855982953367 0 -0.014458277292164499 -0.0011128290153402487 0 -0.012329985068000499 -0.0018274062473484537 0 -0.012329985068000499 -0.0018274062473484537 0 -0.010553581985725202 -0.0012118313882627635 0 -0.011782993788517443 -0.0047198047013176378 0 -0.012513636293977793 -0.00013818855982953367 0 -0.012329985068000499 -0.0018274062473484537 0 -0.010553581985725202 -0.0012118313882627635 0 -0.010553581985725202 -0.0012118313882627635 0 -0.011782993788517443 -0.0047198047013176378 0 -0.0091176341054184772 -0.0045060424901728615 0 -0.0060930343788127084 0.00044312258747805172 0 -0.010553581985725202 -0.0012118313882627635 0 -0.0072495000500188171 -0.0026873197047030499 0 -0.0082153256989902623 -0.0061812481962542709 0 -0.0072495000500188171 -0.0026873197047030499 0 -0.0041736482149018215 -0.0038437843241313921 0 -0.0016516241893642649 0.0013765925074582714 0 0.00050817538946936022 0.0025425180033046397 0 -0.010553581985725202 -0.0012118313882627635 0 -0.0082153256989902623 -0.0061812481962542709 0 -0.0072495000500188171 -0.0026873197047030499 0 -0.0011943237053098647 -0.00022170298065650603 0 -0.0060930343788127084 0.00044312258747805172 0 -0.0041736482149018215 -0.0038437843241313921 0 -0.0060930343788127084 0.00044312258747805172 0 -0.0072495000500188171 -0.0026873197047030499 0 -0.0041736482149018215 -0.0038437843241313921 0 -0.0011943237053098647 -0.00022170298065650603 0 -0.0041736482149018215 -0.0038437843241313921 0 0.00050199114236736456 -0.0041301504682880958 0 0.00050199114236736456 -0.0041301504682880958 0 -0.0021147850018447796 -0.0064291366474512474 0 -5.9813676626010691e-05 -0.0100698964550888 0 0.0066703608701502281 0.0045771102850464956 0 0.01365222164213082 0.01986853091230641 0 -0.0041736482149018215 -0.0038437843241313921 0 0.00050199114236736456 -0.0041301504682880958 0 -0.0021147850018447796 -0.0064291366474512474 0 -0.0082153256989902623 -0.0061812481962542709 0 -0.0041736482149018215 -0.0038437843241313921 0 -0.0047669569059504719 -0.0075986751233944839 0 -0.0041736482149018215 -0.0038437843241313921 0 -0.0021147850018447796 -0.0064291366474512474 0 -0.0047669569059504719 -0.0075986751233944839 0 -0.0047669569059504719 -0.0075986751233944839 0 -0.0058869034600668429 -0.011070545876862683 0 -5.9813676626010691e-05 -0.0100698964550888 0 0.00430266247587299 0.014982575206582562 0 0.01365222164213082 0.01986853091230641 0 -0.0082153256989902623 -0.0061812481962542709 0 -0.0047669569059504719 -0.0075986751233944839 0 -0.0058869034600668429 -0.011070545876862683 0 -0.0021147850018447796 -0.0064291366474512474 0 -0.0047669569059504719 -0.0075986751233944839 0 -5.9813676626010691e-05 -0.0100698964550888 0 0.01365222164213082 0.01986853091230641 0 0.014467453992657564 0.024834191150061982 0 0.013057157803580369 0.01905334096267252 0 0.010151778297754188 0.018553442856864284 0 0.01090849722549125 0.020439187344696585 0 0.021334854630611209 0.034396834120526298 0 0.01365222164213082 0.01986853091230641 0 0.018356791955167522 0.030114047604949838 0 0.017763551271536396 0.022597753718537172 0 0.019719620657272501 0.027429232758543597 0 0.013057157803580369 0.01905334096267252 0 0.01090849722549125 0.020439187344696585 0 0.012339833840531604 0.020641041882726325 0 0.0083293357978916661 0.023659308958309852 0 0.0072289193058383567 0.02608309873986157 0 0.0099939850061826502 0.024978163394200854 0 0.00430266247587299 0.014982575206582562 0 0.0096780632549570561 0.02278201702666394 0 0.0097910144979125834 0.028727238135373166 0 0.0099939850061826502 0.024978163394200854 0 0.011544395869148218 0.024216875228853952 0 0.00430266247587299 0.014982575206582562 0 0.00088668100192195842 0.01818352774721672 0 0.0083293357978916661 0.023659308958309852 0 0.0099939850061826502 0.024978163394200854 0 0.010583537656493605 0.024049251059385556 0 0.0099939850061826502 0.024978163394200854 0 0.010579296404378619 0.024053039630070296 0 0.011544395869148218 0.024216875228853952 0 0.00088668100192195842 0.01818352774721672 0 0.0017217537330516239 0.02153773279965969 0 0.0010316407538462566 0.018308851659979086 0 0.00088668100192195842 0.01818352774721672 0 -0.00056490876218740502 0.026797155182144899 0 0.0017217537330516239 0.02153773279965969 0 0.0070202638209128573 0.035503743768802262 0 0.007411602212448765 0.035052172723174277 0 0.0067753065204015327 0.034924029581257378 0 -0.0092539143269461232 0.015066194172090909 0 -0.0091210070299448283 0.015069492228928776 0 -0.0092012472150402383 0.015111652231487232 0 -0.0090777600380943305 0.015083107748337703 0 -0.0091135749656688411 0.015073823652940769 0 -0.0091407236928264853 0.015103659967703619 0 -0.0092060144189744474 0.015174884804327738 0 -0.0091407236928264853 0.015103659967703619 0 -0.0092012472150402383 0.015111652231487232 0 -0.0091210070299448283 0.015069492228928776 0 -0.0091407236928264853 0.015103659967703619 0 -0.0092012472150402383 0.015111652231487232 0 -0.0092060144189744474 0.015174884804327738 0 -0.0090777600380943305 0.015083107748337703 0 -0.0091407236928264853 0.015103659967703619 0 0.0017217537330516239 0.02153773279965969 0 0.0015459758778324703 0.02130658867355702 0 -0.0062150163904954288 0.0094290880351065309 0 0.00088668100192195842 0.01818352774721672 0 0.00050817538946936022 0.0025425180033046397 0 0.00430266247587299 0.014982575206582562 0 -0.0091176341054184772 -0.0045060424901728615 0 -0.0076533396892817162 -0.0075817715844680011 0 -0.0095254878310216014 -0.0079243165843163859 0 -0.011782993788517443 -0.0047198047013176378 0 -0.0091176341054184772 -0.0045060424901728615 0 -0.0095254878310216014 -0.0079243165843163859 0 0.068334593921299785 0.012016957744546357 0 0.064999820787064733 0.012830836889052021 0 0.068067612721403742 0.015988268095107991 0 0.064999820787064733 0.012830836889052021 0 0.068067612721403742 0.015988268095107991 0 0.064999922511201708 0.016734944627281142 0 0.066546217621210643 0.015889065816379652 0 0.066579305679997092 0.012991673479566455 0 0.068334593921299785 0.012016957744546357 0 0.068067612721403742 0.015988268095107991 0 0.070727931456754545 0.014639590246318694 0 0.066546217621210643 0.015889065816379652 0 0.066091695375491061 0.01769208610841953 0 0.066521361420447359 0.012852337178899175 0 0.064481435112283214 0.013714378164227558 0 0.063860485339062384 0.013231489279336804 0 0.066579305679997092 0.012991673479566455 0 0.065301177806140587 0.0098885027395097334 0 0.064481435112283214 0.013714378164227558 0 0.063860485339062384 0.013231489279336804 0 0.062438408090539417 0.014572148534587593 0 0.070727931456754545 0.014639590246318694 0 0.071285423933500347 0.012103442605339501 0 0.07354495253925622 0.013322697817333168 0 0.068334593921299785 0.012016957744546357 0 0.070727931456754545 0.014639590246318694 0 0.071285423933500347 0.012103442605339501 0 0.068334593921299785 0.012016957744546357 0 0.070969366611388529 0.0092979116488651047 0 0.068572993859302447 0.0083545697534548671 0 0.068334593921299785 0.012016957744546357 0 0.071285423933500347 0.012103442605339501 0 0.070969366611388529 0.0092979116488651047 0 0.071285423933500347 0.012103442605339501 0 0.070969366611388529 0.0092979116488651047 0 0.074343474932626594 0.01049099268862967 0 0.072179354984281699 0.0066431272967883166 0 0.071784466308025846 0.0056788215451196809 0 0.070969366611388529 0.0092979116488651047 0 0.071924910074726969 0.0065808492733654533 0 0.073270569355876725 0.0074716860131789943 0 0.070969366611388529 0.0092979116488651047 0 0.068572993859302447 0.0083545697534548671 0 0.070273565953864178 0.0062901979179268968 0 0.068334593921299785 0.012016957744546357 0 0.068572993859302447 0.0083545697534548671 0 0.064999873302530764 0.0089265378859868585 0 0.068334593921299785 0.012016957744546357 0 0.064999820787064733 0.012830836889052021 0 0.064999873302530764 0.0089265378859868585 0 0.064999873302530764 0.0089265378859868585 0 0.068004771805288397 0.0055200339379553156 0 0.064999960051628267 0.0050225622560824239 0 0.068572993859302447 0.0083545697534548671 0 0.064999873302530764 0.0089265378859868585 0 0.068004771805288397 0.0055200339379553156 0 0.064999960051628267 0.0050225622560824239 0 0.067698987788821635 0.0013240187481497784 0 0.064999888613006138 0.0011187210010135532 0 0.068004771805288397 0.0055200339379553156 0 0.064999960051628267 0.0050225622560824239 0 0.067698987788821635 0.0013240187481497784 0 0.068004771805288397 0.0055200339379553156 0 0.067698987788821635 0.0013240187481497784 0 0.07029194555913601 0.0036916093632854471 0 0.073130240835415916 0.00019633318891576075 0 0.070883754040595118 0.0011093768290107247 0 0.072980984760075265 0.0016343888682090275 0 0.070883754040595118 0.0011093768290107247 0 0.071976599998295754 0.0030729538405381805 0 0.072980984760075265 0.0016343888682090275 0 0.069228128014245854 -0.00059239345188497571 0 0.067698987788821635 0.0013240187481497784 0 0.070883754040595118 0.0011093768290107247 0 0.067698987788821635 0.0013240187481497784 0 0.070883754040595118 0.0011093768290107247 0 0.07029194555913601 0.0036916093632854471 0 0.07029194555913601 0.0036916093632854471 0 0.071976599998295754 0.0030729538405381805 0 0.071813627710002409 0.004716902363266955 0 0.070883754040595118 0.0011093768290107247 0 0.07029194555913601 0.0036916093632854471 0 0.071976599998295754 0.0030729538405381805 0 0.07029194555913601 0.0036916093632854471 0 0.071813627710002409 0.004716902363266955 0 0.070273565953864178 0.0062901979179268968 0 0.068004771805288397 0.0055200339379553156 0 0.07029194555913601 0.0036916093632854471 0 0.070273565953864178 0.0062901979179268968 0 0.068572993859302447 0.0083545697534548671 0 0.068004771805288397 0.0055200339379553156 0 0.070273565953864178 0.0062901979179268968 0 0.071813627710002409 0.004716902363266955 0 0.070273565953864178 0.0062901979179268968 0 0.071924910074726969 0.0065808492733654533 0 0.070969366611388529 0.0092979116488651047 0 0.070273565953864178 0.0062901979179268968 0 0.071924910074726969 0.0065808492733654533 0 0.071924910074726969 0.0065808492733654533 0 0.073215928368497593 0.0051019083852347968 0 0.073270569355876725 0.0074716860131789943 0 0.07427494509705039 0.0061033463390365184 0 0.074900136094052605 0.0073082826557770084 0 0.073270569355876725 0.0074716860131789943 0 0.07427494509705039 0.0061033463390365184 0 0.073215928368497593 0.0051019083852347968 0 0.074784874056782677 0.0047508082043895327 0 0.07427494509705039 0.0061033463390365184 0 0.073215928368497593 0.0051019083852347968 0 0.073270569355876725 0.0074716860131789943 0 0.07427494509705039 0.0061033463390365184 0 0.075199287414268109 0.00587682244492668 0 0.074900136094052605 0.0073082826557770084 0 0.07427494509705039 0.0061033463390365184 0 0.074784874056782677 0.0047508082043895327 0 0.075199287414268109 0.00587682244492668 0 0.074137190068640862 0.0035013317337372783 0 0.073215928368497593 0.0051019083852347968 0 0.074784874056782677 0.0047508082043895327 0 0.074137190068640862 0.0035013317337372783 0 0.073215928368497593 0.0051019083852347968 0 0.073074971287863486 0.003436018695804669 0 0.071813627710002409 0.004716902363266955 0 0.071924910074726969 0.0065808492733654533 0 0.073215928368497593 0.0051019083852347968 0 0.071813627710002409 0.004716902363266955 0 0.073215928368497593 0.0051019083852347968 0 0.073074971287863486 0.003436018695804669 0 0.071976599998295754 0.0030729538405381805 0 0.071813627710002409 0.004716902363266955 0 0.073074971287863486 0.003436018695804669 0 0.071976599998295754 0.0030729538405381805 0 0.073074971287863486 0.003436018695804669 0 0.072980984760075265 0.0016343888682090275 0 0.073074971287863486 0.003436018695804669 0 0.073855549333875253 0.0022947732085608942 0 0.072980984760075265 0.0016343888682090275 0 0.074137190068640862 0.0035013317337372783 0 0.073074971287863486 0.003436018695804669 0 0.073855549333875253 0.0022947732085608942 0 0.074137190068640862 0.0035013317337372783 0 0.073855549333875253 0.0022947732085608942 0 0.074638879426821611 0.0022569584851249384 0 0.073855549333875253 0.0022947732085608942 0 0.074249222107942131 0.0010442310629162133 0 0.074638879426821611 0.0022569584851249384 0 0.073855549333875253 0.0022947732085608942 0 0.074249222107942131 0.0010442310629162133 0 0.072980984760075265 0.0016343888682090275 0 0.073130240835415916 0.00019633318891576075 0 0.074249222107942131 0.0010442310629162133 0 0.072980984760075265 0.0016343888682090275 0 0.073967746938738227 0.001512569640728893 0 0.07116034330012054 5.4647895870262062e-05 0 0.074541206783207192 0.00044772247584873293 0 0.07116034330012054 5.4647895870262062e-05 0 0.074541206783207192 0.00044772247584873293 0 0.071299524290555541 -0.0022835394310311624 0 0.07116034330012054 5.4647895870262062e-05 0 0.071299524290555541 -0.0022835394310311624 0 0.069205744522447127 -0.0020462592077683927 0 0.073967746938738227 0.001512569640728893 0 0.074249222107942131 0.0010442310629162133 0 0.074541206783207192 0.00044772247584873293 0 0.074249222107942131 0.0010442310629162133 0 0.074541206783207192 0.00044772247584873293 0 0.074638879426821611 0.0022569584851249384 0 0.074541206783207192 0.00044772247584873293 0 0.074638879426821611 0.0022569584851249384 0 0.075738831823414218 0.0028769706587713213 0 0.074137190068640862 0.0035013317337372783 0 0.074638879426821611 0.0022569584851249384 0 0.075453484097582596 0.0038250836761580575 0 0.074638879426821611 0.0022569584851249384 0 0.075738831823414218 0.0028769706587713213 0 0.075453484097582596 0.0038250836761580575 0 0.074541206783207192 0.00044772247584873293 0 0.075738831823414218 0.0028769706587713213 0 0.077235384664503054 0.0036426320940747586 0 0.071299524290555541 -0.0022835394310311624 0 0.073026818654107817 -0.0065813956072174086 0 0.069249806608864109 -0.0040507512946403833 0 0.074541206783207192 0.00044772247584873293 0 0.071299524290555541 -0.0022835394310311624 0 0.073026818654107817 -0.0065813956072174086 0 0.069135481367120555 0.0010796915915849911 0 0.066537848362768243 -7.6348480707590861e-05 0 0.075738831823414218 0.0028769706587713213 0 0.076819375406478554 0.0035948378508959796 0 0.077235384664503054 0.0036426320940747586 0 0.075738831823414218 0.0028769706587713213 0 0.076819375406478554 0.0035948378508959796 0 0.076056233877174043 0.0035844898851446227 0 0.07711549745893212 0.0036796042975818029 0 0.076526747140004459 0.0045075281909029707 0 0.078086325544739543 0.0061252281224253328 0 0.066537848362768243 -7.6348480707590861e-05 0 0.063590402114792874 -0.0010800893373699549 0 0.066653607685835781 -4.7190277250950693e-05 0 0.066537848362768243 -7.6348480707590861e-05 0 0.076819375406478554 0.0035948378508959796 0 0.076526747140004459 0.0045075281909029707 0 0.076056233877174043 0.0035844898851446227 0 0.076819375406478554 0.0035948378508959796 0 0.07711549745893212 0.0036796042975818029 0 0.076526747140004459 0.0045075281909029707 0 0.074137190068640862 0.0035013317337372783 0 0.075453484097582596 0.0038250836761580575 0 0.074784874056782677 0.0047508082043895327 0 0.076526747140004459 0.0045075281909029707 0 0.075453484097582596 0.0038250836761580575 0 0.076056233877174043 0.0035844898851446227 0 0.075738831823414218 0.0028769706587713213 0 0.075453484097582596 0.0038250836761580575 0 0.076056233877174043 0.0035844898851446227 0 0.076526747140004459 0.0045075281909029707 0 0.075453484097582596 0.0038250836761580575 0 0.075658881706773123 0.0049496746128495162 0 0.076526747140004459 0.0045075281909029707 0 0.075658881706773123 0.0049496746128495162 0 0.076397670248271446 0.0057291085101232172 0 0.075658881706773123 0.0049496746128495162 0 0.074784874056782677 0.0047508082043895327 0 0.075199287414268109 0.00587682244492668 0 0.075453484097582596 0.0038250836761580575 0 0.075658881706773123 0.0049496746128495162 0 0.074784874056782677 0.0047508082043895327 0 0.075199287414268109 0.00587682244492668 0 0.076579795641022505 0.0072652453998114045 0 0.074900136094052605 0.0073082826557770084 0 0.075658881706773123 0.0049496746128495162 0 0.075199287414268109 0.00587682244492668 0 0.076397670248271446 0.0057291085101232172 0 0.075199287414268109 0.00587682244492668 0 0.076397670248271446 0.0057291085101232172 0 0.076579795641022505 0.0072652453998114045 0 0.076397670248271446 0.0057291085101232172 0 0.076579795641022505 0.0072652453998114045 0 0.078086325544739543 0.0061252281224253328 0 0.076526747140004459 0.0045075281909029707 0 0.076397670248271446 0.0057291085101232172 0 0.078086325544739543 0.0061252281224253328 0 0.076579795641022505 0.0072652453998114045 0 0.07767818736225876 0.0077187120336402563 0 0.078086325544739543 0.0061252281224253328 0 0.076579795641022505 0.0072652453998114045 0 0.07767818736225876 0.0077187120336402563 0 0.077096016787511726 0.0091488438305126849 0 0.076579795641022505 0.0072652453998114045 0 0.077096016787511726 0.0091488438305126849 0 0.075720556266139938 0.0085189719354640536 0 0.050829331453102346 -0.020389448805512224 0 0.054976946566719261 -0.022127129729778781 0 0.04892377185578619 -0.024108334910742466 0 0.050829331453102346 -0.020389448805512224 0 0.04892377185578619 -0.024108334910742466 0 0.047919782641490861 -0.021560128168819106 0 0.061405698254179762 -0.0049565383228826112 0 0.062892586183048424 -8.8095717066754799e-05 0 0.077096016787511726 0.0091488438305126849 0 0.075286102794197354 0.0099412498494580708 0 0.075720556266139938 0.0085189719354640536 0 0.075286102794197354 0.0099412498494580708 0 0.075720556266139938 0.0085189719354640536 0 0.074458824238042412 0.0085546711354680637 0 0.076579795641022505 0.0072652453998114045 0 0.075720556266139938 0.0085189719354640536 0 0.074900136094052605 0.0073082826557770084 0 0.075720556266139938 0.0085189719354640536 0 0.074900136094052605 0.0073082826557770084 0 0.074458824238042412 0.0085546711354680637 0 0.074900136094052605 0.0073082826557770084 0 0.074458824238042412 0.0085546711354680637 0 0.073270569355876725 0.0074716860131789943 0 0.074458824238042412 0.0085546711354680637 0 0.073270569355876725 0.0074716860131789943 0 0.073079802492071064 0.0093600420435584284 0 0.070969366611388529 0.0092979116488651047 0 0.073270569355876725 0.0074716860131789943 0 0.073079802492071064 0.0093600420435584284 0 0.062892586183048424 -8.8095717066754799e-05 0 0.071784466308025846 0.0056788215451196809 0 0.075286102794197354 0.0099412498494580708 0 0.074458824238042412 0.0085546711354680637 0 0.073079802492071064 0.0093600420435584284 0 0.077447935742681329 0.011504107311242432 0 0.074343474932626594 0.01049099268862967 0 0.076346759054042909 0.01198297365805207 0 0.061251297451276526 0.0055270486518382489 0 0.065301177806140587 0.0098885027395097334 0 0.060079766826970471 0.019641805662639563 0 0.061979647930078464 0.015201564733190957 0 0.057180379195228413 0.015922590205225892 0 0.060410260851956915 0.015428554516532642 0 0.062438408090539417 0.014572148534587593 0 0.061199664989051356 0.01361756871533386 0 0.061251297451276526 0.0055270486518382489 0 0.059640818245558697 0.022150605021938354 0 0.074343474932626594 0.01049099268862967 0 0.076346759054042909 0.01198297365805207 0 0.07354495253925622 0.013322697817333168 0 0.071285423933500347 0.012103442605339501 0 0.074343474932626594 0.01049099268862967 0 0.07354495253925622 0.013322697817333168 0 0.066091695375491061 0.01769208610841953 0 0.059640818245558697 0.022150605021938354 0 0.063860485339062384 0.013231489279336804 0 0.062438408090539417 0.014572148534587593 0 0.061199664989051356 0.01361756871533386 0 0.059640818245558697 0.022150605021938354 0 0.055359105995290155 0.025471412360103786 0 0.056326314010933513 0.057547493973797943 0 0.052071991487531978 0.054804201580418127 0 0.055903634804555416 0.05409315819957973 0 0.061929676272702433 0.057046662159681606 0 0.056326314010933513 0.057547493973797943 0 0.055903634804555416 0.05409315819957973 0 0.055359105995290155 0.025471412360103786 0 0.050693400117162765 0.024431619210648042 0 0.056326314010933513 0.057547493973797943 0 0.051137935023379211 0.057674679896656339 0 0.052071991487531978 0.054804201580418127 0 0.05518378280382185 -0.021866181959008288 0 0.050822401490493496 -0.024033744423901444 0 0.04892377185578619 -0.024108334910742466 0 0.057180379195228413 0.015922590205225892 0 0.052365464733684516 0.016651124554871284 0 0.053794166093460299 0.01851345907682201 0 0.062892586183048424 -8.8095717066754799e-05 0 0.052164519421457993 -0.008756662830997743 0 0.05518378280382185 -0.021866181959008288 0 0.05718457033039763 -0.022639370053306743 0 0.050822401490493496 -0.024033744423901444 0 0.061251297451276526 0.0055270486518382489 0 0.05171277870337522 0.007875702908381953 0 0.060079766826970471 0.019641805662639563 0 0.057180379195228413 0.015922590205225892 0 0.053794166093460299 0.01851345907682201 0 0.062892586183048424 -8.8095717066754799e-05 0 0.061251297451276526 0.0055270486518382489 0 0.046487988236847799 0.018346222110980352 0 0.044862437553106038 0.016949433429997586 0 0.044631584437329778 -0.025217763130995181 0 0.043292453398472056 -0.023110689398470222 0 0.045210620662619251 -0.021888157354559023 0 0.045408698759306074 0.017146004661027631 0 0.044612865202741887 0.016995710946994806 0 0.043908800199413074 0.017362469770144377 0 0.044631584437329778 -0.025217763130995181 0 0.043292453398472056 -0.023110689398470222 0 0.041466295305935583 -0.024617925282899803 0 0.046487988236847799 0.018346222110980352 0 0.044290779690894448 0.020986045755884832 0 0.044290779690894448 0.020986045755884832 0 0.043867309774895058 0.021604560708370805 0 0.046522512585554905 0.057673537231657426 0 0.044653992244244448 0.057207160014954073 0 0.045673182309529325 0.056699807344915157 0 0.044631584437329778 -0.025217763130995181 0 0.046661535166922563 -0.023204099920567437 0 0.045210620662619251 -0.021888157354559023 0 0.050693400117162765 0.024431619210648042 0 0.046487988236847799 0.018346222110980352 0 0.052365464733684516 0.016651124554871284 0 0.053794166093460299 0.01851345907682201 0 0.047542232405428542 0.017395035366176929 0 0.044631584437329778 -0.025217763130995181 0 0.046661535166922563 -0.023204099920567437 0 0.04892377185578619 -0.024108334910742466 0 0.05171277870337522 0.007875702908381953 0 0.046487988236847799 0.018346222110980352 0 0.050822401490493496 -0.024033744423901444 0 0.044631584437329778 -0.025217763130995181 0 0.04892377185578619 -0.024108334910742466 0 0.046661535166922563 -0.023204099920567437 0 0.04892377185578619 -0.024108334910742466 0 0.047919782641490861 -0.021560128168819106 0 0.052071991487531978 0.054804201580418127 0 0.048050732246958154 0.055592256438002814 0 0.048501815436417281 0.052568790453394403 0 0.051137935023379211 0.057674679896656339 0 0.046522512585554905 0.057673537231657426 0 0.048050732246958154 0.055592256438002814 0 0.051137935023379211 0.057674679896656339 0 0.052071991487531978 0.054804201580418127 0 0.048050732246958154 0.055592256438002814 0 0.048050732246958154 0.055592256438002814 0 0.045836932672564494 0.054214840591951377 0 0.048501815436417281 0.052568790453394403 0 0.046522512585554905 0.057673537231657426 0 0.048050732246958154 0.055592256438002814 0 0.045673182309529325 0.056699807344915157 0 0.048050732246958154 0.055592256438002814 0 0.045836932672564494 0.054214840591951377 0 0.045673182309529325 0.056699807344915157 0 0.044771180771757207 0.056968753164532697 0 0.045673182309529325 0.056699807344915157 0 0.044457585453008715 0.05525184531573888 0 0.045836932672564494 0.054214840591951377 0 0.045673182309529325 0.056699807344915157 0 0.044457585453008715 0.05525184531573888 0 0.045836932672564494 0.054214840591951377 0 0.044457585453008715 0.05525184531573888 0 0.04342193385857443 0.053376802063902051 0 0.044771180771757207 0.056968753164532697 0 0.042976956044105862 0.054880969118347687 0 0.041163658490862079 0.055526527807181765 0 0.044290779690894448 0.020986045755884832 0 0.042479867387848168 0.028252108501361006 0 0.044457585453008715 0.05525184531573888 0 0.042976956044105862 0.054880969118347687 0 0.04342193385857443 0.053376802063902051 0 0.042976956044105862 0.054880969118347687 0 0.041134460332249455 0.053355402376878525 0 0.04342193385857443 0.053376802063902051 0 0.042976956044105862 0.054880969118347687 0 0.041134460332249455 0.053355402376878525 0 0.041163658490862079 0.055526527807181765 0 0.044771180771757207 0.056968753164532697 0 0.044457585453008715 0.05525184531573888 0 0.042976956044105862 0.054880969118347687 0 0.042479867387848168 0.028252108501361006 0 0.040898345608799687 0.032543450129691037 0 0.040464960330748104 0.01818922293675385 0 0.039571744644754832 0.018407679571437258 0 0.038371092554351026 0.017804371632041648 0 0.039005204164428861 0.053157708578572639 0 0.041163658490862079 0.055526527807181765 0 0.037831650791958396 0.053819501783722641 0 0.039005204164428861 0.053157708578572639 0 0.041134460332249455 0.053355402376878525 0 0.039556990018689536 0.05231085387356546 0 0.039005204164428861 0.053157708578572639 0 0.041134460332249455 0.053355402376878525 0 0.041163658490862079 0.055526527807181765 0 0.044862437553106038 0.016949433429997586 0 0.041392853727029749 0.0087641251136083356 0 0.041606465079089536 0.018949179071097846 0 0.040657810926057844 0.019066597961469194 0 0.039073374172029614 0.020171827063431531 0 0.039793141760119631 0.019038404201187315 0 0.040657810926057844 0.019066597961469194 0 0.039073374172029614 0.020171827063431531 0 0.039571744644754832 0.018407679571437258 0 0.039793141760119631 0.019038404201187315 0 0.039232118710578114 0.019289754289317458 0 0.039571744644754832 0.018407679571437258 0 0.039232118710578114 0.019289754289317458 0 0.038371016572314065 0.019529416094104177 0 0.040464960330748104 0.01818922293675385 0 0.039571744644754832 0.018407679571437258 0 0.039793141760119631 0.019038404201187315 0 0.040464960330748104 0.01818922293675385 0 0.039793141760119631 0.019038404201187315 0 0.040657810926057844 0.019066597961469194 0 0.039793141760119631 0.019038404201187315 0 0.039232118710578114 0.019289754289317458 0 0.039073374172029614 0.020171827063431531 0 0.043292453398472056 -0.023110689398470222 0 0.041466295305935583 -0.024617925282899803 0 0.041763668134415816 -0.021231074791720775 0 0.042359990098636398 0.018542604620554421 0 0.040464960330748104 0.01818922293675385 0 0.0416255701842334 0.018926186875501426 0 0.044290779690894448 0.020986045755884832 0 0.044862437553106038 0.016949433429997586 0 0.040464960330748104 0.01818922293675385 0 0.0416255701842334 0.018926186875501426 0 0.040657810926057844 0.019066597961469194 0 0.044862437553106038 0.016949433429997586 0 0.044275791676048927 0.017097012071784216 0 0.041466295305935583 -0.024617925282899803 0 0.041763668134415816 -0.021231074791720775 0 0.036497011849776884 -0.022162399544240489 0 0.041763668134415816 -0.021231074791720775 0 0.036497011849776884 -0.022162399544240489 0 0.039029620775065291 -0.019157505390262734 0 0.039029620775065291 -0.019157505390262734 0 0.03867733664429409 -0.016454372657358877 0 0.035745040980698903 -0.017967104637515399 0 0.036497011849776884 -0.022162399544240489 0 0.039029620775065291 -0.019157505390262734 0 0.035745040980698903 -0.017967104637515399 0 0.050003696928061753 -0.0095022846566336933 0 0.045470182831905813 -0.0094496815955860576 0 0.041763668134415816 -0.021231074791720775 0 0.039029620775065291 -0.019157505390262734 0 0.042462308406006656 -0.017920249471500626 0 0.039029620775065291 -0.019157505390262734 0 0.042462308406006656 -0.017920249471500626 0 0.03867733664429409 -0.016454372657358877 0 0.042462308406006656 -0.017920249471500626 0 0.043861277249792323 -0.020359277379036488 0 0.046210148061666838 -0.019428410072708967 0 0.050003696928061753 -0.0095022846566336933 0 0.055780891852282334 -0.0081798481463325658 0 0.053512131395387845 -0.0087211425796548652 0 0.057498536406063422 -0.010447103536108433 0 0.056130035061347894 -0.0069012705031018503 0 0.041763668134415816 -0.021231074791720775 0 0.042462308406006656 -0.017920249471500626 0 0.043861277249792323 -0.020359277379036488 0 0.043861277249792323 -0.020359277379036488 0 0.045210620662619251 -0.021888157354559023 0 0.046210148061666838 -0.019428410072708967 0 0.043292453398472056 -0.023110689398470222 0 0.043861277249792323 -0.020359277379036488 0 0.045210620662619251 -0.021888157354559023 0 0.043292453398472056 -0.023110689398470222 0 0.041763668134415816 -0.021231074791720775 0 0.043861277249792323 -0.020359277379036488 0 0.050829331453102346 -0.020389448805512224 0 0.047919782641490861 -0.021560128168819106 0 0.046618490301872421 -0.018561226953555308 0 0.061405698254179762 -0.0049565383228826112 0 0.055780891852282334 -0.0081798481463325658 0 0.046661535166922563 -0.023204099920567437 0 0.045210620662619251 -0.021888157354559023 0 0.047919782641490861 -0.021560128168819106 0 0.045210620662619251 -0.021888157354559023 0 0.047919782641490861 -0.021560128168819106 0 0.046618490301872421 -0.018561226953555308 0 0.053601272385351471 -0.012306864017549135 0 0.055780891852282334 -0.0081798481463325658 0 0.057498536406063422 -0.010447103536108433 0 0.059365423055100154 -0.0061387300385557031 0 0.056130035061347894 -0.0069012705031018503 0 0.07767818736225876 0.0077187120336402563 0 0.077096016787511726 0.0091488438305126849 0 0.078955940124094834 0.0083128767157169114 0 0.07767818736225876 0.0077187120336402563 0 0.078955940124094834 0.0083128767157169114 0 0.078086325544739543 0.0061252281224253328 0 0.055780891852282334 -0.0081798481463325658 0 0.063590402114792874 -0.0010800893373699549 0 0.059365423055100154 -0.0061387300385557031 0 0.056130035061347894 -0.0069012705031018503 0 0.055993706704671506 -0.0029667519065519803 0 0.053512131395387845 -0.0087211425796548652 0 0.056130035061347894 -0.0069012705031018503 0 0.053784215706676353 -0.0054337965731703006 0 0.056130035061347894 -0.0069012705031018503 0 0.053784215706676353 -0.0054337965731703006 0 0.055993706704671506 -0.0029667519065519803 0 0.06396688614054058 -0.0092725895977091022 0 0.066956457217077936 -0.006078779525744777 0 0.052998256538567982 -0.0028582851005232376 0 0.053784215706676353 -0.0054337965731703006 0 0.055993706704671506 -0.0029667519065519803 0 0.050750191703805292 -0.0041145388423522913 0 0.073026818654107817 -0.0065813956072174086 0 0.06396688614054058 -0.0092725895977091022 0 0.066956457217077936 -0.006078779525744777 0 0.06123841548566468 -0.0018194964990572509 0 0.059365423055100154 -0.0061387300385557031 0 0.055993706704671506 -0.0029667519065519803 0 0.066537848362768243 -7.6348480707590861e-05 0 0.058908297395078704 -0.0040853648488246349 0 0.073026818654107817 -0.0065813956072174086 0 0.066956457217077936 -0.006078779525744777 0 0.069249806608864109 -0.0040507512946403833 0 0.071299524290555541 -0.0022835394310311624 0 0.069249806608864109 -0.0040507512946403833 0 0.069205744522447127 -0.0020462592077683927 0 0.069249806608864109 -0.0040507512946403833 0 0.067316015404092808 -0.0031474682830318168 0 0.069205744522447127 -0.0020462592077683927 0 0.066956457217077936 -0.006078779525744777 0 0.067316015404092808 -0.0031474682830318168 0 0.064980791824941056 -0.0032480200561093627 0 0.066956457217077936 -0.006078779525744777 0 0.069249806608864109 -0.0040507512946403833 0 0.067316015404092808 -0.0031474682830318168 0 0.061630104400519012 -0.0058046953625507745 0 0.05604185979748804 -0.0050901616576813852 0 0.066956457217077936 -0.006078779525744777 0 0.064980791824941056 -0.0032480200561093627 0 0.06220109050742946 -0.0040814871274506828 0 0.067316015404092808 -0.0031474682830318168 0 0.064980791824941056 -0.0032480200561093627 0 0.065739712051648844 -0.0016747200698333754 0 0.065739712051648844 -0.0016747200698333754 0 0.06571050036485622 -9.2572347789860666e-05 0 0.067469930187822796 -0.00062177695222125995 0 0.064006399896205352 0.0010870977784678216 0 0.063664213835624414 -0.0011139184886633086 0 0.06571050036485622 -9.2572347789860666e-05 0 0.065739712051648844 -0.0016747200698333754 0 0.063664213835624414 -0.0011139184886633086 0 0.06571050036485622 -9.2572347789860666e-05 0 0.064980791824941056 -0.0032480200561093627 0 0.065739712051648844 -0.0016747200698333754 0 0.063664213835624414 -0.0011139184886633086 0 0.067750165782153454 0.0016678043817129652 0 0.06571050036485622 -9.2572347789860666e-05 0 0.067469930187822796 -0.00062177695222125995 0 0.071593077088947743 0.0021015584586261079 0 0.07116034330012054 5.4647895870262062e-05 0 0.067469930187822796 -0.00062177695222125995 0 0.07116034330012054 5.4647895870262062e-05 0 0.067469930187822796 -0.00062177695222125995 0 0.069205744522447127 -0.0020462592077683927 0 0.067316015404092808 -0.0031474682830318168 0 0.067469930187822796 -0.00062177695222125995 0 0.069205744522447127 -0.0020462592077683927 0 0.067316015404092808 -0.0031474682830318168 0 0.065739712051648844 -0.0016747200698333754 0 0.067469930187822796 -0.00062177695222125995 0 0.058037892380863071 0.0015066573190794874 0 0.060563774042634105 -0.001476847105708049 0 0.057768972764791031 -0.0031423132802659154 0 0.062583040215383259 0.00088716906155793121 0 0.063664213835624414 -0.0011139184886633086 0 0.060563774042634105 -0.001476847105708049 0 0.063664213835624414 -0.0011139184886633086 0 0.060563774042634105 -0.001476847105708049 0 0.06220109050742946 -0.0040814871274506828 0 0.064980791824941056 -0.0032480200561093627 0 0.063664213835624414 -0.0011139184886633086 0 0.06220109050742946 -0.0040814871274506828 0 0.05604185979748804 -0.0050901616576813852 0 0.043494160680657222 -0.0043714975841806763 0 0.052998256538567982 -0.0028582851005232376 0 0.043096673945579922 -0.0075930125203601401 0 0.038281769380036398 -0.00037783008488972292 0 0.060563774042634105 -0.001476847105708049 0 0.06220109050742946 -0.0040814871274506828 0 0.057768972764791031 -0.0031423132802659154 0 0.043096673945579922 -0.0075930125203601401 0 0.050549485911750534 -0.012463272193733195 0 0.037439697246792511 -0.014716337244323533 0 0.052998256538567982 -0.0028582851005232376 0 0.043096673945579922 -0.0075930125203601401 0 0.050549485911750534 -0.012463272193733195 0 0.06396688614054058 -0.0092725895977091022 0 0.052998256538567982 -0.0028582851005232376 0 0.050549485911750534 -0.012463272193733195 0 0.058908297395078704 -0.0040853648488246349 0 0.050471216477808167 -0.006848643411744894 0 0.053512131395387845 -0.0087211425796548652 0 0.053784215706676353 -0.0054337965731703006 0 0.049508517262110557 -0.0069971963018889017 0 0.053784215706676353 -0.0054337965731703006 0 0.050750191703805292 -0.0041145388423522913 0 0.049508517262110557 -0.0069971963018889017 0 0.050471216477808167 -0.006848643411744894 0 0.042037168969100126 -0.0087146410547714881 0 0.050750191703805292 -0.0041145388423522913 0 0.049508517262110557 -0.0069971963018889017 0 0.045495882247712935 -0.0052674183427883301 0 0.045470182831905813 -0.0094496815955860576 0 0.042037168969100126 -0.0087146410547714881 0 0.03867733664429409 -0.016454372657358877 0 0.034901643236725108 -0.014690087413279535 0 0.035745040980698903 -0.017967104637515399 0 0.034284251560327918 -0.016552681722284603 0 0.034901643236725108 -0.014690087413279535 0 0.035745040980698903 -0.017967104637515399 0 0.034281648067851236 -0.012915945738368332 0 0.036716752237351324 -0.013971511263997869 0 0.033097315886095977 -0.014585029937062378 0 0.034284251560327918 -0.016552681722284603 0 0.034901643236725108 -0.014690087413279535 0 0.033097315886095977 -0.014585029937062378 0 0.042037168969100126 -0.0087146410547714881 0 0.040865949452346582 -0.0091124555779363275 0 0.04168842196293647 -0.0087191296780338469 0 0.042037168969100126 -0.0087146410547714881 0 0.033097315886095977 -0.014585029937062378 0 0.029038308536094602 -0.0087174707603509 0 0.03234380329675151 -0.017937073792842217 0 0.030082322551330701 -0.018332172996321977 0 0.030639379690090039 -0.018028933640590619 0 0.03234380329675151 -0.017937073792842217 0 0.03071947975317036 -0.013716567826533089 0 0.031453452231109603 -0.015881587365211648 0 0.030639379690090039 -0.018028933640590619 0 0.030707959909262152 -0.01787393965914965 0 0.03234380329675151 -0.017937073792842217 0 0.034284251560327918 -0.016552681722284603 0 0.033097315886095977 -0.014585029937062378 0 0.03234380329675151 -0.017937073792842217 0 0.034281648067851236 -0.012915945738368332 0 0.033945447037931953 -0.008272751472025875 0 0.029038308536094602 -0.0087174707603509 0 0.034281648067851236 -0.012915945738368332 0 0.033097315886095977 -0.014585029937062378 0 0.029038308536094602 -0.0087174707603509 0 0.033945447037931953 -0.008272751472025875 0 0.029038308536094602 -0.0087174707603509 0 0.034233432515678092 -0.0048788368334429823 0 0.043096673945579922 -0.0075930125203601401 0 0.037439697246792511 -0.014716337244323533 0 0.037430660488302722 -0.0097263241233739341 0 0.034281648067851236 -0.012915945738368332 0 0.037439697246792511 -0.014716337244323533 0 0.037430660488302722 -0.0097263241233739341 0 0.034281648067851236 -0.012915945738368332 0 0.033945447037931953 -0.008272751472025875 0 0.037430660488302722 -0.0097263241233739341 0 0.033945447037931953 -0.008272751472025875 0 0.037430660488302722 -0.0097263241233739341 0 0.037975136251960855 -0.0048871597193263427 0 0.043096673945579922 -0.0075930125203601401 0 0.037430660488302722 -0.0097263241233739341 0 0.037975136251960855 -0.0048871597193263427 0 0.043096673945579922 -0.0075930125203601401 0 0.037975136251960855 -0.0048871597193263427 0 0.038281769380036398 -0.00037783008488972292 0 0.043330420898990141 -0.0043220013863416763 0 0.043494160680657222 -0.0043714975841806763 0 0.038098727452405175 -0.001740503731877083 0 0.034233432515678092 -0.0048788368334429823 0 0.032249080885214089 -0.00088436913744031778 0 0.043494160680657222 -0.0043714975841806763 0 0.036637890489035138 -0.0027475980983174986 0 0.033945447037931953 -0.008272751472025875 0 0.037975136251960855 -0.0048871597193263427 0 0.034233432515678092 -0.0048788368334429823 0 0.037975136251960855 -0.0048871597193263427 0 0.038098727452405175 -0.001740503731877083 0 0.034233432515678092 -0.0048788368334429823 0 0.029038308536094602 -0.0087174707603509 0 0.032249080885214089 -0.00088436913744031778 0 0.026673081606680943 6.4307008953650869e-06 0 0.029038308536094602 -0.0087174707603509 0 0.034233432515678092 -0.0048788368334429823 0 0.032249080885214089 -0.00088436913744031778 0 0.031050751019539576 -0.00080943752501789156 0 0.027698582349530675 0.0019744262515653116 0 0.026673081606680943 6.4307008953650869e-06 0 0.036637890489035138 -0.0027475980983174986 0 0.034115116517178003 -0.0021697468235321051 0 0.031050751019539576 -0.00080943752501789156 0 0.029517370574520137 0.0034317880980826074 0 0.027698582349530675 0.0019744262515653116 0 0.031050751019539576 -0.00080943752501789156 0 0.029517370574520137 0.0034317880980826074 0 0.03269236466424752 0.00299589664327115 0 0.03542204639822176 -0.0016905996047066581 0 0.031050751019539576 -0.00080943752501789156 0 0.03269236466424752 0.00299589664327115 0 0.044253256463553353 -0.005890273205722189 0 0.043494160680657222 -0.0043714975841806763 0 0.035961819187027858 0.0067616898888089088 0 0.03542204639822176 -0.0016905996047066581 0 0.03269236466424752 0.00299589664327115 0 0.032004527023219521 -0.02074689197732706 0 0.031902526303437588 -0.022024859631038046 0 0.030411727708639952 -0.019145635776984717 0 0.031902526303437588 -0.022024859631038046 0 0.030737941187869128 -0.021013313348739491 0 0.031035110762060676 -0.019430375917466804 0 0.033049723519577551 -0.019276261706274198 0 0.032877655873583933 -0.017181276979264564 0 0.030737941187869128 -0.021013313348739491 0 0.030379591555281183 -0.021699666995130241 0 0.030276881357849842 -0.020919151932069377 0 0.031902526303437588 -0.022024859631038046 0 0.030737941187869128 -0.021013313348739491 0 0.030790825621447967 -0.0222350568459522 0 0.030737941187869128 -0.021013313348739491 0 0.030790825621447967 -0.0222350568459522 0 0.030379591555281183 -0.021699666995130241 0 0.030411033820654139 -0.022497986739279174 0 0.030790825621447967 -0.0222350568459522 0 0.030379591555281183 -0.021699666995130241 0 0.030411033820654139 -0.022497986739279174 0 0.030379591555281183 -0.021699666995130241 0 0.029697304477974064 -0.021180549147821248 0 0.027065242751127042 0.0045042865110992763 0 0.027698582349530675 0.0019744262515653116 0 0.025687999182170383 0.0010833620130145164 0 0.027065242751127042 0.0045042865110992763 0 0.029517370574520137 0.0034317880980826074 0 0.027698582349530675 0.0019744262515653116 0 0.027698582349530675 0.0019744262515653116 0 0.026673081606680943 6.4307008953650869e-06 0 0.025687999182170383 0.0010833620130145164 0 0.029697304477974064 -0.021180549147821248 0 0.030276881357849842 -0.020919151932069377 0 0.030366231572837254 -0.01994106179917865 0 0.030379591555281183 -0.021699666995130241 0 0.029697304477974064 -0.021180549147821248 0 0.030276881357849842 -0.020919151932069377 0 0.030082322551330701 -0.018332172996321977 0 0.029697304477974064 -0.021180549147821248 0 0.030366231572837254 -0.01994106179917865 0 0.030737941187869128 -0.021013313348739491 0 0.030276881357849842 -0.020919151932069377 0 0.030366231572837254 -0.01994106179917865 0 0.029038308536094602 -0.0087174707603509 0 0.026673081606680943 6.4307008953650869e-06 0 0.025687999182170383 0.0010833620130145164 0 0.03071947975317036 -0.013716567826533089 0 0.030469311484592882 -0.011019861912964685 0 0.030082322551330701 -0.018332172996321977 0 0.030366231572837254 -0.01994106179917865 0 0.030508403575516284 -0.018988708039345242 0 0.030366231572837254 -0.01994106179917865 0 0.031035110762060676 -0.019430375917466804 0 0.030508403575516284 -0.018988708039345242 0 0.032218134254404979 -0.020123109636173437 0 0.032004527023219521 -0.02074689197732706 0 0.030411727708639952 -0.019145635776984717 0 0.032218134254404979 -0.020123109636173437 0 0.030411727708639952 -0.019145635776984717 0 0.031458880190203722 -0.019205190998156128 0 0.030737941187869128 -0.021013313348739491 0 0.030366231572837254 -0.01994106179917865 0 0.031035110762060676 -0.019430375917466804 0 0.030411727708639952 -0.019145635776984717 0 0.031458880190203722 -0.019205190998156128 0 0.031416556841862286 -0.018158982698762909 0 0.030411727708639952 -0.019145635776984717 0 0.031416556841862286 -0.018158982698762909 0 0.028961133261118738 -0.016340272055626052 0 0.031742316008590961 -0.014144708711672824 0 0.032690854209657005 -0.010454368726372263 0 0.031035110762060676 -0.019430375917466804 0 0.030556757819175866 -0.018503598331748802 0 0.030717209004061601 -0.017818904172071267 0 0.032877655873583933 -0.017181276979264564 0 0.032690854209657005 -0.010454368726372263 0 0.030082322551330701 -0.018332172996321977 0 0.030508403575516284 -0.018988708039345242 0 0.030556757819175866 -0.018503598331748802 0 0.031035110762060676 -0.019430375917466804 0 0.030508403575516284 -0.018988708039345242 0 0.030556757819175866 -0.018503598331748802 0 0.030556757819175866 -0.018503598331748802 0 0.030639379690090039 -0.018028933640590619 0 0.030717209004061601 -0.017818904172071267 0 0.030082322551330701 -0.018332172996321977 0 0.030556757819175866 -0.018503598331748802 0 0.030639379690090039 -0.018028933640590619 0 0.023070829912991978 -0.01058694758729954 0 0.02734029887968473 -0.010882075525733682 0 0.023139290998711658 -0.0068328167315073176 0 0.030479327513915813 -0.017700383435399016 0 0.030707959909262152 -0.01787393965914965 0 0.031468236039309622 -0.019728946306536429 0 0.030639379690090039 -0.018028933640590619 0 0.030717209004061601 -0.017818904172071267 0 0.030707959909262152 -0.01787393965914965 0 0.032690854209657005 -0.010454368726372263 0 0.032712075855573355 -0.01050981921567262 0 0.033225579299224865 0.016964863432257386 0 0.032405925758370271 0.019912432452914353 0 0.027913213297964458 -0.014265627415372399 0 0.023070829912991978 -0.01058694758729954 0 0.02734029887968473 -0.010882075525733682 0 0.037533755739197247 0.044738124383981739 0 0.03700558852281504 0.046334236984750907 0 0.035594740968693875 0.047410409915209908 0 0.037533755739197247 0.044738124383981739 0 0.03700558852281504 0.046334236984750907 0 0.038038347292269556 0.046302288952902275 0 0.037271815331785217 0.047413441661759072 0 0.037140620218136688 0.049105093671673899 0 0.036562687242451188 0.047270149755313809 0 0.038038347292269556 0.046302288952902275 0 0.037271815331785217 0.047413441661759072 0 0.037885835023943791 0.047644260452735697 0 0.03700558852281504 0.046334236984750907 0 0.038038347292269556 0.046302288952902275 0 0.037271815331785217 0.047413441661759072 0 0.03700558852281504 0.046334236984750907 0 0.037271815331785217 0.047413441661759072 0 0.036562687242451188 0.047270149755313809 0 0.037271815331785217 0.047413441661759072 0 0.037885835023943791 0.047644260452735697 0 0.037140620218136688 0.049105093671673899 0 0.039423058311929604 0.047363949119051701 0 0.037885835023943791 0.047644260452735697 0 0.037140620218136688 0.049105093671673899 0 0.033161572174382377 0.036476536501310726 0 0.035263684471278069 0.0431625888926098 0 0.03792116736334223 0.050917828492374181 0 0.036027030259212882 0.050296579006357173 0 0.036562687242451188 0.047270149755313809 0 0.036027030259212882 0.050296579006357173 0 0.035864124033172469 0.047999848145776756 0 0.034944972459786401 0.050766557354814709 0 0.036027030259212882 0.050296579006357173 0 0.035581326375760655 0.051649733488483493 0 0.035947748066513428 0.05214497996667531 0 0.03792116736334223 0.050917828492374181 0 0.036027030259212882 0.050296579006357173 0 0.035947748066513428 0.05214497996667531 0 0.036027030259212882 0.050296579006357173 0 0.036562687242451188 0.047270149755313809 0 0.035864124033172469 0.047999848145776756 0 0.023070829912991978 -0.01058694758729954 0 0.023139290998711658 -0.0068328167315073176 0 0.020390106717038108 -0.0053026195076719077 0 0.032690854209657005 -0.010454368726372263 0 0.035187456071291916 0.011430535635650786 0 0.032405925758370271 0.019912432452914353 0 0.035187456071291916 0.011430535635650786 0 0.031220998238921955 0.02298109724864357 0 0.032405925758370271 0.019912432452914353 0 0.03700558852281504 0.046334236984750907 0 0.036562687242451188 0.047270149755313809 0 0.035864124033172469 0.047999848145776756 0 0.032405925758370271 0.019912432452914353 0 0.034145167575872111 0.021162126387740218 0 0.034329811129526981 0.019359662669907594 0 0.035980838842519937 0.018516440676397964 0 0.036612874791700528 0.017369250149546291 0 0.03234380329675151 -0.017937073792842217 0 0.031468236039309622 -0.019728946306536429 0 0.035745040980698903 -0.017967104637515399 0 0.030707959909262152 -0.01787393965914965 0 0.03234380329675151 -0.017937073792842217 0 0.031468236039309622 -0.019728946306536429 0 0.036497011849776884 -0.022162399544240489 0 0.031468236039309622 -0.019728946306536429 0 0.035745040980698903 -0.017967104637515399 0 0.034284251560327918 -0.016552681722284603 0 0.03234380329675151 -0.017937073792842217 0 0.035745040980698903 -0.017967104637515399 0 0.039073374172029614 0.020171827063431531 0 0.036763104251596346 0.021294591269593943 0 0.037184859731766079 0.020552592412715075 0 0.041392853727029749 0.0087641251136083356 0 0.035187456071291916 0.011430535635650786 0 0.039073374172029614 0.020171827063431531 0 0.037184859731766079 0.020552592412715075 0 0.038371016572314065 0.019529416094104177 0 0.034145167575872111 0.021162126387740218 0 0.036453484341768871 0.019701321195864235 0 0.036027030259212882 0.050296579006357173 0 0.034944972459786401 0.050766557354814709 0 0.035581326375760655 0.051649733488483493 0 0.035187456071291916 0.011430535635650786 0 0.034145167575872111 0.021162126387740218 0 0.034944972459786401 0.050766557354814709 0 0.035581326375760655 0.051649733488483493 0 0.035684917144084505 0.051948519077961434 0 0.034145167575872111 0.021162126387740218 0 0.036510726286134103 0.02951486814010737 0 0.035581326375760655 0.051649733488483493 0 0.035926425522412597 0.052141144121386519 0 0.035684917144084505 0.051948519077961434 0 0.035926425522412597 0.052141144121386519 0 0.035684917144084505 0.051948519077961434 0 0.036132944190315985 0.052281577817830022 0 0.039232118710578114 0.019289754289317458 0 0.039073374172029614 0.020171827063431531 0 0.038371016572314065 0.019529416094104177 0 0.036390119112659679 0.021335367134409127 0 0.038056846711920535 0.019849562488141119 0 0.037390950865937259 0.019508861296019381 0 0.038056846711920535 0.019849562488141119 0 0.037390950865937259 0.019508861296019381 0 0.03835462617827514 0.018890243970910048 0 0.035684917144084505 0.051948519077961434 0 0.036280402596153151 0.052579118709352897 0 0.036132944190315985 0.052281577817830022 0 0.036510726286134103 0.02951486814010737 0 0.040898345608799687 0.032543450129691037 0 0.039571744644754832 0.018407679571437258 0 0.038056846711920535 0.019849562488141119 0 0.03835462617827514 0.018890243970910048 0 0.037390950865937259 0.019508861296019381 0 0.03835462617827514 0.018890243970910048 0 0.038371092554351026 0.017804371632041648 0 0.037291981923942993 0.019132360128194036 0 0.036453484341768871 0.019701321195864235 0 0.039571744644754832 0.018407679571437258 0 0.03835462617827514 0.018890243970910048 0 0.038371092554351026 0.017804371632041648 0 0.037831650791958396 0.053819501783722641 0 0.036562514238246524 0.052711365346183862 0 0.037556190796057223 0.053115896480321036 0 0.036280402596153151 0.052579118709352897 0 0.036132944190315985 0.052281577817830022 0 0.036562514238246524 0.052711365346183862 0 0.036132944190315985 0.052281577817830022 0 0.036562514238246524 0.052711365346183862 0 0.036263598888064262 0.052234281172715627 0 0.040898345608799687 0.032543450129691037 0 0.040871664927646212 0.032847940296653569 0 0.036562514238246524 0.052711365346183862 0 0.036738927551149492 0.052244018508251354 0 0.036263598888064262 0.052234281172715627 0 0.036738927551149492 0.052244018508251354 0 0.037200262419915919 0.052609892752080951 0 0.037529576853097872 0.052293335346777513 0 0.036562514238246524 0.052711365346183862 0 0.036738927551149492 0.052244018508251354 0 0.037200262419915919 0.052609892752080951 0 0.036562514238246524 0.052711365346183862 0 0.037200262419915919 0.052609892752080951 0 0.037556190796057223 0.053115896480321036 0 0.037200262419915919 0.052609892752080951 0 0.037556190796057223 0.053115896480321036 0 0.037898497367320795 0.052798827563598424 0 0.037831650791958396 0.053819501783722641 0 0.037556190796057223 0.053115896480321036 0 0.038103743172621968 0.05318452299147601 0 0.037556190796057223 0.053115896480321036 0 0.037898497367320795 0.052798827563598424 0 0.038103743172621968 0.05318452299147601 0 0.037529576853097872 0.052293335346777513 0 0.037898497367320795 0.052798827563598424 0 0.038161128138207358 0.052480700392326746 0 0.037200262419915919 0.052609892752080951 0 0.037529576853097872 0.052293335346777513 0 0.037898497367320795 0.052798827563598424 0 0.039005204164428861 0.053157708578572639 0 0.038161128138207358 0.052480700392326746 0 0.038351203144549761 0.051923817579777397 0 0.039005204164428861 0.053157708578572639 0 0.037898497367320795 0.052798827563598424 0 0.038161128138207358 0.052480700392326746 0 0.039005204164428861 0.053157708578572639 0 0.037831650791958396 0.053819501783722641 0 0.038103743172621968 0.05318452299147601 0 0.039005204164428861 0.053157708578572639 0 0.037898497367320795 0.052798827563598424 0 0.038103743172621968 0.05318452299147601 0 0.035926425522412597 0.052141144121386519 0 0.036263598888064262 0.052234281172715627 0 0.035830090964554501 0.051748850255683723 0 0.035926425522412597 0.052141144121386519 0 0.036132944190315985 0.052281577817830022 0 0.036263598888064262 0.052234281172715627 0 0.036738927551149492 0.052244018508251354 0 0.036263598888064262 0.052234281172715627 0 0.036313104296635763 0.051681242637036863 0 0.036263598888064262 0.052234281172715627 0 0.035830090964554501 0.051748850255683723 0 0.036313104296635763 0.051681242637036863 0 0.035926425522412597 0.052141144121386519 0 0.035830090964554501 0.051748850255683723 0 0.035504441206847856 0.051815013856721687 0 0.035830090964554501 0.051748850255683723 0 0.035504441206847856 0.051815013856721687 0 0.035000763730023261 0.051114378220229822 0 0.035504441206847856 0.051815013856721687 0 0.034282920240433633 0.05169369383201098 0 0.035947748066513428 0.05214497996667531 0 0.035504441206847856 0.051815013856721687 0 0.034282920240433633 0.05169369383201098 0 0.035000763730023261 0.051114378220229822 0 0.033161572174382377 0.036476536501310726 0 0.027332408882130815 0.030714431206507499 0 0.03518003016396961 0.052776789758320806 0 0.034282920240433633 0.05169369383201098 0 0.035947748066513428 0.05214497996667531 0 0.033161572174382377 0.036476536501310726 0 0.032161681310043704 0.039008277115519845 0 0.035581326375760655 0.051649733488483493 0 0.035926425522412597 0.052141144121386519 0 0.035947748066513428 0.05214497996667531 0 0.035926425522412597 0.052141144121386519 0 0.035504441206847856 0.051815013856721687 0 0.035947748066513428 0.05214497996667531 0 0.034917065436704912 0.049740667066423466 0 0.035821736016496117 0.050139087982923589 0 0.035713636509360644 0.050910924450929401 0 0.034917065436704912 0.049740667066423466 0 0.035821736016496117 0.050139087982923589 0 0.035761028698426796 0.049092132220050183 0 0.034917065436704912 0.049740667066423466 0 0.035761028698426796 0.049092132220050183 0 0.03504832628391695 0.048425089553968313 0 0.033035566613071332 0.049964836490857832 0 0.034917065436704912 0.049740667066423466 0 0.033869852850771417 0.04823716989259632 0 0.033035566613071332 0.049964836490857832 0 0.034282920240433633 0.05169369383201098 0 0.035000763730023261 0.051114378220229822 0 0.033035566613071332 0.049964836490857832 0 0.034917065436704912 0.049740667066423466 0 0.035000763730023261 0.051114378220229822 0 0.034917065436704912 0.049740667066423466 0 0.035000763730023261 0.051114378220229822 0 0.035713636509360644 0.050910924450929401 0 0.035830090964554501 0.051748850255683723 0 0.035000763730023261 0.051114378220229822 0 0.035713636509360644 0.050910924450929401 0 0.035713636509360644 0.050910924450929401 0 0.036313104296635763 0.051681242637036863 0 0.036458180218171737 0.050968362230100969 0 0.035830090964554501 0.051748850255683723 0 0.035713636509360644 0.050910924450929401 0 0.036313104296635763 0.051681242637036863 0 0.036738927551149492 0.052244018508251354 0 0.036313104296635763 0.051681242637036863 0 0.036812089722684661 0.051570703293384208 0 0.036313104296635763 0.051681242637036863 0 0.036812089722684661 0.051570703293384208 0 0.036458180218171737 0.050968362230100969 0 0.036458180218171737 0.050968362230100969 0 0.037181382748464317 0.050999105625516912 0 0.037022675687043143 0.050332975106754441 0 0.036812089722684661 0.051570703293384208 0 0.036458180218171737 0.050968362230100969 0 0.037181382748464317 0.050999105625516912 0 0.035821736016496117 0.050139087982923589 0 0.035713636509360644 0.050910924450929401 0 0.036458180218171737 0.050968362230100969 0 0.037529576853097872 0.052293335346777513 0 0.038161128138207358 0.052480700392326746 0 0.038351203144549761 0.051923817579777397 0 0.037529576853097872 0.052293335346777513 0 0.038351203144549761 0.051923817579777397 0 0.037363752342664897 0.051720439841071914 0 0.038351203144549761 0.051923817579777397 0 0.037363752342664897 0.051720439841071914 0 0.037821957039842709 0.051233292508041456 0 0.036738927551149492 0.052244018508251354 0 0.037529576853097872 0.052293335346777513 0 0.037363752342664897 0.051720439841071914 0 0.036738927551149492 0.052244018508251354 0 0.036812089722684661 0.051570703293384208 0 0.037363752342664897 0.051720439841071914 0 0.036812089722684661 0.051570703293384208 0 0.037363752342664897 0.051720439841071914 0 0.037181382748464317 0.050999105625516912 0 0.037181382748464317 0.050999105625516912 0 0.037866147556119965 0.050370218266377276 0 0.037022675687043143 0.050332975106754441 0 0.037181382748464317 0.050999105625516912 0 0.037821957039842709 0.051233292508041456 0 0.037866147556119965 0.050370218266377276 0 0.037363752342664897 0.051720439841071914 0 0.037181382748464317 0.050999105625516912 0 0.037821957039842709 0.051233292508041456 0 0.038531235229985909 0.051093221605653938 0 0.038838054523384687 0.050469587675263619 0 0.037866147556119965 0.050370218266377276 0 0.038351203144549761 0.051923817579777397 0 0.037821957039842709 0.051233292508041456 0 0.038531235229985909 0.051093221605653938 0 0.037821957039842709 0.051233292508041456 0 0.038531235229985909 0.051093221605653938 0 0.037866147556119965 0.050370218266377276 0 0.038531235229985909 0.051093221605653938 0 0.038838054523384687 0.050469587675263619 0 0.039341461105603742 0.051286622108143942 0 0.038351203144549761 0.051923817579777397 0 0.038531235229985909 0.051093221605653938 0 0.039341461105603742 0.051286622108143942 0 0.038896204868913951 0.049622828317512156 0 0.038838054523384687 0.050469587675263619 0 0.037866147556119965 0.050370218266377276 0 0.038896204868913951 0.049622828317512156 0 0.037866147556119965 0.050370218266377276 0 0.03810834211713001 0.049290976899673933 0 0.037866147556119965 0.050370218266377276 0 0.037291408071954767 0.049538039084779759 0 0.03810834211713001 0.049290976899673933 0 0.037866147556119965 0.050370218266377276 0 0.037291408071954767 0.049538039084779759 0 0.037022675687043143 0.050332975106754441 0 0.03810834211713001 0.049290976899673933 0 0.038758001490102834 0.048446558372322528 0 0.037724619152724355 0.048722041531824814 0 0.037291408071954767 0.049538039084779759 0 0.03810834211713001 0.049290976899673933 0 0.037724619152724355 0.048722041531824814 0 0.038896204868913951 0.049622828317512156 0 0.03810834211713001 0.049290976899673933 0 0.038758001490102834 0.048446558372322528 0 0.038896204868913951 0.049622828317512156 0 0.038758001490102834 0.048446558372322528 0 0.03972435087745594 0.049013306079067259 0 0.035821736016496117 0.050139087982923589 0 0.035761028698426796 0.049092132220050183 0 0.036501184949695779 0.049736968193340246 0 0.035821736016496117 0.050139087982923589 0 0.036458180218171737 0.050968362230100969 0 0.036501184949695779 0.049736968193340246 0 0.037291408071954767 0.049538039084779759 0 0.036501184949695779 0.049736968193340246 0 0.037022675687043143 0.050332975106754441 0 0.036458180218171737 0.050968362230100969 0 0.036501184949695779 0.049736968193340246 0 0.037022675687043143 0.050332975106754441 0 0.037291408071954767 0.049538039084779759 0 0.036802209730079256 0.048686660118353341 0 0.037724619152724355 0.048722041531824814 0 0.037291408071954767 0.049538039084779759 0 0.036501184949695779 0.049736968193340246 0 0.036802209730079256 0.048686660118353341 0 0.035761028698426796 0.049092132220050183 0 0.036501184949695779 0.049736968193340246 0 0.036802209730079256 0.048686660118353341 0 0.035761028698426796 0.049092132220050183 0 0.036802209730079256 0.048686660118353341 0 0.035871999905727307 0.047990828812644014 0 0.036802209730079256 0.048686660118353341 0 0.036709047977772614 0.047567429158854424 0 0.035871999905727307 0.047990828812644014 0 0.036802209730079256 0.048686660118353341 0 0.036709047977772614 0.047567429158854424 0 0.037751639053517375 0.047656972549316105 0 0.036709047977772614 0.047567429158854424 0 0.037751639053517375 0.047656972549316105 0 0.036979805655072563 0.046610514533323523 0 0.036709047977772614 0.047567429158854424 0 0.036090911528472561 0.047061349143716527 0 0.035871999905727307 0.047990828812644014 0 0.036802209730079256 0.048686660118353341 0 0.037724619152724355 0.048722041531824814 0 0.037751639053517375 0.047656972549316105 0 0.038758001490102834 0.048446558372322528 0 0.037724619152724355 0.048722041531824814 0 0.037751639053517375 0.047656972549316105 0 0.037751639053517375 0.047656972549316105 0 0.038022190597541139 0.046662566968597066 0 0.039289827142746092 0.047031084392231998 0 0.038758001490102834 0.048446558372322528 0 0.037751639053517375 0.047656972549316105 0 0.039289827142746092 0.047031084392231998 0 0.038022190597541139 0.046662566968597066 0 0.038816224212332238 0.045875497664867593 0 0.039289827142746092 0.047031084392231998 0 0.037751639053517375 0.047656972549316105 0 0.038022190597541139 0.046662566968597066 0 0.036979805655072563 0.046610514533323523 0 0.038022190597541139 0.046662566968597066 0 0.038816224212332238 0.045875497664867593 0 0.037674944765929433 0.045458880500243687 0 0.036250051005488275 0.046327506447919532 0 0.035945200326761365 0.04621781813239937 0 0.038022190597541139 0.046662566968597066 0 0.036979805655072563 0.046610514533323523 0 0.037674944765929433 0.045458880500243687 0 0.036090911528472561 0.047061349143716527 0 0.036979805655072563 0.046610514533323523 0 0.035881345093497476 0.046191293672220517 0 0.036709047977772614 0.047567429158854424 0 0.036090911528472561 0.047061349143716527 0 0.036979805655072563 0.046610514533323523 0 0.036979805655072563 0.046610514533323523 0 0.036530499569471277 0.045935212259283063 0 0.037674944765929433 0.045458880500243687 0 0.036979805655072563 0.046610514533323523 0 0.036530499569471277 0.045935212259283063 0 0.035881345093497476 0.046191293672220517 0 0.035881345093497476 0.046191293672220517 0 0.035031435916865555 0.047121582177255587 0 0.034847279234762552 0.045784508335259252 0 0.035031435916865555 0.047121582177255587 0 0.033850577415026131 0.046252161997955794 0 0.034847279234762552 0.045784508335259252 0 0.036090911528472561 0.047061349143716527 0 0.035881345093497476 0.046191293672220517 0 0.035031435916865555 0.047121582177255587 0 0.035031435916865555 0.047121582177255587 0 0.035871999905727307 0.047990828812644014 0 0.03504832628391695 0.048425089553968313 0 0.036090911528472561 0.047061349143716527 0 0.035031435916865555 0.047121582177255587 0 0.035871999905727307 0.047990828812644014 0 0.035031435916865555 0.047121582177255587 0 0.03504832628391695 0.048425089553968313 0 0.033869852850771417 0.04823716989259632 0 0.035761028698426796 0.049092132220050183 0 0.035871999905727307 0.047990828812644014 0 0.03504832628391695 0.048425089553968313 0 0.034917065436704912 0.049740667066423466 0 0.03504832628391695 0.048425089553968313 0 0.033869852850771417 0.04823716989259632 0 0.032088988686392428 0.047734253546666001 0 0.033869852850771417 0.04823716989259632 0 0.033850577415026131 0.046252161997955794 0 0.035031435916865555 0.047121582177255587 0 0.033869852850771417 0.04823716989259632 0 0.033850577415026131 0.046252161997955794 0 0.033023973667521078 0.045601648415308324 0 0.033850577415026131 0.046252161997955794 0 0.033690038988303792 0.04491619110226782 0 0.033850577415026131 0.046252161997955794 0 0.034847279234762552 0.045784508335259252 0 0.033690038988303792 0.04491619110226782 0 0.033000316480635165 0.045116626214668235 0 0.033023973667521078 0.045601648415308324 0 0.033690038988303792 0.04491619110226782 0 0.034847279234762552 0.045784508335259252 0 0.035178510970564507 0.044873059330342836 0 0.035895503576125344 0.045604613055853969 0 0.035881345093497476 0.046191293672220517 0 0.034847279234762552 0.045784508335259252 0 0.035895503576125344 0.045604613055853969 0 0.034847279234762552 0.045784508335259252 0 0.035178510970564507 0.044873059330342836 0 0.033690038988303792 0.04491619110226782 0 0.036187946358779373 0.045547406301986108 0 0.035372612253921562 0.045875230709425376 0 0.035685978183973142 0.045689411132967948 0 0.034631651155599609 0.046371412005911196 0 0.03475539346227062 0.046508597172103275 0 0.034557835235313986 0.04635342756687761 0 0.035130551992868825 0.046070131708231397 0 0.035544849947153422 0.046075602705491436 0 0.036187946358779373 0.045547406301986108 0 0.035372612253921562 0.045875230709425376 0 0.03679980376325085 0.045687471665269999 0 0.035178510970564507 0.044873059330342836 0 0.033690038988303792 0.04491619110226782 0 0.032862674483222609 0.044179117027483263 0 0.034631651155599609 0.046371412005911196 0 0.03475539346227062 0.046508597172103275 0 0.034847220947429043 0.046486226805717387 0 0.034834612466310394 0.045944565683478891 0 0.033473118567592788 0.045788956240388749 0 0.033000316480635165 0.045116626214668235 0 0.033690038988303792 0.04491619110226782 0 0.032845411619622372 0.044970970190960226 0 0.033421481079778589 0.045668926334727231 0 0.033473118567592788 0.045788956240388749 0 0.035163578269442684 0.046233344621511407 0 0.03550523178226056 0.045763480163906078 0 0.035165170274110084 0.046115810595243972 0 0.035163578269442684 0.046233344621511407 0 0.035414415210788065 0.04588183702081769 0 0.03550523178226056 0.045763480163906078 0 0.035372612253921562 0.045875230709425376 0 0.035414415210788065 0.04588183702081769 0 0.035685978183973142 0.045689411132967948 0 0.035372612253921562 0.045875230709425376 0 0.035163578269442684 0.046233344621511407 0 0.035414415210788065 0.04588183702081769 0 0.035685978183973142 0.045689411132967948 0 0.036025912498917075 0.045419979699630186 0 0.03550523178226056 0.045763480163906078 0 0.035414415210788065 0.04588183702081769 0 0.035685978183973142 0.045689411132967948 0 0.03550523178226056 0.045763480163906078 0 0.036187946358779373 0.045547406301986108 0 0.036025912498917075 0.045419979699630186 0 0.036902212540337431 0.045092089598442006 0 0.036187946358779373 0.045547406301986108 0 0.035685978183973142 0.045689411132967948 0 0.036025912498917075 0.045419979699630186 0 0.036025912498917075 0.045419979699630186 0 0.035743983894701271 0.045459336872876378 0 0.036476758387285077 0.045035703282253058 0 0.036025912498917075 0.045419979699630186 0 0.03550523178226056 0.045763480163906078 0 0.035743983894701271 0.045459336872876378 0 0.035743983894701271 0.045459336872876378 0 0.035311710596723618 0.045763410382202031 0 0.035165170274110084 0.046115810595243972 0 0.03550523178226056 0.045763480163906078 0 0.035743983894701271 0.045459336872876378 0 0.035165170274110084 0.046115810595243972 0 0.035311710596723618 0.045763410382202031 0 0.035165170274110084 0.046115810595243972 0 0.034937908988390651 0.046458149331963086 0 0.035012724844082306 0.046558268738313834 0 0.035165170274110084 0.046115810595243972 0 0.034818448622278925 0.047084983023737849 0 0.035163578269442684 0.046233344621511407 0 0.035012724844082306 0.046558268738313834 0 0.035165170274110084 0.046115810595243972 0 0.038543616786717687 0.043963835721159777 0 0.036230086118490649 0.044812652186923284 0 0.038190160445883338 0.0436864406119492 0 0.038543616786717687 0.043963835721159777 0 0.036230086118490649 0.044812652186923284 0 0.037782504648151763 0.044499154212289074 0 0.036230086118490649 0.044812652186923284 0 0.036476758387285077 0.045035703282253058 0 0.037782504648151763 0.044499154212289074 0 0.035743983894701271 0.045459336872876378 0 0.035311710596723618 0.045763410382202031 0 0.036230086118490649 0.044812652186923284 0 0.035743983894701271 0.045459336872876378 0 0.036230086118490649 0.044812652186923284 0 0.036476758387285077 0.045035703282253058 0 0.036025912498917075 0.045419979699630186 0 0.036476758387285077 0.045035703282253058 0 0.036902212540337431 0.045092089598442006 0 0.036476758387285077 0.045035703282253058 0 0.036902212540337431 0.045092089598442006 0 0.037782504648151763 0.044499154212289074 0 0.037782504648151763 0.044499154212289074 0 0.039086469831244738 0.044195907853944644 0 0.039892863562797018 0.043646201076896152 0 0.036902212540337431 0.045092089598442006 0 0.037782504648151763 0.044499154212289074 0 0.038034522667597596 0.044684979006187911 0 0.038543616786717687 0.043963835721159777 0 0.037782504648151763 0.044499154212289074 0 0.039892863562797018 0.043646201076896152 0 0.037782504648151763 0.044499154212289074 0 0.039086469831244738 0.044195907853944644 0 0.038034522667597596 0.044684979006187911 0 0.039086469831244738 0.044195907853944644 0 0.038034522667597596 0.044684979006187911 0 0.038571104015007816 0.044811137254108152 0 0.038034522667597596 0.044684979006187911 0 0.038571104015007816 0.044811137254108152 0 0.037441903404209623 0.045099217938846373 0 0.038571104015007816 0.044811137254108152 0 0.037441903404209623 0.045099217938846373 0 0.037479059315142123 0.04532614647589122 0 0.036187946358779373 0.045547406301986108 0 0.036902212540337431 0.045092089598442006 0 0.03689018880918201 0.045353068014995675 0 0.036902212540337431 0.045092089598442006 0 0.037441903404209623 0.045099217938846373 0 0.03689018880918201 0.045353068014995675 0 0.036902212540337431 0.045092089598442006 0 0.038034522667597596 0.044684979006187911 0 0.037441903404209623 0.045099217938846373 0 0.037441903404209623 0.045099217938846373 0 0.037479059315142123 0.04532614647589122 0 0.03689018880918201 0.045353068014995675 0 0.037479059315142123 0.04532614647589122 0 0.03689018880918201 0.045353068014995675 0 0.03679980376325085 0.045687471665269999 0 0.036187946358779373 0.045547406301986108 0 0.03689018880918201 0.045353068014995675 0 0.03679980376325085 0.045687471665269999 0 0.034631651155599609 0.046371412005911196 0 0.034557835235313986 0.04635342756687761 0 0.03443922700494606 0.046260843811893632 0 0.036530499569471277 0.045935212259283063 0 0.035895503576125344 0.045604613055853969 0 0.037674944765929433 0.045458880500243687 0 0.03679980376325085 0.045687471665269999 0 0.038117355485620681 0.045369471321597118 0 0.038118613039876993 0.045761848265084275 0 0.037479059315142123 0.04532614647589122 0 0.03679980376325085 0.045687471665269999 0 0.038117355485620681 0.045369471321597118 0 0.034834612466310394 0.045944565683478891 0 0.035945200326761365 0.04621781813239937 0 0.035178510970564507 0.044873059330342836 0 0.035895503576125344 0.045604613055853969 0 0.037674944765929433 0.045458880500243687 0 0.035544849947153422 0.046075602705491436 0 0.035945200326761365 0.04621781813239937 0 0.036530499569471277 0.045935212259283063 0 0.035881345093497476 0.046191293672220517 0 0.035895503576125344 0.045604613055853969 0 0.038571104015007816 0.044811137254108152 0 0.038926658704354369 0.045239737473231623 0 0.040057747387525044 0.04468744027561717 0 0.038571104015007816 0.044811137254108152 0 0.038117355485620681 0.045369471321597118 0 0.038926658704354369 0.045239737473231623 0 0.038571104015007816 0.044811137254108152 0 0.037479059315142123 0.04532614647589122 0 0.038117355485620681 0.045369471321597118 0 0.038816224212332238 0.045875497664867593 0 0.038117355485620681 0.045369471321597118 0 0.038118613039876993 0.045761848265084275 0 0.038816224212332238 0.045875497664867593 0 0.038926658704354369 0.045239737473231623 0 0.040057747387525044 0.04468744027561717 0 0.038816224212332238 0.045875497664867593 0 0.038117355485620681 0.045369471321597118 0 0.038926658704354369 0.045239737473231623 0 0.040057747387525044 0.04468744027561717 0 0.041948056036992358 0.044119563130162097 0 0.040638297262926677 0.043681086760483434 0 0.040057747387525044 0.04468744027561717 0 0.041948056036992358 0.044119563130162097 0 0.040597683163098475 0.045603220540505834 0 0.041948056036992358 0.044119563130162097 0 0.043390735923238673 0.04234649632025933 0 0.044836780351440349 0.04340220062150086 0 0.041948056036992358 0.044119563130162097 0 0.040638297262926677 0.043681086760483434 0 0.043390735923238673 0.04234649632025933 0 0.040638297262926677 0.043681086760483434 0 0.042016305349747325 0.042807879865525762 0 0.043390735923238673 0.04234649632025933 0 0.038571104015007816 0.044811137254108152 0 0.040057747387525044 0.04468744027561717 0 0.040638297262926677 0.043681086760483434 0 0.039086469831244738 0.044195907853944644 0 0.038571104015007816 0.044811137254108152 0 0.040638297262926677 0.043681086760483434 0 0.040638297262926677 0.043681086760483434 0 0.039892863562797018 0.043646201076896152 0 0.042016305349747325 0.042807879865525762 0 0.039086469831244738 0.044195907853944644 0 0.040638297262926677 0.043681086760483434 0 0.039892863562797018 0.043646201076896152 0 0.039892863562797018 0.043646201076896152 0 0.042016305349747325 0.042807879865525762 0 0.040702766153254043 0.042947124756354343 0 0.042016305349747325 0.042807879865525762 0 0.040702766153254043 0.042947124756354343 0 0.042825024734902933 0.042250216242823824 0 0.038543616786717687 0.043963835721159777 0 0.039892863562797018 0.043646201076896152 0 0.040702766153254043 0.042947124756354343 0 0.038543616786717687 0.043963835721159777 0 0.040702766153254043 0.042947124756354343 0 0.038190160445883338 0.0436864406119492 0 0.043633697283382206 0.042121427858359227 0 0.042825024734902933 0.042250216242823824 0 0.044058328355298916 0.042067774090721183 0 0.042016305349747325 0.042807879865525762 0 0.042825024734902933 0.042250216242823824 0 0.044058328355298916 0.042067774090721183 0 0.042016305349747325 0.042807879865525762 0 0.044058328355298916 0.042067774090721183 0 0.043390735923238673 0.04234649632025933 0 0.044058328355298916 0.042067774090721183 0 0.0468137493811061 0.040305640139027932 0 0.043792971779447444 0.042116369581354798 0 0.043633697283382206 0.042121427858359227 0 0.044058328355298916 0.042067774090721183 0 0.043792971779447444 0.042116369581354798 0 0.049303098689687089 0.040119461962147066 0 0.050920571974316362 0.03876377515392522 0 0.044058328355298916 0.042067774090721183 0 0.043390735923238673 0.04234649632025933 0 0.0468137493811061 0.040305640139027932 0 0.043390735923238673 0.04234649632025933 0 0.044836780351440349 0.04340220062150086 0 0.0468137493811061 0.040305640139027932 0 0.044836780351440349 0.04340220062150086 0 0.0468137493811061 0.040305640139027932 0 0.050428491360700323 0.043970209911883815 0 0.044836780351440349 0.04340220062150086 0 0.050428491360700323 0.043970209911883815 0 0.045967055887531923 0.046084114687974714 0 0.049349476728314197 0.047295787376974999 0 0.045967055887531923 0.046084114687974714 0 0.047415919945924492 0.049264285565251968 0 0.050428491360700323 0.043970209911883815 0 0.049349476728314197 0.047295787376974999 0 0.045967055887531923 0.046084114687974714 0 0.045967055887531923 0.046084114687974714 0 0.042813156047675521 0.045519868698384348 0 0.043363761714227261 0.047545938576170926 0 0.045967055887531923 0.046084114687974714 0 0.047415919945924492 0.049264285565251968 0 0.044993153686213608 0.048644425941380347 0 0.045967055887531923 0.046084114687974714 0 0.043363761714227261 0.047545938576170926 0 0.044993153686213608 0.048644425941380347 0 0.044836780351440349 0.04340220062150086 0 0.045967055887531923 0.046084114687974714 0 0.042813156047675521 0.045519868698384348 0 0.041948056036992358 0.044119563130162097 0 0.042813156047675521 0.045519868698384348 0 0.040597683163098475 0.045603220540505834 0 0.041948056036992358 0.044119563130162097 0 0.044836780351440349 0.04340220062150086 0 0.042813156047675521 0.045519868698384348 0 0.042813156047675521 0.045519868698384348 0 0.040597683163098475 0.045603220540505834 0 0.041047027611961703 0.047302990746270361 0 0.040597683163098475 0.045603220540505834 0 0.039289827142746092 0.047031084392231998 0 0.041047027611961703 0.047302990746270361 0 0.038816224212332238 0.045875497664867593 0 0.040057747387525044 0.04468744027561717 0 0.040597683163098475 0.045603220540505834 0 0.038816224212332238 0.045875497664867593 0 0.040597683163098475 0.045603220540505834 0 0.039289827142746092 0.047031084392231998 0 0.039289827142746092 0.047031084392231998 0 0.041047027611961703 0.047302990746270361 0 0.039874693492205383 0.048066282569428465 0 0.041047027611961703 0.047302990746270361 0 0.040619384640363354 0.048572848217701664 0 0.039874693492205383 0.048066282569428465 0 0.041047027611961703 0.047302990746270361 0 0.040619384640363354 0.048572848217701664 0 0.04184951471026193 0.048896568550445559 0 0.038758001490102834 0.048446558372322528 0 0.039289827142746092 0.047031084392231998 0 0.039874693492205383 0.048066282569428465 0 0.038758001490102834 0.048446558372322528 0 0.039874693492205383 0.048066282569428465 0 0.03972435087745594 0.049013306079067259 0 0.040619384640363354 0.048572848217701664 0 0.039874693492205383 0.048066282569428465 0 0.03972435087745594 0.049013306079067259 0 0.042813156047675521 0.045519868698384348 0 0.041047027611961703 0.047302990746270361 0 0.043363761714227261 0.047545938576170926 0 0.041047027611961703 0.047302990746270361 0 0.043363761714227261 0.047545938576170926 0 0.04184951471026193 0.048896568550445559 0 0.043363761714227261 0.047545938576170926 0 0.043557797341097305 0.05010760830223504 0 0.044993153686213608 0.048644425941380347 0 0.043363761714227261 0.047545938576170926 0 0.04184951471026193 0.048896568550445559 0 0.043557797341097305 0.05010760830223504 0 0.04184951471026193 0.048896568550445559 0 0.041898862572883847 0.050464723837282649 0 0.040675863380644224 0.049614342417150077 0 0.04184951471026193 0.048896568550445559 0 0.041898862572883847 0.050464723837282649 0 0.043557797341097305 0.05010760830223504 0 0.041898862572883847 0.050464723837282649 0 0.043557797341097305 0.05010760830223504 0 0.043214944339229018 0.05153529474254414 0 0.038896204868913951 0.049622828317512156 0 0.03972435087745594 0.049013306079067259 0 0.039637529351993279 0.050063587240383477 0 0.03972435087745594 0.049013306079067259 0 0.040675863380644224 0.049614342417150077 0 0.039637529351993279 0.050063587240383477 0 0.040619384640363354 0.048572848217701664 0 0.04184951471026193 0.048896568550445559 0 0.040675863380644224 0.049614342417150077 0 0.040619384640363354 0.048572848217701664 0 0.03972435087745594 0.049013306079067259 0 0.040675863380644224 0.049614342417150077 0 0.041898862572883847 0.050464723837282649 0 0.040675863380644224 0.049614342417150077 0 0.040473805957514486 0.050733695469633223 0 0.040675863380644224 0.049614342417150077 0 0.039637529351993279 0.050063587240383477 0 0.040473805957514486 0.050733695469633223 0 0.038896204868913951 0.049622828317512156 0 0.038838054523384687 0.050469587675263619 0 0.039637529351993279 0.050063587240383477 0 0.038838054523384687 0.050469587675263619 0 0.039637529351993279 0.050063587240383477 0 0.039341461105603742 0.051286622108143942 0 0.039637529351993279 0.050063587240383477 0 0.039341461105603742 0.051286622108143942 0 0.040473805957514486 0.050733695469633223 0 0.039341461105603742 0.051286622108143942 0 0.040405559133728036 0.051751963335836135 0 0.040473805957514486 0.050733695469633223 0 0.040405559133728036 0.051751963335836135 0 0.040473805957514486 0.050733695469633223 0 0.041775874868723535 0.051944844459867565 0 0.041134460332249455 0.053355402376878525 0 0.040405559133728036 0.051751963335836135 0 0.041775874868723535 0.051944844459867565 0 0.041134460332249455 0.053355402376878525 0 0.040405559133728036 0.051751963335836135 0 0.039556990018689536 0.05231085387356546 0 0.039341461105603742 0.051286622108143942 0 0.040405559133728036 0.051751963335836135 0 0.039556990018689536 0.05231085387356546 0 0.039005204164428861 0.053157708578572639 0 0.038351203144549761 0.051923817579777397 0 0.039556990018689536 0.05231085387356546 0 0.038351203144549761 0.051923817579777397 0 0.039341461105603742 0.051286622108143942 0 0.039556990018689536 0.05231085387356546 0 0.043557797341097305 0.05010760830223504 0 0.043214944339229018 0.05153529474254414 0 0.045221283368639009 0.051620710760125053 0 0.043214944339229018 0.05153529474254414 0 0.04342193385857443 0.053376802063902051 0 0.045221283368639009 0.051620710760125053 0 0.041898862572883847 0.050464723837282649 0 0.043214944339229018 0.05153529474254414 0 0.041775874868723535 0.051944844459867565 0 0.041898862572883847 0.050464723837282649 0 0.040473805957514486 0.050733695469633223 0 0.041775874868723535 0.051944844459867565 0 0.041134460332249455 0.053355402376878525 0 0.041775874868723535 0.051944844459867565 0 0.04342193385857443 0.053376802063902051 0 0.043214944339229018 0.05153529474254414 0 0.041775874868723535 0.051944844459867565 0 0.04342193385857443 0.053376802063902051 0 0.045836932672564494 0.054214840591951377 0 0.045221283368639009 0.051620710760125053 0 0.048501815436417281 0.052568790453394403 0 0.045836932672564494 0.054214840591951377 0 0.04342193385857443 0.053376802063902051 0 0.045221283368639009 0.051620710760125053 0 0.045221283368639009 0.051620710760125053 0 0.048501815436417281 0.052568790453394403 0 0.047415919945924492 0.049264285565251968 0 0.048501815436417281 0.052568790453394403 0 0.05032653376934583 0.049657111585332397 0 0.053173397050694265 0.051456442842459475 0 0.048501815436417281 0.052568790453394403 0 0.05032653376934583 0.049657111585332397 0 0.047415919945924492 0.049264285565251968 0 0.049349476728314197 0.047295787376974999 0 0.05032653376934583 0.049657111585332397 0 0.047415919945924492 0.049264285565251968 0 0.043557797341097305 0.05010760830223504 0 0.045221283368639009 0.051620710760125053 0 0.044993153686213608 0.048644425941380347 0 0.045221283368639009 0.051620710760125053 0 0.047415919945924492 0.049264285565251968 0 0.044993153686213608 0.048644425941380347 0 0.056078413590188128 0.048130944751092995 0 0.058696803670445864 0.050906887368510852 0 0.058960336870319319 0.045387739156469958 0 0.056078413590188128 0.048130944751092995 0 0.053173397050694265 0.051456442842459475 0 0.058696803670445864 0.050906887368510852 0 0.056078413590188128 0.048130944751092995 0 0.052912600525189819 0.047568362648704191 0 0.053173397050694265 0.051456442842459475 0 0.05032653376934583 0.049657111585332397 0 0.052912600525189819 0.047568362648704191 0 0.053173397050694265 0.051456442842459475 0 0.049349476728314197 0.047295787376974999 0 0.05032653376934583 0.049657111585332397 0 0.052912600525189819 0.047568362648704191 0 0.052071991487531978 0.054804201580418127 0 0.048501815436417281 0.052568790453394403 0 0.053173397050694265 0.051456442842459475 0 0.052071991487531978 0.054804201580418127 0 0.053173397050694265 0.051456442842459475 0 0.055903634804555416 0.05409315819957973 0 0.053173397050694265 0.051456442842459475 0 0.055903634804555416 0.05409315819957973 0 0.058696803670445864 0.050906887368510852 0 0.061929676272702433 0.057046662159681606 0 0.055903634804555416 0.05409315819957973 0 0.058696803670445864 0.050906887368510852 0 0.061929676272702433 0.057046662159681606 0 0.058696803670445864 0.050906887368510852 0 0.065686696443769302 0.049957749185174677 0 0.059640818245558697 0.022150605021938354 0 0.064321257563946785 0.030823046545762661 0 0.070416841711420458 0.017010000141374514 0 0.072727492821637388 0.016675393127793332 0 0.071408196470742105 0.018578898539108751 0 0.072727492821637388 0.016675393127793332 0 0.071408196470742105 0.018578898539108751 0 0.071796552305172887 0.018981405890634299 0 0.058696803670445864 0.050906887368510852 0 0.058960336870319319 0.045387739156469958 0 0.063323758874418976 0.045660450481428097 0 0.058696803670445864 0.050906887368510852 0 0.065686696443769302 0.049957749185174677 0 0.063323758874418976 0.045660450481428097 0 0.058960336870319319 0.045387739156469958 0 0.064165894805799706 0.039753648123670243 0 0.059353696178661729 0.04130770624553641 0 0.058960336870319319 0.045387739156469958 0 0.063323758874418976 0.045660450481428097 0 0.064165894805799706 0.039753648123670243 0 0.063323758874418976 0.045660450481428097 0 0.064165894805799706 0.039753648123670243 0 0.070036267855020859 0.041216925418012668 0 0.064321257563946785 0.030823046545762661 0 0.067877338265403098 0.030780968683868079 0 0.065686696443769302 0.049957749185174677 0 0.063323758874418976 0.045660450481428097 0 0.070036267855020859 0.041216925418012668 0 0.064165894805799706 0.039753648123670243 0 0.066903615121896701 0.035235926015755439 0 0.068238774358175325 0.037697154593728341 0 0.06714705860311096 0.031745061939699275 0 0.067877338265403098 0.030780968683868079 0 0.064165894805799706 0.039753648123670243 0 0.061684349946499864 0.037547601728203241 0 0.065500533035866518 0.035159242751005383 0 0.064165894805799706 0.039753648123670243 0 0.066903615121896701 0.035235926015755439 0 0.065500533035866518 0.035159242751005383 0 0.064165894805799706 0.039753648123670243 0 0.059353696178661729 0.04130770624553641 0 0.061684349946499864 0.037547601728203241 0 0.059353696178661729 0.04130770624553641 0 0.055546985898831704 0.044120321444093884 0 0.056520299504626691 0.040045829047713054 0 0.059353696178661729 0.04130770624553641 0 0.056520299504626691 0.040045829047713054 0 0.061684349946499864 0.037547601728203241 0 0.056078413590188128 0.048130944751092995 0 0.052912600525189819 0.047568362648704191 0 0.055546985898831704 0.044120321444093884 0 0.056078413590188128 0.048130944751092995 0 0.058960336870319319 0.045387739156469958 0 0.055546985898831704 0.044120321444093884 0 0.058960336870319319 0.045387739156469958 0 0.059353696178661729 0.04130770624553641 0 0.055546985898831704 0.044120321444093884 0 0.050428491360700323 0.043970209911883815 0 0.049349476728314197 0.047295787376974999 0 0.052912600525189819 0.047568362648704191 0 0.050428491360700323 0.043970209911883815 0 0.052912600525189819 0.047568362648704191 0 0.055546985898831704 0.044120321444093884 0 0.050428491360700323 0.043970209911883815 0 0.055546985898831704 0.044120321444093884 0 0.056520299504626691 0.040045829047713054 0 0.0468137493811061 0.040305640139027932 0 0.056520299504626691 0.040045829047713054 0 0.056605610576420995 0.035614508659562526 0 0.0468137493811061 0.040305640139027932 0 0.050428491360700323 0.043970209911883815 0 0.056520299504626691 0.040045829047713054 0 0.056520299504626691 0.040045829047713054 0 0.056605610576420995 0.035614508659562526 0 0.060799632144849396 0.035388660296361889 0 0.056520299504626691 0.040045829047713054 0 0.060799632144849396 0.035388660296361889 0 0.061684349946499864 0.037547601728203241 0 0.056605610576420995 0.035614508659562526 0 0.061779969357725562 0.032214744910412658 0 0.060799632144849396 0.035388660296361889 0 0.0468137493811061 0.040305640139027932 0 0.056605610576420995 0.035614508659562526 0 0.054069821938408577 0.030960976239994584 0 0.056605610576420995 0.035614508659562526 0 0.054069821938408577 0.030960976239994584 0 0.061779969357725562 0.032214744910412658 0 0.061779969357725562 0.032214744910412658 0 0.066223694917812923 0.029652210228363493 0 0.059347496751124669 0.026428026866928446 0 0.054069821938408577 0.030960976239994584 0 0.061779969357725562 0.032214744910412658 0 0.059347496751124669 0.026428026866928446 0 0.050920571974316362 0.03876377515392522 0 0.053797334868382778 0.039511023187517896 0 0.043633697283382206 0.042121427858359227 0 0.043792971779447444 0.042116369581354798 0 0.044130905609973445 0.041811255591597166 0 0.066223694917812923 0.029652210228363493 0 0.065830722135373179 0.031255729567714607 0 0.067023260424868988 0.031292241882427789 0 0.061779969357725562 0.032214744910412658 0 0.066223694917812923 0.029652210228363493 0 0.065830722135373179 0.031255729567714607 0 0.061779969357725562 0.032214744910412658 0 0.065830722135373179 0.031255729567714607 0 0.065395655526884505 0.033172094127824334 0 0.065830722135373179 0.031255729567714607 0 0.065395655526884505 0.033172094127824334 0 0.066923434573496088 0.031423346672414636 0 0.065830722135373179 0.031255729567714607 0 0.066923434573496088 0.031423346672414636 0 0.067023260424868988 0.031292241882427789 0 0.061779969357725562 0.032214744910412658 0 0.065395655526884505 0.033172094127824334 0 0.060799632144849396 0.035388660296361889 0 0.065395655526884505 0.033172094127824334 0 0.060799632144849396 0.035388660296361889 0 0.061684349946499864 0.037547601728203241 0 0.065395655526884505 0.033172094127824334 0 0.065500533035866518 0.035159242751005383 0 0.067680241987501347 0.032636989109693613 0 0.065395655526884505 0.033172094127824334 0 0.061684349946499864 0.037547601728203241 0 0.065500533035866518 0.035159242751005383 0 0.066903615121896701 0.035235926015755439 0 0.065500533035866518 0.035159242751005383 0 0.067680241987501347 0.032636989109693613 0 0.067680241987501347 0.032636989109693613 0 0.068085274887526845 0.030893197066906301 0 0.068928720735383711 0.032280897643100305 0 0.067680241987501347 0.032636989109693613 0 0.068085274887526845 0.030893197066906301 0 0.067729244102708974 0.03137034449656146 0 0.068085274887526845 0.030893197066906301 0 0.067729244102708974 0.03137034449656146 0 0.067336721542170783 0.02940718635508472 0 0.068085274887526845 0.030893197066906301 0 0.067336721542170783 0.02940718635508472 0 0.067451421744280135 0.028577471670195378 0 0.068085274887526845 0.030893197066906301 0 0.067451421744280135 0.028577471670195378 0 0.068928720735383711 0.032280897643100305 0 0.067729244102708974 0.03137034449656146 0 0.067421133087078533 0.031111879053436192 0 0.067336721542170783 0.02940718635508472 0 0.065395655526884505 0.033172094127824334 0 0.067680241987501347 0.032636989109693613 0 0.067729244102708974 0.03137034449656146 0 0.065395655526884505 0.033172094127824334 0 0.067729244102708974 0.03137034449656146 0 0.066923434573496088 0.031423346672414636 0 0.066923434573496088 0.031423346672414636 0 0.067421133087078533 0.031111879053436192 0 0.067023260424868988 0.031292241882427789 0 0.067729244102708974 0.03137034449656146 0 0.066923434573496088 0.031423346672414636 0 0.067421133087078533 0.031111879053436192 0 0.067421133087078533 0.031111879053436192 0 0.067076199033851536 0.031996706263851697 0 0.06669721703565494 0.032503676354947948 0 0.067421133087078533 0.031111879053436192 0 0.067076199033851536 0.031996706263851697 0 0.067023260424868988 0.031292241882427789 0 0.064999396892690922 0.032056594114633186 0 0.066614193530815144 0.03036748525482711 0 0.06669721703565494 0.032503676354947948 0 0.067421133087078533 0.031111879053436192 0 0.066614193530815144 0.03036748525482711 0 0.06669721703565494 0.032503676354947948 0 0.067421133087078533 0.031111879053436192 0 0.066614193530815144 0.03036748525482711 0 0.067336721542170783 0.02940718635508472 0 0.064999396892690922 0.032056594114633186 0 0.066614193530815144 0.03036748525482711 0 0.064999722954173972 0.028308706924926704 0 0.067336721542170783 0.02940718635508472 0 0.06499954612847457 0.024561059563107016 0 0.067451421744280135 0.028577471670195378 0 0.064999722954173972 0.028308706924926704 0 0.067336721542170783 0.02940718635508472 0 0.06499954612847457 0.024561059563107016 0 0.066614193530815144 0.03036748525482711 0 0.064999722954173972 0.028308706924926704 0 0.067336721542170783 0.02940718635508472 0 0.06499954612847457 0.024561059563107016 0 0.067081617922325198 0.025494116331791248 0 0.067451421744280135 0.028577471670195378 0 0.06499954612847457 0.024561059563107016 0 0.064999231866324295 0.02081154689997352 0 0.067081617922325198 0.025494116331791248 0 0.064999860750882099 0.020813818931395268 0 0.06643818615961683 0.025036493302104116 0 0.065000062357551264 0.020806380717098446 0 0.068104722644561341 0.021102170248801511 0 0.067387749400616564 0.019195653061929357 0 0.067081617922325198 0.025494116331791248 0 0.067451421744280135 0.028577471670195378 0 0.068928720735383711 0.032280897643100305 0 0.067081617922325198 0.025494116331791248 0 0.068928720735383711 0.032280897643100305 0 0.070065792982404992 0.029873794656371008 0 0.066903615121896701 0.035235926015755439 0 0.067680241987501347 0.032636989109693613 0 0.068928720735383711 0.032280897643100305 0 0.067797697706048127 0.03122605662641869 0 0.067877338265403098 0.030780968683868079 0 0.066903615121896701 0.035235926015755439 0 0.068928720735383711 0.032280897643100305 0 0.068238774358175325 0.037697154593728341 0 0.06643818615961683 0.025036493302104116 0 0.067877338265403098 0.030780968683868079 0 0.068104722644561341 0.021102170248801511 0 0.070775265809210314 0.021537467515258191 0 0.069997353166463092 0.019599218650539926 0 0.068104722644561341 0.021102170248801511 0 0.068619083900780475 0.019487667572977027 0 0.069997353166463092 0.019599218650539926 0 0.068619083900780475 0.019487667572977027 0 0.069997353166463092 0.019599218650539926 0 0.068957687881718313 0.018075232544466916 0 0.071408196470742105 0.018578898539108751 0 0.071796552305172887 0.018981405890634299 0 0.069997353166463092 0.019599218650539926 0 0.071796552305172887 0.018981405890634299 0 0.070775265809210314 0.021537467515258191 0 0.069997353166463092 0.019599218650539926 0 0.071408196470742105 0.018578898539108751 0 0.069997353166463092 0.019599218650539926 0 0.068957687881718313 0.018075232544466916 0 0.069954966695783175 0.018067833042047364 0 0.068610418931277603 0.017785412524479474 0 0.070416841711420458 0.017010000141374514 0 0.071408196470742105 0.018578898539108751 0 0.069040573073420097 0.018271173313931671 0 0.068003766924875378 0.01736209390989444 0 0.070416841711420458 0.017010000141374514 0 0.069040573073420097 0.018271173313931671 0 0.068610418931277603 0.017785412524479474 0 0.065847618984785583 0.017087743205433548 0 0.068003766924875378 0.01736209390989444 0 0.069040573073420097 0.018271173313931671 0 0.066662802232255125 0.017942540483205743 0 0.068957687881718313 0.018075232544466916 0 0.066118963785382664 0.017386251396361338 0 0.067387749400616564 0.019195653061929357 0 0.066546217621210643 0.015889065816379652 0 0.065847618984785583 0.017087743205433548 0 0.066546217621210643 0.015889065816379652 0 0.065001841563308932 0.016733941510726071 0 0.067972772039863044 0.016288516147829512 0 0.0661465374462471 0.017080799134355031 0 0.06500003888228334 0.016735533445061377 0 0.065847618984785583 0.017087743205433548 0 0.065002185276550509 0.01693935403831474 0 0.066260135629533951 0.017111476264364957 0 0.064999998853548721 0.016938898087070164 0 0.064999999474183487 0.017662634456864338 0 0.0661465374462471 0.017080799134355031 0 0.06500003888228334 0.016735533445061377 0 0.064999955859810651 0.016938690161326143 0 0.066118963785382664 0.017386251396361338 0 0.064999791687334052 0.017663828474895851 0 0.06602712267648661 0.018783194583785325 0 0.065847618984785583 0.017087743205433548 0 0.065001812429110642 0.017660910454283474 0 0.065000062357551264 0.020806380717098446 0 0.064999791687334052 0.017663828474895851 0 0.06602712267648661 0.018783194583785325 0 0.065000062357551264 0.020806380717098446 0 0.06602712267648661 0.018783194583785325 0 0.067387749400616564 0.019195653061929357 0 0.066118963785382664 0.017386251396361338 0 0.06602712267648661 0.018783194583785325 0 0.067387749400616564 0.019195653061929357 0 0.068104722644561341 0.021102170248801511 0 0.068619083900780475 0.019487667572977027 0 0.067387749400616564 0.019195653061929357 0 0.068619083900780475 0.019487667572977027 0 0.068957687881718313 0.018075232544466916 0 0.067387749400616564 0.019195653061929357 0 0.065855804876490065 0.04562928223384536 0 0.065348303344575462 0.047540932815492765 0 0.065862952348921255 0.047626695563773955 0 0.065855804876490065 0.04562928223384536 0 0.065296098531007971 0.045426563243363811 0 0.065348303344575462 0.047540932815492765 0 0.065296098531007971 0.045426563243363811 0 0.064998553554260541 0.047056627072551677 0 0.065348303344575462 0.047540932815492765 0 0.065296098531007971 0.045426563243363811 0 0.064998553554260541 0.047056627072551677 0 0.064998311837143122 0.043305335261717183 0 0.064998553554260541 0.047056627072551677 0 0.065348303344575462 0.047540932815492765 0 0.065077896500247048 0.049423570738270098 0 0.065348303344575462 0.047540932815492765 0 0.065108869522470803 0.049163239971297928 0 0.065077896500247048 0.049423570738270098 0 0.065348303344575462 0.047540932815492765 0 0.065862952348921255 0.047626695563773955 0 0.065108869522470803 0.049163239971297928 0 0.065862952348921255 0.047626695563773955 0 0.06531748807339012 0.049431688571154292 0 0.065108869522470803 0.049163239971297928 0 0.065862952348921255 0.047626695563773955 0 0.067106837710777745 0.047178515182532459 0 0.06531748807339012 0.049431688571154292 0 0.067106837710777745 0.047178515182532459 0 0.066913796756405713 0.04819300863621679 0 0.06531748807339012 0.049431688571154292 0 0.064281577313283128 0.045704141567571938 0 0.063428178060777704 0.046191071860061793 0 0.067106837710777745 0.047178515182532459 0 0.067749697604141332 0.044423880831044482 0 0.069810244352856571 0.044104541664486768 0 0.065862952348921255 0.047626695563773955 0 0.067106837710777745 0.047178515182532459 0 0.066579836519382624 0.045946652202743597 0 0.067106837710777745 0.047178515182532459 0 0.066579836519382624 0.045946652202743597 0 0.067749697604141332 0.044423880831044482 0 0.065855804876490065 0.04562928223384536 0 0.065862952348921255 0.047626695563773955 0 0.066579836519382624 0.045946652202743597 0 0.065855804876490065 0.04562928223384536 0 0.066579836519382624 0.045946652202743597 0 0.066651831556961069 0.044041290021707744 0 0.066651831556961069 0.044041290021707744 0 0.0675759010219662 0.041747049115779783 0 0.065976949531443507 0.042264228908948015 0 0.065855804876490065 0.04562928223384536 0 0.066651831556961069 0.044041290021707744 0 0.065976949531443507 0.042264228908948015 0 0.067749697604141332 0.044423880831044482 0 0.0675759010219662 0.041747049115779783 0 0.069764229499665723 0.043613786839776313 0 0.064614948941401767 0.04556591452695602 0 0.063482561739404017 0.045667042767433275 0 0.067749697604141332 0.044423880831044482 0 0.069764229499665723 0.043613786839776313 0 0.069810244352856571 0.044104541664486768 0 0.066579836519382624 0.045946652202743597 0 0.066651831556961069 0.044041290021707744 0 0.067749697604141332 0.044423880831044482 0 0.066651831556961069 0.044041290021707744 0 0.067749697604141332 0.044423880831044482 0 0.0675759010219662 0.041747049115779783 0 0.0675759010219662 0.041747049115779783 0 0.068557440371118411 0.038068708363907633 0 0.070132177617359848 0.043285553458095018 0 0.0675759010219662 0.041747049115779783 0 0.067237328511530803 0.039168153945622348 0 0.068557440371118411 0.038068708363907633 0 0.0675759010219662 0.041747049115779783 0 0.065976949531443507 0.042264228908948015 0 0.067237328511530803 0.039168153945622348 0 0.065976949531443507 0.042264228908948015 0 0.066365105376914396 0.0383761270257586 0 0.065622351478791335 0.040264504649574352 0 0.065855804876490065 0.04562928223384536 0 0.065296098531007971 0.045426563243363811 0 0.065976949531443507 0.042264228908948015 0 0.065296098531007971 0.045426563243363811 0 0.065976949531443507 0.042264228908948015 0 0.064998311837143122 0.043305335261717183 0 0.065976949531443507 0.042264228908948015 0 0.064998311837143122 0.043305335261717183 0 0.065622351478791335 0.040264504649574352 0 0.064998311837143122 0.043305335261717183 0 0.064998733267482664 0.039555324895195032 0 0.065622351478791335 0.040264504649574352 0 0.064998733267482664 0.039555324895195032 0 0.065622351478791335 0.040264504649574352 0 0.065649548551215825 0.037527587462734401 0 0.066365105376914396 0.0383761270257586 0 0.065622351478791335 0.040264504649574352 0 0.065649548551215825 0.037527587462734401 0 0.066365105376914396 0.0383761270257586 0 0.065649548551215825 0.037527587462734401 0 0.066319508690570808 0.035249524537490279 0 0.064998733267482664 0.039555324895195032 0 0.065649548551215825 0.037527587462734401 0 0.064998875663641528 0.035805533087140878 0 0.064998875663641528 0.035805533087140878 0 0.066319508690570808 0.035249524537490279 0 0.06578498769588971 0.033917394947391204 0 0.065649548551215825 0.037527587462734401 0 0.064998875663641528 0.035805533087140878 0 0.066319508690570808 0.035249524537490279 0 0.066319508690570808 0.035249524537490279 0 0.06669721703565494 0.032503676354947948 0 0.06578498769588971 0.033917394947391204 0 0.064999396892690922 0.032056594114633186 0 0.06669721703565494 0.032503676354947948 0 0.06578498769588971 0.033917394947391204 0 0.064999396892690922 0.032056594114633186 0 0.064998875663641528 0.035805533087140878 0 0.06578498769588971 0.033917394947391204 0 0.067076199033851536 0.031996706263851697 0 0.067023260424868988 0.031292241882427789 0 0.067152159956721164 0.033632142838735349 0 0.067023260424868988 0.031292241882427789 0 0.067152159956721164 0.033632142838735349 0 0.067267832156620813 0.032655441991004938 0 0.067076199033851536 0.031996706263851697 0 0.06669721703565494 0.032503676354947948 0 0.067152159956721164 0.033632142838735349 0 0.066319508690570808 0.035249524537490279 0 0.06669721703565494 0.032503676354947948 0 0.067152159956721164 0.033632142838735349 0 0.066319508690570808 0.035249524537490279 0 0.067152159956721164 0.033632142838735349 0 0.067336329126660807 0.036389568824204507 0 0.067152159956721164 0.033632142838735349 0 0.067336329126660807 0.036389568824204507 0 0.068059392638061891 0.035540610002030931 0 0.067336329126660807 0.036389568824204507 0 0.068557440371118411 0.038068708363907633 0 0.068059392638061891 0.035540610002030931 0 0.066365105376914396 0.0383761270257586 0 0.066319508690570808 0.035249524537490279 0 0.067336329126660807 0.036389568824204507 0 0.065976949531443507 0.042264228908948015 0 0.066365105376914396 0.0383761270257586 0 0.067237328511530803 0.039168153945622348 0 0.066365105376914396 0.0383761270257586 0 0.067336329126660807 0.036389568824204507 0 0.067237328511530803 0.039168153945622348 0 0.067336329126660807 0.036389568824204507 0 0.067237328511530803 0.039168153945622348 0 0.068557440371118411 0.038068708363907633 0 0.068557440371118411 0.038068708363907633 0 0.069431425445572445 0.037955601691490017 0 0.068059392638061891 0.035540610002030931 0 0.047676028060704881 0.046770770068090772 0 0.047883521248291733 0.046735676894767257 0 0.047611302535498945 0.046858356293196561 0 0.047748368933027086 0.046721543517284574 0 0.047676028060704881 0.046770770068090772 0 0.047585281001008672 0.046717246546348193 0 0.047748368933027086 0.046721543517284574 0 0.047676028060704881 0.046770770068090772 0 0.047883521248291733 0.046735676894767257 0 0.047883521248291733 0.046735676894767257 0 0.047625333824498378 0.047002231434793394 0 0.047611302535498945 0.046858356293196561 0 0.059840425747197876 0.043034846896891167 0 0.057500147264867178 0.040956900461945112 0 0.047883521248291733 0.046735676894767257 0 0.047657046779558412 0.047356033670412946 0 0.047625333824498378 0.047002231434793394 0 0.069431425445572445 0.037955601691490017 0 0.068059392638061891 0.035540610002030931 0 0.069678151260466295 0.034945689684516654 0 0.066223694917812923 0.029652210228363493 0 0.067267832156620813 0.032655441991004938 0 0.069678151260466295 0.034945689684516654 0 0.067152159956721164 0.033632142838735349 0 0.068059392638061891 0.035540610002030931 0 0.067267832156620813 0.032655441991004938 0 0.068059392638061891 0.035540610002030931 0 0.067267832156620813 0.032655441991004938 0 0.069678151260466295 0.034945689684516654 0 0.066223694917812923 0.029652210228363493 0 0.067023260424868988 0.031292241882427789 0 0.067267832156620813 0.032655441991004938 0 0.066223694917812923 0.029652210228363493 0 0.070813396609059262 0.03057692262024559 0 0.069678151260466295 0.034945689684516654 0 0.053797334868382778 0.039511023187517896 0 0.046560034246559252 0.04232869680368008 0 0.04719577233672962 0.048405069426065886 0 0.046886956651233165 0.047682432584164477 0 0.046192071852682981 0.048211780142293242 0 0.043633697283382206 0.042121427858359227 0 0.044130905609973445 0.041811255591597166 0 0.043591120965610394 0.041528488211554498 0 0.059109140093805981 0.038351038388889314 0 0.053797334868382778 0.039511023187517896 0 0.046886956651233165 0.047682432584164477 0 0.047657046779558412 0.047356033670412946 0 0.047162715087916356 0.047199042390671103 0 0.053797334868382778 0.039511023187517896 0 0.057500147264867178 0.040956900461945112 0 0.04719577233672962 0.048405069426065886 0 0.046886956651233165 0.047682432584164477 0 0.047657046779558412 0.047356033670412946 0 0.046886956651233165 0.047682432584164477 0 0.046540669647472221 0.047298900493084411 0 0.04644426950101746 0.047699340405942814 0 0.046886956651233165 0.047682432584164477 0 0.046540669647472221 0.047298900493084411 0 0.047162715087916356 0.047199042390671103 0 0.046682260716138381 0.046943138458559241 0 0.047162715087916356 0.047199042390671103 0 0.047437308121623806 0.046839584595866714 0 0.046540669647472221 0.047298900493084411 0 0.046682260716138381 0.046943138458559241 0 0.047162715087916356 0.047199042390671103 0 0.047657046779558412 0.047356033670412946 0 0.047162715087916356 0.047199042390671103 0 0.047475833755426529 0.047056867973910767 0 0.047162715087916356 0.047199042390671103 0 0.047475833755426529 0.047056867973910767 0 0.047437308121623806 0.046839584595866714 0 0.047657046779558412 0.047356033670412946 0 0.047475833755426529 0.047056867973910767 0 0.047625333824498378 0.047002231434793394 0 0.047475833755426529 0.047056867973910767 0 0.047625333824498378 0.047002231434793394 0 0.047490727095308702 0.046859793053109444 0 0.047625333824498378 0.047002231434793394 0 0.047611302535498945 0.046858356293196561 0 0.047490727095308702 0.046859793053109444 0 0.047475833755426529 0.047056867973910767 0 0.047490727095308702 0.046859793053109444 0 0.047437308121623806 0.046839584595866714 0 0.045562477411194534 0.047482694212874023 0 0.045554230935554427 0.047483102333350548 0 0.045663765837815937 0.047448791313766059 0 0.045554230935554427 0.047483102333350548 0 0.047611302535498945 0.046858356293196561 0 0.047514325469910468 0.046899764774155826 0 0.047542626866739782 0.046827583495710791 0 0.047611302535498945 0.046858356293196561 0 0.047490727095308702 0.046859793053109444 0 0.047443713722690767 0.046843539980210749 0 0.045554230935554427 0.047483102333350548 0 0.04487423421288661 0.047646675413034294 0 0.047514325469910468 0.046899764774155826 0 0.047542626866739782 0.046827583495710791 0 0.047300658975570675 0.046890574112280613 0 0.047463395066004194 0.046945562535938054 0 0.047421639972521377 0.046943528395095489 0 0.047627526171139259 0.046757786485117248 0 0.046325141416373401 0.046918631431182495 0 0.04487423421288661 0.047646675413034294 0 0.044328155472806295 0.04778283011190286 0 0.045873984365193923 0.046854742499899134 0 0.047542626866739782 0.046827583495710791 0 0.047585281001008672 0.046717246546348193 0 0.047300658975570675 0.046890574112280613 0 0.047687573231783575 0.046791492932285808 0 0.047463395066004194 0.046945562535938054 0 0.047627526171139259 0.046757786485117248 0 0.047676028060704881 0.046770770068090772 0 0.047611302535498945 0.046858356293196561 0 0.047542626866739782 0.046827583495710791 0 0.047676028060704881 0.046770770068090772 0 0.047542626866739782 0.046827583495710791 0 0.047585281001008672 0.046717246546348193 0 0.044736308385766144 0.047507845253499881 0 0.045554230935554427 0.047483102333350548 0 0.044843061976017923 0.047568457541170471 0 0.045162090030259637 0.047470401925849032 0 0.044997348366922235 0.047462046168104434 0 0.044328155472806295 0.04778283011190286 0 0.037374594178150797 0.049365482476296456 0 0.047068618382703563 0.04737734516801792 0 0.047080595109623355 0.046990721844942539 0 0.046416124077994877 0.047350935795706289 0 0.040745989083521117 0.048093047232537676 0 0.04116422529124384 0.04770504479506351 0 0.040339101601084441 0.047660884596860097 0 0.044736308385766144 0.047507845253499881 0 0.044328155472806295 0.04778283011190286 0 0.044831751382973593 0.047393525754928841 0 0.044078475324102882 0.047926240436206663 0 0.044267510755937642 0.047934488819019627 0 0.044736308385766144 0.047507845253499881 0 0.04487423421288661 0.047646675413034294 0 0.04487423421288661 0.047646675413034294 0 0.044328155472806295 0.04778283011190286 0 0.047068618382703563 0.04737734516801792 0 0.047080595109623355 0.046990721844942539 0 0.047545442305881362 0.046921967014620022 0 0.041628566509063734 0.049901578799746119 0 0.037374594178150797 0.049365482476296456 0 0.026280025879408017 0.051806064225651545 0 0.027526271386235767 0.052379266160514415 0 0.027523568108229559 0.051077618387109433 0 0.041628566509063734 0.049901578799746119 0 0.041821593423722013 0.049698560370486949 0 0.026280025879408017 0.051806064225651545 0 0.02704207351560926 0.054138784031205672 0 0.027526271386235767 0.052379266160514415 0 0.047481905988659756 0.046837648746281518 0 0.047422479763964534 0.046557170229779135 0 0.047630324682542337 0.046568577180113244 0 0.047422479763964534 0.046557170229779135 0 0.047630324682542337 0.046568577180113244 0 0.047540922497919143 0.046454362396324569 0 0.047630324682542337 0.046568577180113244 0 0.047796009027949761 0.046540452292151563 0 0.047759222693399613 0.046426264353223459 0 0.047630324682542337 0.046568577180113244 0 0.047792898305096053 0.046637933297290726 0 0.047796009027949761 0.046540452292151563 0 0.047630324682542337 0.046568577180113244 0 0.047624244672466731 0.046747368377735812 0 0.047792898305096053 0.046637933297290726 0 0.047481905988659756 0.046837648746281518 0 0.047630324682542337 0.046568577180113244 0 0.047624244672466731 0.046747368377735812 0 0.041628566509063734 0.049901578799746119 0 0.043646943207282497 0.048748867093072759 0 0.047080595109623355 0.046990721844942539 0 0.047545442305881362 0.046921967014620022 0 0.047624244672466731 0.046747368377735812 0 0.045873984365193923 0.046854742499899134 0 0.046312320767726255 0.046605417920772559 0 0.047687573231783575 0.046791492932285808 0 0.047627526171139259 0.046757786485117248 0 0.047792898305096053 0.046637933297290726 0 0.047545442305881362 0.046921967014620022 0 0.047624244672466731 0.046747368377735812 0 0.047792898305096053 0.046637933297290726 0 0.047687573231783575 0.046791492932285808 0 0.047846134663127968 0.046660598740588102 0 0.047792898305096053 0.046637933297290726 0 0.047748368933027086 0.046721543517284574 0 0.047585281001008672 0.046717246546348193 0 0.047846134663127968 0.046660598740588102 0 0.047883521248291733 0.046735676894767257 0 0.047846134663127968 0.046660598740588102 0 0.047886849389391244 0.046593021270181015 0 0.046325141416373401 0.046918631431182495 0 0.046723713706442523 0.046728691150132971 0 0.047748368933027086 0.046721543517284574 0 0.047883521248291733 0.046735676894767257 0 0.047846134663127968 0.046660598740588102 0 0.047846134663127968 0.046660598740588102 0 0.047792898305096053 0.046637933297290726 0 0.047886849389391244 0.046593021270181015 0 0.069431425445572445 0.037955601691490017 0 0.068722593337937177 0.039308400468452714 0 0.068795545592116342 0.039353304174202186 0 0.059840425747197876 0.043034846896891167 0 0.063179282843443499 0.045753730270032968 0 0.068557440371118411 0.038068708363907633 0 0.069431425445572445 0.037955601691490017 0 0.068722593337937177 0.039308400468452714 0 0.047883521248291733 0.046735676894767257 0 0.048005805389064155 0.046544383621414512 0 0.047886849389391244 0.046593021270181015 0 0.064599673499242172 0.041595287575968087 0 0.063482561739404017 0.045667042767433275 0 0.064504927064304635 0.045305936913064254 0 0.06427420425745578 0.045168635684638893 0 0.064436934968560414 0.044845982158006926 0 0.063482561739404017 0.045667042767433275 0 0.063179282843443499 0.045753730270032968 0 0.064879105014620408 0.05971822591661291 0 0.065009163835656053 0.05945552985080186 0 0.063757866762809118 0.057829021286795519 0 0.063179282843443499 0.045753730270032968 0 0.063428178060777704 0.046191071860061793 0 0.063482561739404017 0.045667042767433275 0 0.063428178060777704 0.046191071860061793 0 0.048005805389064155 0.046544383621414512 0 0.047796009027949761 0.046540452292151563 0 0.047759222693399613 0.046426264353223459 0 0.048005805389064155 0.046544383621414512 0 0.047886849389391244 0.046593021270181015 0 0.047796009027949761 0.046540452292151563 0 0.063179282843443499 0.045753730270032968 0 0.056740082024201825 0.049390869563366253 0 0.047792898305096053 0.046637933297290726 0 0.047886849389391244 0.046593021270181015 0 0.047796009027949761 0.046540452292151563 0 0.064879105014620408 0.05971822591661291 0 0.061681349757453562 0.057843958714082933 0 0.063757866762809118 0.057829021286795519 0 0.061681349757453562 0.057843958714082933 0 0.062608666842429619 0.056303606767954519 0 0.060246702842717374 0.05600782378326187 0 0.061681349757453562 0.057843958714082933 0 0.063757866762809118 0.057829021286795519 0 0.062608666842429619 0.056303606767954519 0 0.067106837710777745 0.047178515182532459 0 0.067492905163249295 0.046492875305100018 0 0.066913796756405713 0.04819300863621679 0 0.065009163835656053 0.05945552985080186 0 0.063757866762809118 0.057829021286795519 0 0.06454741702769741 0.055801048179869583 0 0.063428178060777704 0.046191071860061793 0 0.064567173454889923 0.050683420088114113 0 0.063757866762809118 0.057829021286795519 0 0.06454741702769741 0.055801048179869583 0 0.062608666842429619 0.056303606767954519 0 0.06454741702769741 0.055801048179869583 0 0.062608666842429619 0.056303606767954519 0 0.062166377476174553 0.054125797071555196 0 0.062608666842429619 0.056303606767954519 0 0.060246702842717374 0.05600782378326187 0 0.062166377476174553 0.054125797071555196 0 0.060246702842717374 0.05600782378326187 0 0.059550385628403306 0.054136310964289731 0 0.062166377476174553 0.054125797071555196 0 0.061681349757453562 0.057843958714082933 0 0.060246702842717374 0.05600782378326187 0 0.058512529960592599 0.055978381968083406 0 0.058666971821154226 0.056124698251809442 0 0.057697779282903795 0.054743986181045069 0 0.059550385628403306 0.054136310964289731 0 0.058666971821154226 0.056124698251809442 0 0.056656699489740961 0.05618476041220994 0 0.057697779282903795 0.054743986181045069 0 0.060246702842717374 0.05600782378326187 0 0.058666971821154226 0.056124698251809442 0 0.059550385628403306 0.054136310964289731 0 0.052771477982067883 0.051687622031714196 0 0.046639780198265521 0.052372383562138629 0 0.05440343510424199 0.051997051052223416 0 0.052771477982067883 0.051687622031714196 0 0.047422479763964534 0.046557170229779135 0 0.047540922497919143 0.046454362396324569 0 0.047350512292796361 0.046333141648040352 0 0.047507491932052594 0.046326226854841598 0 0.047540922497919143 0.046454362396324569 0 0.047350512292796361 0.046333141648040352 0 0.047630324682542337 0.046568577180113244 0 0.047759222693399613 0.046426264353223459 0 0.047540922497919143 0.046454362396324569 0 0.056740082024201825 0.049390869563366253 0 0.052771477982067883 0.051687622031714196 0 0.047759222693399613 0.046426264353223459 0 0.047507491932052594 0.046326226854841598 0 0.047540922497919143 0.046454362396324569 0 0.028809423410580307 0.054981508157205129 0 0.027839327986907733 0.056584853498357415 0 0.029720492820578061 0.056719687884887758 0 0.028809423410580307 0.054981508157205129 0 0.029720492820578061 0.056719687884887758 0 0.030088747718787553 0.055084673073384001 0 0.02704207351560926 0.054138784031205672 0 0.028809423410580307 0.054981508157205129 0 0.027839327986907733 0.056584853498357415 0 0.041821593423722013 0.049698560370486949 0 0.046639780198265521 0.052372383562138629 0 0.046639780198265521 0.052372383562138629 0 0.041252863387179275 0.054928516482114775 0 0.05508082274579703 0.060928102829309154 0 0.049506080478773057 0.060763938827489206 0 0.053345284937021481 0.055714728417984125 0 0.041252863387179275 0.054928516482114775 0 0.038807776904456227 0.056049911962315978 0 0.029720492820578061 0.056719687884887758 0 0.031779488891577293 0.056990963545529037 0 0.030088747718787553 0.055084673073384001 0 0.049506080478773057 0.060763938827489206 0 0.042957864395020855 0.060089317478903718 0 0.044593598584774956 0.056301846814594089 0 0.042957864395020855 0.060089317478903718 0 0.035547728545659102 0.057137461696587968 0 0.040076379561532989 0.055345998593677129 0 0.038807776904456227 0.056049911962315978 0 0.03792205886234315 0.056295330950889566 0 0.031779488891577293 0.056990963545529037 0 0.031573586119073252 0.054470839965952193 0 0.033386220969137181 0.055354333080290211 0 0.031779488891577293 0.056990963545529037 0 0.030088747718787553 0.055084673073384001 0 0.031573586119073252 0.054470839965952193 0 0.030088747718787553 0.055084673073384001 0 0.029937408186320642 0.053489860571830972 0 0.031573586119073252 0.054470839965952193 0 0.029937408186320642 0.053489860571830972 0 0.031573586119073252 0.054470839965952193 0 0.031526949985509957 0.052630781053996857 0 0.031573586119073252 0.054470839965952193 0 0.032809523897177943 0.053994457810109822 0 0.033386220969137181 0.055354333080290211 0 0.031573586119073252 0.054470839965952193 0 0.031526949985509957 0.052630781053996857 0 0.032809523897177943 0.053994457810109822 0 0.031526949985509957 0.052630781053996857 0 0.030198124522289347 0.052147492554611194 0 0.030947825935114151 0.051337655182337828 0 0.029937408186320642 0.053489860571830972 0 0.031526949985509957 0.052630781053996857 0 0.030198124522289347 0.052147492554611194 0 0.029937408186320642 0.053489860571830972 0 0.030198124522289347 0.052147492554611194 0 0.029235275133284493 0.052271926402238281 0 0.029937408186320642 0.053489860571830972 0 0.029235275133284493 0.052271926402238281 0 0.028413952352823818 0.052989027077957218 0 0.029235275133284493 0.052271926402238281 0 0.028413952352823818 0.052989027077957218 0 0.028359484496327428 0.051909237667915352 0 0.028809423410580307 0.054981508157205129 0 0.030088747718787553 0.055084673073384001 0 0.029937408186320642 0.053489860571830972 0 0.028809423410580307 0.054981508157205129 0 0.029937408186320642 0.053489860571830972 0 0.028413952352823818 0.052989027077957218 0 0.02704207351560926 0.054138784031205672 0 0.028809423410580307 0.054981508157205129 0 0.028413952352823818 0.052989027077957218 0 0.02704207351560926 0.054138784031205672 0 0.028413952352823818 0.052989027077957218 0 0.027526271386235767 0.052379266160514415 0 0.028413952352823818 0.052989027077957218 0 0.027526271386235767 0.052379266160514415 0 0.028359484496327428 0.051909237667915352 0 0.037374594178150797 0.049365482476296456 0 0.031016788796746093 0.049956700150337485 0 0.027526271386235767 0.052379266160514415 0 0.028359484496327428 0.051909237667915352 0 0.027523568108229559 0.051077618387109433 0 0.028359484496327428 0.051909237667915352 0 0.027523568108229559 0.051077618387109433 0 0.02929553297278974 0.051192511352983083 0 0.024054549708630149 0.050624611350221317 0 0.026384229743174694 0.050753165653214208 0 0.026038836119072727 0.049401026425391008 0 0.030198124522289347 0.052147492554611194 0 0.029235275133284493 0.052271926402238281 0 0.02929553297278974 0.051192511352983083 0 0.029235275133284493 0.052271926402238281 0 0.028359484496327428 0.051909237667915352 0 0.02929553297278974 0.051192511352983083 0 0.039319364248725841 0.048240389419654375 0 0.039494031855295417 0.048464726940698727 0 0.038301700083522933 0.048805015071059277 0 0.041947439999810161 0.047538973123245794 0 0.038237073338733288 0.047738462183964152 0 0.045594798341196785 0.047003948087071 0 0.044859611968564216 0.047522309301017994 0 0.044477718067401598 0.047306761176939903 0 0.035744608928281504 0.049331537173476062 0 0.038237073338733288 0.047738462183964152 0 0.026384229743174694 0.050753165653214208 0 0.026038836119072727 0.049401026425391008 0 0.027668213994085179 0.049693971432112703 0 0.045594798341196785 0.047003948087071 0 0.045943561296810945 0.047123260386210904 0 0.045284707529211571 0.047581965916487903 0 0.046617719517477132 0.046707018787444023 0 0.045594798341196785 0.047003948087071 0 0.045943561296810945 0.047123260386210904 0 0.044736308385766144 0.047507845253499881 0 0.041947439999810161 0.047538973123245794 0 0.037374594178150797 0.049365482476296456 0 0.035744608928281504 0.049331537173476062 0 0.040745989083521117 0.048093047232537676 0 0.040339101601084441 0.047660884596860097 0 0.039494031855295417 0.048464726940698727 0 0.040339101601084441 0.047660884596860097 0 0.039319364248725841 0.048240389419654375 0 0.039494031855295417 0.048464726940698727 0 0.044736308385766144 0.047507845253499881 0 0.04532845477866794 0.047235307502671471 0 0.046540669647472221 0.047298900493084411 0 0.046102473932450067 0.047359608370172175 0 0.046325272001537694 0.047483064508133194 0 0.044736308385766144 0.047507845253499881 0 0.045287295394196951 0.047286266991972435 0 0.046540669647472221 0.047298900493084411 0 0.046682260716138381 0.046943138458559241 0 0.046102473932450067 0.047359608370172175 0 0.046528106196472012 0.046770640411596807 0 0.045920326613967014 0.047166202658002261 0 0.04598838440916752 0.047300796104882151 0 0.046540669647472221 0.047298900493084411 0 0.046325272001537694 0.047483064508133194 0 0.04644426950101746 0.047699340405942814 0 0.046210457871241013 0.047574695177959474 0 0.04644426950101746 0.047699340405942814 0 0.045939991666599671 0.047802251472173679 0 0.046886956651233165 0.047682432584164477 0 0.04644426950101746 0.047699340405942814 0 0.046192071852682981 0.048211780142293242 0 0.046102473932450067 0.047359608370172175 0 0.046325272001537694 0.047483064508133194 0 0.046210457871241013 0.047574695177959474 0 0.046325272001537694 0.047483064508133194 0 0.046210457871241013 0.047574695177959474 0 0.04644426950101746 0.047699340405942814 0 0.04644426950101746 0.047699340405942814 0 0.045939991666599671 0.047802251472173679 0 0.046192071852682981 0.048211780142293242 0 0.045939991666599671 0.047802251472173679 0 0.045398698979967192 0.04790033429182345 0 0.046192071852682981 0.048211780142293242 0 0.046102473932450067 0.047359608370172175 0 0.045939991666599671 0.047802251472173679 0 0.045398698979967192 0.04790033429182345 0 0.046102473932450067 0.047359608370172175 0 0.046210457871241013 0.047574695177959474 0 0.045939991666599671 0.047802251472173679 0 0.045920326613967014 0.047166202658002261 0 0.04598838440916752 0.047300796104882151 0 0.045284707529211571 0.047581965916487903 0 0.045287295394196951 0.047286266991972435 0 0.045304495311153027 0.0473594666227087 0 0.04532845477866794 0.047235307502671471 0 0.045349746697107604 0.047253182483111923 0 0.045398698979967192 0.04790033429182345 0 0.046192071852682981 0.048211780142293242 0 0.044913974806493812 0.047949140894211491 0 0.04598838440916752 0.047300796104882151 0 0.045284707529211571 0.047581965916487903 0 0.045398698979967192 0.04790033429182345 0 0.045594798341196785 0.047003948087071 0 0.045284707529211571 0.047581965916487903 0 0.044859611968564216 0.047522309301017994 0 0.045284707529211571 0.047581965916487903 0 0.044913974806493812 0.047949140894211491 0 0.044859611968564216 0.047522309301017994 0 0.045284707529211571 0.047581965916487903 0 0.045398698979967192 0.04790033429182345 0 0.044913974806493812 0.047949140894211491 0 0.046560034246559252 0.04232869680368008 0 0.043027938417412072 0.044439131204061691 0 0.042825024734902933 0.042250216242823824 0 0.043591120965610394 0.041528488211554498 0 0.041994048280280367 0.041248926884262467 0 0.043633697283382206 0.042121427858359227 0 0.042825024734902933 0.042250216242823824 0 0.043591120965610394 0.041528488211554498 0 0.040702766153254043 0.042947124756354343 0 0.039837039718206547 0.042429117563212514 0 0.038190160445883338 0.0436864406119492 0 0.039837039718206547 0.042429117563212514 0 0.038190160445883338 0.0436864406119492 0 0.037953201614620916 0.043097965680369853 0 0.040702766153254043 0.042947124756354343 0 0.039837039718206547 0.042429117563212514 0 0.041994048280280367 0.041248926884262467 0 0.040702766153254043 0.042947124756354343 0 0.042825024734902933 0.042250216242823824 0 0.041994048280280367 0.041248926884262467 0 0.039837039718206547 0.042429117563212514 0 0.041994048280280367 0.041248926884262467 0 0.039056283008043952 0.040866045373509088 0 0.043027938417412072 0.044439131204061691 0 0.03832605497536485 0.046198982938611188 0 0.044913974806493812 0.047949140894211491 0 0.044236106256763053 0.047437344754134671 0 0.043524988180860778 0.047594896146924602 0 0.044913974806493812 0.047949140894211491 0 0.044859611968564216 0.047522309301017994 0 0.044236106256763053 0.047437344754134671 0 0.044859611968564216 0.047522309301017994 0 0.044477718067401598 0.047306761176939903 0 0.044236106256763053 0.047437344754134671 0 0.038237073338733288 0.047738462183964152 0 0.038423664450878955 0.047658998506955111 0 0.044473403306577113 0.04729670804646894 0 0.044236106256763053 0.047437344754134671 0 0.043524988180860778 0.047594896146924602 0 0.038237073338733288 0.047738462183964152 0 0.03832605497536485 0.046198982938611188 0 0.039837039718206547 0.042429117563212514 0 0.039056283008043952 0.040866045373509088 0 0.037953201614620916 0.043097965680369853 0 0.030531814110217027 0.047239068622118671 0 0.030211767858946133 0.047165299833048541 0 0.030968039625181621 0.048397721710178414 0 0.038225998758503812 0.046182721172018763 0 0.03832605497536485 0.046198982938611188 0 0.028190091661501979 0.0479887846990735 0 0.030211767858946133 0.047165299833048541 0 0.029527585434032905 0.049043759482271215 0 0.030211767858946133 0.047165299833048541 0 0.030968039625181621 0.048397721710178414 0 0.029527585434032905 0.049043759482271215 0 0.030968039625181621 0.048397721710178414 0 0.029527585434032905 0.049043759482271215 0 0.030763292384575636 0.049793974897401151 0 0.029527585434032905 0.049043759482271215 0 0.030763292384575636 0.049793974897401151 0 0.028932956073506096 0.051005695271828709 0 0.026038836119072727 0.049401026425391008 0 0.028190091661501979 0.0479887846990735 0 0.027668213994085179 0.049693971432112703 0 0.028190091661501979 0.0479887846990735 0 0.029527585434032905 0.049043759482271215 0 0.027668213994085179 0.049693971432112703 0 0.029527585434032905 0.049043759482271215 0 0.027668213994085179 0.049693971432112703 0 0.028932956073506096 0.051005695271828709 0 0.026384229743174694 0.050753165653214208 0 0.027668213994085179 0.049693971432112703 0 0.028932956073506096 0.051005695271828709 0 0.030198124522289347 0.052147492554611194 0 0.02929553297278974 0.051192511352983083 0 0.030947825935114151 0.051337655182337828 0 0.031016788796746093 0.049956700150337485 0 0.03051657939905305 0.050371101277325338 0 0.030763292384575636 0.049793974897401151 0 0.028932956073506096 0.051005695271828709 0 0.032035619240052618 0.051251356700759823 0 0.031526949985509957 0.052630781053996857 0 0.030947825935114151 0.051337655182337828 0 0.032035619240052618 0.051251356700759823 0 0.03051657939905305 0.050371101277325338 0 0.030960424498784948 0.050521947838431114 0 0.032035619240052618 0.051251356700759823 0 0.033117577075601215 0.050473792070442419 0 0.033230481328678167 0.052576253181627647 0 0.032035619240052618 0.051251356700759823 0 0.033117577075601215 0.050473792070442419 0 0.032260303147242521 0.049362472322401839 0 0.033117577075601215 0.050473792070442419 0 0.033814239434272204 0.050387119123712402 0 0.033230481328678167 0.052576253181627647 0 0.033117577075601215 0.050473792070442419 0 0.034095352202360513 0.048023803832066968 0 0.033814239434272204 0.050387119123712402 0 0.033117577075601215 0.050473792070442419 0 0.034095352202360513 0.048023803832066968 0 0.032260303147242521 0.049362472322401839 0 0.030763292384575636 0.049793974897401151 0 0.032035619240052618 0.051251356700759823 0 0.032260303147242521 0.049362472322401839 0 0.030968039625181621 0.048397721710178414 0 0.030763292384575636 0.049793974897401151 0 0.032260303147242521 0.049362472322401839 0 0.034095352202360513 0.048023803832066968 0 0.032260303147242521 0.049362472322401839 0 0.032483073418030549 0.047783356093489257 0 0.030968039625181621 0.048397721710178414 0 0.032260303147242521 0.049362472322401839 0 0.032483073418030549 0.047783356093489257 0 0.030531814110217027 0.047239068622118671 0 0.030968039625181621 0.048397721710178414 0 0.032483073418030549 0.047783356093489257 0 0.030531814110217027 0.047239068622118671 0 0.032483073418030549 0.047783356093489257 0 0.034728013079685684 0.045173601054572819 0 0.03832605497536485 0.046198982938611188 0 0.036695989417461092 0.046083846529625883 0 0.039056283008043952 0.040866045373509088 0 0.034728013079685684 0.045173601054572819 0 0.037953201614620916 0.043097965680369853 0 0.030531814110217027 0.047239068622118671 0 0.030012754928034083 0.047131404840340486 0 0.034728013079685684 0.045173601054572819 0 0.034095352202360513 0.048023803832066968 0 0.034728013079685684 0.045173601054572819 0 0.034907043877239335 0.045950628510555487 0 0.034095352202360513 0.048023803832066968 0 0.032483073418030549 0.047783356093489257 0 0.034728013079685684 0.045173601054572819 0 0.036230086118490649 0.044812652186923284 0 0.034728013079685684 0.045173601054572819 0 0.034907043877239335 0.045950628510555487 0 0.035311710596723618 0.045763410382202031 0 0.036230086118490649 0.044812652186923284 0 0.034907043877239335 0.045950628510555487 0 0.034728013079685684 0.045173601054572819 0 0.038190160445883338 0.0436864406119492 0 0.037953201614620916 0.043097965680369853 0 0.036230086118490649 0.044812652186923284 0 0.034728013079685684 0.045173601054572819 0 0.038190160445883338 0.0436864406119492 0 0.034818448622278925 0.047084983023737849 0 0.034937908988390651 0.046458149331963086 0 0.034656981440269463 0.047729527354269899 0 0.035165170274110084 0.046115810595243972 0 0.034818448622278925 0.047084983023737849 0 0.034937908988390651 0.046458149331963086 0 0.034937908988390651 0.046458149331963086 0 0.034907043877239335 0.045950628510555487 0 0.034656981440269463 0.047729527354269899 0 0.035311710596723618 0.045763410382202031 0 0.034937908988390651 0.046458149331963086 0 0.034907043877239335 0.045950628510555487 0 0.034095352202360513 0.048023803832066968 0 0.034907043877239335 0.045950628510555487 0 0.034656981440269463 0.047729527354269899 0 0.034818448622278925 0.047084983023737849 0 0.034656981440269463 0.047729527354269899 0 0.034416443494580264 0.048719657785825425 0 0.034656981440269463 0.047729527354269899 0 0.033870931455441886 0.05058147562302763 0 0.034416443494580264 0.048719657785825425 0 0.034656981440269463 0.047729527354269899 0 0.033814239434272204 0.050387119123712402 0 0.033870931455441886 0.05058147562302763 0 0.034095352202360513 0.048023803832066968 0 0.034656981440269463 0.047729527354269899 0 0.033814239434272204 0.050387119123712402 0 0.033814239434272204 0.050387119123712402 0 0.033870931455441886 0.05058147562302763 0 0.033391569096735581 0.052741088623379791 0 0.033870931455441886 0.05058147562302763 0 0.033391569096735581 0.052741088623379791 0 0.032661761797768391 0.052929791828195627 0 0.030934769812274873 0.054481866801620461 0 0.032661761797768391 0.052929791828195627 0 0.031538785411641942 0.054928471148275822 0 0.033391569096735581 0.052741088623379791 0 0.030934769812274873 0.054481866801620461 0 0.032661761797768391 0.052929791828195627 0 0.033391569096735581 0.052741088623379791 0 0.034222419844758753 0.054951403256975402 0 0.034509149165674921 0.05507728228325965 0 0.03246769420978092 0.054634795727565959 0 0.032274980951918351 0.055186536984098172 0 0.033814239434272204 0.050387119123712402 0 0.033391569096735581 0.052741088623379791 0 0.033230481328678167 0.052576253181627647 0 0.031526949985509957 0.052630781053996857 0 0.032035619240052618 0.051251356700759823 0 0.033230481328678167 0.052576253181627647 0 0.031526949985509957 0.052630781053996857 0 0.033230481328678167 0.052576253181627647 0 0.032809523897177943 0.053994457810109822 0 0.033230481328678167 0.052576253181627647 0 0.032809523897177943 0.053994457810109822 0 0.034222419844758753 0.054951403256975402 0 0.033391569096735581 0.052741088623379791 0 0.033230481328678167 0.052576253181627647 0 0.034222419844758753 0.054951403256975402 0 0.034222419844758753 0.054951403256975402 0 0.033386220969137181 0.055354333080290211 0 0.035547728545659102 0.057137461696587968 0 0.032809523897177943 0.053994457810109822 0 0.034222419844758753 0.054951403256975402 0 0.033386220969137181 0.055354333080290211 0 0.031779488891577293 0.056990963545529037 0 0.033386220969137181 0.055354333080290211 0 0.035547728545659102 0.057137461696587968 0 0.035547728545659102 0.057137461696587968 0 0.034763219418892911 0.05581705139059287 0 0.036738242765335133 0.05494720741949264 0 0.034222419844758753 0.054951403256975402 0 0.035547728545659102 0.057137461696587968 0 0.034763219418892911 0.05581705139059287 0 0.034763219418892911 0.05581705139059287 0 0.033625554255550763 0.05533571284841321 0 0.034509149165674921 0.05507728228325965 0 0.031818193750177678 0.055791827869161863 0 0.032274980951918351 0.055186536984098172 0 0.029558701297616643 0.05655499267732926 0 0.030934769812274873 0.054481866801620461 0 0.031538785411641942 0.054928471148275822 0 0.034222419844758753 0.054951403256975402 0 0.034763219418892911 0.05581705139059287 0 0.034509149165674921 0.05507728228325965 0 0.034400189076250934 0.05204512551717947 0 0.032284668344821923 0.052314173999207715 0 0.034244616597569263 0.054028206409646708 0 0.034400189076250934 0.05204512551717947 0 0.034244616597569263 0.054028206409646708 0 0.035694487467616547 0.053498974662291518 0 0.031818193750177678 0.055791827869161863 0 0.031487813771299153 0.056207680909591169 0 0.033625554255550763 0.05533571284841321 0 0.032284668344821923 0.052314173999207715 0 0.034244616597569263 0.054028206409646708 0 0.029558701297616643 0.05655499267732926 0 0.028294296230770857 0.059113700187458408 0 0.030475686730194844 0.058207376564545554 0 0.034763219418892911 0.05581705139059287 0 0.033625554255550763 0.05533571284841321 0 0.034244616597569263 0.054028206409646708 0 0.034763219418892911 0.05581705139059287 0 0.034244616597569263 0.054028206409646708 0 0.035694487467616547 0.053498974662291518 0 0.034763219418892911 0.05581705139059287 0 0.036738242765335133 0.05494720741949264 0 0.035694487467616547 0.053498974662291518 0 0.036738242765335133 0.05494720741949264 0 0.038998220342198034 0.051728566557555825 0 0.040076379561532989 0.055345998593677129 0 0.035547728545659102 0.057137461696587968 0 0.036738242765335133 0.05494720741949264 0 0.040076379561532989 0.055345998593677129 0 0.036738242765335133 0.05494720741949264 0 0.038998220342198034 0.051728566557555825 0 0.035694487467616547 0.053498974662291518 0 0.038998220342198034 0.051728566557555825 0 0.035694487467616547 0.053498974662291518 0 0.036445037320063732 0.050893034985886001 0 0.034400189076250934 0.05204512551717947 0 0.035694487467616547 0.053498974662291518 0 0.036445037320063732 0.050893034985886001 0 0.036445037320063732 0.050893034985886001 0 0.037757298648964141 0.04835203611683931 0 0.033986325096680772 0.049976305183900539 0 0.038500871400140524 0.049649154296306244 0 0.036617666931744099 0.049791695157672823 0 0.037757298648964141 0.04835203611683931 0 0.040406023547011442 0.049332606724135336 0 0.043304749916478466 0.047088230630583185 0 0.038998220342198034 0.051728566557555825 0 0.038448358821233229 0.050031486134484549 0 0.040406023547011442 0.049332606724135336 0 0.036445037320063732 0.050893034985886001 0 0.038448358821233229 0.050031486134484549 0 0.037757298648964141 0.04835203611683931 0 0.038998220342198034 0.051728566557555825 0 0.036445037320063732 0.050893034985886001 0 0.038448358821233229 0.050031486134484549 0 0.038448358821233229 0.050031486134484549 0 0.037757298648964141 0.04835203611683931 0 0.040406023547011442 0.049332606724135336 0 0.038500871400140524 0.049649154296306244 0 0.042565311297422352 0.049626369042585522 0 0.036956363882053381 0.049821365568728578 0 0.037146858936636926 0.04880302143303069 0 0.03862402790168757 0.04865130807107429 0 0.03977537749594532 0.054931685387530522 0 0.0391914705003268 0.056796847170450485 0 0.037146858936636926 0.04880302143303069 0 0.038244407257152689 0.04729792746923963 0 0.03862402790168757 0.04865130807107429 0 0.036956363882053381 0.049821365568728578 0 0.035340057114499335 0.048944823953531315 0 0.033986325096680772 0.049976305183900539 0 0.037146858936636926 0.04880302143303069 0 0.035340057114499335 0.048944823953531315 0 0.034787835941275096 0.046659964031022454 0 0.036956363882053381 0.049821365568728578 0 0.037146858936636926 0.04880302143303069 0 0.035340057114499335 0.048944823953531315 0 0.03349436485552832 0.048132498751922381 0 0.033986325096680772 0.049976305183900539 0 0.031872559081587017 0.048988151155476195 0 0.035340057114499335 0.048944823953531315 0 0.03349436485552832 0.048132498751922381 0 0.034787835941275096 0.046659964031022454 0 0.035340057114499335 0.048944823953531315 0 0.03349436485552832 0.048132498751922381 0 0.033986325096680772 0.049976305183900539 0 0.034400189076250934 0.05204512551717947 0 0.036445037320063732 0.050893034985886001 0 0.033986325096680772 0.049976305183900539 0 0.034400189076250934 0.05204512551717947 0 0.032284668344821923 0.052314173999207715 0 0.033986325096680772 0.049976305183900539 0 0.031487813771299153 0.056207680909591169 0 0.031889245756197872 0.05730442823753612 0 0.032284668344821923 0.052314173999207715 0 0.033986325096680772 0.049976305183900539 0 0.031872559081587017 0.048988151155476195 0 0.028294296230770857 0.059113700187458408 0 0.027377348193956475 0.063875562155053758 0 0.029249966811761615 0.061040972294668129 0 0.031889245756197872 0.05730442823753612 0 0.03394017084670202 0.061538740829063521 0 0.027377348193956475 0.063875562155053758 0 0.027836886049005957 0.068281822122990762 0 0.028350772517019965 0.066681529036426518 0 0.03349436485552832 0.048132498751922381 0 0.031872559081587017 0.048988151155476195 0 0.031530962330397733 0.046090013743293114 0 0.035881404731442489 0.05912418703731686 0 0.03394017084670202 0.061538740829063521 0 0.03349436485552832 0.048132498751922381 0 0.034787835941275096 0.046659964031022454 0 0.031530962330397733 0.046090013743293114 0 0.03644829824841396 0.071905751286744632 0 0.033548368166382618 0.069027471113886629 0 0.035684302300055919 0.068129560787803425 0 0.03644829824841396 0.071905751286744632 0 0.032275950809063952 0.071300436047509047 0 0.033548368166382618 0.069027471113886629 0 0.032275950809063952 0.071300436047509047 0 0.033548368166382618 0.069027471113886629 0 0.031487681745326963 0.06688883626231544 0 0.03394017084670202 0.061538740829063521 0 0.033544418234586711 0.065522449055970863 0 0.033548368166382618 0.069027471113886629 0 0.033861696141404142 0.067038708805043229 0 0.031487681745326963 0.06688883626231544 0 0.033548368166382618 0.069027471113886629 0 0.033861696141404142 0.067038708805043229 0 0.035684302300055919 0.068129560787803425 0 0.033861696141404142 0.067038708805043229 0 0.035684302300055919 0.068129560787803425 0 0.035716510807083941 0.066357741011906418 0 0.035716510807083941 0.066357741011906418 0 0.033524453721398124 0.064999409203231967 0 0.037419771367068033 0.064999964625066686 0 0.033861696141404142 0.067038708805043229 0 0.033524453721398124 0.064999409203231967 0 0.031487681745326963 0.06688883626231544 0 0.033861696141404142 0.067038708805043229 0 0.035716510807083941 0.066357741011906418 0 0.033524453721398124 0.064999409203231967 0 0.039728400092465227 0.065392707911852269 0 0.037419771367068033 0.064999964625066686 0 0.041313846877926302 0.064999964204221369 0 0.040175136229389369 0.0669215292194172 0 0.039728400092465227 0.065392707911852269 0 0.038163455115637304 0.06680898915483223 0 0.040175136229389369 0.0669215292194172 0 0.039728400092465227 0.065392707911852269 0 0.04172135731693246 0.066389903026601291 0 0.035716510807083941 0.066357741011906418 0 0.037419771367068033 0.064999964625066686 0 0.038163455115637304 0.06680898915483223 0 0.039728400092465227 0.065392707911852269 0 0.037419771367068033 0.064999964625066686 0 0.038163455115637304 0.06680898915483223 0 0.035684302300055919 0.068129560787803425 0 0.035716510807083941 0.066357741011906418 0 0.038163455115637304 0.06680898915483223 0 0.035684302300055919 0.068129560787803425 0 0.038163455115637304 0.06680898915483223 0 0.037764036677723711 0.069119190336074512 0 0.038163455115637304 0.06680898915483223 0 0.039699899556724302 0.068588857096694378 0 0.037764036677723711 0.069119190336074512 0 0.040175136229389369 0.0669215292194172 0 0.038163455115637304 0.06680898915483223 0 0.039699899556724302 0.068588857096694378 0 0.040175136229389369 0.0669215292194172 0 0.039699899556724302 0.068588857096694378 0 0.041477494933297401 0.068026837099739432 0 0.039699899556724302 0.068588857096694378 0 0.039217946138573448 0.070400296247939712 0 0.042023142763559181 0.069965140425016448 0 0.039217946138573448 0.070400296247939712 0 0.040312545709036272 0.072526528414788335 0 0.042023142763559181 0.069965140425016448 0 0.039699899556724302 0.068588857096694378 0 0.039217946138573448 0.070400296247939712 0 0.037764036677723711 0.069119190336074512 0 0.03644829824841396 0.071905751286744632 0 0.039217946138573448 0.070400296247939712 0 0.037764036677723711 0.069119190336074512 0 0.03644829824841396 0.071905751286744632 0 0.035684302300055919 0.068129560787803425 0 0.037764036677723711 0.069119190336074512 0 0.035881404731442489 0.05912418703731686 0 0.0391914705003268 0.056796847170450485 0 0.037146858936636926 0.04880302143303069 0 0.034787835941275096 0.046659964031022454 0 0.038170458688595858 0.047307806336130687 0 0.03644829824841396 0.071905751286744632 0 0.039217946138573448 0.070400296247939712 0 0.040312545709036272 0.072526528414788335 0 0.0391914705003268 0.056796847170450485 0 0.040939463406012108 0.061477020085669389 0 0.042461457401845162 0.057554098684306235 0 0.042008105262528378 0.05746617835381785 0 0.042163173143191429 0.05801473135767541 0 0.0391914705003268 0.056796847170450485 0 0.040529532036800507 0.055110623328144627 0 0.038244407257152689 0.04729792746923963 0 0.040608436080539656 0.047810282667485889 0 0.03862402790168757 0.04865130807107429 0 0.042008105262528378 0.05746617835381785 0 0.041854889187420696 0.057774452542403314 0 0.041546695132046091 0.057373534075525374 0 0.042008105262528378 0.05746617835381785 0 0.041854889187420696 0.057774452542403314 0 0.042163173143191429 0.05801473135767541 0 0.041854889187420696 0.057774452542403314 0 0.041809584902532296 0.058091987970933456 0 0.041557284624569625 0.057847879142028012 0 0.041854889187420696 0.057774452542403314 0 0.041809584902532296 0.058091987970933456 0 0.042163173143191429 0.05801473135767541 0 0.041477494933297401 0.068026837099739432 0 0.043725477516517917 0.067424173776055724 0 0.04172135731693246 0.066389903026601291 0 0.042023142763559181 0.069965140425016448 0 0.041477494933297401 0.068026837099739432 0 0.043725477516517917 0.067424173776055724 0 0.039699899556724302 0.068588857096694378 0 0.042023142763559181 0.069965140425016448 0 0.041477494933297401 0.068026837099739432 0 0.040175136229389369 0.0669215292194172 0 0.041477494933297401 0.068026837099739432 0 0.04172135731693246 0.066389903026601291 0 0.040939463406012108 0.061477020085669389 0 0.043735865558744626 0.062653580854475324 0 0.041809584902532296 0.058091987970933456 0 0.041862220251127721 0.058482464435615583 0 0.041569437537470555 0.058325988063215518 0 0.041809584902532296 0.058091987970933456 0 0.042163173143191429 0.05801473135767541 0 0.041862220251127721 0.058482464435615583 0 0.043735865558744626 0.062653580854475324 0 0.045131321208023642 0.060216537806420917 0 0.043735865558744626 0.062653580854475324 0 0.043009962287902791 0.063529594220641611 0 0.043735865558744626 0.062653580854475324 0 0.045095027148687489 0.064610627485132716 0 0.041313846877926302 0.064999964204221369 0 0.041702265835742103 0.066432897936744131 0 0.045211173964280232 0.065195151395673695 0 0.041313846877926302 0.064999964204221369 0 0.045211173964280232 0.065195151395673695 0 0.045208044707952678 0.065000007832695911 0 0.04367069736101141 0.067459108992674169 0 0.041702265835742103 0.066432897936744131 0 0.045211173964280232 0.065195151395673695 0 0.042445235661472229 0.063621948747320342 0 0.043009962287902791 0.063529594220641611 0 0.039728400092465227 0.065392707911852269 0 0.041313846877926302 0.064999964204221369 0 0.041702265835742103 0.066432897936744131 0 0.048328589617323753 0.064999980684471589 0 0.046772318716875358 0.066679051603150727 0 0.045208094835060469 0.064999974988690146 0 0.048328589617323753 0.064999980684471589 0 0.046772318716875358 0.066679051603150727 0 0.049151900694446193 0.06733427682215043 0 0.046017546318402332 0.062355732701068804 0 0.045520167906693318 0.063097224847203551 0 0.045502390869308892 0.062083310895902188 0 0.046772318716875358 0.066679051603150727 0 0.045214377800866193 0.065192139119087528 0 0.045292430159757473 0.068246625885752046 0 0.046772318716875358 0.066679051603150727 0 0.045214377800866193 0.065192139119087528 0 0.045208094835060469 0.064999974988690146 0 0.045095027148687489 0.064610627485132716 0 0.045131321208023642 0.060216537806420917 0 0.045095027148687489 0.064610627485132716 0 0.045204508800007044 0.064993682875217923 0 0.046772318716875358 0.066679051603150727 0 0.045292430159757473 0.068246625885752046 0 0.047299103793038276 0.069288284249812107 0 0.045131321208023642 0.060216537806420917 0 0.0476721603860586 0.057695871240791903 0 0.047299103793038276 0.069288284249812107 0 0.049306339083607036 0.070324721217692218 0 0.049151900694446193 0.06733427682215043 0 0.046772318716875358 0.066679051603150727 0 0.047299103793038276 0.069288284249812107 0 0.049151900694446193 0.06733427682215043 0 0.0476721603860586 0.057695871240791903 0 0.052104726422049559 0.055526465282578902 0 0.04322784345826905 0.048560721263384191 0 0.04321737742814246 0.048637657568356682 0 0.043360459986281262 0.048623466654482438 0 0.041809584902532296 0.058091987970933456 0 0.041569437537470555 0.058325988063215518 0 0.041557284624569625 0.057847879142028012 0 0.045131321208023642 0.060216537806420917 0 0.043063018307831477 0.055474871977426898 0 0.043109443504979202 0.048524603295021312 0 0.04322784345826905 0.048560721263384191 0 0.043089442035041663 0.048634715037140015 0 0.04322784345826905 0.048560721263384191 0 0.04321737742814246 0.048637657568356682 0 0.043089442035041663 0.048634715037140015 0 0.041854889187420696 0.057774452542403314 0 0.041557284624569625 0.057847879142028012 0 0.041546695132046091 0.057373534075525374 0 0.043089442035041663 0.048634715037140015 0 0.043118645911895001 0.048724172539215918 0 0.042992822922522295 0.048837120266398408 0 0.043063018307831477 0.055474871977426898 0 0.041283087921928571 0.054181025908715125 0 0.04321737742814246 0.048637657568356682 0 0.043089442035041663 0.048634715037140015 0 0.043118645911895001 0.048724172539215918 0 0.043118645911895001 0.048724172539215918 0 0.043263495699640643 0.048716109792095667 0 0.043011652552139332 0.048844017212423367 0 0.043118645911895001 0.048724172539215918 0 0.042992822922522295 0.048837120266398408 0 0.043011652552139332 0.048844017212423367 0 0.04321737742814246 0.048637657568356682 0 0.043263495699640643 0.048716109792095667 0 0.043360459986281262 0.048623466654482438 0 0.051070992770210787 0.051582569660768608 0 0.052104726422049559 0.055526465282578902 0 0.04321737742814246 0.048637657568356682 0 0.043118645911895001 0.048724172539215918 0 0.043263495699640643 0.048716109792095667 0 0.057175900822529137 0.048874445380129812 0 0.058478886684722141 0.049930068115717423 0 0.059523851614681871 0.049900615560529389 0 0.057786075617183394 0.049059741529991978 0 0.057175900822529137 0.048874445380129812 0 0.059523851614681871 0.049900615560529389 0 0.057786075617183394 0.049059741529991978 0 0.057175900822529137 0.048874445380129812 0 0.057174229641452856 0.048854414498600091 0 0.057175900822529137 0.048874445380129812 0 0.055575611099712589 0.04980787770018235 0 0.058478886684722141 0.049930068115717423 0 0.055575611099712589 0.04980787770018235 0 0.057856292259912422 0.051100527951371828 0 0.058478886684722141 0.049930068115717423 0 0.055575611099712589 0.04980787770018235 0 0.057856292259912422 0.051100527951371828 0 0.056027300966703636 0.051934367013994863 0 0.052938039664278375 0.051198200574332858 0 0.052777781059788594 0.049411907485797719 0 0.048995636820613642 0.049203636394994588 0 0.055575611099712589 0.04980787770018235 0 0.052938039664278375 0.051198200574332858 0 0.056027300966703636 0.051934367013994863 0 0.055575611099712589 0.04980787770018235 0 0.052938039664278375 0.051198200574332858 0 0.052777781059788594 0.049411907485797719 0 0.055575611099712589 0.04980787770018235 0 0.052777781059788594 0.049411907485797719 0 0.053481006245003716 0.047474282637762912 0 0.048855743381992327 0.050132342935213736 0 0.047684369885777678 0.050619808756152275 0 0.052777781059788594 0.049411907485797719 0 0.053481006245003716 0.047474282637762912 0 0.048995636820613642 0.049203636394994588 0 0.057175900822529137 0.048874445380129812 0 0.055575611099712589 0.04980787770018235 0 0.053481006245003716 0.047474282637762912 0 0.050550223603523001 0.049887947599811987 0 0.048855743381992327 0.050132342935213736 0 0.043263495699640643 0.048716109792095667 0 0.04306053791399133 0.049134730170641912 0 0.043011652552139332 0.048844017212423367 0 0.051070992770210787 0.051582569660768608 0 0.048855743381992327 0.050132342935213736 0 0.04129266567616853 0.054034099598003808 0 0.041283087921928571 0.054181025908715125 0 0.04306053791399133 0.049134730170641912 0 0.042892013850222108 0.048848228991968633 0 0.043011652552139332 0.048844017212423367 0 0.042892013850222108 0.048848228991968633 0 0.042964329856888035 0.048830645891974347 0 0.043011652552139332 0.048844017212423367 0 0.041283087921928571 0.054181025908715125 0 0.041290843610185958 0.054170840399066798 0 0.048855743381992327 0.050132342935213736 0 0.042565311297422352 0.049626369042585522 0 0.040529532036800507 0.055110623328144627 0 0.041283087921928571 0.054181025908715125 0 0.040608436080539656 0.047810282667485889 0 0.042892013850222108 0.048848228991968633 0 0.04288619458661893 0.048342580048982391 0 0.04306053791399133 0.049134730170641912 0 0.042892013850222108 0.048848228991968633 0 0.040126720982367081 0.049546482493212592 0 0.040608436080539656 0.047810282667485889 0 0.042892013850222108 0.048848228991968633 0 0.040126720982367081 0.049546482493212592 0 0.040608436080539656 0.047810282667485889 0 0.03862402790168757 0.04865130807107429 0 0.040126720982367081 0.049546482493212592 0 0.036956363882053381 0.049821365568728578 0 0.03862402790168757 0.04865130807107429 0 0.040126720982367081 0.049546482493212592 0 0.038998220342198034 0.051728566557555825 0 0.040406023547011442 0.049332606724135336 0 0.043075943199017051 0.049745108037524306 0 0.040406023547011442 0.049332606724135336 0 0.043304749916478466 0.047088230630583185 0 0.043075943199017051 0.049745108037524306 0 0.048611235125254969 0.04646757471528027 0 0.043304749916478466 0.047088230630583185 0 0.045952280455201888 0.049341071692959843 0 0.043304749916478466 0.047088230630583185 0 0.043075943199017051 0.049745108037524306 0 0.045952280455201888 0.049341071692959843 0 0.043075943199017051 0.049745108037524306 0 0.045952280455201888 0.049341071692959843 0 0.043652853535004844 0.052082096271744496 0 0.047684369885777678 0.050619808756152275 0 0.046691673139290554 0.051375002967069948 0 0.052938039664278375 0.051198200574332858 0 0.048995636820613642 0.049203636394994588 0 0.048969512737191502 0.054362640108927857 0 0.048995636820613642 0.049203636394994588 0 0.048969512737191502 0.054362640108927857 0 0.043652853535004844 0.052082096271744496 0 0.038998220342198034 0.051728566557555825 0 0.043075943199017051 0.049745108037524306 0 0.043652853535004844 0.052082096271744496 0 0.038998220342198034 0.051728566557555825 0 0.043652853535004844 0.052082096271744496 0 0.040076379561532989 0.055345998593677129 0 0.042957864395020855 0.060089317478903718 0 0.040076379561532989 0.055345998593677129 0 0.044593598584774956 0.056301846814594089 0 0.043652853535004844 0.052082096271744496 0 0.040076379561532989 0.055345998593677129 0 0.044593598584774956 0.056301846814594089 0 0.048969512737191502 0.054362640108927857 0 0.043652853535004844 0.052082096271744496 0 0.044593598584774956 0.056301846814594089 0 0.049506080478773057 0.060763938827489206 0 0.048969512737191502 0.054362640108927857 0 0.044593598584774956 0.056301846814594089 0 0.049506080478773057 0.060763938827489206 0 0.048969512737191502 0.054362640108927857 0 0.053345284937021481 0.055714728417984125 0 0.046639780198265521 0.052372383562138629 0 0.049875608708495431 0.054294271240166739 0 0.055568174498957623 0.054145768479279363 0 0.057702701235429636 0.053033215340087002 0 0.057697779282903795 0.054743986181045069 0 0.056656699489740961 0.05618476041220994 0 0.055568174498957623 0.054145768479279363 0 0.057697779282903795 0.054743986181045069 0 0.057856292259912422 0.051100527951371828 0 0.057702701235429636 0.053033215340087002 0 0.056027300966703636 0.051934367013994863 0 0.055568174498957623 0.054145768479279363 0 0.057702701235429636 0.053033215340087002 0 0.056027300966703636 0.051934367013994863 0 0.052938039664278375 0.051198200574332858 0 0.048969512737191502 0.054362640108927857 0 0.053345284937021481 0.055714728417984125 0 0.0503030397684123 0.053438958108273669 0 0.049875608708495431 0.054294271240166739 0 0.052938039664278375 0.051198200574332858 0 0.055568174498957623 0.054145768479279363 0 0.056027300966703636 0.051934367013994863 0 0.061276584046327319 0.05237422394680908 0 0.059679394007799383 0.051982841879377947 0 0.061449467375286795 0.050825740264820736 0 0.057856292259912422 0.051100527951371828 0 0.057702701235429636 0.053033215340087002 0 0.059679394007799383 0.051982841879377947 0 0.057702701235429636 0.053033215340087002 0 0.059679394007799383 0.051982841879377947 0 0.059550385628403306 0.054136310964289731 0 0.057702701235429636 0.053033215340087002 0 0.057697779282903795 0.054743986181045069 0 0.059550385628403306 0.054136310964289731 0 0.061276584046327319 0.05237422394680908 0 0.059679394007799383 0.051982841879377947 0 0.059550385628403306 0.054136310964289731 0 0.061276584046327319 0.05237422394680908 0 0.059550385628403306 0.054136310964289731 0 0.062166377476174553 0.054125797071555196 0 0.061276584046327319 0.05237422394680908 0 0.062166377476174553 0.054125797071555196 0 0.063867118887888916 0.051323230364820761 0 0.066913796756405713 0.04819300863621679 0 0.063867118887888916 0.051323230364820761 0 0.06531748807339012 0.049431688571154292 0 0.06454741702769741 0.055801048179869583 0 0.062166377476174553 0.054125797071555196 0 0.063867118887888916 0.051323230364820761 0 0.064567173454889923 0.050683420088114113 0 0.064522227998726714 0.050749120662619794 0 0.063867118887888916 0.051323230364820761 0 0.062569446655583463 0.05078650135352461 0 0.063732760445480249 0.050790190380502802 0 0.063867118887888916 0.051323230364820761 0 0.063732760445480249 0.050790190380502802 0 0.06531748807339012 0.049431688571154292 0 0.063867118887888916 0.051323230364820761 0 0.061449467375286795 0.050825740264820736 0 0.062569446655583463 0.05078650135352461 0 0.061276584046327319 0.05237422394680908 0 0.063867118887888916 0.051323230364820761 0 0.061449467375286795 0.050825740264820736 0 0.061449467375286795 0.050825740264820736 0 0.062569446655583463 0.05078650135352461 0 0.061427272505811134 0.05056804873396771 0 0.062569446655583463 0.05078650135352461 0 0.061867810802115987 0.050704809457788047 0 0.061427272505811134 0.05056804873396771 0 0.062569446655583463 0.05078650135352461 0 0.061867810802115987 0.050704809457788047 0 0.063732760445480249 0.050790190380502802 0 0.060594932298952263 0.050976301752413092 0 0.061427272505811134 0.05056804873396771 0 0.060350726982479827 0.051758791575911352 0 0.061867810802115987 0.050704809457788047 0 0.060594932298952263 0.050976301752413092 0 0.061427272505811134 0.05056804873396771 0 0.061867810802115987 0.050704809457788047 0 0.060594932298952263 0.050976301752413092 0 0.061100870722685025 0.050804770243685578 0 0.061449467375286795 0.050825740264820736 0 0.061427272505811134 0.05056804873396771 0 0.061299727082606045 0.050390919073602637 0 0.061427272505811134 0.05056804873396771 0 0.061299727082606045 0.050390919073602637 0 0.060350726982479827 0.051758791575911352 0 0.061299727082606045 0.050390919073602637 0 0.059807662120377213 0.050374891507835765 0 0.059523851614681871 0.049900615560529389 0 0.061449467375286795 0.050825740264820736 0 0.061299727082606045 0.050390919073602637 0 0.059807662120377213 0.050374891507835765 0 0.059679394007799383 0.051982841879377947 0 0.061449467375286795 0.050825740264820736 0 0.059807662120377213 0.050374891507835765 0 0.057856292259912422 0.051100527951371828 0 0.059679394007799383 0.051982841879377947 0 0.059807662120377213 0.050374891507835765 0 0.057856292259912422 0.051100527951371828 0 0.059807662120377213 0.050374891507835765 0 0.058478886684722141 0.049930068115717423 0 0.059807662120377213 0.050374891507835765 0 0.058478886684722141 0.049930068115717423 0 0.059523851614681871 0.049900615560529389 0 0.057786075617183394 0.049059741529991978 0 0.059523851614681871 0.049900615560529389 0 0.059577845259556311 0.048744622813711239 0 0.059523851614681871 0.049900615560529389 0 0.061817509191668105 0.051049460372269588 0 0.059577845259556311 0.048744622813711239 0 0.061299727082606045 0.050390919073602637 0 0.059523851614681871 0.049900615560529389 0 0.061817509191668105 0.051049460372269588 0 0.061299727082606045 0.050390919073602637 0 0.061817509191668105 0.051049460372269588 0 0.059834334837484238 0.05390373192995835 0 0.061817509191668105 0.051049460372269588 0 0.062533758914423074 0.059164284944304271 0 0.059834334837484238 0.05390373192995835 0 0.061817509191668105 0.051049460372269588 0 0.066771204922772137 0.053521078145371499 0 0.062533758914423074 0.059164284944304271 0 0.052104726422049559 0.055526465282578902 0 0.054274145551389701 0.060979052417222082 0 0.055256062863357908 0.055804045991799986 0 0.052104726422049559 0.055526465282578902 0 0.049306339083607036 0.070324721217692218 0 0.049151900694446193 0.06733427682215043 0 0.051791048770757714 0.067673026890015475 0 0.051791048770757714 0.067673026890015475 0 0.051313202084665575 0.064999976229207584 0 0.054297805938620783 0.065000003214578689 0 0.049151900694446193 0.06733427682215043 0 0.051791048770757714 0.067673026890015475 0 0.051313202084665575 0.064999976229207584 0 0.048328589617323753 0.064999980684471589 0 0.049151900694446193 0.06733427682215043 0 0.051313202084665575 0.064999976229207584 0 0.056149947740493533 0.063041916260135056 0 0.054319307110812343 0.064997526655244386 0 0.056915381631059622 0.060411702606470351 0 0.056149947740493533 0.063041916260135056 0 0.054319307110812343 0.064997526655244386 0 0.057459320450383246 0.064997157943059949 0 0.054319307110812343 0.064997526655244386 0 0.05828538456966989 0.059043627378809881 0 0.056915381631059622 0.060411702606470351 0 0.062533758914423074 0.059164284944304271 0 0.054319307110812343 0.064997526655244386 0 0.05828538456966989 0.059043627378809881 0 0.054274145551389701 0.060979052417222082 0 0.05429696686357452 0.064994866059329554 0 0.062533758914423074 0.059164284944304271 0 0.05828538456966989 0.059043627378809881 0 0.059834334837484238 0.05390373192995835 0 0.05828538456966989 0.059043627378809881 0 0.057666502839987449 0.057470463119285019 0 0.056915381631059622 0.060411702606470351 0 0.056149947740493533 0.063041916260135056 0 0.056915381631059622 0.060411702606470351 0 0.054704986907144634 0.060402821461642935 0 0.057666502839987449 0.057470463119285019 0 0.056915381631059622 0.060411702606470351 0 0.054704986907144634 0.060402821461642935 0 0.057666502839987449 0.057470463119285019 0 0.058351203853442675 0.054617440661646741 0 0.059834334837484238 0.05390373192995835 0 0.057666502839987449 0.057470463119285019 0 0.058351203853442675 0.054617440661646741 0 0.054704986907144634 0.060402821461642935 0 0.05828538456966989 0.059043627378809881 0 0.057666502839987449 0.057470463119285019 0 0.059834334837484238 0.05390373192995835 0 0.061299727082606045 0.050390919073602637 0 0.059834334837484238 0.05390373192995835 0 0.060350726982479827 0.051758791575911352 0 0.058351203853442675 0.054617440661646741 0 0.059834334837484238 0.05390373192995835 0 0.060350726982479827 0.051758791575911352 0 0.058351203853442675 0.054617440661646741 0 0.060350726982479827 0.051758791575911352 0 0.059539262530836051 0.052016397830465431 0 0.060594932298952263 0.050976301752413092 0 0.060350726982479827 0.051758791575911352 0 0.059539262530836051 0.052016397830465431 0 0.059539262530836051 0.052016397830465431 0 0.059517124627511957 0.050843893838132662 0 0.057611084438728262 0.051777852420874883 0 0.060594932298952263 0.050976301752413092 0 0.059539262530836051 0.052016397830465431 0 0.059517124627511957 0.050843893838132662 0 0.061602040525968994 0.049714388842846388 0 0.062145481179564442 0.050669840224014738 0 0.061259298027298584 0.050585725170491057 0 0.059517124627511957 0.050843893838132662 0 0.060868341274983778 0.050338194090094199 0 0.061259298027298584 0.050585725170491057 0 0.060868341274983778 0.050338194090094199 0 0.061602040525968994 0.049714388842846388 0 0.061259298027298584 0.050585725170491057 0 0.062205795484981868 0.059765969570445415 0 0.062167329172431549 0.05993771071795153 0 0.060868341274983778 0.050338194090094199 0 0.061053844919720004 0.0498959338743332 0 0.061602040525968994 0.049714388842846388 0 0.059517124627511957 0.050843893838132662 0 0.060868341274983778 0.050338194090094199 0 0.061053844919720004 0.0498959338743332 0 0.058351203853442675 0.054617440661646741 0 0.059539262530836051 0.052016397830465431 0 0.057611084438728262 0.051777852420874883 0 0.061602040525968994 0.049714388842846388 0 0.064407012396786326 0.050113213738378293 0 0.064251685999166128 0.047993632496828642 0 0.062167329172431549 0.05993771071795153 0 0.062988105299877473 0.060228102409427733 0 0.061602040525968994 0.049714388842846388 0 0.064407012396786326 0.050113213738378293 0 0.064784575286551932 0.052405809512502552 0 0.061053844919720004 0.0498959338743332 0 0.061602040525968994 0.049714388842846388 0 0.064251685999166128 0.047993632496828642 0 0.058492016613204169 0.071699516026007035 0 0.060614790874098767 0.070162951701226606 0 0.058644618873268051 0.068420584332206685 0 0.062167329172431549 0.05993771071795153 0 0.059695479175365516 0.063131076958678201 0 0.057708727901132344 0.059534833458077557 0 0.057564454082191623 0.061333060290959029 0 0.058351203853442675 0.054617440661646741 0 0.057611084438728262 0.051777852420874883 0 0.055937387011705066 0.058920860831940508 0 0.055937387011705066 0.058920860831940508 0 0.058424507345511127 0.060765068793367148 0 0.058690246029079518 0.06500271299976805 0 0.058351203853442675 0.054617440661646741 0 0.055937387011705066 0.058920860831940508 0 0.058424507345511127 0.060765068793367148 0 0.058644618873268051 0.068420584332206685 0 0.060768273957431264 0.067397060381738427 0 0.058704383296249038 0.065000018593849421 0 0.060614790874098767 0.070162951701226606 0 0.058644618873268051 0.068420584332206685 0 0.060768273957431264 0.067397060381738427 0 0.060768273957431264 0.067397060381738427 0 0.060897142149346772 0.064999929575351265 0 0.058704383296249038 0.065000018593849421 0 0.057564454082191623 0.061333060290959029 0 0.057475514281391221 0.064994574773054412 0 0.058424507345511127 0.060765068793367148 0 0.058690246029079518 0.06500271299976805 0 0.057488977294921584 0.06499578846499586 0 0.059695479175365516 0.063131076958678201 0 0.058705393469107137 0.064997786749611972 0 0.056149947740493533 0.063041916260135056 0 0.054704986907144634 0.060402821461642935 0 0.057459320450383246 0.064997157943059949 0 0.064657922231967993 0.063917069225379847 0 0.063096870458799054 0.064997791505442423 0 0.065692158719145022 0.062922974873951668 0 0.064657922231967993 0.063917069225379847 0 0.064997903633034121 0.064998314757783504 0 0.064997535234694065 0.06274350847443555 0 0.063091445044137995 0.064997878990964139 0 0.06384978202275654 0.061163552576639704 0 0.064657922231967993 0.063917069225379847 0 0.064997903633034121 0.064998314757783504 0 0.063096870458799054 0.064997791505442423 0 0.063090080327516382 0.065000002220994058 0 0.061897400490596791 0.066506347522220052 0 0.062816252134275358 0.068598141316607575 0 0.060768273957431264 0.067397060381738427 0 0.060897142149346772 0.064999929575351265 0 0.061897400490596791 0.066506347522220052 0 0.060897142149346772 0.064999929575351265 0 0.063090080327516382 0.065000002220994058 0 0.061897400490596791 0.066506347522220052 0 0.060614790874098767 0.070162951701226606 0 0.060768273957431264 0.067397060381738427 0 0.062816252134275358 0.068598141316607575 0 0.060768273957431264 0.067397060381738427 0 0.061897400490596791 0.066506347522220052 0 0.062816252134275358 0.068598141316607575 0 0.067075389057482296 0.061199775981663193 0 0.06499996924112092 0.062737887841820217 0 0.065000056681549984 0.059754757771574338 0 0.064657922231967993 0.063917069225379847 0 0.065692158719145022 0.062922974873951668 0 0.064997535234694065 0.06274350847443555 0 0.06384978202275654 0.061163552576639704 0 0.064997482271480986 0.062734081647978945 0 0.067075389057482296 0.061199775981663193 0 0.065000056681549984 0.059754757771574338 0 0.067228386811892388 0.057497966681066277 0 0.062988105299877473 0.060228102409427733 0 0.06384978202275654 0.061163552576639704 0 0.06384978202275654 0.061163552576639704 0 0.065445226777624654 0.055032099848549697 0 0.064251685999166128 0.047993632496828642 0 0.066909817462302706 0.046075708280319837 0 0.066709928442080416 0.050303374011106475 0 0.064407012396786326 0.050113213738378293 0 0.066709928442080416 0.050303374011106475 0 0.064784575286551932 0.052405809512502552 0 0.064407012396786326 0.050113213738378293 0 0.064251685999166128 0.047993632496828642 0 0.066709928442080416 0.050303374011106475 0 0.065000056681549984 0.059754757771574338 0 0.067228386811892388 0.057497966681066277 0 0.064999721244137901 0.056770906699738194 0 0.067228386811892388 0.057497966681066277 0 0.066249480993480769 0.055489222160677421 0 0.066629244712227989 0.053500080365889706 0 0.064999721244137901 0.056770906699738194 0 0.066249480993480769 0.055489222160677421 0 0.066024103568629741 0.054301807398219264 0 0.067228386811892388 0.057497966681066277 0 0.064999721244137901 0.056770906699738194 0 0.066249480993480769 0.055489222160677421 0 0.064999721244137901 0.056770906699738194 0 0.065000016974237157 0.053788445897246004 0 0.066024103568629741 0.054301807398219264 0 0.065000016974237157 0.053788445897246004 0 0.066024103568629741 0.054301807398219264 0 0.066937534970966578 0.053724947958108414 0 0.066249480993480769 0.055489222160677421 0 0.066024103568629741 0.054301807398219264 0 0.066629244712227989 0.053500080365889706 0 0.066024103568629741 0.054301807398219264 0 0.066937534970966578 0.053724947958108414 0 0.066629244712227989 0.053500080365889706 0 0.064041283105735147 0.050476760360090106 0 0.064497031459768442 0.050256788435821084 0 0.06347737900897947 0.050513810499366998 0 0.065018542459238188 0.05136311120305645 0 0.064232383320929481 0.051019177144569834 0 0.066937534970966578 0.053724947958108414 0 0.066629244712227989 0.053500080365889706 0 0.064784575286551932 0.052405809512502552 0 0.064041283105735147 0.050476760360090106 0 0.064497031459768442 0.050256788435821084 0 0.064419150268909459 0.050336303052699219 0 0.065445226777624654 0.055032099848549697 0 0.06580604316559821 0.054175414400685837 0 0.066709928442080416 0.050303374011106475 0 0.066629244712227989 0.053500080365889706 0 0.064784575286551932 0.052405809512502552 0 0.063457554217308726 0.050411986252790031 0 0.064232383320929481 0.051019177144569834 0 0.061602040525968994 0.049714388842846388 0 0.062145481179564442 0.050669840224014738 0 0.06347737900897947 0.050513810499366998 0 0.062145481179564442 0.050669840224014738 0 0.06347737900897947 0.050513810499366998 0 0.06335733065813387 0.050659067922928902 0 0.059517124627511957 0.050843893838132662 0 0.061100870722685025 0.050804770243685578 0 0.061259298027298584 0.050585725170491057 0 0.060594932298952263 0.050976301752413092 0 0.059517124627511957 0.050843893838132662 0 0.061100870722685025 0.050804770243685578 0 0.062145481179564442 0.050669840224014738 0 0.061100870722685025 0.050804770243685578 0 0.061259298027298584 0.050585725170491057 0 0.062145481179564442 0.050669840224014738 0 0.061100870722685025 0.050804770243685578 0 0.062812259494433545 0.050758281614752487 0 0.061867810802115987 0.050704809457788047 0 0.061100870722685025 0.050804770243685578 0 0.062812259494433545 0.050758281614752487 0 0.062812259494433545 0.050758281614752487 0 0.063955122637723669 0.050532349073497761 0 0.063732760445480249 0.050790190380502802 0 0.061867810802115987 0.050704809457788047 0 0.062812259494433545 0.050758281614752487 0 0.063732760445480249 0.050790190380502802 0 0.064041283105735147 0.050476760360090106 0 0.06347737900897947 0.050513810499366998 0 0.06335733065813387 0.050659067922928902 0 0.062145481179564442 0.050669840224014738 0 0.062812259494433545 0.050758281614752487 0 0.06335733065813387 0.050659067922928902 0 0.062812259494433545 0.050758281614752487 0 0.06335733065813387 0.050659067922928902 0 0.063955122637723669 0.050532349073497761 0 0.064041283105735147 0.050476760360090106 0 0.06335733065813387 0.050659067922928902 0 0.063955122637723669 0.050532349073497761 0 0.064041283105735147 0.050476760360090106 0 0.063955122637723669 0.050532349073497761 0 0.064586325564170904 0.050175937140289235 0 0.063955122637723669 0.050532349073497761 0 0.064629917897862432 0.050006236781132037 0 0.064586325564170904 0.050175937140289235 0 0.063955122637723669 0.050532349073497761 0 0.063732760445480249 0.050790190380502802 0 0.064629917897862432 0.050006236781132037 0 0.063732760445480249 0.050790190380502802 0 0.06531748807339012 0.049431688571154292 0 0.064629917897862432 0.050006236781132037 0 0.06531748807339012 0.049431688571154292 0 0.064629917897862432 0.050006236781132037 0 0.065108869522470803 0.049163239971297928 0 0.064629917897862432 0.050006236781132037 0 0.065108869522470803 0.049163239971297928 0 0.064586325564170904 0.050175937140289235 0 0.065108869522470803 0.049163239971297928 0 0.065077896500247048 0.049423570738270098 0 0.064586325564170904 0.050175937140289235 0 0.065077896500247048 0.049423570738270098 0 0.064586325564170904 0.050175937140289235 0 0.064695816921071431 0.05032982195688368 0 0.064998553554260541 0.047056627072551677 0 0.065077896500247048 0.049423570738270098 0 0.06499803922653119 0.050800775101307441 0 0.065077896500247048 0.049423570738270098 0 0.06499803922653119 0.050800775101307441 0 0.064695816921071431 0.05032982195688368 0 0.065018542459238188 0.05136311120305645 0 0.064999882631923606 0.050805777466307947 0 0.064497031459768442 0.050256788435821084 0 0.06499803922653119 0.050800775101307441 0 0.064695816921071431 0.05032982195688368 0 0.065000016974237157 0.053788445897246004 0 0.066937534970966578 0.053724947958108414 0 0.064999952318205004 0.05080503329993933 0 0.064497031459768442 0.050256788435821084 0 0.064419150268909459 0.050336303052699219 0 0.064695816921071431 0.05032982195688368 0 0.064041283105735147 0.050476760360090106 0 0.064419150268909459 0.050336303052699219 0 0.064586325564170904 0.050175937140289235 0 0.064419150268909459 0.050336303052699219 0 0.064586325564170904 0.050175937140289235 0 0.064695816921071431 0.05032982195688368 0 0.02375240232315412 0.060032206939446629 0 0.021259078328082218 0.059362851072480953 0 0.04025515146380243 0.056146468683895577 0 0.040242403333534571 0.055951148360117685 0 0.040607335511568969 0.054673030492114708 0 0.040242403333534571 0.055951148360117685 0 0.040607335511568969 0.054673030492114708 0 0.040061348912528411 0.055429510644488866 0 0.0074694033041552699 0.064377134956480508 0 0.005456541526118474 0.064972108075988202 0 0.0065387547959690944 0.066454180371545116 0 0.005456541526118474 0.064972108075988202 0 0.00551904934481748 0.063009456397139077 0 0.0036387149007167273 0.064702299993064552 0 0.0065387547959690944 0.066454180371545116 0 0.0044306393503923559 0.066520375167368778 0 0.0051355936257244453 0.067699539310641543 0 0.005456541526118474 0.064972108075988202 0 0.004338730041145036 0.065564563385994146 0 0.0044306393503923559 0.066520375167368778 0 0.005456541526118474 0.064972108075988202 0 0.0065387547959690944 0.066454180371545116 0 0.0044306393503923559 0.066520375167368778 0 0.040607335511568969 0.054673030492114708 0 0.039850457801087771 0.055104799114476806 0 0.040061348912528411 0.055429510644488866 0 0.040607335511568969 0.054673030492114708 0 0.039850457801087771 0.055104799114476806 0 0.040032665113303743 0.054300418729603971 0 0.039850457801087771 0.055104799114476806 0 0.038821093921254553 0.055448240339381893 0 0.040032665113303743 0.054300418729603971 0 0.0359575788300667 0.053392803985751386 0 0.033403392833401171 0.051753719969052599 0 0.038773148971648144 0.054696260819728566 0 0.038414198771526999 0.052954411388681039 0 0.039967582670318254 0.052916570851884483 0 0.038773148971648144 0.054696260819728566 0 0.038414198771526999 0.052954411388681039 0 0.037232529897381954 0.053904056863725291 0 0.038773148971648144 0.054696260819728566 0 0.037232529897381954 0.053904056863725291 0 0.036957844130464074 0.057052284473677099 0 0.0359575788300667 0.053392803985751386 0 0.035978934454827478 0.054613051565384436 0 0.038821093921254553 0.055448240339381893 0 0.039534059550325913 0.056323889915495057 0 0.038753141382280927 0.057070882365508217 0 0.040242403333534571 0.055951148360117685 0 0.040061348912528411 0.055429510644488866 0 0.0398799553709566 0.05582724993809253 0 0.039850457801087771 0.055104799114476806 0 0.039639189285885057 0.055611331154406786 0 0.040061348912528411 0.055429510644488866 0 0.039639189285885057 0.055611331154406786 0 0.040061348912528411 0.055429510644488866 0 0.0398799553709566 0.05582724993809253 0 0.039850457801087771 0.055104799114476806 0 0.038821093921254553 0.055448240339381893 0 0.039639189285885057 0.055611331154406786 0 0.038821093921254553 0.055448240339381893 0 0.039639189285885057 0.055611331154406786 0 0.039534059550325913 0.056323889915495057 0 0.039639189285885057 0.055611331154406786 0 0.039534059550325913 0.056323889915495057 0 0.0398799553709566 0.05582724993809253 0 0.040242403333534571 0.055951148360117685 0 0.039534059550325913 0.056323889915495057 0 0.0398799553709566 0.05582724993809253 0 0.039534059550325913 0.056323889915495057 0 0.038753141382280927 0.057070882365508217 0 0.039981664218342622 0.058371287055872939 0 0.040242403333534571 0.055951148360117685 0 0.039534059550325913 0.056323889915495057 0 0.039981664218342622 0.058371287055872939 0 0.04025515146380243 0.056146468683895577 0 0.040242403333534571 0.055951148360117685 0 0.039388150480298881 0.057802363302361617 0 0.030853570240217027 0.056304106838459066 0 0.026376354889890478 0.060165913017410109 0 0.02375240232315412 0.060032206939446629 0 0.026376354889890478 0.060165913017410109 0 0.038821093921254553 0.055448240339381893 0 0.038753141382280927 0.057070882365508217 0 0.036957844130464074 0.057052284473677099 0 0.038753141382280927 0.057070882365508217 0 0.038209493491780787 0.058669532879226195 0 0.036957844130464074 0.057052284473677099 0 0.038753141382280927 0.057070882365508217 0 0.038209493491780787 0.058669532879226195 0 0.039981664218342622 0.058371287055872939 0 0.038209493491780787 0.058669532879226195 0 0.036351362004336932 0.05904571780589829 0 0.037403757337510675 0.060735512893641687 0 0.038209493491780787 0.058669532879226195 0 0.039981664218342622 0.058371287055872939 0 0.039664801932967779 0.060419457650710676 0 0.026376354889890478 0.060165913017410109 0 0.022562212318775903 0.065409526739182433 0 0.0084196810222411517 0.062270735785170672 0 0.0074718169880667257 0.061345041383864686 0 0.0089707561679960805 0.060870721213854381 0 0.0074718169880667257 0.061345041383864686 0 0.0071122684572431328 0.06288795013886124 0 0.00551904934481748 0.063009456397139077 0 0.0084196810222411517 0.062270735785170672 0 0.0074718169880667257 0.061345041383864686 0 0.0071122684572431328 0.06288795013886124 0 0.012693058096023236 0.071662162810122915 0 0.0091248384855930845 0.072671246282783902 0 0.0074694033041552699 0.064377134956480508 0 0.0071122684572431328 0.06288795013886124 0 0.00551904934481748 0.063009456397139077 0 0.0074694033041552699 0.064377134956480508 0 0.0084196810222411517 0.062270735785170672 0 0.0071122684572431328 0.06288795013886124 0 0.0074694033041552699 0.064377134956480508 0 0.005456541526118474 0.064972108075988202 0 0.00551904934481748 0.063009456397139077 0 0.013491699663616344 0.079586047467095911 0 0.010870465679838383 0.081749037795297894 0 0.010956060180641798 0.079347217283750146 0 0.010870465679838383 0.081749037795297894 0 0.0090763297951195442 0.080384173599463926 0 0.010956060180641798 0.079347217283750146 0 0.009003655396048792 0.080210052843483134 0 0.0087211013393997273 0.080594144450036889 0 0.0090669783150201452 0.077154261251568365 0 0.0031118118175783556 0.074321074598414943 0 0.0036498147828224405 0.074411591238656621 0 0.0036178470383681381 0.074598866502543715 0 0.0036498147828224405 0.074411591238656621 0 0.0034975098395155914 0.073737787353454223 0 0.0039060167344309731 0.074888307872174625 0 0.0034975098395155914 0.073737787353454223 0 0.0042574221750697793 0.074128382618589478 0 0.0037303971055200301 0.075329616238231395 0 0.0034975098395155914 0.073737787353454223 0 0.0036886085977177949 0.0753683485987693 0 0.0037303971055200301 0.075329616238231395 0 0.0031974518758315796 0.074555778926582397 0 0.0030746127949375997 0.074688141741566905 0 0.0036498147828224405 0.074411591238656621 0 0.0037240343184673746 0.074655399419605639 0 0.0036178470383681381 0.074598866502543715 0 0.0036498147828224405 0.074411591238656621 0 0.0037619679838990353 0.074682584071768032 0 0.0037240343184673746 0.074655399419605639 0 0.0031118118175783556 0.074321074598414943 0 0.0036498147828224405 0.074411591238656621 0 0.0034975098395155914 0.073737787353454223 0 0.0034975098395155914 0.073737787353454223 0 0.0042574221750697793 0.074128382618589478 0 0.0040923536052416346 0.072542888719990997 0 0.0034975098395155914 0.073737787353454223 0 0.0032137417318572107 0.072949518309641678 0 0.0040923536052416346 0.072542888719990997 0 0.010870465679838383 0.081749037795297894 0 0.0089194438989636388 0.08320619738082316 0 0.00835704047045744 0.083933981850655051 0 0.0087211013393997273 0.080594144450036889 0 0.0089194438989636388 0.08320619738082316 0 0.00835704047045744 0.083933981850655051 0 0.0078586859756179569 0.079509177093524133 0 0.0080185593749330705 0.080994523033139615 0 0.0091248384855930845 0.072671246282783902 0 0.0072514885107557081 0.072875365968754616 0 0.010870465679838383 0.081749037795297894 0 0.0090763297951195442 0.080384173599463926 0 0.0089194438989636388 0.08320619738082316 0 0.0068071202252947801 0.076220174197302148 0 0.0072514885107557081 0.072875365968754616 0 0.0031118118175783556 0.074321074598414943 0 0.0032137417318572107 0.072949518309641678 0 0.0026420299434052625 0.072398236094199639 0 0.0031118118175783556 0.074321074598414943 0 0.0034975098395155914 0.073737787353454223 0 0.0032137417318572107 0.072949518309641678 0 0.009003655396048792 0.080210052843483134 0 0.0087211013393997273 0.080594144450036889 0 0.0089194438989636388 0.08320619738082316 0 0.0020386628682314265 0.076830701250508365 0 0.0023546474540771887 0.075561574159397391 0 0.0012453757644215488 0.075930511435992484 0 0.0029967814101331163 0.07424795470107147 0 0.0031921389485772026 0.074507212678899343 0 0.0042574221750697793 0.074128382618589478 0 0.0057325951681020029 0.073808067233195204 0 0.0037303971055200301 0.075329616238231395 0 0.0020386628682314265 0.076830701250508365 0 0.0023546474540771887 0.075561574159397391 0 0.0037303971055200301 0.075329616238231395 0 0.0042574221750697793 0.074128382618589478 0 0.0057325951681020029 0.073808067233195204 0 0.0053429177396677081 0.072533916568429682 0 0.0042574221750697793 0.074128382618589478 0 0.0053429177396677081 0.072533916568429682 0 0.0040923536052416346 0.072542888719990997 0 0.0057325951681020029 0.073808067233195204 0 0.0053429177396677081 0.072533916568429682 0 0.0072812250537840906 0.072043946335733133 0 0.0029967814101331163 0.07424795470107147 0 0.0023087295524938599 0.073225232895432868 0 0.0053429177396677081 0.072533916568429682 0 0.0049311085518652705 0.071049976325979688 0 0.0072812250537840906 0.072043946335733133 0 0.0053429177396677081 0.072533916568429682 0 0.0049311085518652705 0.071049976325979688 0 0.0040923536052416346 0.072542888719990997 0 0.0049311085518652705 0.071049976325979688 0 0.0040923536052416346 0.072542888719990997 0 0.0037781584627008288 0.071376579197646103 0 0.0049311085518652705 0.071049976325979688 0 0.0038145024180192529 0.070151610945886345 0 0.0045537791636326673 0.069331490904279647 0 0.0049311085518652705 0.071049976325979688 0 0.0060836326710613856 0.069748008323342575 0 0.0045537791636326673 0.069331490904279647 0 0.0049311085518652705 0.071049976325979688 0 0.0037781584627008288 0.071376579197646103 0 0.0038145024180192529 0.070151610945886345 0 0.0049311085518652705 0.071049976325979688 0 0.0060836326710613856 0.069748008323342575 0 0.0072812250537840906 0.072043946335733133 0 0.005456541526118474 0.064972108075988202 0 0.004338730041145036 0.065564563385994146 0 0.0036387149007167273 0.064702299993064552 0 0.0025758143154056543 0.072385877978424384 0 0.0027758678488155513 0.072197845511748029 0 0.0027739457823044013 0.070107662958979786 0 0.0032137417318572107 0.072949518309641678 0 0.0026420299434052625 0.072398236094199639 0 0.0027758678488155513 0.072197845511748029 0 0.0072514885107557081 0.072875365968754616 0 0.0072144287207568016 0.072892463001736019 0 0.0032137417318572107 0.072949518309641678 0 0.003408098246969814 0.0721398093201574 0 0.0040923536052416346 0.072542888719990997 0 0.0032137417318572107 0.072949518309641678 0 0.0027758678488155513 0.072197845511748029 0 0.003408098246969814 0.0721398093201574 0 0.003408098246969814 0.0721398093201574 0 0.0040923536052416346 0.072542888719990997 0 0.0037781584627008288 0.071376579197646103 0 0.0027758678488155513 0.072197845511748029 0 0.003408098246969814 0.0721398093201574 0 0.0032801467102135579 0.071625313163181242 0 0.0027758678488155513 0.072197845511748029 0 0.0032801467102135579 0.071625313163181242 0 0.0032167946696868882 0.07094199276428334 0 0.003408098246969814 0.0721398093201574 0 0.0032801467102135579 0.071625313163181242 0 0.0037781584627008288 0.071376579197646103 0 0.0027758678488155513 0.072197845511748029 0 0.0032167946696868882 0.07094199276428334 0 0.0027739457823044013 0.070107662958979786 0 0.0032801467102135579 0.071625313163181242 0 0.0032167946696868882 0.07094199276428334 0 0.0037781584627008288 0.071376579197646103 0 0.0032167946696868882 0.07094199276428334 0 0.0037781584627008288 0.071376579197646103 0 0.0038145024180192529 0.070151610945886345 0 0.0032167946696868882 0.07094199276428334 0 0.0038145024180192529 0.070151610945886345 0 0.0027739457823044013 0.070107662958979786 0 0.0072514885107557081 0.072875365968754616 0 0.0057828472086062389 0.069639399302170904 0 0.004338730041145036 0.065564563385994146 0 0.0036387149007167273 0.064702299993064552 0 0.0034884089342160462 0.06672851556341973 0 0.004338730041145036 0.065564563385994146 0 0.0034884089342160462 0.06672851556341973 0 0.0044306393503923559 0.066520375167368778 0 0.0034884089342160462 0.06672851556341973 0 0.0044306393503923559 0.066520375167368778 0 0.0040267553889130597 0.067317099691464266 0 0.0044306393503923559 0.066520375167368778 0 0.0040267553889130597 0.067317099691464266 0 0.0045240807208580145 0.067244882015975435 0 0.0034884089342160462 0.06672851556341973 0 0.0040267553889130597 0.067317099691464266 0 0.0034705626777263195 0.068026448501441503 0 0.0040267553889130597 0.067317099691464266 0 0.0039958587799320475 0.067765974427018233 0 0.0042959254051939261 0.067596470383920249 0 0.0027739457823044013 0.070107662958979786 0 0.0037824413901706945 0.069038140227004108 0 0.0034705626777263195 0.068026448501441503 0 0.0057828472086062389 0.069639399302170904 0 0.0053512084037137392 0.068960668583973095 0 0.0037824413901706945 0.069038140227004108 0 0.0040904167863071673 0.067972116101797736 0 0.0045537791636326673 0.069331490904279647 0 0.0038145024180192529 0.070151610945886345 0 0.0027739457823044013 0.070107662958979786 0 0.0037824413901706945 0.069038140227004108 0 0.0038145024180192529 0.070151610945886345 0 0.0037824413901706945 0.069038140227004108 0 0.0045537791636326673 0.069331490904279647 0 0.0040904167863071673 0.067972116101797736 0 0.0048400618554382338 0.067643924875782427 0 0.0036532273381241639 0.067805887716715155 0 0.0037824413901706945 0.069038140227004108 0 0.0034705626777263195 0.068026448501441503 0 0.0040904167863071673 0.067972116101797736 0 0.0040904167863071673 0.067972116101797736 0 0.0036279732490115315 0.06791791329059059 0 0.0036532273381241639 0.067805887716715155 0 0.0034705626777263195 0.068026448501441503 0 0.0040904167863071673 0.067972116101797736 0 0.0036279732490115315 0.06791791329059059 0 0.0036279732490115315 0.06791791329059059 0 0.0038200477563814241 0.068005994183174504 0 0.0036532273381241639 0.067805887716715155 0 0.0034705626777263195 0.068026448501441503 0 0.0036279732490115315 0.06791791329059059 0 0.0038200477563814241 0.068005994183174504 0 0.0034705626777263195 0.068026448501441503 0 0.0038200477563814241 0.068005994183174504 0 0.0039958587799320475 0.067765974427018233 0 0.0038200477563814241 0.068005994183174504 0 0.0041282828382934872 0.067900238085377415 0 0.0039958587799320475 0.067765974427018233 0 0.0038200477563814241 0.068005994183174504 0 0.0041282828382934872 0.067900238085377415 0 0.0040242251357984473 0.068075887029948198 0 0.0041282828382934872 0.067900238085377415 0 0.0039958587799320475 0.067765974427018233 0 0.0042959254051939261 0.067596470383920249 0 0.0040267553889130597 0.067317099691464266 0 0.0034705626777263195 0.068026448501441503 0 0.0039958587799320475 0.067765974427018233 0 0.0060836326710613856 0.069748008323342575 0 0.005249725947612572 0.068516061050420879 0 0.0063827728960994734 0.06773464454978953 0 0.0060836326710613856 0.069748008323342575 0 0.0045537791636326673 0.069331490904279647 0 0.005249725947612572 0.068516061050420879 0 0.0040904167863071673 0.067972116101797736 0 0.005249725947612572 0.068516061050420879 0 0.0048400618554382338 0.067643924875782427 0 0.0040904167863071673 0.067972116101797736 0 0.0045537791636326673 0.069331490904279647 0 0.005249725947612572 0.068516061050420879 0 0.005249725947612572 0.068516061050420879 0 0.0048400618554382338 0.067643924875782427 0 0.0063827728960994734 0.06773464454978953 0 0.0038613449673271672 0.066913479962613376 0 0.0063827728960994734 0.06773464454978953 0 0.0053450014022989357 0.066028457103440824 0 0.0058701015515555772 0.063597182210783698 0 0.006203260936570797 0.064314895458802895 0 0.0063827728960994734 0.06773464454978953 0 0.0053450014022989357 0.066028457103440824 0 0.0068089814718424345 0.065040881634328168 0 0.0053450014022989357 0.066028457103440824 0 0.0053089214669127605 0.064598577523826681 0 0.0068089814718424345 0.065040881634328168 0 0.0053450014022989357 0.066028457103440824 0 0.0039964013865625156 0.065210867934257566 0 0.0053089214669127605 0.064598577523826681 0 0.0058701015515555772 0.063597182210783698 0 0.0062338265830872725 0.061594985783034815 0 0.0038613449673271672 0.066913479962613376 0 0.0053450014022989357 0.066028457103440824 0 0.0039964013865625156 0.065210867934257566 0 0.0038613449673271672 0.066913479962613376 0 0.0039964013865625156 0.065210867934257566 0 0.0024105976629318197 0.065668307684648403 0 0.0039964013865625156 0.065210867934257566 0 0.0029569095756049966 0.064885025342851149 0 0.0024105976629318197 0.065668307684648403 0 0.0039964013865625156 0.065210867934257566 0 0.0029569095756049966 0.064885025342851149 0 0.0030948662794218315 0.064068390083161356 0 0.0029569095756049966 0.064885025342851149 0 0.0030948662794218315 0.064068390083161356 0 0.0023256986679936384 0.064591397493689834 0 0.0032311763978085961 0.062691463153345284 0 0.0030948662794218315 0.064068390083161356 0 0.0044230551292567481 0.063433409667109669 0 0.0032311763978085961 0.062691463153345284 0 0.0030948662794218315 0.064068390083161356 0 0.0021474702934227352 0.063740541938596518 0 0.0039964013865625156 0.065210867934257566 0 0.0030948662794218315 0.064068390083161356 0 0.0044230551292567481 0.063433409667109669 0 0.0039964013865625156 0.065210867934257566 0 0.0044230551292567481 0.063433409667109669 0 0.0053089214669127605 0.064598577523826681 0 0.0044230551292567481 0.063433409667109669 0 0.0053089214669127605 0.064598577523826681 0 0.0059581756109315714 0.063292350420609364 0 0.0053089214669127605 0.064598577523826681 0 0.0059581756109315714 0.063292350420609364 0 0.0068089814718424345 0.065040881634328168 0 0.0038200477563814241 0.068005994183174504 0 0.003980682201209681 0.06824272205661952 0 0.0036532273381241639 0.067805887716715155 0 -9.0026533633216617e-05 0.065085534744885876 0 -0.00039866584062548007 0.065449713742121982 0 0.0016498323524311756 0.066116456720224995 0 0.0098945816127852006 0.058270416923705486 0 0.0062338265830872725 0.061594985783034815 0 0.014447192064549001 0.056705823313656048 0 0.0090902795954766087 0.055516119081302655 0 0.010318520164555678 0.06156208917200838 0 0.008290565952882932 0.058555983450797357 0 0.0099064182708372469 0.05749886936731885 0 0.0099064182708372469 0.05749886936731885 0 0.010908636525184541 0.057738872084840617 0 0.0090902795954766087 0.055516119081302655 0 0.010318520164555678 0.06156208917200838 0 0.0070162910714487037 0.060558154321870325 0 0.0098945816127852006 0.058270416923705486 0 0.010908636525184541 0.057738872084840617 0 0.008290565952882932 0.058555983450797357 0 0.0098945816127852006 0.058270416923705486 0 0.003980682201209681 0.06824272205661952 0 0.0040242251357984473 0.068075887029948198 0 0.0041728266526104927 0.068134383824187308 0 0.0038200477563814241 0.068005994183174504 0 0.003980682201209681 0.06824272205661952 0 0.0040242251357984473 0.068075887029948198 0 0.0038613449673271672 0.066913479962613376 0 0.0016498323524311756 0.066116456720224995 0 0.0024105976629318197 0.065668307684648403 0 -9.0026533633216617e-05 0.065085534744885876 0 0.0016498323524311756 0.066116456720224995 0 0.0024105976629318197 0.065668307684648403 0 -0.00038299458236890652 0.065019587963073569 0 0.0024105976629318197 0.065668307684648403 0 0.0011958611923007412 0.064481751034456705 0 0.008290565952882932 0.058555983450797357 0 0.0050235455643459284 0.059557487197039606 0 0.0029569095756049966 0.064885025342851149 0 0.0024105976629318197 0.065668307684648403 0 0.0023256986679936384 0.064591397493689834 0 0.0024105976629318197 0.065668307684648403 0 0.0011958611923007412 0.064481751034456705 0 0.0023256986679936384 0.064591397493689834 0 0.0030948662794218315 0.064068390083161356 0 0.0023256986679936384 0.064591397493689834 0 0.0021474702934227352 0.063740541938596518 0 0.0011958611923007412 0.064481751034456705 0 0.0023256986679936384 0.064591397493689834 0 0.0021474702934227352 0.063740541938596518 0 0.0014694195602011036 0.062825435734545965 0 0.0032311763978085961 0.062691463153345284 0 0.0021474702934227352 0.063740541938596518 0 0.0014694195602011036 0.062825435734545965 0 0.0011958611923007412 0.064481751034456705 0 0.0021474702934227352 0.063740541938596518 0 0.0014694195602011036 0.062825435734545965 0 -0.00038299458236890652 0.065019587963073569 0 0.0011958611923007412 0.064481751034456705 0 0.0044098672499788853 0.061105131969677387 0 0.008290565952882932 0.058555983450797357 0 0.0024115053654730424 0.060112936678426598 0 0.0029352435869990194 0.06026458805216163 0 0.0022322798996444876 0.061084721597682398 0 0.0056579409028948754 0.048115373089871405 0 0.0065601343273818504 0.047997035860593867 0 0.0061621512773512611 0.049022333347171036 0 0.0063544142571204795 0.054661757673243189 0 0.0099064182708372469 0.05749886936731885 0 0.0024115053654730424 0.060112936678426598 0 0.0022322798996444876 0.061084721597682398 0 0.0020637704178567253 0.061045515149660161 0 0.0056579409028948754 0.048115373089871405 0 0.0061621512773512611 0.049022333347171036 0 0.0050616065046263231 0.04876536420593041 0 0.0099064182708372469 0.05749886936731885 0 0.016462771512433319 0.051726264286958458 0 0.011844616394433452 0.054380000599199951 0 0.015472879486682141 0.054790239849917842 0 0.01563907706730373 0.055204119880761029 0 0.0047776446663227914 0.048048049450594148 0 0.0056579409028948754 0.048115373089871405 0 0.0050616065046263231 0.04876536420593041 0 0.01573722239005915 0.047211905336469774 0 0.016462771512433319 0.051726264286958458 0 0.015672586518669377 0.049298888826265236 0 0.015130007147621558 0.051843586389241088 0 0.01451035794556106 0.050736484841892332 0 0.015672586518669377 0.049298888826265236 0 0.016835278343048786 0.052225335458302102 0 0.015130007147621558 0.051843586389241088 0 0.01573722239005915 0.047211905336469774 0 0.020146956690530297 0.048893955619684126 0 0.016978428840371533 0.052693833543444604 0 0.016462771512433319 0.051726264286958458 0 0.016462771512433319 0.051726264286958458 0 0.020453588811186574 0.050595918748278387 0 0.016978428840371533 0.052693833543444604 0 0.020823225558068661 0.051351247859083467 0 0.017347180095827856 0.051367705892227812 0 0.019542723509693247 0.051387864231418612 0 0.019839862030803023 0.051913795165303776 0 0.017055420618612115 0.05064000385673896 0 0.017347180095827856 0.051367705892227812 0 0.019542723509693247 0.051387864231418612 0 0.020823225558068661 0.051351247859083467 0 0.020453588811186574 0.050595918748278387 0 0.016978428840371533 0.052693833543444604 0 0.018027178797313217 0.056839468921184938 0 0.020011122683125281 0.051530128448864329 0 0.019867900626996962 0.053791372243432188 0 0.021820202336502434 0.056100746461651717 0 0.040000880721595924 0.0493475095408124 0 0.040587465059759603 0.050362453180392293 0 0.039894520140630968 0.050353883899740597 0 0.020823225558068661 0.051351247859083467 0 0.021843796427039826 0.054199974762773023 0 0.020011122683125281 0.051530128448864329 0 0.018319504199740055 0.051010936559022661 0 0.019867900626996962 0.053791372243432188 0 0.040587465059759603 0.050362453180392293 0 0.0399318883608826 0.051024968192267019 0 0.039894520140630968 0.050353883899740597 0 0.016978428840371533 0.052693833543444604 0 0.010908636525184541 0.057738872084840617 0 0.011844616394433452 0.054380000599199951 0 0.015472879486682141 0.054790239849917842 0 0.012091809930805159 0.053780155522290353 0 0.01611791609642171 0.054236395874521268 0 0.018286569498606926 0.054904530369792738 0 0.017990194552721647 0.055632337696374483 0 0.01611791609642171 0.054236395874521268 0 0.017990194552721647 0.055632337696374483 0 0.017093880583553402 0.056692240361472142 0 0.013772834052656996 0.057744513919131088 0 0.012988994042869925 0.057506046906451724 0 0.012066971924314092 0.059754258916623962 0 0.010908636525184541 0.057738872084840617 0 0.012636922927800408 0.058219467017483886 0 0.0098945816127852006 0.058270416923705486 0 0.012636922927800408 0.058219467017483886 0 0.012636922927800408 0.058219467017483886 0 0.018027178797313217 0.056839468921184938 0 0.012636922927800408 0.058219467017483886 0 0.017204980869931979 0.057850665493391705 0 0.0041282828382934872 0.067900238085377415 0 0.0040242251357984473 0.068075887029948198 0 0.0041728266526104927 0.068134383824187308 0 0.0041282828382934872 0.067900238085377415 0 0.0041728266526104927 0.068134383824187308 0 0.0045239877814856012 0.067723093056797343 0 0.0041282828382934872 0.067900238085377415 0 0.0045239877814856012 0.067723093056797343 0 0.0042959254051939261 0.067596470383920249 0 0.017809883410135976 0.057357679579908248 0 0.017204980869931979 0.057850665493391705 0 0.017422348982425041 0.059949212639907018 0 0.01832928399747618 0.057743472474193494 0 0.014709098132256746 0.055118789367980113 0 0.017204980869931979 0.057850665493391705 0 0.018027178797313217 0.056839468921184938 0 0.01832928399747618 0.057743472474193494 0 0.014709098132256746 0.055118789367980113 0 0.016461267013300335 0.053057918067163562 0 0.017809883410135976 0.057357679579908248 0 0.020242943169807182 0.056034541463626998 0 0.014512676116468242 0.057208747880554099 0 0.014866542194957279 0.056379426227391512 0 0.014979817294974034 0.056670585511071875 0 0.020242943169807182 0.056034541463626998 0 0.018027178797313217 0.056839468921184938 0 0.021843796427039826 0.054199974762773023 0 0.020242943169807182 0.056034541463626998 0 0.019867900626996962 0.053791372243432188 0 0.021419859410941343 0.056572016381689745 0 0.021820202336502434 0.056100746461651717 0 0.040587465059759603 0.050362453180392293 0 0.041150780082250635 0.051373171975495069 0 0.040456418936456587 0.051277323079795822 0 0.040587465059759603 0.050362453180392293 0 0.040456418936456587 0.051277323079795822 0 0.0399318883608826 0.051024968192267019 0 0.040456418936456587 0.051277323079795822 0 0.0399318883608826 0.051024968192267019 0 0.039790199928097895 0.051545154352452299 0 0.040456418936456587 0.051277323079795822 0 0.040220050596568094 0.051879331299054178 0 0.039790199928097895 0.051545154352452299 0 0.041150780082250635 0.051373171975495069 0 0.040456418936456587 0.051277323079795822 0 0.040220050596568094 0.051879331299054178 0 0.040907863635632744 0.053636096320677722 0 0.040762774711335423 0.053397215934303938 0 0.040032665113303743 0.054300418729603971 0 0.020242943169807182 0.056034541463626998 0 0.033403392833401171 0.051753719969052599 0 0.041150780082250635 0.051373171975495069 0 0.040220050596568094 0.051879331299054178 0 0.039967582670318254 0.052916570851884483 0 0.040607335511568969 0.054673030492114708 0 0.040907863635632744 0.053636096320677722 0 0.040032665113303743 0.054300418729603971 0 0.021259078328082218 0.059362851072480953 0 0.017809883410135976 0.057357679579908248 0 0.0065387547959690944 0.066454180371545116 0 0.0056427105887921283 0.068569753732954472 0 0.0051355936257244453 0.067699539310641543 0 0.015904949703759517 0.059548241002510938 0 0.016767828336746993 0.058783486082601817 0 0.0045239877814856012 0.067723093056797343 0 0.0045240807208580145 0.067244882015975435 0 0.0042959254051939261 0.067596470383920249 0 0.0040267553889130597 0.067317099691464266 0 0.0045240807208580145 0.067244882015975435 0 0.0042959254051939261 0.067596470383920249 0 0.017204980869931979 0.057850665493391705 0 0.016767828336746993 0.058783486082601817 0 0.017809883410135976 0.057357679579908248 0 0.016767828336746993 0.058783486082601817 0 0.016275229976326546 0.057556409472238661 0 0.016413587018800562 0.057219093595673502 0 0.016979421514161468 0.058807686916343499 0 0.038414198771526999 0.052954411388681039 0 0.038985954883884753 0.052276708874208273 0 0.038217733405360624 0.051433880094979345 0 0.038414198771526999 0.052954411388681039 0 0.037266309177599675 0.051771921079391395 0 0.037232529897381954 0.053904056863725291 0 0.038414198771526999 0.052954411388681039 0 0.038217733405360624 0.051433880094979345 0 0.037266309177599675 0.051771921079391395 0 0.038414198771526999 0.052954411388681039 0 0.039967582670318254 0.052916570851884483 0 0.038985954883884753 0.052276708874208273 0 0.039967582670318254 0.052916570851884483 0 0.039645188544959263 0.052190606118170821 0 0.038985954883884753 0.052276708874208273 0 0.040220050596568094 0.051879331299054178 0 0.039645188544959263 0.052190606118170821 0 0.039790199928097895 0.051545154352452299 0 0.040220050596568094 0.051879331299054178 0 0.039967582670318254 0.052916570851884483 0 0.039645188544959263 0.052190606118170821 0 0.039645188544959263 0.052190606118170821 0 0.038985954883884753 0.052276708874208273 0 0.039095059422560495 0.051546862572026848 0 0.039095059422560495 0.051546862572026848 0 0.039790199928097895 0.051545154352452299 0 0.03946485333045547 0.051146028255042136 0 0.039645188544959263 0.052190606118170821 0 0.039095059422560495 0.051546862572026848 0 0.039790199928097895 0.051545154352452299 0 0.0399318883608826 0.051024968192267019 0 0.039790199928097895 0.051545154352452299 0 0.03946485333045547 0.051146028255042136 0 0.0399318883608826 0.051024968192267019 0 0.03946485333045547 0.051146028255042136 0 0.039469827512800114 0.050716556110607068 0 0.039095059422560495 0.051546862572026848 0 0.039030744858137789 0.050888597966738218 0 0.038650114440998674 0.051105329161545553 0 0.039095059422560495 0.051546862572026848 0 0.03946485333045547 0.051146028255042136 0 0.039030744858137789 0.050888597966738218 0 0.03946485333045547 0.051146028255042136 0 0.039030744858137789 0.050888597966738218 0 0.039469827512800114 0.050716556110607068 0 0.039030744858137789 0.050888597966738218 0 0.038748734281174944 0.050734070177295566 0 0.038650114440998674 0.051105329161545553 0 0.031850923438894937 0.048151218799433737 0 0.03409843092791566 0.049502841956711223 0 0.038650114440998674 0.051105329161545553 0 0.038217733405360624 0.051433880094979345 0 0.038380950776883825 0.050473150930201528 0 0.038205883490178748 0.050121145450658759 0 0.037412938731071696 0.050261120204534875 0 0.037450304183988883 0.051419015926291736 0 0.038217733405360624 0.051433880094979345 0 0.038380950776883825 0.050473150930201528 0 0.037266309177599675 0.051771921079391395 0 0.038748734281174944 0.050734070177295566 0 0.038650114440998674 0.051105329161545553 0 0.038380950776883825 0.050473150930201528 0 0.038985954883884753 0.052276708874208273 0 0.039095059422560495 0.051546862572026848 0 0.038217733405360624 0.051433880094979345 0 0.039095059422560495 0.051546862572026848 0 0.038650114440998674 0.051105329161545553 0 0.038217733405360624 0.051433880094979345 0 0.03813940046876535 0.049997489174678438 0 0.038180929362948278 0.049891144942769548 0 0.038160898060901789 0.049756741583487071 0 0.038205883490178748 0.050121145450658759 0 0.03813940046876535 0.049997489174678438 0 0.037412938731071696 0.050261120204534875 0 0.03813940046876535 0.049997489174678438 0 0.037499121536455376 0.049862247924735509 0 0.037412938731071696 0.050261120204534875 0 0.038748734281174944 0.050734070177295566 0 0.038380950776883825 0.050473150930201528 0 0.038958760904821768 0.050418413415690824 0 0.038205883490178748 0.050121145450658759 0 0.03813940046876535 0.049997489174678438 0 0.038180929362948278 0.049891144942769548 0 0.03813940046876535 0.049997489174678438 0 0.037938202590147796 0.04966486220925951 0 0.038221652356648858 0.049422567670496284 0 0.03813940046876535 0.049997489174678438 0 0.037938202590147796 0.04966486220925951 0 0.037499121536455376 0.049862247924735509 0 0.037938202590147796 0.04966486220925951 0 0.037990716330264879 0.049439157134721051 0 0.038221652356648858 0.049422567670496284 0 0.037938202590147796 0.04966486220925951 0 0.03762594332057561 0.049455826478986872 0 0.037499121536455376 0.049862247924735509 0 0.037938202590147796 0.04966486220925951 0 0.037990716330264879 0.049439157134721051 0 0.03762594332057561 0.049455826478986872 0 0.038205883490178748 0.050121145450658759 0 0.038180929362948278 0.049891144942769548 0 0.038246351952169674 0.049747183460881916 0 0.031850923438894937 0.048151218799433737 0 0.022940205028460708 0.04958171007800756 0 0.038380950776883825 0.050473150930201528 0 0.039151557666580898 0.050025714922925367 0 0.039461883803393417 0.049117517767374511 0 0.0399318883608826 0.051024968192267019 0 0.039894520140630968 0.050353883899740597 0 0.039469827512800114 0.050716556110607068 0 0.039894520140630968 0.050353883899740597 0 0.039469827512800114 0.050716556110607068 0 0.039429727604145447 0.050251162048602534 0 0.038380950776883825 0.050473150930201528 0 0.038958760904821768 0.050418413415690824 0 0.039151557666580898 0.050025714922925367 0 0.039429727604145447 0.050251162048602534 0 0.038958760904821768 0.050418413415690824 0 0.039151557666580898 0.050025714922925367 0 0.039030744858137789 0.050888597966738218 0 0.039469827512800114 0.050716556110607068 0 0.038958760904821768 0.050418413415690824 0 0.039469827512800114 0.050716556110607068 0 0.039429727604145447 0.050251162048602534 0 0.038958760904821768 0.050418413415690824 0 0.039030744858137789 0.050888597966738218 0 0.038748734281174944 0.050734070177295566 0 0.038958760904821768 0.050418413415690824 0 0.040000880721595924 0.0493475095408124 0 0.039894520140630968 0.050353883899740597 0 0.039572380289311142 0.049813921041455177 0 0.039151557666580898 0.050025714922925367 0 0.039572380289311142 0.049813921041455177 0 0.039461883803393417 0.049117517767374511 0 0.039429727604145447 0.050251162048602534 0 0.039151557666580898 0.050025714922925367 0 0.039572380289311142 0.049813921041455177 0 0.039894520140630968 0.050353883899740597 0 0.039429727604145447 0.050251162048602534 0 0.039572380289311142 0.049813921041455177 0 0.040000880721595924 0.0493475095408124 0 0.039572380289311142 0.049813921041455177 0 0.039461883803393417 0.049117517767374511 0 0.020348108467379142 0.04938430102402417 0 0.020585764576135483 0.049804329002428968 0 0.022084724437950384 0.050130704337962136 0 0.020823225558068661 0.051351247859083467 0 0.022940205028460708 0.04958171007800756 0 0.020453588811186574 0.050595918748278387 0 0.022940205028460708 0.04958171007800756 0 0.019852830260321162 0.052584325506168171 0 0.017394169199006649 0.052036514859254299 0 0.018665781452251749 0.05046703204912547 0 0.038180929362948278 0.049891144942769548 0 0.038246351952169674 0.049747183460881916 0 0.038190329320101218 0.049802015896552941 0 0.038180929362948278 0.049891144942769548 0 0.038190329320101218 0.049802015896552941 0 0.038160898060901789 0.049756741583487071 0 0.038246351952169674 0.049747183460881916 0 0.038194993454557895 0.04976843978223764 0 0.038190329320101218 0.049802015896552941 0 0.022940205028460708 0.04958171007800756 0 0.023656035992835396 0.04965005673564106 0 0.038194993454557895 0.04976843978223764 0 0.038190329320101218 0.049802015896552941 0 0.038160898060901789 0.049756741583487071 0 0.022940205028460708 0.04958171007800756 0 0.024635273417676441 0.047039381508963862 0 0.021134454451161761 0.048682593544383652 0 0.020423790668929898 0.048522971344251625 0 0.021376393960026333 0.048382335824564568 0 0.020848863400173875 0.047444056656260586 0 0.020423790668929898 0.048522971344251625 0 0.021376393960026333 0.048382335824564568 0 0.038233535803911055 0.049773949255520401 0 0.038194993454557895 0.04976843978223764 0 0.038160898060901789 0.049756741583487071 0 0.022940205028460708 0.04958171007800756 0 0.020146956690530297 0.048893955619684126 0 0.020453588811186574 0.050595918748278387 0 0.020146956690530297 0.048893955619684126 0 0.03813940046876535 0.049997489174678438 0 0.038552627608018149 0.048908763874051159 0 0.038221652356648858 0.049422567670496284 0 0.026689819758570796 0.046730778557327726 0 0.024635273417676441 0.047039381508963862 0 0.037931111086960907 0.049209144581481006 0 0.038058609891492193 0.049016688552304635 0 0.037589222184716567 0.049011450022155047 0 0.037931111086960907 0.049209144581481006 0 0.038058609891492193 0.049016688552304635 0 0.038123233964001101 0.049162766524402851 0 0.037931111086960907 0.049209144581481006 0 0.038109071709178974 0.049308969494338814 0 0.038123233964001101 0.049162766524402851 0 0.037931111086960907 0.049209144581481006 0 0.037589222184716567 0.049011450022155047 0 0.03762594332057561 0.049455826478986872 0 0.037931111086960907 0.049209144581481006 0 0.037990716330264879 0.049439157134721051 0 0.03762594332057561 0.049455826478986872 0 0.037931111086960907 0.049209144581481006 0 0.037990716330264879 0.049439157134721051 0 0.038109071709178974 0.049308969494338814 0 0.038221652356648858 0.049422567670496284 0 0.038222303893951176 0.04923506968986089 0 0.038376726265315089 0.049058446027772241 0 0.038552627608018149 0.048908763874051159 0 0.038221652356648858 0.049422567670496284 0 0.038376726265315089 0.049058446027772241 0 0.037990716330264879 0.049439157134721051 0 0.038221652356648858 0.049422567670496284 0 0.038109071709178974 0.049308969494338814 0 0.038221652356648858 0.049422567670496284 0 0.038222303893951176 0.04923506968986089 0 0.038109071709178974 0.049308969494338814 0 0.038222303893951176 0.04923506968986089 0 0.038109071709178974 0.049308969494338814 0 0.038123233964001101 0.049162766524402851 0 0.038222303893951176 0.04923506968986089 0 0.038123233964001101 0.049162766524402851 0 0.038232892857539939 0.049132125316516895 0 0.038222303893951176 0.04923506968986089 0 0.038376726265315089 0.049058446027772241 0 0.038232892857539939 0.049132125316516895 0 0.038376726265315089 0.049058446027772241 0 0.038232892857539939 0.049132125316516895 0 0.038223442703667981 0.048986953880523994 0 0.038058609891492193 0.049016688552304635 0 0.038232892857539939 0.049132125316516895 0 0.038223442703667981 0.048986953880523994 0 0.038058609891492193 0.049016688552304635 0 0.038123233964001101 0.049162766524402851 0 0.038232892857539939 0.049132125316516895 0 0.019957727330149944 0.043829469534730131 0 0.020248039851650138 0.04558487554961585 0 0.019179800035770581 0.04534725611960741 0 0.038058609891492193 0.049016688552304635 0 0.038223442703667981 0.048986953880523994 0 0.038182980213981609 0.048829583642754221 0 0.038376726265315089 0.049058446027772241 0 0.038223442703667981 0.048986953880523994 0 0.038182980213981609 0.048829583642754221 0 0.024635273417676441 0.047039381508963862 0 0.026610245223683104 0.046085267989435894 0 0.038552627608018149 0.048908763874051159 0 0.038376726265315089 0.049058446027772241 0 0.038182980213981609 0.048829583642754221 0 0.026610245223683104 0.046085267989435894 0 0.029119700390208968 0.046654123583409694 0 0.037321169055506857 0.048216380903189332 0 0.038056464117459596 0.048808683602373039 0 0.037408087248067719 0.048669720255548853 0 0.038182980213981609 0.048829583642754221 0 0.037408087248067719 0.048669720255548853 0 0.037589222184716567 0.049011450022155047 0 0.038058609891492193 0.049016688552304635 0 0.038182980213981609 0.048829583642754221 0 0.037589222184716567 0.049011450022155047 0 0.037408087248067719 0.048669720255548853 0 0.037589222184716567 0.049011450022155047 0 0.036806265820595187 0.049564798896107369 0 0.029833655352053779 0.044144141522373913 0 0.031301415154577503 0.045793703229985806 0 0.036952347904596228 0.0476769176015314 0 0.037736064048658077 0.047769193783367872 0 0.036806265820595187 0.049564798896107369 0 0.037321169055506857 0.048216380903189332 0 0.037408087248067719 0.048669720255548853 0 0.036806265820595187 0.049564798896107369 0 0.037589222184716567 0.049011450022155047 0 0.03762594332057561 0.049455826478986872 0 0.036806265820595187 0.049564798896107369 0 0.037499121536455376 0.049862247924735509 0 0.036806265820595187 0.049564798896107369 0 0.037412938731071696 0.050261120204534875 0 0.03762594332057561 0.049455826478986872 0 0.037499121536455376 0.049862247924735509 0 0.036806265820595187 0.049564798896107369 0 0.036806265820595187 0.049564798896107369 0 0.037412938731071696 0.050261120204534875 0 0.036239380694565802 0.050593443713328572 0 0.036806265820595187 0.049564798896107369 0 0.035460747617421608 0.049349297502300493 0 0.036239380694565802 0.050593443713328572 0 0.036806265820595187 0.049564798896107369 0 0.03612144451944118 0.048639426353771539 0 0.035460747617421608 0.049349297502300493 0 0.036952347904596228 0.0476769176015314 0 0.036806265820595187 0.049564798896107369 0 0.03612144451944118 0.048639426353771539 0 0.035393345173843266 0.047991565477459919 0 0.03612144451944118 0.048639426353771539 0 0.035460747617421608 0.049349297502300493 0 0.035393345173843266 0.047991565477459919 0 0.034623439036728564 0.048988686505094851 0 0.035460747617421608 0.049349297502300493 0 0.034623439036728564 0.048988686505094851 0 0.034615868175409972 0.050051546797905105 0 0.035460747617421608 0.049349297502300493 0 0.034615868175409972 0.050051546797905105 0 0.035460747617421608 0.049349297502300493 0 0.03503677599173291 0.050956245610708127 0 0.035460747617421608 0.049349297502300493 0 0.03503677599173291 0.050956245610708127 0 0.036239380694565802 0.050593443713328572 0 0.034615868175409972 0.050051546797905105 0 0.03503677599173291 0.050956245610708127 0 0.03417488080285222 0.051217911559498661 0 0.03503677599173291 0.050956245610708127 0 0.03417488080285222 0.051217911559498661 0 0.034655327834408334 0.05275639305319537 0 0.03417488080285222 0.051217911559498661 0 0.033406698091376544 0.052968998030209734 0 0.034655327834408334 0.05275639305319537 0 0.03503677599173291 0.050956245610708127 0 0.035866119750520821 0.051737365977058747 0 0.034655327834408334 0.05275639305319537 0 0.035866119750520821 0.051737365977058747 0 0.036152374199038002 0.053056952879443398 0 0.034655327834408334 0.05275639305319537 0 0.035866119750520821 0.051737365977058747 0 0.037450304183988883 0.051419015926291736 0 0.036152374199038002 0.053056952879443398 0 0.03409843092791566 0.049502841956711223 0 0.03437646221547011 0.050345233970119953 0 0.037266309177599675 0.051771921079391395 0 0.037232529897381954 0.053904056863725291 0 0.036152374199038002 0.053056952879443398 0 0.037412938731071696 0.050261120204534875 0 0.037450304183988883 0.051419015926291736 0 0.036239380694565802 0.050593443713328572 0 0.035866119750520821 0.051737365977058747 0 0.037450304183988883 0.051419015926291736 0 0.036239380694565802 0.050593443713328572 0 0.03503677599173291 0.050956245610708127 0 0.035866119750520821 0.051737365977058747 0 0.036239380694565802 0.050593443713328572 0 0.034416443494580264 0.048719657785825425 0 0.034743108068923945 0.0476756924041443 0 0.034565185563344709 0.048648484203812979 0 0.034818448622278925 0.047084983023737849 0 0.034416443494580264 0.048719657785825425 0 0.034743108068923945 0.0476756924041443 0 0.034883011691069873 0.0470490621967267 0 0.034818448622278925 0.047084983023737849 0 0.034743108068923945 0.0476756924041443 0 0.034838879535368836 0.047583058454305452 0 0.034852058454055937 0.04733940090067229 0 0.034743108068923945 0.0476756924041443 0 0.034838879535368836 0.047583058454305452 0 0.034743108068923945 0.0476756924041443 0 0.034565185563344709 0.048648484203812979 0 0.034838879535368836 0.047583058454305452 0 0.034565185563344709 0.048648484203812979 0 0.034868133999101325 0.048227607011008207 0 0.034416443494580264 0.048719657785825425 0 0.034565185563344709 0.048648484203812979 0 0.034118337493358325 0.049809628537574459 0 0.034565185563344709 0.048648484203812979 0 0.034118337493358325 0.049809628537574459 0 0.034153434577661103 0.049701166528025802 0 0.034565185563344709 0.048648484203812979 0 0.034868133999101325 0.048227607011008207 0 0.034153434577661103 0.049701166528025802 0 0.032909291638805099 0.048240035517612974 0 0.033871873395498436 0.048487885057400239 0 0.034153434577661103 0.049701166528025802 0 0.033905177606671617 0.047676658595212654 0 0.034123413673086356 0.048233819784761996 0 0.034288613531280945 0.047884499134885308 0 0.034623439036728564 0.048988686505094851 0 0.033871873395498436 0.048487885057400239 0 0.034623439036728564 0.048988686505094851 0 0.033871873395498436 0.048487885057400239 0 0.034153434577661103 0.049701166528025802 0 0.034623439036728564 0.048988686505094851 0 0.034615868175409972 0.050051546797905105 0 0.034153434577661103 0.049701166528025802 0 0.03417488080285222 0.051217911559498661 0 0.034153434577661103 0.049701166528025802 0 0.033679543483624702 0.051213392621072308 0 0.034615868175409972 0.050051546797905105 0 0.03417488080285222 0.051217911559498661 0 0.034153434577661103 0.049701166528025802 0 0.03417488080285222 0.051217911559498661 0 0.033679543483624702 0.051213392621072308 0 0.033406698091376544 0.052968998030209734 0 0.033679543483624702 0.051213392621072308 0 0.032883291949044706 0.052865237746579891 0 0.033406698091376544 0.052968998030209734 0 0.034118337493358325 0.049809628537574459 0 0.034153434577661103 0.049701166528025802 0 0.033679543483624702 0.051213392621072308 0 0.034118337493358325 0.049809628537574459 0 0.033679543483624702 0.051213392621072308 0 0.033665900280562717 0.0508428810471276 0 0.034416443494580264 0.048719657785825425 0 0.034118337493358325 0.049809628537574459 0 0.033665900280562717 0.0508428810471276 0 0.033679543483624702 0.051213392621072308 0 0.033665900280562717 0.0508428810471276 0 0.032883291949044706 0.052865237746579891 0 0.033870931455441886 0.05058147562302763 0 0.033665900280562717 0.0508428810471276 0 0.032661761797768391 0.052929791828195627 0 0.033870931455441886 0.05058147562302763 0 0.034416443494580264 0.048719657785825425 0 0.033665900280562717 0.0508428810471276 0 0.032661761797768391 0.052929791828195627 0 0.032142221458446009 0.054237845251441971 0 0.031538785411641942 0.054928471148275822 0 0.032661761797768391 0.052929791828195627 0 0.032142221458446009 0.054237845251441971 0 0.032883291949044706 0.052865237746579891 0 0.033665900280562717 0.0508428810471276 0 0.032661761797768391 0.052929791828195627 0 0.032883291949044706 0.052865237746579891 0 0.032142221458446009 0.054237845251441971 0 0.032883291949044706 0.052865237746579891 0 0.032235439351913087 0.054996651851798049 0 0.032883291949044706 0.052865237746579891 0 0.033406698091376544 0.052968998030209734 0 0.032235439351913087 0.054996651851798049 0 0.033406698091376544 0.052968998030209734 0 0.032235439351913087 0.054996651851798049 0 0.033517374106002064 0.054582776368095033 0 0.032235439351913087 0.054996651851798049 0 0.033517374106002064 0.054582776368095033 0 0.032245620796880231 0.056648512571788365 0 0.032235439351913087 0.054996651851798049 0 0.030512229194096498 0.057978730787887255 0 0.032245620796880231 0.056648512571788365 0 0.030512229194096498 0.057978730787887255 0 0.03157455433891266 0.05598208932754304 0 0.031482867408770543 0.056580847627929698 0 0.032235439351913087 0.054996651851798049 0 0.030512229194096498 0.057978730787887255 0 0.03157455433891266 0.05598208932754304 0 0.032142221458446009 0.054237845251441971 0 0.032235439351913087 0.054996651851798049 0 0.03157455433891266 0.05598208932754304 0 0.032142221458446009 0.054237845251441971 0 0.03157455433891266 0.05598208932754304 0 0.031538785411641942 0.054928471148275822 0 0.03157455433891266 0.05598208932754304 0 0.031482867408770543 0.056580847627929698 0 0.031538785411641942 0.054928471148275822 0 0.029558701297616643 0.05655499267732926 0 0.031482867408770543 0.056580847627929698 0 0.031538785411641942 0.054928471148275822 0 0.035185183360766439 0.054913265165742534 0 0.037232529897381954 0.053904056863725291 0 0.036957844130464074 0.057052284473677099 0 0.035185183360766439 0.054913265165742534 0 0.036152374199038002 0.053056952879443398 0 0.034655327834408334 0.05275639305319537 0 0.035185183360766439 0.054913265165742534 0 0.037232529897381954 0.053904056863725291 0 0.036152374199038002 0.053056952879443398 0 0.035185183360766439 0.054913265165742534 0 0.034655327834408334 0.05275639305319537 0 0.033517374106002064 0.054582776368095033 0 0.033406698091376544 0.052968998030209734 0 0.034655327834408334 0.05275639305319537 0 0.033517374106002064 0.054582776368095033 0 0.035185183360766439 0.054913265165742534 0 0.033517374106002064 0.054582776368095033 0 0.033745757403505515 0.056359213146907026 0 0.033745757403505515 0.056359213146907026 0 0.032245620796880231 0.056648512571788365 0 0.031946795495833555 0.059422414768625476 0 0.033517374106002064 0.054582776368095033 0 0.033745757403505515 0.056359213146907026 0 0.032245620796880231 0.056648512571788365 0 0.030512229194096498 0.057978730787887255 0 0.032245620796880231 0.056648512571788365 0 0.031946795495833555 0.059422414768625476 0 0.031946795495833555 0.059422414768625476 0 0.034546429176704405 0.058159704398542372 0 0.032591763182470881 0.061372572570266994 0 0.033745757403505515 0.056359213146907026 0 0.031946795495833555 0.059422414768625476 0 0.034546429176704405 0.058159704398542372 0 0.034546429176704405 0.058159704398542372 0 0.036351362004336932 0.05904571780589829 0 0.034786690512739034 0.060926284941509923 0 0.035185183360766439 0.054913265165742534 0 0.034546429176704405 0.058159704398542372 0 0.036957844130464074 0.057052284473677099 0 0.035185183360766439 0.054913265165742534 0 0.033745757403505515 0.056359213146907026 0 0.034546429176704405 0.058159704398542372 0 0.038209493491780787 0.058669532879226195 0 0.036957844130464074 0.057052284473677099 0 0.036351362004336932 0.05904571780589829 0 0.034546429176704405 0.058159704398542372 0 0.036957844130464074 0.057052284473677099 0 0.036351362004336932 0.05904571780589829 0 0.035821188852746634 0.062872948494264738 0 0.034786690512739034 0.060926284941509923 0 0.037403757337510675 0.060735512893641687 0 0.036351362004336932 0.05904571780589829 0 0.034786690512739034 0.060926284941509923 0 0.037403757337510675 0.060735512893641687 0 0.035821188852746634 0.062872948494264738 0 0.035313638364383219 0.066289686176350546 0 0.038947420068859963 0.062787084703310583 0 0.035821188852746634 0.062872948494264738 0 0.032118514213278979 0.064122725987515006 0 0.035313638364383219 0.066289686176350546 0 0.035821188852746634 0.062872948494264738 0 0.032118514213278979 0.064122725987515006 0 0.034786690512739034 0.060926284941509923 0 0.034546429176704405 0.058159704398542372 0 0.034786690512739034 0.060926284941509923 0 0.032591763182470881 0.061372572570266994 0 0.032118514213278979 0.064122725987515006 0 0.034786690512739034 0.060926284941509923 0 0.032591763182470881 0.061372572570266994 0 0.031946795495833555 0.059422414768625476 0 0.032591763182470881 0.061372572570266994 0 0.029731606762386523 0.064176882290204101 0 0.031946795495833555 0.059422414768625476 0 0.029731606762386523 0.064176882290204101 0 0.029326466206089901 0.062595938781010205 0 0.032118514213278979 0.064122725987515006 0 0.029731606762386523 0.064176882290204101 0 0.029016909164574035 0.066763086016621467 0 0.032118514213278979 0.064122725987515006 0 0.032591763182470881 0.061372572570266994 0 0.029731606762386523 0.064176882290204101 0 0.032118514213278979 0.064122725987515006 0 0.029016909164574035 0.066763086016621467 0 0.027290394523722498 0.070071388608625954 0 0.029731606762386523 0.064176882290204101 0 0.029016909164574035 0.066763086016621467 0 0.027799257662601131 0.067845072558297054 0 0.027799257662601131 0.067845072558297054 0 0.027290394523722498 0.070071388608625954 0 0.025818143245215745 0.068385461420243862 0 0.029016909164574035 0.066763086016621467 0 0.027799257662601131 0.067845072558297054 0 0.027290394523722498 0.070071388608625954 0 0.027290394523722498 0.070071388608625954 0 0.018845965987234311 0.071712661718299514 0 0.022851954165493633 0.068518985784552885 0 0.027290394523722498 0.070071388608625954 0 0.018845965987234311 0.071712661718299514 0 0.021262770463219456 0.076462612780956105 0 0.018845965987234311 0.071712661718299514 0 0.021262770463219456 0.076462612780956105 0 0.017358719709602125 0.076602960003330681 0 0.032118514213278979 0.064122725987515006 0 0.027290394523722498 0.070071388608625954 0 0.035313638364383219 0.066289686176350546 0 0.026276432559984977 0.069000739786258231 0 0.025288494794942298 0.06903844758404136 0 0.028294296230770857 0.059113700187458408 0 0.030475686730194844 0.058207376564545554 0 0.029249966811761615 0.061040972294668129 0 0.029558701297616643 0.05655499267732926 0 0.031482867408770543 0.056580847627929698 0 0.030475686730194844 0.058207376564545554 0 0.031482867408770543 0.056580847627929698 0 0.030475686730194844 0.058207376564545554 0 0.032012087333292701 0.057914102015377618 0 0.029651453548461569 0.061361086832712221 0 0.028944749675009596 0.063486954207324406 0 0.030475686730194844 0.058207376564545554 0 0.032012087333292701 0.057914102015377618 0 0.031564189651270849 0.061464945894694457 0 0.026426879334586449 0.063754512438512587 0 0.029326466206089901 0.062595938781010205 0 0.027522522204638019 0.066499272992926933 0 0.030188923010779235 0.06006750309908953 0 0.029651453548461569 0.061361086832712221 0 0.030512229194096498 0.057978730787887255 0 0.026426879334586449 0.063754512438512587 0 0.029326466206089901 0.062595938781010205 0 0.030512229194096498 0.057978730787887255 0 0.031482867408770543 0.056580847627929698 0 0.032012087333292701 0.057914102015377618 0 0.030512229194096498 0.057978730787887255 0 0.031946795495833555 0.059422414768625476 0 0.029326466206089901 0.062595938781010205 0 0.029731606762386523 0.064176882290204101 0 0.029326466206089901 0.062595938781010205 0 0.027522522204638019 0.066499272992926933 0 0.029731606762386523 0.064176882290204101 0 0.027799257662601131 0.067845072558297054 0 0.027522522204638019 0.066499272992926933 0 0.027799257662601131 0.067845072558297054 0 0.027470511156114444 0.06782183508431365 0 0.026953857131091576 0.06803073557681559 0 0.027799257662601131 0.067845072558297054 0 0.027522522204638019 0.066499272992926933 0 0.027470511156114444 0.06782183508431365 0 0.027522522204638019 0.066499272992926933 0 0.02777682065417237 0.067377251064608748 0 0.027470511156114444 0.06782183508431365 0 0.026426879334586449 0.063754512438512587 0 0.027522522204638019 0.066499272992926933 0 0.026956033060893596 0.066730156223841403 0 0.027522522204638019 0.066499272992926933 0 0.026956033060893596 0.066730156223841403 0 0.02777682065417237 0.067377251064608748 0 0.027377348193956475 0.063875562155053758 0 0.031564189651270849 0.061464945894694457 0 0.028350772517019965 0.066681529036426518 0 0.028944749675009596 0.063486954207324406 0 0.028440861633438515 0.064760391217577026 0 0.026956033060893596 0.066730156223841403 0 0.028350772517019965 0.066681529036426518 0 0.02777682065417237 0.067377251064608748 0 0.030475686730194844 0.058207376564545554 0 0.031564189651270849 0.061464945894694457 0 0.029249966811761615 0.061040972294668129 0 0.027377348193956475 0.063875562155053758 0 0.031564189651270849 0.061464945894694457 0 0.029249966811761615 0.061040972294668129 0 0.03015877047326064 0.068248960406580433 0 0.028955369078605703 0.067990445675749217 0 0.031487681745326963 0.06688883626231544 0 0.03394017084670202 0.061538740829063521 0 0.032791524255035794 0.061914728861486773 0 0.028350772517019965 0.066681529036426518 0 0.028506763882657497 0.067357805555160494 0 0.02777682065417237 0.067377251064608748 0 0.027836886049005957 0.068281822122990762 0 0.028350772517019965 0.066681529036426518 0 0.028506763882657497 0.067357805555160494 0 0.027836886049005957 0.068281822122990762 0 0.028955369078605703 0.067990445675749217 0 0.028506763882657497 0.067357805555160494 0 0.028955369078605703 0.067990445675749217 0 0.028506763882657497 0.067357805555160494 0 0.028032200800922929 0.067805219429782598 0 0.028506763882657497 0.067357805555160494 0 0.02777682065417237 0.067377251064608748 0 0.028032200800922929 0.067805219429782598 0 0.028955369078605703 0.067990445675749217 0 0.028032200800922929 0.067805219429782598 0 0.029140385702498495 0.067203058552382011 0 0.028032200800922929 0.067805219429782598 0 0.026572594613186319 0.06776945281643583 0 0.027348762776395193 0.066938519996760842 0 0.028032200800922929 0.067805219429782598 0 0.027470511156114444 0.06782183508431365 0 0.026572594613186319 0.06776945281643583 0 0.02777682065417237 0.067377251064608748 0 0.028032200800922929 0.067805219429782598 0 0.027470511156114444 0.06782183508431365 0 0.027470511156114444 0.06782183508431365 0 0.026572594613186319 0.06776945281643583 0 0.026953857131091576 0.06803073557681559 0 0.026572594613186319 0.06776945281643583 0 0.025416304742059973 0.066685757644397686 0 0.027348762776395193 0.066938519996760842 0 0.025416304742059973 0.066685757644397686 0 0.025737902255176023 0.064999469468746199 0 0.027348762776395193 0.066938519996760842 0 0.025737902255176023 0.064999469468746199 0 0.027348762776395193 0.066938519996760842 0 0.029630407391049409 0.064999879926204554 0 0.027348762776395193 0.066938519996760842 0 0.029140385702498495 0.067203058552382011 0 0.029630407391049409 0.064999879926204554 0 0.028032200800922929 0.067805219429782598 0 0.027348762776395193 0.066938519996760842 0 0.029140385702498495 0.067203058552382011 0 0.033524453721398124 0.064999409203231967 0 0.029630407391049409 0.064999879926204554 0 0.031487681745326963 0.06688883626231544 0 0.029140385702498495 0.067203058552382011 0 0.029630407391049409 0.064999879926204554 0 0.031487681745326963 0.06688883626231544 0 0.028955369078605703 0.067990445675749217 0 0.029140385702498495 0.067203058552382011 0 0.031487681745326963 0.06688883626231544 0 0.022936426352770278 0.067523332159084667 0 0.022851954165493633 0.068518985784552885 0 0.025818143245215745 0.068385461420243862 0 0.022936426352770278 0.067523332159084667 0 0.020524295178544882 0.067525054657771769 0 0.020632402740147035 0.066457492053758435 0 0.022936426352770278 0.067523332159084667 0 0.020524295178544882 0.067525054657771769 0 0.022851954165493633 0.068518985784552885 0 0.020524295178544882 0.067525054657771769 0 0.017694164358354095 0.066531093819352197 0 0.0183294541101705 0.068409077237761157 0 0.020524295178544882 0.067525054657771769 0 0.022851954165493633 0.068518985784552885 0 0.0183294541101705 0.068409077237761157 0 0.018845965987234311 0.071712661718299514 0 0.022851954165493633 0.068518985784552885 0 0.0183294541101705 0.068409077237761157 0 0.027290394523722498 0.070071388608625954 0 0.022851954165493633 0.068518985784552885 0 0.025818143245215745 0.068385461420243862 0 0.027799257662601131 0.067845072558297054 0 0.025818143245215745 0.068385461420243862 0 0.026953857131091576 0.06803073557681559 0 0.026572594613186319 0.06776945281643583 0 0.025818143245215745 0.068385461420243862 0 0.026953857131091576 0.06803073557681559 0 0.026572594613186319 0.06776945281643583 0 0.025818143245215745 0.068385461420243862 0 0.024091174093766241 0.067087285105981859 0 0.022936426352770278 0.067523332159084667 0 0.025818143245215745 0.068385461420243862 0 0.023178012678122036 0.066687374806749702 0 0.023309743001592557 0.067515729030250576 0 0.022818314056863548 0.066601724368092169 0 0.022936426352770278 0.067523332159084667 0 0.023178012678122036 0.066687374806749702 0 0.020632402740147035 0.066457492053758435 0 0.026572594613186319 0.06776945281643583 0 0.025416304742059973 0.066685757644397686 0 0.024091174093766241 0.067087285105981859 0 0.025416304742059973 0.066685757644397686 0 0.024091174093766241 0.067087285105981859 0 0.021846697425818604 0.064999904893635413 0 0.025416304742059973 0.066685757644397686 0 0.025737902255176023 0.064999469468746199 0 0.021846697425818604 0.064999904893635413 0 0.022818314056863548 0.066601724368092169 0 0.021845147359150878 0.0650014666390204 0 0.023178012678122036 0.066687374806749702 0 0.02184294423011833 0.064999601331684573 0 0.020632402740147035 0.066457492053758435 0 0.02184294423011833 0.064999601331684573 0 0.018728946180896187 0.064999101117344527 0 0.020632402740147035 0.066457492053758435 0 0.020524295178544882 0.067525054657771769 0 0.020632402740147035 0.066457492053758435 0 0.017694164358354095 0.066531093819352197 0 0.018728946180896187 0.064999101117344527 0 0.017694164358354095 0.066531093819352197 0 0.015611777534965154 0.064999274024173131 0 0.018728946180896187 0.064999101117344527 0 0.020632402740147035 0.066457492053758435 0 0.017694164358354095 0.066531093819352197 0 0.017694164358354095 0.066531093819352197 0 0.015611777534965154 0.064999274024173131 0 0.014732785165428077 0.066183983997757795 0 0.014732785165428077 0.066183983997757795 0 0.012494859115656124 0.064999339666118275 0 0.012532274511483496 0.066782035984969623 0 0.015611777534965154 0.064999274024173131 0 0.014732785165428077 0.066183983997757795 0 0.012494859115656124 0.064999339666118275 0 0.014732785165428077 0.066183983997757795 0 0.012532274511483496 0.066782035984969623 0 0.015385682481242847 0.067865335394627468 0 0.017694164358354095 0.066531093819352197 0 0.014732785165428077 0.066183983997757795 0 0.015385682481242847 0.067865335394627468 0 0.009377811294592777 0.065002015608126573 0 0.0090016249853196346 0.067627000172146387 0 0.012494859115656124 0.064999339666118275 0 0.009380485157011783 0.064999572690599319 0 0.012532274511483496 0.066782035984969623 0 0.009380485157011783 0.064999572690599319 0 0.012532274511483496 0.066782035984969623 0 0.01018150929730329 0.067384350484287356 0 0.0090016249853196346 0.067627000172146387 0 0.008458866924328597 0.070604167760095191 0 0.01018150929730329 0.067384350484287356 0 0.013041907117796844 0.069663573286421393 0 0.0100122199827539 0.070317133198482637 0 0.012532274511483496 0.066782035984969623 0 0.01018150929730329 0.067384350484287356 0 0.013041907117796844 0.069663573286421393 0 0.013041907117796844 0.069663573286421393 0 0.0100122199827539 0.070317133198482637 0 0.012041184586249523 0.072595571129772135 0 0.0183294541101705 0.068409077237761157 0 0.015385682481242847 0.067865335394627468 0 0.015967288496462975 0.069863100812663184 0 0.017694164358354095 0.066531093819352197 0 0.0183294541101705 0.068409077237761157 0 0.015385682481242847 0.067865335394627468 0 0.013041907117796844 0.069663573286421393 0 0.015385682481242847 0.067865335394627468 0 0.015967288496462975 0.069863100812663184 0 0.012532274511483496 0.066782035984969623 0 0.013041907117796844 0.069663573286421393 0 0.015385682481242847 0.067865335394627468 0 0.013041907117796844 0.069663573286421393 0 0.015967288496462975 0.069863100812663184 0 0.014909720030995954 0.07213622058498767 0 0.018845965987234311 0.071712661718299514 0 0.0183294541101705 0.068409077237761157 0 0.015967288496462975 0.069863100812663184 0 0.018845965987234311 0.071712661718299514 0 0.015967288496462975 0.069863100812663184 0 0.014909720030995954 0.07213622058498767 0 0.018845965987234311 0.071712661718299514 0 0.01584542136789973 0.074025861217954667 0 0.014909720030995954 0.07213622058498767 0 0.018845965987234311 0.071712661718299514 0 0.017455056187530283 0.074798588331754165 0 0.01584542136789973 0.074025861217954667 0 0.018354708615330669 0.073107498838824628 0 0.018292046266851644 0.073288410553705857 0 0.017455056187530283 0.074798588331754165 0 0.01584542136789973 0.074025861217954667 0 0.016202392722039133 0.07548839565533208 0 0.021262770463219456 0.076462612780956105 0 0.017702680230758213 0.077248628039135014 0 0.017358719709602125 0.076602960003330681 0 0.01584542136789973 0.074025861217954667 0 0.014909720030995954 0.07213622058498767 0 0.013659961058533366 0.074843174236662438 0 0.01584542136789973 0.074025861217954667 0 0.013659961058533366 0.074843174236662438 0 0.015210665566655382 0.075734846870191441 0 0.01584542136789973 0.074025861217954667 0 0.016202392722039133 0.07548839565533208 0 0.015210665566655382 0.075734846870191441 0 0.013041907117796844 0.069663573286421393 0 0.014909720030995954 0.07213622058498767 0 0.012041184586249523 0.072595571129772135 0 0.014909720030995954 0.07213622058498767 0 0.012041184586249523 0.072595571129772135 0 0.013659961058533366 0.074843174236662438 0 0.0100122199827539 0.070317133198482637 0 0.012041184586249523 0.072595571129772135 0 0.009562104048381221 0.073822946059100503 0 0.008458866924328597 0.070604167760095191 0 0.0078316455547442765 0.073611065547492957 0 0.012041184586249523 0.072595571129772135 0 0.011261020222949588 0.075178608820619969 0 0.009562104048381221 0.073822946059100503 0 0.012041184586249523 0.072595571129772135 0 0.011261020222949588 0.075178608820619969 0 0.013659961058533366 0.074843174236662438 0 0.013659961058533366 0.074843174236662438 0 0.011925686896723594 0.077161477084919314 0 0.013986395729048962 0.077341142116815836 0 0.011261020222949588 0.075178608820619969 0 0.013659961058533366 0.074843174236662438 0 0.011925686896723594 0.077161477084919314 0 0.011261020222949588 0.075178608820619969 0 0.009158418198634305 0.077448293841085092 0 0.009562104048381221 0.073822946059100503 0 0.011261020222949588 0.075178608820619969 0 0.011925686896723594 0.077161477084919314 0 0.009158418198634305 0.077448293841085092 0 0.011925686896723594 0.077161477084919314 0 0.010956060180641798 0.079347217283750146 0 0.009158418198634305 0.077448293841085092 0 0.013491699663616344 0.079586047467095911 0 0.011925686896723594 0.077161477084919314 0 0.013986395729048962 0.077341142116815836 0 0.013491699663616344 0.079586047467095911 0 0.011925686896723594 0.077161477084919314 0 0.010956060180641798 0.079347217283750146 0 0.013491699663616344 0.079586047467095911 0 0.016268351581759488 0.077340410898581097 0 0.013986395729048962 0.077341142116815836 0 0.012693058096023236 0.071662162810122915 0 0.019584735079519227 0.069715579461417668 0 0.0074718169880667257 0.061345041383864686 0 0.0089707561679960805 0.060870721213854381 0 0.0094302436733465535 0.059713790181802229 0 0.022562212318775903 0.065409526739182433 0 0.019584735079519227 0.069715579461417668 0 0.039664801932967779 0.060419457650710676 0 0.037403757337510675 0.060735512893641687 0 0.038947420068859963 0.062787084703310583 0 0.038209493491780787 0.058669532879226195 0 0.039664801932967779 0.060419457650710676 0 0.037403757337510675 0.060735512893641687 0 0.035821188852746634 0.062872948494264738 0 0.037403757337510675 0.060735512893641687 0 0.038947420068859963 0.062787084703310583 0 0.022562212318775903 0.065409526739182433 0 0.02077988445043958 0.069343903117279587 0 0.022274472963555274 0.065882493407238674 0 0.020976289184112491 0.069560701343756859 0 0.020293746323580556 0.070176818627630144 0 0.017455056187530283 0.074798588331754165 0 0.016268351581759488 0.077340410898581097 0 0.016202392722039133 0.07548839565533208 0 0.017358719709602125 0.076602960003330681 0 0.015936490806714537 0.080885656395582511 0 0.016447804686289518 0.080414934360268142 0 0.018292046266851644 0.073288410553705857 0 0.019584735079519227 0.069715579461417668 0 0.021262770463219456 0.076462612780956105 0 0.017702680230758213 0.077248628039135014 0 0.016200464164159892 0.08076971945257394 0 0.025288494794942298 0.06903844758404136 0 0.02077988445043958 0.069343903117279587 0 0.017702680230758213 0.077248628039135014 0 0.017358719709602125 0.076602960003330681 0 0.016447804686289518 0.080414934360268142 0 0.019584735079519227 0.069715579461417668 0 0.02077988445043958 0.069343903117279587 0 0.019666439643611627 0.072088005403815311 0 0.02077988445043958 0.069343903117279587 0 0.016268351581759488 0.077340410898581097 0 0.015210665566655382 0.075734846870191441 0 0.013986395729048962 0.077341142116815836 0 0.016268351581759488 0.077340410898581097 0 0.016202392722039133 0.07548839565533208 0 0.015210665566655382 0.075734846870191441 0 0.013659961058533366 0.074843174236662438 0 0.015210665566655382 0.075734846870191441 0 0.013986395729048962 0.077341142116815836 0 0.0027645299124403125 0.074511506676588235 0 0.0035917854612715523 0.074672068620944554 0 0.0039060167344309731 0.074888307872174625 0 0.0027645299124403125 0.074511506676588235 0 0.0035917854612715523 0.074672068620944554 0 0.0036547731120610601 0.074233628270152854 0 0.0022233628223881836 0.073978916874935977 0 0.0030746127949375997 0.074688141741566905 0 0.0022625321731736081 0.073871655813418091 0 0.0015985853991540701 0.074453243911118058 0 0.0025415972817072882 0.074797700207078557 0 0.0022625321731736081 0.073871655813418091 0 0.0015985853991540701 0.074453243911118058 0 0.00090325634416286147 0.073936446396197453 0 0.0015985853991540701 0.074453243911118058 0 0.0014631370890560564 0.075166673744986451 0 0.0025415972817072882 0.074797700207078557 0 0.0014631370890560564 0.075166673744986451 0 0.0023546474540771887 0.075561574159397391 0 0.0012453757644215488 0.075930511435992484 0 0.0014631370890560564 0.075166673744986451 0 0.0023546474540771887 0.075561574159397391 0 0.0025415972817072882 0.074797700207078557 0 0.0031139155403137803 0.075242906559448833 0 0.0025415972817072882 0.074797700207078557 0 0.0036886085977177949 0.0753683485987693 0 0.0022625321731736081 0.073871655813418091 0 0.0025415972817072882 0.074797700207078557 0 0.0036886085977177949 0.0753683485987693 0 0.0023546474540771887 0.075561574159397391 0 0.0031139155403137803 0.075242906559448833 0 0.0037303971055200301 0.075329616238231395 0 0.0023546474540771887 0.075561574159397391 0 0.0031139155403137803 0.075242906559448833 0 0.0025415972817072882 0.074797700207078557 0 0.0035917854612715523 0.074672068620944554 0 0.0039060167344309731 0.074888307872174625 0 0.0038187242493936103 0.074812660866558689 0 0.0031139155403137803 0.075242906559448833 0 0.0036886085977177949 0.0753683485987693 0 0.0037303971055200301 0.075329616238231395 0 0.0036498147828224405 0.074411591238656621 0 0.0039060167344309731 0.074888307872174625 0 0.0037619679838990353 0.074682584071768032 0 0.0039060167344309731 0.074888307872174625 0 0.0038190441236274986 0.074794196327370083 0 0.0037619679838990353 0.074682584071768032 0 0.0039060167344309731 0.074888307872174625 0 0.0038190441236274986 0.074794196327370083 0 0.0038187242493936103 0.074812660866558689 0 0.0038190441236274986 0.074794196327370083 0 0.0037959545370566425 0.074762624495422952 0 0.0038187242493936103 0.074812660866558689 0 0.0038190441236274986 0.074794196327370083 0 0.0037959545370566425 0.074762624495422952 0 0.0037619679838990353 0.074682584071768032 0 0.0037959545370566425 0.074762624495422952 0 0.0037619679838990353 0.074682584071768032 0 0.0037240343184673746 0.074655399419605639 0 0.0037240343184673746 0.074655399419605639 0 0.0038287476572111709 0.074733037278979952 0 0.0036178470383681381 0.074598866502543715 0 0.0037959545370566425 0.074762624495422952 0 0.0037240343184673746 0.074655399419605639 0 0.0038287476572111709 0.074733037278979952 0 0.0037959545370566425 0.074762624495422952 0 0.0038287476572111709 0.074733037278979952 0 0.0038466429480538441 0.07476858364277468 0 0.0038287476572111709 0.074733037278979952 0 0.0038466429480538441 0.07476858364277468 0 0.0039807301107369604 0.074716474664069582 0 0.0035917854612715523 0.074672068620944554 0 0.0038466429480538441 0.07476858364277468 0 0.0038187242493936103 0.074812660866558689 0 0.0037959545370566425 0.074762624495422952 0 0.0038466429480538441 0.07476858364277468 0 0.0038187242493936103 0.074812660866558689 0 0.0078586859756179569 0.079509177093524133 0 0.0072235218736129495 0.076229087286910455 0 0.0031118118175783556 0.074321074598414943 0 0.0036178470383681381 0.074598866502543715 0 0.0042034715661240941 0.074784191750393067 0 0.0090763297951195442 0.080384173599463926 0 0.010956060180641798 0.079347217283750146 0 0.009158418198634305 0.077448293841085092 0 0.0068071202252947801 0.076220174197302148 0 0.0072235218736129495 0.076229087286910455 0 0.0038287476572111709 0.074733037278979952 0 0.0036178470383681381 0.074598866502543715 0 0.0042034715661240941 0.074784191750393067 0 0.0038287476572111709 0.074733037278979952 0 0.0042034715661240941 0.074784191750393067 0 0.0039807301107369604 0.074716474664069582 0 0.0042034715661240941 0.074784191750393067 0 0.0042979681418101748 0.074544449650204458 0 0.0050860024204554205 0.074209734049522344 0 0.0072235218736129495 0.076229087286910455 0 0.0067992262359845871 0.074879871049608318 0 0.0054712294373270576 0.076375510450562512 0 0.0060459293896235611 0.073814010925425833 0 0.0057019296147849197 0.074721651629603161 0 0.0072235218736129495 0.076229087286910455 0 0.0078316455547442765 0.073611065547492957 0 0.0042034715661240941 0.074784191750393067 0 0.0042979681418101748 0.074544449650204458 0 0.0039807301107369604 0.074716474664069582 0 0.0042979681418101748 0.074544449650204458 0 0.0043395646662296493 0.074180945436493173 0 0.0050860024204554205 0.074209734049522344 0 0.0035917854612715523 0.074672068620944554 0 0.0038466429480538441 0.07476858364277468 0 0.0039336070711067312 0.074578355672280702 0 0.0042979681418101748 0.074544449650204458 0 0.0039336070711067312 0.074578355672280702 0 0.0039807301107369604 0.074716474664069582 0 0.0038466429480538441 0.07476858364277468 0 0.0039336070711067312 0.074578355672280702 0 0.0039807301107369604 0.074716474664069582 0 0.0042979681418101748 0.074544449650204458 0 0.0039336070711067312 0.074578355672280702 0 0.0043395646662296493 0.074180945436493173 0 0.0035917854612715523 0.074672068620944554 0 0.0039336070711067312 0.074578355672280702 0 0.0036547731120610601 0.074233628270152854 0 0.0039336070711067312 0.074578355672280702 0 0.0036547731120610601 0.074233628270152854 0 0.0043395646662296493 0.074180945436493173 0 0.0036547731120610601 0.074233628270152854 0 0.0043395646662296493 0.074180945436493173 0 0.0042587973155842635 0.073491576019895227 0 0.0043395646662296493 0.074180945436493173 0 0.0042587973155842635 0.073491576019895227 0 0.0049534692839902621 0.073653348906654356 0 0.0036547731120610601 0.074233628270152854 0 0.0042587973155842635 0.073491576019895227 0 0.0032292386311181488 0.07353387909875507 0 0.0050860024204554205 0.074209734049522344 0 0.0049534692839902621 0.073653348906654356 0 0.0060193001392641002 0.073066341655153799 0 0.0067992262359845871 0.074879871049608318 0 0.0067060624701495699 0.074303605911405668 0 0.0060459293896235611 0.073814010925425833 0 0.0057019296147849197 0.074721651629603161 0 0.0060193001392641002 0.073066341655153799 0 0.0043395646662296493 0.074180945436493173 0 0.0050860024204554205 0.074209734049522344 0 0.0049534692839902621 0.073653348906654356 0 0.0042587973155842635 0.073491576019895227 0 0.0049534692839902621 0.073653348906654356 0 0.0052053680672555867 0.072972931078831418 0 0.0071230518952860641 0.07125966135775097 0 0.0060193001392641002 0.073066341655153799 0 0.0056648759194768486 0.072152637514123638 0 0.0071230518952860641 0.07125966135775097 0 0.0060459293896235611 0.073814010925425833 0 0.0060193001392641002 0.073066341655153799 0 0.0060193001392641002 0.073066341655153799 0 0.0052053680672555867 0.072972931078831418 0 0.0056648759194768486 0.072152637514123638 0 0.0049534692839902621 0.073653348906654356 0 0.0060193001392641002 0.073066341655153799 0 0.0052053680672555867 0.072972931078831418 0 0.0052053680672555867 0.072972931078831418 0 0.0056648759194768486 0.072152637514123638 0 0.0047711190767601467 0.072321197686214547 0 0.0042587973155842635 0.073491576019895227 0 0.0038176165304877243 0.072682393821891969 0 0.0032292386311181488 0.07353387909875507 0 0.0042587973155842635 0.073491576019895227 0 0.0047711190767601467 0.072321197686214547 0 0.0038176165304877243 0.072682393821891969 0 0.0042587973155842635 0.073491576019895227 0 0.0052053680672555867 0.072972931078831418 0 0.0047711190767601467 0.072321197686214547 0 0.0047711190767601467 0.072321197686214547 0 0.0038176165304877243 0.072682393821891969 0 0.0038761419022615073 0.071272308501575551 0 0.0038176165304877243 0.072682393821891969 0 0.002756915893243961 0.072527828680706022 0 0.0038761419022615073 0.071272308501575551 0 0.002756915893243961 0.072527828680706022 0 0.0023643019947948811 0.073269264431478145 0 0.0019751571426471705 0.072530031463458058 0 0.002756915893243961 0.072527828680706022 0 0.0023643019947948811 0.073269264431478145 0 0.0032292386311181488 0.07353387909875507 0 0.0038176165304877243 0.072682393821891969 0 0.002756915893243961 0.072527828680706022 0 0.0032292386311181488 0.07353387909875507 0 0.0027645299124403125 0.074511506676588235 0 0.0023643019947948811 0.073269264431478145 0 0.0032292386311181488 0.07353387909875507 0 0.0027645299124403125 0.074511506676588235 0 0.0036547731120610601 0.074233628270152854 0 0.0032292386311181488 0.07353387909875507 0 0.0022625321731736081 0.073871655813418091 0 0.00098247251374285628 0.07343622908901494 0 0.00090325634416286147 0.073936446396197453 0 0.0022233628223881836 0.073978916874935977 0 0.00086216045347524244 0.072513031393006161 0 0.0022625321731736081 0.073871655813418091 0 0.0011519260953649787 0.073243815467235573 0 0.00098247251374285628 0.07343622908901494 0 0.0027645299124403125 0.074511506676588235 0 0.0023643019947948811 0.073269264431478145 0 0.0011086353033177279 0.072947993320167562 0 0.0022625321731736081 0.073871655813418091 0 0.0011519260953649787 0.073243815467235573 0 0.00088288454225072871 0.072922699769900526 0 0.0011086353033177279 0.072947993320167562 0 0.0019751571426471705 0.072530031463458058 0 0.0016793567434680516 0.071070098282542835 0 0.0023643019947948811 0.073269264431478145 0 0.0011086353033177279 0.072947993320167562 0 0.0019751571426471705 0.072530031463458058 0 0.002756915893243961 0.072527828680706022 0 0.0019751571426471705 0.072530031463458058 0 0.0016793567434680516 0.071070098282542835 0 0.0011086353033177279 0.072947993320167562 0 0.0016793567434680516 0.071070098282542835 0 -0.00071528840168309782 0.070646128757818602 0 0.002756915893243961 0.072527828680706022 0 0.0016793567434680516 0.071070098282542835 0 0.0038761419022615073 0.071272308501575551 0 0.0016793567434680516 0.071070098282542835 0 0.0038761419022615073 0.071272308501575551 0 0.0032754779857988147 0.068774170330562975 0 0.0016793567434680516 0.071070098282542835 0 0.00051873070903178621 0.068160623432079362 0 0.0032754779857988147 0.068774170330562975 0 0.0016793567434680516 0.071070098282542835 0 0.00051873070903178621 0.068160623432079362 0 -0.00071528840168309782 0.070646128757818602 0 0.0071230518952860641 0.07125966135775097 0 0.0053252721403809376 0.0711843220804836 0 0.0056340886501850132 0.069580058271833251 0 0.0071230518952860641 0.07125966135775097 0 0.0056648759194768486 0.072152637514123638 0 0.0053252721403809376 0.0711843220804836 0 0.0056648759194768486 0.072152637514123638 0 0.0047711190767601467 0.072321197686214547 0 0.0053252721403809376 0.0711843220804836 0 0.0053252721403809376 0.0711843220804836 0 0.0038761419022615073 0.071272308501575551 0 0.0056340886501850132 0.069580058271833251 0 0.0047711190767601467 0.072321197686214547 0 0.0053252721403809376 0.0711843220804836 0 0.0038761419022615073 0.071272308501575551 0 0.0038761419022615073 0.071272308501575551 0 0.0056340886501850132 0.069580058271833251 0 0.0032754779857988147 0.068774170330562975 0 0.0082910346531952575 0.06832539832302123 0 0.0071230518952860641 0.07125966135775097 0 0.0056340886501850132 0.069580058271833251 0 0.0082910346531952575 0.06832539832302123 0 0.0056340886501850132 0.069580058271833251 0 0.0054452183662370441 0.067405843967624529 0 0.0056340886501850132 0.069580058271833251 0 0.0054452183662370441 0.067405843967624529 0 0.0032754779857988147 0.068774170330562975 0 0.0054452183662370441 0.067405843967624529 0 0.0059082998089426001 0.064999832079867606 0 0.0024391060676833914 0.065000076251708228 0 0.0093772912561714741 0.065000084299870808 0 0.0082910346531952575 0.06832539832302123 0 0.0054452183662370441 0.067405843967624529 0 0.0093772912561714741 0.065000084299870808 0 0.0054452183662370441 0.067405843967624529 0 0.0059082998089426001 0.064999832079867606 0 0.0054452183662370441 0.067405843967624529 0 0.0032754779857988147 0.068774170330562975 0 0.0024391060676833914 0.065000076251708228 0 0.00051873070903178621 0.068160623432079362 0 0.0032754779857988147 0.068774170330562975 0 0.0024391060676833914 0.065000076251708228 0 0.00051873070903178621 0.068160623432079362 0 0.0024391060676833914 0.065000076251708228 0 -0.0010300615884404959 0.064999868614500592 0 0.00051873070903178621 0.068160623432079362 0 -0.0010300615884404959 0.064999868614500592 0 -0.0026080239959627174 0.067949170067135981 0 -0.0027113004440249863 0.067663468534016932 0 -0.0044979229856388324 0.065002284535709082 0 -0.0010300615884404959 0.064999868614500592 0 -0.0026080239959627174 0.067949170067135981 0 -0.004499588787639403 0.064999986354085743 0 -0.003015026070597197 0.067584849187230053 0 -0.0045001550956209222 0.064999802814795588 0 -0.0054986511609698332 0.066847388265147648 0 -0.0045001550956209222 0.064999802814795588 0 -0.0067978635829779883 0.064999879243654843 0 -0.0054986511609698332 0.066847388265147648 0 -0.0067978635829779883 0.064999879243654843 0 -0.007706195173764965 0.066835960434925915 0 -0.0090953755432686793 0.064999913111580904 0 -0.0067978635829779883 0.064999879243654843 0 -0.007706195173764965 0.066835960434925915 0 -0.0054986511609698332 0.066847388265147648 0 -0.007706195173764965 0.066835960434925915 0 -0.0064547368977344397 0.068296867818814888 0 -0.0054986511609698332 0.066847388265147648 0 -0.007706195173764965 0.066835960434925915 0 -0.0064547368977344397 0.068296867818814888 0 -0.0081551421887538517 0.069168578622390273 0 -0.003015026070597197 0.067584849187230053 0 -0.0054986511609698332 0.066847388265147648 0 -0.0043961960469305417 0.069237027552941921 0 -0.0064547368977344397 0.068296867818814888 0 -0.0054986511609698332 0.066847388265147648 0 -0.0043961960469305417 0.069237027552941921 0 -0.0043961960469305417 0.069237027552941921 0 -0.0063754869651350922 0.069828802955631555 0 -0.0052063129855724468 0.071122084716296857 0 -0.0064547368977344397 0.068296867818814888 0 -0.0043961960469305417 0.069237027552941921 0 -0.0063754869651350922 0.069828802955631555 0 -0.0063754869651350922 0.069828802955631555 0 -0.0077419886548721253 0.071094774915448189 0 -0.0081551421887538517 0.069168578622390273 0 -0.0064547368977344397 0.068296867818814888 0 -0.0063754869651350922 0.069828802955631555 0 -0.0081551421887538517 0.069168578622390273 0 -0.0063754869651350922 0.069828802955631555 0 -0.0077419886548721253 0.071094774915448189 0 -0.0052063129855724468 0.071122084716296857 0 -0.0077419886548721253 0.071094774915448189 0 -0.0052063129855724468 0.071122084716296857 0 -0.0066333995881956561 0.073145557613834469 0 -0.0043961960469305417 0.069237027552941921 0 -0.0052063129855724468 0.071122084716296857 0 -0.0031998592791726206 0.071324519069474984 0 -0.0052063129855724468 0.071122084716296857 0 -0.0031998592791726206 0.071324519069474984 0 -0.0040645912486110087 0.07233163334633802 0 -0.0043961960469305417 0.069237027552941921 0 -0.0031998592791726206 0.071324519069474984 0 -0.0012364667808336656 0.070175922209243791 0 0.00086216045347524244 0.072513031393006161 0 -0.00088230366229957594 0.070256332285748693 0 -0.0031998592791726206 0.071324519069474984 0 -0.0012364667808336656 0.070175922209243791 0 -0.0014392674728826819 0.072127812444927067 0 0.00088288454225072871 0.072922699769900526 0 -0.0012364667808336656 0.070175922209243791 0 -0.0014392674728826819 0.072127812444927067 0 0.00051873070903178621 0.068160623432079362 0 -0.0026080239959627174 0.067949170067135981 0 -0.00071528840168309782 0.070646128757818602 0 -0.0027113004440249863 0.067663468534016932 0 -0.00088230366229957594 0.070256332285748693 0 -0.003015026070597197 0.067584849187230053 0 -0.0043961960469305417 0.069237027552941921 0 -0.0012364667808336656 0.070175922209243791 0 -0.013085820855326268 0.067809935775515418 0 -0.015164060292717921 0.069822908744890527 0 -0.016377768754695717 0.067965729574095995 0 -0.014863993900294874 0.065000136671558004 0 -0.013085820855326268 0.067809935775515418 0 -0.016377768754695717 0.067965729574095995 0 -0.014870279790161187 0.065000347262143612 0 -0.019170270857997433 0.06645715361116554 0 -0.013013929823521076 0.065002778641022246 0 -0.013670391842341555 0.067590503751342665 0 -0.013012365360098302 0.064999979737599051 0 -0.012834201679715992 0.067978959528315938 0 -0.011273073719021339 0.06653670812248938 0 -0.014863993900294874 0.065000136671558004 0 -0.013013268561832688 0.064999800240076677 0 -0.013085820855326268 0.067809935775515418 0 -0.012834201679715992 0.067978959528315938 0 -0.011273073719021339 0.06653670812248938 0 -0.010121379400532088 0.068104097625111423 0 -0.012834201679715992 0.067978959528315938 0 -0.010121379400532088 0.068104097625111423 0 -0.011654852162889431 0.069357292724343447 0 -0.013012365360098302 0.064999979737599051 0 -0.011273073719021339 0.06653670812248938 0 -0.0090963515046990785 0.064999979344166278 0 -0.0090982143597592279 0.065002183376633382 0 -0.010667496501205725 0.067491568426500781 0 -0.011273073719021339 0.06653670812248938 0 -0.0090963515046990785 0.064999979344166278 0 -0.010121379400532088 0.068104097625111423 0 -0.007706195173764965 0.066835960434925915 0 -0.0090953755432686793 0.064999913111580904 0 -0.0095200001231836306 0.067785021985298261 0 -0.007706195173764965 0.066835960434925915 0 -0.0095200001231836306 0.067785021985298261 0 -0.0081551421887538517 0.069168578622390273 0 -0.0095200001231836306 0.067785021985298261 0 -0.0081551421887538517 0.069168578622390273 0 -0.010232035861732871 0.070551504775765633 0 -0.0077419886548721253 0.071094774915448189 0 -0.0081551421887538517 0.069168578622390273 0 -0.010232035861732871 0.070551504775765633 0 -0.0077419886548721253 0.071094774915448189 0 -0.010232035861732871 0.070551504775765633 0 -0.0096347860255735756 0.072642191541766446 0 -0.01106405819593506 0.071011290695645712 0 -0.012693656012656564 0.070782312066160494 0 -0.012609579248086849 0.073457081149220463 0 -0.012655857433262785 0.069499778564304102 0 -0.015386876501356391 0.069258899855830447 0 -0.010667496501205725 0.067491568426500781 0 -0.012655857433262785 0.069499778564304102 0 -0.010121379400532088 0.068104097625111423 0 -0.01106405819593506 0.071011290695645712 0 -0.011654852162889431 0.069357292724343447 0 -0.01106405819593506 0.071011290695645712 0 -0.011654852162889431 0.069357292724343447 0 -0.012693656012656564 0.070782312066160494 0 -0.013085820855326268 0.067809935775515418 0 -0.013071771808367407 0.070474614596017129 0 -0.015164060292717921 0.069822908744890527 0 -0.013670391842341555 0.067590503751342665 0 -0.014692545441696958 0.069537955084350803 0 -0.012834201679715992 0.067978959528315938 0 -0.011654852162889431 0.069357292724343447 0 -0.012693656012656564 0.070782312066160494 0 -0.014692545441696958 0.069537955084350803 0 -0.016673434819317056 0.068619422923337114 0 -0.013071771808367407 0.070474614596017129 0 -0.015429874143907212 0.071982326380147788 0 -0.013009090609287758 0.073119369548369881 0 -0.013071771808367407 0.070474614596017129 0 -0.015429874143907212 0.071982326380147788 0 -0.015164060292717921 0.069822908744890527 0 -0.027616468764085484 0.064295658144349996 0 -0.027621563559809176 0.064020718376650659 0 -0.027288745219980363 0.064157789876144927 0 -0.027616468764085484 0.064295658144349996 0 -0.027975804738427732 0.064039422036491614 0 -0.027621563559809176 0.064020718376650659 0 -0.027566925206003009 0.064628977114442529 0 -0.027616468764085484 0.064295658144349996 0 -0.027291223611653884 0.064476782685261372 0 -0.027566925206003009 0.064628977114442529 0 -0.027616468764085484 0.064295658144349996 0 -0.027951110537823291 0.064446895756881242 0 -0.021023632767860869 0.067433931795612939 0 -0.016673434819317056 0.068619422923337114 0 -0.016673434819317056 0.068619422923337114 0 -0.015386876501356391 0.069258899855830447 0 -0.016599044319802626 0.070023360299045379 0 -0.016641469176060457 0.068651527043163282 0 -0.016987553137023888 0.069838469049525856 0 -0.027616468764085484 0.064295658144349996 0 -0.027951110537823291 0.064446895756881242 0 -0.027975804738427732 0.064039422036491614 0 -0.016673434819317056 0.068619422923337114 0 -0.017155700849158732 0.069190620533672642 0 -0.017155700849158732 0.069190620533672642 0 -0.015386876501356391 0.069258899855830447 0 -0.011112478689545196 0.07452667962965763 0 -0.010416571570316311 0.073647967001130535 0 -0.010751591382893829 0.073089476343056542 0 -0.011112478689545196 0.07452667962965763 0 -0.010073622312283786 0.074260678396184443 0 -0.010416571570316311 0.073647967001130535 0 -0.010073622312283786 0.074260678396184443 0 -0.0097660699476724844 0.073498455185335279 0 -0.0093542768051096143 0.074196414201891062 0 -0.010073622312283786 0.074260678396184443 0 -0.0093542768051096143 0.074196414201891062 0 -0.0097057560498245397 0.074609971288385896 0 -0.010073622312283786 0.074260678396184443 0 -0.0097660699476724844 0.073498455185335279 0 -0.010416571570316311 0.073647967001130535 0 -0.0097660699476724844 0.073498455185335279 0 -0.010416571570316311 0.073647967001130535 0 -0.010159489501733447 0.073322320561408583 0 -0.010416571570316311 0.073647967001130535 0 -0.010595085269560385 0.073174859623713173 0 -0.010159489501733447 0.073322320561408583 0 -0.010816851214462599 0.073092224072386414 0 -0.010595085269560385 0.073174859623713173 0 -0.0096347860255735756 0.072642191541766446 0 -0.010232035861732871 0.070551504775765633 0 -0.010816851214462599 0.073092224072386414 0 -0.0096347860255735756 0.072642191541766446 0 -0.01106405819593506 0.071011290695645712 0 -0.012609579248086849 0.073457081149220463 0 -0.011907890652196353 0.073789003896489694 0 -0.015386876501356391 0.069258899855830447 0 -0.015337419140480084 0.069286408015402964 0 -0.010416571570316311 0.073647967001130535 0 -0.010751591382893829 0.073089476343056542 0 -0.010595085269560385 0.073174859623713173 0 -0.0097660699476724844 0.073498455185335279 0 -0.0096347860255735756 0.072642191541766446 0 -0.010159489501733447 0.073322320561408583 0 -0.010595085269560385 0.073174859623713173 0 -0.0096347860255735756 0.072642191541766446 0 -0.010159489501733447 0.073322320561408583 0 -0.0096347860255735756 0.072642191541766446 0 -0.0086175603491286182 0.073420658099051836 0 -0.0092382949211606644 0.073563576594419533 0 -0.0096347860255735756 0.072642191541766446 0 -0.0086175603491286182 0.073420658099051836 0 -0.0076561837612635786 0.072898616223760745 0 -0.0077419886548721253 0.071094774915448189 0 -0.0096347860255735756 0.072642191541766446 0 -0.0066333995881956561 0.073145557613834469 0 -0.007965270038084173 0.072614587991846488 0 -0.0065817661194906207 0.072697392535401195 0 -0.0097660699476724844 0.073498455185335279 0 -0.0096347860255735756 0.072642191541766446 0 -0.0092382949211606644 0.073563576594419533 0 -0.0086175603491286182 0.073420658099051836 0 -0.0092382949211606644 0.073563576594419533 0 -0.0089176468674917707 0.074073154115632409 0 -0.0092382949211606644 0.073563576594419533 0 -0.0093542768051096143 0.074196414201891062 0 -0.0089176468674917707 0.074073154115632409 0 -0.0097660699476724844 0.073498455185335279 0 -0.0092382949211606644 0.073563576594419533 0 -0.0093542768051096143 0.074196414201891062 0 -0.0093542768051096143 0.074196414201891062 0 -0.0089176468674917707 0.074073154115632409 0 -0.0089828640810310466 0.074633547252460186 0 -0.0086175603491286182 0.073420658099051836 0 -0.0089176468674917707 0.074073154115632409 0 -0.0083924679666435176 0.074551050207023239 0 -0.0089176468674917707 0.074073154115632409 0 -0.0089828640810310466 0.074633547252460186 0 -0.0083924679666435176 0.074551050207023239 0 -0.0089828640810310466 0.074633547252460186 0 -0.0091332198995445861 0.075723298246858819 0 -0.0083924679666435176 0.074551050207023239 0 -0.0093542768051096143 0.074196414201891062 0 -0.00936627771596776 0.074959321628849079 0 -0.0097057560498245397 0.074609971288385896 0 -0.0089828640810310466 0.074633547252460186 0 -0.00936627771596776 0.074959321628849079 0 -0.0091332198995445861 0.075723298246858819 0 -0.0093542768051096143 0.074196414201891062 0 -0.0089828640810310466 0.074633547252460186 0 -0.00936627771596776 0.074959321628849079 0 -0.00936627771596776 0.074959321628849079 0 -0.0091332198995445861 0.075723298246858819 0 -0.0095917905023831327 0.075321756462633935 0 -0.0091332198995445861 0.075723298246858819 0 -0.0095917905023831327 0.075321756462633935 0 -0.0098429282863662336 0.075586339261826105 0 -0.002614989463493944 0.074616635388818173 0 -0.0026957389778735656 0.075054476414308957 0 -0.002106581528505205 0.075074076295996273 0 -0.0026957389778735656 0.075054476414308957 0 -0.0026775414949093169 0.075401761925549968 0 -0.002106581528505205 0.075074076295996273 0 -0.0026775414949093169 0.075401761925549968 0 -0.0033618077222016731 0.075127982693858508 0 -0.0030763106416045079 0.075658343502250563 0 -0.0026957389778735656 0.075054476414308957 0 -0.0026775414949093169 0.075401761925549968 0 -0.0033618077222016731 0.075127982693858508 0 -0.0082414214483590813 0.070488610963052728 0 -0.0095166965380331509 0.070473870041602396 0 -0.002614989463493944 0.074616635388818173 0 -0.0026957389778735656 0.075054476414308957 0 -0.0033618077222016731 0.075127982693858508 0 -0.0029233260482450954 0.074656013173379249 0 -0.002614989463493944 0.074616635388818173 0 -0.003575383490100822 0.075121174890150411 0 -0.010186085906703521 0.076079525786062391 0 -0.010490447242874474 0.075561048825833421 0 -0.0098429282863662336 0.075586339261826105 0 -0.0091332198995445861 0.075723298246858819 0 -0.010186085906703521 0.076079525786062391 0 -0.0098429282863662336 0.075586339261826105 0 -0.0084377204646938521 0.07242982420477051 0 -0.013747544764970927 0.070517872931549458 0 -0.0091332198995445861 0.075723298246858819 0 -0.010186085906703521 0.076079525786062391 0 -0.010858766179225007 0.076958962780007495 0 -0.0029233260482450954 0.074656013173379249 0 -0.003575383490100822 0.075121174890150411 0 -0.004567525248219983 0.075618515781402398 0 -0.0095166965380331509 0.070473870041602396 0 -0.013747544764970927 0.070517872931549458 0 -0.010186085906703521 0.076079525786062391 0 -0.010718361553660627 0.076341348671318782 0 -0.010858766179225007 0.076958962780007495 0 -0.010718361553660627 0.076341348671318782 0 -0.010490447242874474 0.075561048825833421 0 -0.0110589856839662 0.075804333821461706 0 -0.010186085906703521 0.076079525786062391 0 -0.010718361553660627 0.076341348671318782 0 -0.010490447242874474 0.075561048825833421 0 -0.010490447242874474 0.075561048825833421 0 -0.0098429282863662336 0.075586339261826105 0 -0.01002525505392214 0.075017828152320942 0 -0.0095917905023831327 0.075321756462633935 0 -0.0098429282863662336 0.075586339261826105 0 -0.01002525505392214 0.075017828152320942 0 -0.00936627771596776 0.074959321628849079 0 -0.0097057560498245397 0.074609971288385896 0 -0.01002525505392214 0.075017828152320942 0 -0.00936627771596776 0.074959321628849079 0 -0.0095917905023831327 0.075321756462633935 0 -0.01002525505392214 0.075017828152320942 0 -0.010073622312283786 0.074260678396184443 0 -0.0097057560498245397 0.074609971288385896 0 -0.01002525505392214 0.075017828152320942 0 -0.011112478689545196 0.07452667962965763 0 -0.010490447242874474 0.075561048825833421 0 -0.01002525505392214 0.075017828152320942 0 -0.011112478689545196 0.07452667962965763 0 -0.010073622312283786 0.074260678396184443 0 -0.01002525505392214 0.075017828152320942 0 -0.018729495401701567 0.069373892025177186 0 -0.01860602533558945 0.068944805157051495 0 -0.018740747293989054 0.069034279189702868 0 -0.017155700849158732 0.069190620533672642 0 -0.019610947383009232 0.068041658319947212 0 -0.011112478689545196 0.07452667962965763 0 -0.010490447242874474 0.075561048825833421 0 -0.0110589856839662 0.075804333821461706 0 -0.017155700849158732 0.069190620533672642 0 -0.016193499694905817 0.07069943514429293 0 -0.027975804738427732 0.064039422036491614 0 -0.027878753870947726 0.063631615904203867 0 -0.027687669620140846 0.063790256332532699 0 -0.016193499694905817 0.07069943514429293 0 -0.015583335775745626 0.070269976441564228 0 -0.01860602533558945 0.068944805157051495 0 -0.018740747293989054 0.069034279189702868 0 -0.018753331982966883 0.06868810820511867 0 -0.010718361553660627 0.076341348671318782 0 -0.0110589856839662 0.075804333821461706 0 -0.0110280853832459 0.077083936248421317 0 -0.010718361553660627 0.076341348671318782 0 -0.010858766179225007 0.076958962780007495 0 -0.0110280853832459 0.077083936248421317 0 -0.027592072592056007 0.063497122788069724 0 -0.027687669620140846 0.063790256332532699 0 -0.027364804368072978 0.063758509209067463 0 -0.027878753870947726 0.063631615904203867 0 -0.027592072592056007 0.063497122788069724 0 -0.027781509697848063 0.063218821673280884 0 -0.027878753870947726 0.063631615904203867 0 -0.027592072592056007 0.063497122788069724 0 -0.027687669620140846 0.063790256332532699 0 -0.027975804738427732 0.064039422036491614 0 -0.027687669620140846 0.063790256332532699 0 -0.027621563559809176 0.064020718376650659 0 -0.027687669620140846 0.063790256332532699 0 -0.027621563559809176 0.064020718376650659 0 -0.027364804368072978 0.063758509209067463 0 0.00018232712637276092 0.073254111014819004 0 0.00064031314361238565 0.073028180273551721 0 -0.00021556907214791688 0.072835753234542028 0 0.00018232712637276092 0.073254111014819004 0 -0.00041487143846081825 0.073495766511134708 0 -0.00021556907214791688 0.072835753234542028 0 -0.00041487143846081825 0.073495766511134708 0 0.00014877360973434328 0.073695525170817941 0 -0.00060326440879764228 0.074152036617639153 0 0.00018232712637276092 0.073254111014819004 0 -0.00041487143846081825 0.073495766511134708 0 0.00014877360973434328 0.073695525170817941 0 0.00018232712637276092 0.073254111014819004 0 0.00014877360973434328 0.073695525170817941 0 0.00055403540441921993 0.073410136884006938 0 0.00014877360973434328 0.073695525170817941 0 0.00055403540441921993 0.073410136884006938 0 0.00090325634416286147 0.073936446396197453 0 0.0011519260953649787 0.073243815467235573 0 0.00098247251374285628 0.07343622908901494 0 0.00064031314361238565 0.073028180273551721 0 0.00098247251374285628 0.07343622908901494 0 0.00055403540441921993 0.073410136884006938 0 0.00090325634416286147 0.073936446396197453 0 0.00098247251374285628 0.07343622908901494 0 0.00055403540441921993 0.073410136884006938 0 0.00064031314361238565 0.073028180273551721 0 0.00018232712637276092 0.073254111014819004 0 0.00055403540441921993 0.073410136884006938 0 0.00064031314361238565 0.073028180273551721 0 -0.0010906919552677492 0.073713737358358691 0 -0.0014392674728826819 0.072127812444927067 0 -0.0028004347711185489 0.073156209224031418 0 -0.001044590229265531 0.073067762834643987 0 -0.0016984822137356349 0.07299046433215152 0 0.0011519260953649787 0.073243815467235573 0 0.00088288454225072871 0.072922699769900526 0 -0.0010906919552677492 0.073713737358358691 0 0.00088288454225072871 0.072922699769900526 0 -0.0010906919552677492 0.073713737358358691 0 -0.0014392674728826819 0.072127812444927067 0 -0.0016984822137356349 0.07299046433215152 0 -0.0035100114720957002 0.072744415570000234 0 -0.0010906919552677492 0.073713737358358691 0 -0.0028004347711185489 0.073156209224031418 0 -0.0033780161144435221 0.073606392453921574 0 -0.0031998592791726206 0.071324519069474984 0 -0.0014392674728826819 0.072127812444927067 0 -0.0028004347711185489 0.073156209224031418 0 -0.0028004347711185489 0.073156209224031418 0 -0.0033504805558369323 0.073562417023594243 0 -0.0040645912486110087 0.07233163334633802 0 -0.0035020369410449868 0.072747980865545361 0 -0.0035100114720957002 0.072744415570000234 0 -0.0031998592791726206 0.071324519069474984 0 -0.0028004347711185489 0.073156209224031418 0 -0.0040645912486110087 0.07233163334633802 0 -0.0033504805558369323 0.073562417023594243 0 -0.0040645912486110087 0.07233163334633802 0 -0.0066333995881956561 0.073145557613834469 0 -0.0035100114720957002 0.072744415570000234 0 -0.0065817661194906207 0.072697392535401195 0 -0.0052063129855724468 0.071122084716296857 0 -0.0040645912486110087 0.07233163334633802 0 -0.0066333995881956561 0.073145557613834469 0 -0.0086175603491286182 0.073420658099051836 0 -0.0076561837612635786 0.072898616223760745 0 -0.0073682349114877884 0.074431993154773099 0 -0.0086175603491286182 0.073420658099051836 0 -0.0073682349114877884 0.074431993154773099 0 -0.0083924679666435176 0.074551050207023239 0 -0.005621981393068176 0.073128877196878689 0 -0.0076561837612635786 0.072898616223760745 0 -0.0073682349114877884 0.074431993154773099 0 -0.0035100114720957002 0.072744415570000234 0 -0.0054758745752084533 0.072898013921875254 0 -0.00041487143846081825 0.073495766511134708 0 -0.00021556907214791688 0.072835753234542028 0 -0.0015136340646557354 0.073702997736325007 0 -0.00041487143846081825 0.073495766511134708 0 -0.0015136340646557354 0.073702997736325007 0 -0.00060326440879764228 0.074152036617639153 0 -0.0015136340646557354 0.073702997736325007 0 -0.00060326440879764228 0.074152036617639153 0 -0.0014528778571329156 0.074653780366138178 0 -0.00060326440879764228 0.074152036617639153 0 -0.0014528778571329156 0.074653780366138178 0 -0.00057263115747368675 0.074987872865467861 0 -0.0091332198995445861 0.075723298246858819 0 -0.0073682349114877884 0.074431993154773099 0 -0.0083924679666435176 0.074551050207023239 0 -0.0029233260482450954 0.074656013173379249 0 -0.002614989463493944 0.074616635388818173 0 -0.0015136340646557354 0.073702997736325007 0 -0.002614989463493944 0.074616635388818173 0 -0.0015136340646557354 0.073702997736325007 0 -0.0014528778571329156 0.074653780366138178 0 -0.0084377204646938521 0.07242982420477051 0 -0.0054758745752084533 0.072898013921875254 0 -0.0014528778571329156 0.074653780366138178 0 -0.002106581528505205 0.075074076295996273 0 -0.0013691894115126634 0.075583692525031165 0 -0.002614989463493944 0.074616635388818173 0 -0.0014528778571329156 0.074653780366138178 0 -0.002106581528505205 0.075074076295996273 0 -0.002106581528505205 0.075074076295996273 0 -0.0013691894115126634 0.075583692525031165 0 -0.0021448469666289932 0.075759946000743969 0 -0.0026775414949093169 0.075401761925549968 0 -0.002106581528505205 0.075074076295996273 0 -0.0021448469666289932 0.075759946000743969 0 -0.0014528778571329156 0.074653780366138178 0 -0.00057263115747368675 0.074987872865467861 0 -0.0013691894115126634 0.075583692525031165 0 -0.00057263115747368675 0.074987872865467861 0 -0.0013691894115126634 0.075583692525031165 0 -0.00044664479996442348 0.075962017900171278 0 -0.00057263115747368675 0.074987872865467861 0 0.00039608822069474222 0.07534998244922686 0 -0.00044664479996442348 0.075962017900171278 0 -0.00057263115747368675 0.074987872865467861 0 0.00039608822069474222 0.07534998244922686 0 0.0001490000939258468 0.074409807004911788 0 -0.00060326440879764228 0.074152036617639153 0 -0.00057263115747368675 0.074987872865467861 0 0.0001490000939258468 0.074409807004911788 0 0.00014877360973434328 0.073695525170817941 0 -0.00060326440879764228 0.074152036617639153 0 0.0001490000939258468 0.074409807004911788 0 0.00014877360973434328 0.073695525170817941 0 0.0001490000939258468 0.074409807004911788 0 0.00090325634416286147 0.073936446396197453 0 0.0001490000939258468 0.074409807004911788 0 0.00090325634416286147 0.073936446396197453 0 0.00088293239136993972 0.074601365089694532 0 0.0015985853991540701 0.074453243911118058 0 0.00090325634416286147 0.073936446396197453 0 0.00088293239136993972 0.074601365089694532 0 0.0014631370890560564 0.075166673744986451 0 0.00039608822069474222 0.07534998244922686 0 0.00088293239136993972 0.074601365089694532 0 0.0014631370890560564 0.075166673744986451 0 0.00039608822069474222 0.07534998244922686 0 0.0012453757644215488 0.075930511435992484 0 0.00039608822069474222 0.07534998244922686 0 0.0001490000939258468 0.074409807004911788 0 0.00088293239136993972 0.074601365089694532 0 0.0015985853991540701 0.074453243911118058 0 0.0014631370890560564 0.075166673744986451 0 0.00088293239136993972 0.074601365089694532 0 0.0020386628682314265 0.076830701250508365 0 0.0012453757644215488 0.075930511435992484 0 0.00056027015057142401 0.076677394885786149 0 0.00039608822069474222 0.07534998244922686 0 0.0012453757644215488 0.075930511435992484 0 0.00056027015057142401 0.076677394885786149 0 -0.00044664479996442348 0.075962017900171278 0 0.00056027015057142401 0.076677394885786149 0 -0.00054263902073584569 0.07691080235832623 0 0.00039608822069474222 0.07534998244922686 0 -0.00044664479996442348 0.075962017900171278 0 0.00056027015057142401 0.076677394885786149 0 0.00056027015057142401 0.076677394885786149 0 -9.1122307162861741e-06 0.077682217044742458 0 -0.00054263902073584569 0.07691080235832623 0 0.00056027015057142401 0.076677394885786149 0 0.00089539030722408702 0.077879505668738636 0 -9.1122307162861741e-06 0.077682217044742458 0 0.0020386628682314265 0.076830701250508365 0 0.00056027015057142401 0.076677394885786149 0 0.00089539030722408702 0.077879505668738636 0 0.00089539030722408702 0.077879505668738636 0 -9.1122307162861741e-06 0.077682217044742458 0 -0.00013680325443476914 0.078953445087396171 0 -9.1122307162861741e-06 0.077682217044742458 0 -0.00013680325443476914 0.078953445087396171 0 -0.00082130480386843451 0.07794024215933211 0 -9.1122307162861741e-06 0.077682217044742458 0 -0.00082130480386843451 0.07794024215933211 0 -0.00054263902073584569 0.07691080235832623 0 0.0060836326710613856 0.069748008323342575 0 0.0072812250537840906 0.072043946335733133 0 0.0075007775245192468 0.07019242326559709 0 0.0072812250537840906 0.072043946335733133 0 0.0089585414659979212 0.070178039952681376 0 0.0075007775245192468 0.07019242326559709 0 0.0023087295524938599 0.073225232895432868 0 0.000720269774381789 0.070757851022258927 0 -0.001792851783750664 0.078579178681722095 0 -0.0029320888789048922 0.078568825008767565 0 -0.0019390501458637778 0.079388638927686078 0 -0.001792851783750664 0.078579178681722095 0 -0.001117992169166627 0.079086972854356938 0 -0.0019390501458637778 0.079388638927686078 0 -0.00013680325443476914 0.078953445087396171 0 -0.00082130480386843451 0.07794024215933211 0 -0.001117992169166627 0.079086972854356938 0 -0.001792851783750664 0.078579178681722095 0 -0.00082130480386843451 0.07794024215933211 0 -0.001117992169166627 0.079086972854356938 0 -0.00082130480386843451 0.07794024215933211 0 -0.0016667541933785446 0.077756820430294582 0 -0.0015350294513917213 0.076941831122751062 0 -0.001792851783750664 0.078579178681722095 0 -0.00082130480386843451 0.07794024215933211 0 -0.0016667541933785446 0.077756820430294582 0 -0.001792851783750664 0.078579178681722095 0 -0.0016667541933785446 0.077756820430294582 0 -0.0024624281121181438 0.077872575054291487 0 -0.0016667541933785446 0.077756820430294582 0 -0.0024157658407181846 0.077101275092872859 0 -0.0024624281121181438 0.077872575054291487 0 -0.0016667541933785446 0.077756820430294582 0 -0.0015350294513917213 0.076941831122751062 0 -0.0024157658407181846 0.077101275092872859 0 -0.0015350294513917213 0.076941831122751062 0 -0.0022139675408638006 0.076479987919576775 0 -0.0017045042994236629 0.076219478056762394 0 -0.0015350294513917213 0.076941831122751062 0 -0.0011319037235507977 0.076315597102929192 0 -0.0017045042994236629 0.076219478056762394 0 -0.0015350294513917213 0.076941831122751062 0 -0.0022139675408638006 0.076479987919576775 0 -0.0024157658407181846 0.077101275092872859 0 -0.0015350294513917213 0.076941831122751062 0 -0.00054263902073584569 0.07691080235832623 0 -0.0011319037235507977 0.076315597102929192 0 -0.00082130480386843451 0.07794024215933211 0 -0.0015350294513917213 0.076941831122751062 0 -0.00054263902073584569 0.07691080235832623 0 -0.0013691894115126634 0.075583692525031165 0 -0.00044664479996442348 0.075962017900171278 0 -0.0011319037235507977 0.076315597102929192 0 -0.00044664479996442348 0.075962017900171278 0 -0.00054263902073584569 0.07691080235832623 0 -0.0011319037235507977 0.076315597102929192 0 -0.0013691894115126634 0.075583692525031165 0 -0.0011319037235507977 0.076315597102929192 0 -0.0017045042994236629 0.076219478056762394 0 -0.0022139675408638006 0.076479987919576775 0 -0.0017045042994236629 0.076219478056762394 0 -0.0021448469666289932 0.075759946000743969 0 -0.0013691894115126634 0.075583692525031165 0 -0.0017045042994236629 0.076219478056762394 0 -0.0021448469666289932 0.075759946000743969 0 -0.0026775414949093169 0.075401761925549968 0 -0.0021448469666289932 0.075759946000743969 0 -0.0027553163385783696 0.07596941074724374 0 -0.0022139675408638006 0.076479987919576775 0 -0.0021448469666289932 0.075759946000743969 0 -0.0027553163385783696 0.07596941074724374 0 -0.0022139675408638006 0.076479987919576775 0 -0.0027553163385783696 0.07596941074724374 0 -0.0028749128114472972 0.07651200486884796 0 -0.0027553163385783696 0.07596941074724374 0 -0.0035095877648154343 0.076135208730703077 0 -0.0028749128114472972 0.07651200486884796 0 -0.0027553163385783696 0.07596941074724374 0 -0.0030763106416045079 0.075658343502250563 0 -0.0035095877648154343 0.076135208730703077 0 -0.0026775414949093169 0.075401761925549968 0 -0.0027553163385783696 0.07596941074724374 0 -0.0030763106416045079 0.075658343502250563 0 -0.0033618077222016731 0.075127982693858508 0 -0.0030763106416045079 0.075658343502250563 0 -0.0035095877648154343 0.076135208730703077 0 -0.0035095877648154343 0.076135208730703077 0 -0.004249430604477568 0.075717264540840531 0 -0.0041786559864695145 0.077379962377089884 0 -0.0033618077222016731 0.075127982693858508 0 -0.0035095877648154343 0.076135208730703077 0 -0.0041224353597526303 0.075622951000809166 0 -0.0035095877648154343 0.076135208730703077 0 -0.0041224353597526303 0.075622951000809166 0 -0.004249430604477568 0.075717264540840531 0 -0.0035095877648154343 0.076135208730703077 0 -0.003149772260224211 0.077255849666434243 0 -0.0041786559864695145 0.077379962377089884 0 -0.0035095877648154343 0.076135208730703077 0 -0.003149772260224211 0.077255849666434243 0 -0.0028749128114472972 0.07651200486884796 0 -0.003149772260224211 0.077255849666434243 0 -0.0024157658407181846 0.077101275092872859 0 -0.0028749128114472972 0.07651200486884796 0 -0.0022139675408638006 0.076479987919576775 0 -0.0024157658407181846 0.077101275092872859 0 -0.0028749128114472972 0.07651200486884796 0 -0.027781509697848063 0.063218821673280884 0 -0.027392602688008284 0.063048593185814045 0 -0.027451427252117789 0.063282475052838807 0 -0.027592072592056007 0.063497122788069724 0 -0.027781509697848063 0.063218821673280884 0 -0.027451427252117789 0.063282475052838807 0 -0.028720084352584122 0.063840563878339848 0 -0.02956787177106188 0.064405589976735539 0 -0.029651250908447929 0.062467483671363212 0 -0.01860602533558945 0.068944805157051495 0 -0.018486651825193549 0.068513486952010705 0 -0.018753331982966883 0.06868810820511867 0 -0.019610947383009232 0.068041658319947212 0 -0.020841307843029386 0.068774341784152579 0 -0.020841307843029386 0.068774341784152579 0 -0.015583335775745626 0.070269976441564228 0 -0.013747544764970927 0.070517872931549458 0 -0.015583335775745626 0.070269976441564228 0 -0.028720084352584122 0.063840563878339848 0 -0.029232289909835972 0.06252697148823036 0 -0.029651250908447929 0.062467483671363212 0 -0.028720084352584122 0.063840563878339848 0 -0.028565633490388334 0.062968597275110297 0 -0.029232289909835972 0.06252697148823036 0 -0.015583335775745626 0.070269976441564228 0 -0.016437448643964299 0.069816019429178297 0 -0.028565633490388334 0.062968597275110297 0 -0.028238209088552669 0.062390603968343845 0 -0.029232289909835972 0.06252697148823036 0 -0.028629163035650333 0.063768584572579043 0 -0.028025346144487422 0.063184284521830156 0 -0.027336717017802124 0.062846033326889122 0 -0.027781509697848063 0.063218821673280884 0 -0.027392602688008284 0.063048593185814045 0 -0.027336717017802124 0.062846033326889122 0 -0.020841307843029386 0.068774341784152579 0 -0.023644509837386907 0.067804669674954535 0 -0.028720084352584122 0.063840563878339848 0 -0.028565633490388334 0.062968597275110297 0 -0.028025346144487422 0.063184284521830156 0 -0.020841307843029386 0.068774341784152579 0 -0.021805953373593916 0.068574982010356625 0 -0.028565633490388334 0.062968597275110297 0 -0.028025346144487422 0.063184284521830156 0 -0.028238209088552669 0.062390603968343845 0 -0.028025346144487422 0.063184284521830156 0 -0.028238209088552669 0.062390603968343845 0 -0.027633957668183686 0.062622455547526518 0 -0.028470353446198183 0.06180947878818923 0 -0.028459542813765833 0.061137101110764619 0 -0.027628303122894337 0.062138431983930181 0 -0.028459807730084399 0.062303791333170551 0 -0.028923922201300113 0.061976537276152231 0 -0.029232289909835972 0.06252697148823036 0 -0.028470353446198183 0.06180947878818923 0 -0.028459807730084399 0.062303791333170551 0 -0.027628303122894337 0.062138431983930181 0 -0.030842987698848329 0.059029562920038033 0 -0.030406187868810816 0.059310607934653148 0 -0.028470353446198183 0.06180947878818923 0 -0.028923922201300113 0.061976537276152231 0 -0.028850364388354633 0.061493077474964332 0 -0.028470353446198183 0.06180947878818923 0 -0.028459807730084399 0.062303791333170551 0 -0.028923922201300113 0.061976537276152231 0 -0.028923922201300113 0.061976537276152231 0 -0.029336469531325664 0.061628877527207422 0 -0.028850364388354633 0.061493077474964332 0 -0.028923922201300113 0.061976537276152231 0 -0.029282686297796828 0.062146114102880172 0 -0.029336469531325664 0.061628877527207422 0 -0.028923922201300113 0.061976537276152231 0 -0.029232289909835972 0.06252697148823036 0 -0.029282686297796828 0.062146114102880172 0 -0.029232289909835972 0.06252697148823036 0 -0.029282686297796828 0.062146114102880172 0 -0.029651250908447929 0.062467483671363212 0 -0.029282686297796828 0.062146114102880172 0 -0.029651250908447929 0.062467483671363212 0 -0.029336469531325664 0.061628877527207422 0 -0.016437448643964299 0.069816019429178297 0 -0.016923709217105839 0.068717110754862087 0 -0.029651250908447929 0.062467483671363212 0 -0.029336469531325664 0.061628877527207422 0 -0.029649128187923604 0.060832466166988987 0 -0.029336469531325664 0.061628877527207422 0 -0.029087765390263958 0.061081409141282128 0 -0.029649128187923604 0.060832466166988987 0 -0.029336469531325664 0.061628877527207422 0 -0.029087765390263958 0.061081409141282128 0 -0.028850364388354633 0.061493077474964332 0 -0.028470353446198183 0.06180947878818923 0 -0.028850364388354633 0.061493077474964332 0 -0.028459542813765833 0.061137101110764619 0 -0.029087765390263958 0.061081409141282128 0 -0.028850364388354633 0.061493077474964332 0 -0.028459542813765833 0.061137101110764619 0 -0.029087765390263958 0.061081409141282128 0 -0.028459542813765833 0.061137101110764619 0 -0.029012044386899354 0.060479729518825333 0 -0.003149772260224211 0.077255849666434243 0 -0.0024624281121181438 0.077872575054291487 0 -0.0029320888789048922 0.078568825008767565 0 -0.003149772260224211 0.077255849666434243 0 -0.0024157658407181846 0.077101275092872859 0 -0.0024624281121181438 0.077872575054291487 0 -0.003149772260224211 0.077255849666434243 0 -0.0041786559864695145 0.077379962377089884 0 -0.0029320888789048922 0.078568825008767565 0 -0.0041786559864695145 0.077379962377089884 0 -0.0029320888789048922 0.078568825008767565 0 -0.0041169315033198362 0.079002939626545726 0 -0.001792851783750664 0.078579178681722095 0 -0.0024624281121181438 0.077872575054291487 0 -0.0029320888789048922 0.078568825008767565 0 -0.0029320888789048922 0.078568825008767565 0 -0.0026096964151740318 0.080331883408659058 0 -0.0041169315033198362 0.079002939626545726 0 -0.0029320888789048922 0.078568825008767565 0 -0.0026096964151740318 0.080331883408659058 0 -0.0019390501458637778 0.079388638927686078 0 -0.0040813890136943707 0.080599760274885274 0 -0.0026096964151740318 0.080331883408659058 0 -0.0041169315033198362 0.079002939626545726 0 -0.017618765412790699 0.060861518644077961 0 -0.0086420203227084609 0.064044614137563682 0 -0.011856742571394746 0.05742841709853682 0 -0.011669552640930052 0.057351984472568021 0 -0.011759904740366799 0.057437248635043452 0 -0.029012044386899354 0.060479729518825333 0 -0.02844159992178966 0.059841731245015191 0 -0.027767634421107884 0.060325935009103326 0 -0.028459542813765833 0.061137101110764619 0 -0.029012044386899354 0.060479729518825333 0 -0.027674644533536606 0.060406570840171231 0 -0.030919919318807717 0.057079547249367854 0 -0.035752867266418513 0.056150338586224757 0 -0.029012044386899354 0.060479729518825333 0 -0.029649128187923604 0.060832466166988987 0 -0.029066865882380066 0.059816837361501125 0 -0.017618765412790699 0.060861518644077961 0 -0.016923709217105839 0.068717110754862087 0 -0.029087765390263958 0.061081409141282128 0 -0.029012044386899354 0.060479729518825333 0 -0.029649128187923604 0.060832466166988987 0 -0.029654859437288277 0.059402756739038866 0 -0.029649128187923604 0.060832466166988987 0 -0.029066865882380066 0.059816837361501125 0 -0.029654859437288277 0.059402756739038866 0 -0.029066865882380066 0.059816837361501125 0 -0.028703510046645182 0.059198973232190442 0 -0.029012044386899354 0.060479729518825333 0 -0.029066865882380066 0.059816837361501125 0 -0.02844159992178966 0.059841731245015191 0 -0.029066865882380066 0.059816837361501125 0 -0.02844159992178966 0.059841731245015191 0 -0.028703510046645182 0.059198973232190442 0 -0.028540506487788699 0.050931079727495256 0 -0.02829545482482938 0.049580880433993765 0 -0.027062857640220189 0.050596433086818909 0 -0.02844159992178966 0.059841731245015191 0 -0.028703510046645182 0.059198973232190442 0 -0.02778231640056595 0.058986665661308446 0 -0.030019994615595465 0.051270245500875132 0 -0.028540506487788699 0.050931079727495256 0 -0.030093484221456652 0.049412078208965718 0 -0.017618765412790699 0.060861518644077961 0 -0.028075134722878561 0.055618159772153584 0 -0.02829545482482938 0.049580880433993765 0 -0.030093484221456652 0.049412078208965718 0 -0.028504806791090489 0.048085513852006108 0 -0.028540506487788699 0.050931079727495256 0 -0.02829545482482938 0.049580880433993765 0 -0.030093484221456652 0.049412078208965718 0 -0.011669552640930052 0.057351984472568021 0 -0.011696164781131786 0.05750145240634956 0 -0.01145687294680002 0.057495930736260123 0 -0.011688222375673364 0.057589430746678875 0 -0.011696164781131786 0.05750145240634956 0 -0.01145687294680002 0.057495930736260123 0 -0.011688222375673364 0.057589430746678875 0 -0.011635948009229258 0.057682476678422023 0 -0.01145687294680002 0.057495930736260123 0 -0.011799453762777747 0.057429173097580735 0 -0.011818930338465514 0.05742458168901985 0 -0.011819253799547519 0.057409873625403292 0 -0.011799453762777747 0.057429173097580735 0 -0.011818930338465514 0.05742458168901985 0 -0.011759904740366799 0.057437248635043452 0 -0.0096096704523928583 0.05594485213136334 0 -0.0096386806635210681 0.056033592529226267 0 -0.011669552640930052 0.057351984472568021 0 -0.011759904740366799 0.057437248635043452 0 -0.011696164781131786 0.05750145240634956 0 -0.0096096704523928583 0.05594485213136334 0 -0.0096932164313992264 0.056053305961266023 0 -0.011695994499445736 0.057595030312648225 0 -0.011759904740366799 0.057437248635043452 0 -0.011696164781131786 0.05750145240634956 0 -0.017618765412790699 0.060861518644077961 0 -0.0194034828643583 0.053842436935209619 0 -0.011856742571394746 0.05742841709853682 0 -0.011809276561717964 0.057430607307293838 0 -0.011799702205205372 0.057401834608795776 0 -0.011856742571394746 0.05742841709853682 0 -0.011759904740366799 0.057437248635043452 0 -0.011809276561717964 0.057430607307293838 0 -0.011799453762777747 0.057429173097580735 0 -0.011809276561717964 0.057430607307293838 0 -0.011819253799547519 0.057409873625403292 0 -0.011799453762777747 0.057429173097580735 0 -0.011759904740366799 0.057437248635043452 0 -0.011809276561717964 0.057430607307293838 0 -0.011819253799547519 0.057409873625403292 0 -0.011799702205205372 0.057401834608795776 0 -0.01184166749255661 0.057341364953837765 0 -0.011809276561717964 0.057430607307293838 0 -0.011819253799547519 0.057409873625403292 0 -0.011799702205205372 0.057401834608795776 0 -0.006741728738393374 0.054220563696143351 0 -0.0064120525818856808 0.05381285358003584 0 -0.0077769905496743383 0.052203421465596145 0 -0.011819253799547519 0.057409873625403292 0 -0.01184118608283424 0.057396296020418174 0 -0.01184166749255661 0.057341364953837765 0 -0.010360715186816602 0.054865543885526634 0 -0.015081937744692141 0.051879951074922444 0 -0.011818930338465514 0.05742458168901985 0 -0.011819253799547519 0.057409873625403292 0 -0.01184118608283424 0.057396296020418174 0 -0.010999986149157686 0.056494322320161029 0 -0.011355407081556404 0.055813949063680368 0 -0.011036554169988409 0.055419690077694247 0 -0.0096096704523928583 0.05594485213136334 0 -0.010360715186816602 0.054865543885526634 0 -0.0096096704523928583 0.05594485213136334 0 -0.008609125058818971 0.056306833773060797 0 -0.008609125058818971 0.056306833773060797 0 -0.010360715186816602 0.054865543885526634 0 0.013975348783722264 0.064285284087690575 0 0.011925429491048365 0.064121357736126636 0 0.012749240732224132 0.061878290559099006 0 -0.008609125058818971 0.056306833773060797 0 -0.0026335693611701338 0.057254816765158562 0 0.013975348783722264 0.064285284087690575 0 0.011925429491048365 0.064121357736126636 0 0.012472260680693761 0.06616803212265579 0 -0.008609125058818971 0.056306833773060797 0 -0.0039671707544405846 0.059972233187486179 0 0.011925429491048365 0.064121357736126636 0 0.012472260680693761 0.06616803212265579 0 0.010178812004804664 0.065315658197666382 0 0.012472260680693761 0.06616803212265579 0 0.010178812004804664 0.065315658197666382 0 0.010135993636605278 0.066951047352734258 0 0.011925429491048365 0.064121357736126636 0 0.010178812004804664 0.065315658197666382 0 0.010244323906200477 0.062953729005518294 0 0.011925429491048365 0.064121357736126636 0 0.010244323906200477 0.062953729005518294 0 0.012749240732224132 0.061878290559099006 0 0.010244323906200477 0.062953729005518294 0 0.0086182719883083122 0.064464038265875864 0 0.0077217294913120441 0.06248909182470818 0 0.010178812004804664 0.065315658197666382 0 0.010244323906200477 0.062953729005518294 0 0.0086182719883083122 0.064464038265875864 0 0.0059581756109315714 0.063292350420609364 0 0.0068089814718424345 0.065040881634328168 0 0.0077217294913120441 0.06248909182470818 0 0.0086182719883083122 0.064464038265875864 0 0.0068089814718424345 0.065040881634328168 0 0.0077217294913120441 0.06248909182470818 0 0.0086182719883083122 0.064464038265875864 0 0.0068089814718424345 0.065040881634328168 0 0.0084712665262985948 0.066770977166081866 0 0.0063827728960994734 0.06773464454978953 0 0.0068089814718424345 0.065040881634328168 0 0.0084712665262985948 0.066770977166081866 0 0.010178812004804664 0.065315658197666382 0 0.0086182719883083122 0.064464038265875864 0 0.0084712665262985948 0.066770977166081866 0 0.010178812004804664 0.065315658197666382 0 0.0084712665262985948 0.066770977166081866 0 0.010135993636605278 0.066951047352734258 0 0.0084712665262985948 0.066770977166081866 0 0.0097807841265537578 0.068267929194738008 0 0.010135993636605278 0.066951047352734258 0 0.0084712665262985948 0.066770977166081866 0 0.0097807841265537578 0.068267929194738008 0 0.0078053651363932846 0.068856618729116012 0 0.0063827728960994734 0.06773464454978953 0 0.0084712665262985948 0.066770977166081866 0 0.0078053651363932846 0.068856618729116012 0 0.0060836326710613856 0.069748008323342575 0 0.0063827728960994734 0.06773464454978953 0 0.0078053651363932846 0.068856618729116012 0 0.0060836326710613856 0.069748008323342575 0 0.0075007775245192468 0.07019242326559709 0 0.0078053651363932846 0.068856618729116012 0 0.0089585414659979212 0.070178039952681376 0 0.0075007775245192468 0.07019242326559709 0 0.0078053651363932846 0.068856618729116012 0 0.0089585414659979212 0.070178039952681376 0 0.0097807841265537578 0.068267929194738008 0 0.0078053651363932846 0.068856618729116012 0 -0.00013680325443476914 0.078953445087396171 0 -0.001117992169166627 0.079086972854356938 0 -0.001119009528659672 0.080052249811161616 0 0.0089585414659979212 0.070178039952681376 0 0.0097807841265537578 0.068267929194738008 0 0.010798070519840577 0.068052969350867618 0 0.000720269774381789 0.070757851022258927 0 -0.0021621850389305559 0.06447562980238418 0 -0.001117992169166627 0.079086972854356938 0 -0.0019390501458637778 0.079388638927686078 0 -0.001119009528659672 0.080052249811161616 0 -0.011669552640930052 0.057351984472568021 0 -0.01145687294680002 0.057495930736260123 0 -0.011229859974624739 0.057273629874172949 0 -0.0086420203227084609 0.064044614137563682 0 -0.0021621850389305559 0.06447562980238418 0 -0.0039671707544405846 0.059972233187486179 0 -0.0021621850389305559 0.06447562980238418 0 -0.0026096964151740318 0.080331883408659058 0 -0.0019390501458637778 0.079388638927686078 0 -0.001119009528659672 0.080052249811161616 0 0.012472260680693761 0.06616803212265579 0 0.010135993636605278 0.066951047352734258 0 0.010948036799853362 0.068035921688743076 0 0.0097807841265537578 0.068267929194738008 0 0.010135993636605278 0.066951047352734258 0 0.010948036799853362 0.068035921688743076 0 -0.00049319188062566085 0.064368250830716206 0 -0.0021621850389305559 0.06447562980238418 0 -0.045634087870443166 0.054312678877057326 0 -0.045354229700742828 0.054060376296232018 0 -0.045333145676737893 0.054564788953851515 0 -0.045634087870443166 0.054312678877057326 0 -0.045901835051534862 0.054461395468746752 0 -0.045333145676737893 0.054564788953851515 0 -0.045634087870443166 0.054312678877057326 0 -0.045354229700742828 0.054060376296232018 0 -0.045908062664546376 0.054169645160252342 0 -0.045009487201113883 0.05423614052203804 0 -0.045354229700742828 0.054060376296232018 0 -0.044753442544153664 0.053953002404817346 0 -0.045009487201113883 0.05423614052203804 0 -0.045333145676737893 0.054564788953851515 0 -0.044595664832499299 0.054364786229821035 0 -0.045009487201113883 0.05423614052203804 0 -0.045354229700742828 0.054060376296232018 0 -0.045333145676737893 0.054564788953851515 0 -0.044035410610276972 0.053771599240017988 0 -0.044611081837942761 0.054299452897944536 0 -0.043418142899389563 0.054255291114810929 0 -0.044644991117238068 0.05460260728772328 0 -0.043582008448479932 0.05482362777284857 0 -0.044035410610276972 0.053771599240017988 0 -0.044798425098120737 0.053747592150618459 0 -0.044611081837942761 0.054299452897944536 0 -0.044644991117238068 0.05460260728772328 0 -0.045102400264498556 0.054544788785578779 0 -0.045379812546546848 0.053909217623922118 0 -0.045915792830584334 0.053521479099501133 0 -0.044993368217605169 0.053180994546954116 0 -0.044611081837942761 0.054299452897944536 0 -0.045379812546546848 0.053909217623922118 0 -0.045908062664546376 0.054169645160252342 0 -0.044798425098120737 0.053747592150618459 0 -0.044611081837942761 0.054299452897944536 0 -0.045379812546546848 0.053909217623922118 0 -0.044798425098120737 0.053747592150618459 0 -0.045379812546546848 0.053909217623922118 0 -0.044858621984903507 0.053234725639396005 0 -0.044355128598271232 0.054741754349144668 0 -0.044343377973681486 0.055052540383833219 0 -0.045915792830584334 0.053521479099501133 0 -0.046622658319039528 0.053798463722870872 0 -0.045908062664546376 0.054169645160252342 0 -0.045379812546546848 0.053909217623922118 0 -0.045915792830584334 0.053521479099501133 0 -0.045908062664546376 0.054169645160252342 0 -0.046074810822241963 0.054570358077460364 0 -0.050572684393984081 0.053552549207172125 0 -0.046622658319039528 0.053798463722870872 0 -0.046467857550335806 0.054378302593627914 0 -0.045908062664546376 0.054169645160252342 0 -0.046467857550335806 0.054378302593627914 0 -0.045908062664546376 0.054169645160252342 0 -0.045901835051534862 0.054461395468746752 0 -0.046467857550335806 0.054378302593627914 0 -0.045901835051534862 0.054461395468746752 0 -0.046107942978785753 0.054797163686554663 0 -0.045634087870443166 0.054312678877057326 0 -0.045908062664546376 0.054169645160252342 0 -0.045901835051534862 0.054461395468746752 0 -0.045901835051534862 0.054461395468746752 0 -0.046107942978785753 0.054797163686554663 0 -0.045333145676737893 0.054564788953851515 0 -0.061368989191721547 0.031242529567786646 0 -0.061576126994839449 0.031529700607156728 0 -0.061854073508260415 0.031368920550435678 0 -0.046467857550335806 0.054378302593627914 0 -0.046107942978785753 0.054797163686554663 0 -0.047065269240556283 0.054975459021610038 0 -0.054708144012809594 0.042338501136303476 0 -0.060277732544974504 0.041732940503117086 0 -0.061368989191721547 0.031242529567786646 0 -0.061576126994839449 0.031529700607156728 0 -0.061342110284700449 0.031682948851093851 0 -0.061368989191721547 0.031242529567786646 0 -0.060991712064180553 0.031501121646103275 0 -0.061342110284700449 0.031682948851093851 0 -0.054708144012809594 0.042338501136303476 0 -0.053043749608589673 0.043018005234415305 0 -0.061368989191721547 0.031242529567786646 0 -0.060991712064180553 0.031501121646103275 0 -0.060868443388406496 0.031072974740144119 0 -0.060868443388406496 0.031072974740144119 0 -0.060534532691310095 0.031452577064254347 0 -0.060153738188328358 0.031218727021573675 0 -0.060991712064180553 0.031501121646103275 0 -0.060868443388406496 0.031072974740144119 0 -0.060534532691310095 0.031452577064254347 0 -0.053043749608589673 0.043018005234415305 0 -0.051585682856079319 0.043898076648425648 0 -0.060991712064180553 0.031501121646103275 0 -0.060534532691310095 0.031452577064254347 0 -0.060671293972365876 0.031719858555260438 0 -0.060534532691310095 0.031452577064254347 0 -0.060334899984049013 0.031639313011470542 0 -0.060671293972365876 0.031719858555260438 0 -0.060272042617421494 0.031469923771729288 0 -0.060132284359115364 0.031541646855018611 0 -0.060153738188328358 0.031218727021573675 0 -0.060534532691310095 0.031452577064254347 0 -0.060334899984049013 0.031639313011470542 0 -0.060272042617421494 0.031469923771729288 0 -0.060334899984049013 0.031639313011470542 0 -0.060272042617421494 0.031469923771729288 0 -0.060132284359115364 0.031541646855018611 0 -0.060132284359115364 0.031541646855018611 0 -0.05989181472683603 0.031562853084600315 0 -0.060153738188328358 0.031218727021573675 0 -0.060534532691310095 0.031452577064254347 0 -0.060272042617421494 0.031469923771729288 0 -0.060153738188328358 0.031218727021573675 0 -0.058377122398051699 0.033278954908578857 0 -0.059033168859316955 0.031473599131410471 0 -0.058292120503944465 0.031813859190957909 0 -0.058377122398051699 0.033278954908578857 0 -0.058292120503944465 0.031813859190957909 0 -0.0577125343310931 0.032364737583021073 0 -0.056471122151450275 0.03179566743927674 0 -0.058224756313331433 0.030995380010938725 0 -0.059033168859316955 0.031473599131410471 0 -0.057782212948150787 0.030926588316963391 0 -0.059726545214808857 0.030611804899181316 0 -0.058377122398051699 0.033278954908578857 0 -0.059033168859316955 0.031473599131410471 0 -0.060153738188328358 0.031218727021573675 0 -0.059033168859316955 0.031473599131410471 0 -0.058292120503944465 0.031813859190957909 0 -0.057782212948150787 0.030926588316963391 0 -0.059033168859316955 0.031473599131410471 0 -0.060153738188328358 0.031218727021573675 0 -0.059726545214808857 0.030611804899181316 0 -0.060868443388406496 0.031072974740144119 0 -0.060153738188328358 0.031218727021573675 0 -0.059726545214808857 0.030611804899181316 0 -0.02829545482482938 0.049580880433993765 0 -0.02706864823107067 0.049012408526698852 0 -0.027062857640220189 0.050596433086818909 0 -0.039588750232651897 0.045422670490348559 0 -0.037648520473756157 0.050452866353230374 0 -0.042875372742876366 0.043419652760853591 0 -0.040793553475176367 0.043663338189876909 0 -0.042833332542041219 0.050625766734651988 0 -0.05713315506261319 0.032136054523178255 0 -0.056539258550867062 0.033393877647139691 0 -0.056873270917687326 0.031603749037430157 0 -0.046615060963160329 0.040415863905459329 0 -0.044305082718408793 0.047457151840759271 0 -0.058377122398051699 0.033278954908578857 0 -0.056539258550867062 0.033393877647139691 0 -0.0577125343310931 0.032364737583021073 0 -0.05713315506261319 0.032136054523178255 0 -0.056539258550867062 0.033393877647139691 0 -0.0577125343310931 0.032364737583021073 0 -0.057782212948150787 0.030926588316963391 0 -0.056873270917687326 0.031603749037430157 0 -0.057119359584510261 0.030056167243471658 0 -0.040793553475176367 0.043663338189876909 0 -0.039873080904549295 0.049984080205340987 0 -0.042833332542041219 0.050625766734651988 0 -0.044305082718408793 0.047457151840759271 0 -0.049129626689385711 0.045705822931158296 0 -0.043813179729122104 0.054170688339770005 0 -0.043714780237693263 0.054159882090779959 0 -0.043786324954655197 0.053980777000633265 0 -0.058292120503944465 0.031813859190957909 0 -0.057615744905952844 0.031714479805247379 0 -0.057782212948150787 0.030926588316963391 0 -0.05713315506261319 0.032136054523178255 0 -0.057615744905952844 0.031714479805247379 0 -0.056873270917687326 0.031603749037430157 0 -0.058292120503944465 0.031813859190957909 0 -0.0577125343310931 0.032364737583021073 0 -0.057615744905952844 0.031714479805247379 0 -0.05713315506261319 0.032136054523178255 0 -0.0577125343310931 0.032364737583021073 0 -0.057615744905952844 0.031714479805247379 0 -0.057615744905952844 0.031714479805247379 0 -0.057782212948150787 0.030926588316963391 0 -0.056873270917687326 0.031603749037430157 0 -0.028075134722878561 0.055618159772153584 0 -0.037648520473756157 0.050452866353230374 0 -0.044305082718408793 0.047457151840759271 0 -0.037648520473756157 0.050452866353230374 0 -0.037648520473756157 0.050452866353230374 0 -0.035752867266418513 0.056150338586224757 0 -0.02844159992178966 0.059841731245015191 0 -0.02778231640056595 0.058986665661308446 0 -0.027767634421107884 0.060325935009103326 0 -0.043714780237693263 0.054159882090779959 0 -0.043786324954655197 0.053980777000633265 0 -0.043675637263957963 0.053811029428632653 0 -0.043813179729122104 0.054170688339770005 0 -0.043786324954655197 0.053980777000633265 0 -0.043843570114357508 0.053986922716042329 0 -0.049129626689385711 0.045705822931158296 0 -0.04867813381547325 0.047350833315014766 0 -0.043786324954655197 0.053980777000633265 0 -0.043867421563153382 0.053995265633797168 0 -0.043927865057780145 0.053871956949648588 0 -0.048944845851494383 0.045778477286481226 0 -0.049129626689385711 0.045705822931158296 0 -0.043866783847147248 0.054168320414328036 0 -0.043927865057780145 0.053871956949648588 0 -0.0441852996894831 0.054060586413411604 0 -0.035752867266418513 0.056150338586224757 0 -0.041514368554254444 0.055310217355339981 0 -0.043927865057780145 0.053871956949648588 0 -0.043675637263957963 0.053811029428632653 0 -0.044132600144841903 0.053858437999122752 0 -0.041037841711390452 0.054136014597224273 0 -0.042245439667586843 0.054211149507817115 0 -0.041664649656606309 0.05364377977456955 0 -0.043927865057780145 0.053871956949648588 0 -0.0441852996894831 0.054060586413411604 0 -0.044132600144841903 0.053858437999122752 0 -0.042245439667586843 0.054211149507817115 0 -0.042258272952880767 0.053482428069869616 0 -0.041664649656606309 0.05364377977456955 0 -0.043786324954655197 0.053980777000633265 0 -0.043927865057780145 0.053871956949648588 0 -0.043675637263957963 0.053811029428632653 0 -0.041037841711390452 0.054136014597224273 0 -0.04104521553856634 0.053266506136900087 0 -0.041664649656606309 0.05364377977456955 0 -0.035752867266418513 0.056150338586224757 0 -0.034906924075935528 0.057089820450467975 0 -0.045009487201113883 0.05423614052203804 0 -0.044595664832499299 0.054364786229821035 0 -0.044753442544153664 0.053953002404817346 0 -0.044595664832499299 0.054364786229821035 0 -0.044436304919516556 0.054053491452605462 0 -0.044753442544153664 0.053953002404817346 0 -0.057782212948150787 0.030926588316963391 0 -0.057119359584510261 0.030056167243471658 0 -0.059726545214808857 0.030611804899181316 0 -0.049129626689385711 0.045705822931158296 0 -0.051585682856079319 0.043898076648425648 0 -0.043866783847147248 0.054168320414328036 0 -0.044595664832499299 0.054364786229821035 0 -0.0441852996894831 0.054060586413411604 0 -0.0441852996894831 0.054060586413411604 0 -0.044436304919516556 0.054053491452605462 0 -0.044132600144841903 0.053858437999122752 0 -0.044595664832499299 0.054364786229821035 0 -0.0441852996894831 0.054060586413411604 0 -0.044436304919516556 0.054053491452605462 0 -0.041514368554254444 0.055310217355339981 0 -0.043582008448479932 0.05482362777284857 0 -0.042245439667586843 0.054211149507817115 0 -0.042725862649542909 0.053858063361085208 0 -0.043418142899389563 0.054255291114810929 0 -0.044436304919516556 0.054053491452605462 0 -0.044132600144841903 0.053858437999122752 0 -0.044753442544153664 0.053953002404817346 0 -0.042245439667586843 0.054211149507817115 0 -0.042725862649542909 0.053858063361085208 0 -0.042258272952880767 0.053482428069869616 0 -0.043418142899389563 0.054255291114810929 0 -0.04359162685364458 0.053484575379195883 0 -0.042968995993562305 0.053472399362441372 0 -0.042725862649542909 0.053858063361085208 0 -0.043418142899389563 0.054255291114810929 0 -0.042968995993562305 0.053472399362441372 0 -0.044035410610276972 0.053771599240017988 0 -0.043418142899389563 0.054255291114810929 0 -0.04359162685364458 0.053484575379195883 0 -0.043582635817991808 0.052916443670118336 0 -0.042968995993562305 0.053472399362441372 0 -0.042318135732280569 0.05263984803131061 0 -0.04359162685364458 0.053484575379195883 0 -0.043582635817991808 0.052916443670118336 0 -0.042968995993562305 0.053472399362441372 0 -0.042968995993562305 0.053472399362441372 0 -0.042258272952880767 0.053482428069869616 0 -0.042318135732280569 0.05263984803131061 0 -0.042725862649542909 0.053858063361085208 0 -0.042968995993562305 0.053472399362441372 0 -0.042258272952880767 0.053482428069869616 0 -0.043582635817991808 0.052916443670118336 0 -0.043289631412381319 0.052266073904423491 0 -0.044121893250632496 0.0523937579810601 0 -0.043582635817991808 0.052916443670118336 0 -0.042670318886853957 0.052785606007895391 0 -0.043289631412381319 0.052266073904423491 0 -0.041711349364046107 0.055663343874680603 0 -0.040262802188704309 0.056199492806408166 0 -0.028459542813765833 0.061137101110764619 0 -0.027674644533536606 0.060406570840171231 0 -0.027689594125478854 0.06117930257759676 0 -0.04104521553856634 0.053266506136900087 0 -0.041666208962167384 0.053087390523085067 0 -0.041043051599312833 0.052401524655409211 0 -0.028459542813765833 0.061137101110764619 0 -0.027689594125478854 0.06117930257759676 0 -0.0278079259686204 0.061920184391703492 0 -0.030820702965521082 0.060510918292181887 0 -0.033089621975090792 0.058291119200422403 0 -0.042258272952880767 0.053482428069869616 0 -0.042318135732280569 0.05263984803131061 0 -0.041666208962167384 0.053087390523085067 0 -0.04104521553856634 0.053266506136900087 0 -0.041666208962167384 0.053087390523085067 0 -0.041664649656606309 0.05364377977456955 0 -0.042258272952880767 0.053482428069869616 0 -0.041666208962167384 0.053087390523085067 0 -0.041664649656606309 0.05364377977456955 0 -0.042670318886853957 0.052785606007895391 0 -0.041753648462851727 0.052498025564531398 0 -0.041751750682325797 0.052631660182370574 0 -0.042318135732280569 0.05263984803131061 0 -0.041666208962167384 0.053087390523085067 0 -0.041043051599312833 0.052401524655409211 0 -0.040262802188704309 0.056199492806408166 0 -0.03418789378491871 0.05789809157982722 0 -0.034906924075935528 0.057089820450467975 0 -0.03418789378491871 0.05789809157982722 0 -0.027689594125478854 0.06117930257759676 0 -0.027701941901293724 0.061898632547405089 0 -0.0278079259686204 0.061920184391703492 0 -0.028238209088552669 0.062390603968343845 0 -0.027360816202321222 0.062262795266014637 0 -0.027633957668183686 0.062622455547526518 0 -0.030842987698848329 0.059029562920038033 0 -0.033089621975090792 0.058291119200422403 0 -0.033926190675945038 0.059865512872786304 0 -0.033950769831952443 0.055269084499968264 0 -0.037153338658178277 0.055893516213269948 0 -0.03378268163585979 0.058011152458107805 0 -0.033089621975090792 0.058291119200422403 0 -0.03378268163585979 0.058011152458107805 0 -0.03418789378491871 0.05789809157982722 0 -0.03418789378491871 0.05789809157982722 0 -0.033089621975090792 0.058291119200422403 0 -0.027226588532080001 0.062439718457659582 0 -0.027360816202321222 0.062262795266014637 0 -0.027633957668183686 0.062622455547526518 0 -0.042670318886853957 0.052785606007895391 0 -0.041753648462851727 0.052498025564531398 0 -0.042479896470835311 0.051636455349622065 0 -0.028025346144487422 0.063184284521830156 0 -0.027633957668183686 0.062622455547526518 0 -0.027336717017802124 0.062846033326889122 0 -0.03378268163585979 0.058011152458107805 0 -0.033592546694839874 0.058530725357987624 0 -0.027392602688008284 0.063048593185814045 0 -0.027336717017802124 0.062846033326889122 0 -0.027273734689369389 0.062884868316472761 0 -0.027226588532080001 0.062439718457659582 0 -0.027336717017802124 0.062846033326889122 0 -0.027273734689369389 0.062884868316472761 0 -0.027226588532080001 0.062439718457659582 0 -0.027633957668183686 0.062622455547526518 0 -0.027336717017802124 0.062846033326889122 0 -0.027392602688008284 0.063048593185814045 0 -0.027273734689369389 0.062884868316472761 0 -0.02724648214786754 0.063195788004373615 0 -0.027273734689369389 0.062884868316472761 0 -0.026936266311229851 0.063193680273756173 0 -0.02724648214786754 0.063195788004373615 0 -0.03378268163585979 0.058011152458107805 0 -0.035675695488208328 0.058608539541826418 0 -0.02727363976611023 0.062709975939180207 0 -0.027273734689369389 0.062884868316472761 0 -0.026936266311229851 0.063193680273756173 0 -0.026936266311229851 0.063193680273756173 0 -0.02724648214786754 0.063195788004373615 0 -0.02724159780721068 0.063450861521066521 0 -0.027592072592056007 0.063497122788069724 0 -0.027451427252117789 0.063282475052838807 0 -0.02724159780721068 0.063450861521066521 0 -0.02724648214786754 0.063195788004373615 0 -0.027451427252117789 0.063282475052838807 0 -0.02724159780721068 0.063450861521066521 0 -0.027392602688008284 0.063048593185814045 0 -0.02724648214786754 0.063195788004373615 0 -0.027451427252117789 0.063282475052838807 0 -0.042670318886853957 0.052785606007895391 0 -0.042479896470835311 0.051636455349622065 0 -0.043289631412381319 0.052266073904423491 0 -0.043289631412381319 0.052266073904423491 0 -0.043614357930890933 0.051609477935771524 0 -0.044121893250632496 0.0523937579810601 0 -0.042479896470835311 0.051636455349622065 0 -0.043289631412381319 0.052266073904423491 0 -0.043614357930890933 0.051609477935771524 0 -0.042479896470835311 0.051636455349622065 0 -0.043614357930890933 0.051609477935771524 0 -0.043162786024955956 0.050830051934182094 0 -0.0400215608607127 0.062432505391852106 0 -0.040091504626021367 0.062379400168548475 0 -0.040026330739560349 0.062340079113031972 0 -0.0400215608607127 0.062432505391852106 0 -0.040091504626021367 0.062379400168548475 0 -0.040156010381840232 0.06249518925887787 0 -0.040091504626021367 0.062379400168548475 0 -0.04031972425397682 0.062487451064270894 0 -0.040156010381840232 0.06249518925887787 0 -0.040209144776021451 0.06248615764001577 0 -0.040294968812889152 0.062560124125484812 0 -0.040147406513067585 0.06239105589064213 0 -0.040163851168786679 0.062510941800203501 0 -0.040220217141303014 0.062394059658679335 0 -0.040091504626021367 0.062379400168548475 0 -0.040147406513067585 0.06239105589064213 0 -0.040163851168786679 0.062510941800203501 0 -0.040228960727683963 0.062563829577546623 0 -0.040156355022475679 0.062629160461670746 0 -0.040295115117658757 0.062644262207365728 0 -0.04031972425397682 0.062487451064270894 0 -0.040228960727683963 0.062563829577546623 0 -0.040156010381840232 0.06249518925887787 0 -0.04031972425397682 0.062487451064270894 0 -0.040228960727683963 0.062563829577546623 0 -0.040295115117658757 0.062644262207365728 0 -0.0400215608607127 0.062432505391852106 0 -0.040156010381840232 0.06249518925887787 0 -0.040156355022475679 0.062629160461670746 0 -0.040124164706427108 0.058384138444020343 0 -0.042337831772343563 0.057132227809072546 0 -0.040228960727683963 0.062563829577546623 0 -0.040156010381840232 0.06249518925887787 0 -0.040156355022475679 0.062629160461670746 0 -0.043582635817991808 0.052916443670118336 0 -0.044121893250632496 0.0523937579810601 0 -0.044233880774186773 0.05308535192376361 0 -0.042337831772343563 0.057132227809072546 0 -0.044343377973681486 0.055052540383833219 0 -0.040156355022475679 0.062629160461670746 0 -0.040295115117658757 0.062644262207365728 0 -0.040289652499231755 0.062766723572622099 0 -0.040295115117658757 0.062644262207365728 0 -0.040289652499231755 0.062766723572622099 0 -0.040456915130548964 0.062717415980580796 0 -0.044343377973681486 0.055052540383833219 0 -0.044274971722809801 0.054922900115399638 0 -0.044798425098120737 0.053747592150618459 0 -0.044858621984903507 0.053234725639396005 0 -0.044233880774186773 0.05308535192376361 0 -0.044035410610276972 0.053771599240017988 0 -0.044798425098120737 0.053747592150618459 0 -0.044233880774186773 0.05308535192376361 0 -0.044121893250632496 0.0523937579810601 0 -0.04466884124603681 0.053239115055157805 0 -0.044233880774186773 0.05308535192376361 0 -0.044035410610276972 0.053771599240017988 0 -0.04359162685364458 0.053484575379195883 0 -0.044233880774186773 0.05308535192376361 0 -0.04359162685364458 0.053484575379195883 0 -0.043582635817991808 0.052916443670118336 0 -0.044233880774186773 0.05308535192376361 0 -0.050572684393984081 0.053552549207172125 0 -0.04631294337026385 0.057502615414119683 0 -0.040768911730074499 0.063306115668899016 0 -0.04051034054113991 0.062984054921462737 0 -0.040882099459402771 0.063048750603382331 0 -0.040450760021191551 0.062801789041301501 0 -0.04065232719206463 0.062827950526941345 0 -0.040456915130548964 0.062717415980580796 0 -0.046074810822241963 0.054570358077460364 0 -0.044343377973681486 0.055052540383833219 0 -0.040450760021191551 0.062801789041301501 0 -0.040289652499231755 0.062766723572622099 0 -0.040456915130548964 0.062717415980580796 0 -0.045040477672533448 0.058553159862728528 0 -0.04631294337026385 0.057502615414119683 0 -0.040295115117658757 0.062644262207365728 0 -0.04051034054113991 0.062984054921462737 0 -0.040598225877876259 0.062724817944060082 0 -0.040477411036165332 0.062718505364985744 0 -0.040623887521100528 0.062840453552355957 0 -0.04051034054113991 0.062984054921462737 0 -0.040598225877876259 0.062724817944060082 0 -0.040882099459402771 0.063048750603382331 0 -0.040322386609167093 0.062732508592847347 0 -0.040481242937663489 0.062563363780052436 0 -0.040729930212216117 0.062790549186695549 0 -0.040322386609167093 0.062732508592847347 0 -0.040882099459402771 0.063048750603382331 0 -0.040729930212216117 0.062790549186695549 0 -0.040322386609167093 0.062732508592847347 0 -0.040481242937663489 0.062563363780052436 0 -0.040287970509752941 0.062535086271504586 0 -0.040481242937663489 0.062563363780052436 0 -0.040287970509752941 0.062535086271504586 0 -0.040357334677479276 0.062487837918035131 0 -0.040481242937663489 0.062563363780052436 0 -0.040357334677479276 0.062487837918035131 0 -0.040525120790291656 0.062400796149816903 0 -0.040294968812889152 0.062560124125484812 0 -0.040477411036165332 0.062718505364985744 0 -0.040163851168786679 0.062510941800203501 0 -0.040322386609167093 0.062732508592847347 0 -0.040287970509752941 0.062535086271504586 0 -0.04031972425397682 0.062487451064270894 0 -0.040295115117658757 0.062644262207365728 0 -0.040598225877876259 0.062724817944060082 0 -0.040287970509752941 0.062535086271504586 0 -0.040220217141303014 0.062394059658679335 0 -0.040357334677479276 0.062487837918035131 0 -0.040163851168786679 0.062510941800203501 0 -0.040287970509752941 0.062535086271504586 0 -0.040220217141303014 0.062394059658679335 0 -0.040123673224787305 0.062851882481107096 0 -0.040171382590613577 0.062790850319508318 0 -0.040717412297904293 0.062990035288757878 0 -0.040357334677479276 0.062487837918035131 0 -0.040276278092241075 0.063136918513664139 0 -0.040357334677479276 0.062487837918035131 0 -0.040276278092241075 0.063136918513664139 0 -0.04017786089069228 0.062667750366324229 0 -0.040276278092241075 0.063136918513664139 0 -0.039626788659441609 0.063577515995554182 0 -0.04017786089069228 0.062667750366324229 0 -0.039626788659441609 0.063577515995554182 0 -0.040375030961816959 0.064308491049600638 0 -0.038314466765264843 0.066108096448776604 0 -0.039626788659441609 0.063577515995554182 0 -0.038314466765264843 0.066108096448776604 0 -0.039065601191765213 0.064862135359944603 0 -0.040276278092241075 0.063136918513664139 0 -0.039626788659441609 0.063577515995554182 0 -0.040375030961816959 0.064308491049600638 0 -0.040375030961816959 0.064308491049600638 0 -0.040873311949818858 0.064122005950860012 0 -0.040927400260988685 0.064814346779166185 0 -0.040375030961816959 0.064308491049600638 0 -0.040652062288785401 0.063496199423420607 0 -0.040873311949818858 0.064122005950860012 0 -0.040276278092241075 0.063136918513664139 0 -0.040375030961816959 0.064308491049600638 0 -0.040652062288785401 0.063496199423420607 0 -0.040717412297904293 0.062990035288757878 0 -0.040276278092241075 0.063136918513664139 0 -0.040652062288785401 0.063496199423420607 0 -0.040123673224787305 0.062851882481107096 0 -0.039656043798848926 0.062858288472823168 0 -0.040147406513067585 0.06239105589064213 0 -0.040220217141303014 0.062394059658679335 0 -0.040112396067826232 0.062319679151145675 0 -0.040717412297904293 0.062990035288757878 0 -0.041064162996986196 0.06351971743179867 0 -0.041087996855911413 0.063557702941092892 0 -0.040717412297904293 0.062990035288757878 0 -0.040652062288785401 0.063496199423420607 0 -0.041064162996986196 0.06351971743179867 0 -0.041064162996986196 0.06351971743179867 0 -0.041087996855911413 0.063557702941092892 0 -0.040995145975993984 0.063359363141829481 0 -0.040112396067826232 0.062319679151145675 0 -0.040035377427257594 0.062313381451214254 0 -0.039984178571259896 0.062240437676645492 0 -0.039656043798848926 0.062858288472823168 0 -0.037577656277094945 0.062232213532047768 0 -0.040077258640416072 0.062337699753063677 0 -0.040035377427257594 0.062313381451214254 0 -0.040026330739560349 0.062340079113031972 0 -0.040077258640416072 0.062337699753063677 0 -0.040112396067826232 0.062319679151145675 0 -0.040035377427257594 0.062313381451214254 0 -0.040091504626021367 0.062379400168548475 0 -0.040077258640416072 0.062337699753063677 0 -0.040026330739560349 0.062340079113031972 0 -0.040091504626021367 0.062379400168548475 0 -0.040147406513067585 0.06239105589064213 0 -0.040112396067826232 0.062319679151145675 0 -0.040091504626021367 0.062379400168548475 0 -0.040077258640416072 0.062337699753063677 0 -0.040112396067826232 0.062319679151145675 0 -0.041087996855911413 0.063557702941092892 0 -0.0404906503776261 0.063262278777615352 0 -0.040143929674705148 0.063372779861424242 0 -0.0404906503776261 0.063262278777615352 0 -0.040809131233487901 0.063246152562460745 0 -0.04061157400649943 0.063116086310831432 0 -0.041087996855911413 0.063557702941092892 0 -0.0404906503776261 0.063262278777615352 0 -0.040809131233487901 0.063246152562460745 0 -0.041087996855911413 0.063557702941092892 0 -0.040809131233487901 0.063246152562460745 0 -0.040995145975993984 0.063359363141829481 0 -0.040809131233487901 0.063246152562460745 0 -0.040914377415581245 0.063129818952624941 0 -0.040995145975993984 0.063359363141829481 0 -0.040809131233487901 0.063246152562460745 0 -0.040730038664921316 0.062946105468934435 0 -0.040914377415581245 0.063129818952624941 0 -0.040730038664921316 0.062946105468934435 0 -0.040914377415581245 0.063129818952624941 0 -0.041107284728606336 0.062948216076003108 0 -0.040809131233487901 0.063246152562460745 0 -0.040730038664921316 0.062946105468934435 0 -0.04061157400649943 0.063116086310831432 0 -0.040730038664921316 0.062946105468934435 0 -0.04061157400649943 0.063116086310831432 0 -0.040409974577599268 0.06300746726839436 0 -0.0404906503776261 0.063262278777615352 0 -0.04061157400649943 0.063116086310831432 0 -0.040409974577599268 0.06300746726839436 0 -0.03829871982776456 0.064495898252892356 0 -0.03786111197996081 0.064931765685113857 0 -0.041064162996986196 0.06351971743179867 0 -0.040873311949818858 0.064122005950860012 0 -0.041330123156700059 0.064472020918827463 0 -0.041064162996986196 0.06351971743179867 0 -0.040995145975993984 0.063359363141829481 0 -0.041107284728606336 0.062948216076003108 0 -0.040652062288785401 0.063496199423420607 0 -0.041064162996986196 0.06351971743179867 0 -0.040873311949818858 0.064122005950860012 0 -0.040914377415581245 0.063129818952624941 0 -0.040995145975993984 0.063359363141829481 0 -0.041107284728606336 0.062948216076003108 0 -0.040927400260988685 0.064814346779166185 0 -0.041330123156700059 0.064472020918827463 0 -0.041475506256761885 0.065397797144885902 0 -0.03786111197996081 0.064931765685113857 0 -0.03642363377189952 0.06665767032141616 0 -0.040873311949818858 0.064122005950860012 0 -0.040927400260988685 0.064814346779166185 0 -0.041330123156700059 0.064472020918827463 0 -0.038242948428809286 0.066810373864878439 0 -0.03642363377189952 0.06665767032141616 0 -0.041107284728606336 0.062948216076003108 0 -0.040717656702560251 0.062547629335810012 0 -0.040977977889429404 0.062141938751042028 0 -0.040730038664921316 0.062946105468934435 0 -0.040717656702560251 0.062547629335810012 0 -0.040339334911028174 0.062612887887382299 0 -0.040730038664921316 0.062946105468934435 0 -0.040409974577599268 0.06300746726839436 0 -0.040339334911028174 0.062612887887382299 0 -0.040730038664921316 0.062946105468934435 0 -0.041107284728606336 0.062948216076003108 0 -0.040717656702560251 0.062547629335810012 0 -0.040717656702560251 0.062547629335810012 0 -0.040403784065302657 0.062166859562517829 0 -0.040339334911028174 0.062612887887382299 0 -0.03642363377189952 0.06665767032141616 0 -0.033650119168032615 0.066292395440816623 0 -0.040403784065302657 0.062166859562517829 0 -0.040977977889429404 0.062141938751042028 0 -0.040259182240060913 0.061420050279121383 0 -0.040717656702560251 0.062547629335810012 0 -0.040403784065302657 0.062166859562517829 0 -0.040977977889429404 0.062141938751042028 0 -0.043291918874672708 0.067589871436907145 0 -0.041200104259554775 0.068321505474039423 0 -0.043752605393622412 0.070408706803773258 0 -0.041819104697638283 0.065991800426425509 0 -0.043291918874672708 0.067589871436907145 0 -0.041200104259554775 0.068321505474039423 0 -0.033248406583327159 0.068082146466752341 0 -0.035961008950364838 0.067020399747349801 0 -0.038314466765264843 0.066108096448776604 0 -0.035539042371924588 0.068013664367517074 0 -0.035933750878435353 0.067527263054199399 0 -0.035961008950364838 0.067020399747349801 0 -0.038314466765264843 0.066108096448776604 0 -0.037862462128343911 0.066325426688626191 0 -0.035961008950364838 0.067020399747349801 0 -0.035780448174160574 0.066790133435532167 0 -0.037862462128343911 0.066325426688626191 0 -0.041200104259554775 0.068321505474039423 0 -0.038314466765264843 0.066108096448776604 0 -0.040436254660669239 0.066189647466533677 0 -0.041819104697638283 0.065991800426425509 0 -0.041200104259554775 0.068321505474039423 0 -0.040436254660669239 0.066189647466533677 0 -0.040375030961816959 0.064308491049600638 0 -0.038314466765264843 0.066108096448776604 0 -0.040436254660669239 0.066189647466533677 0 -0.038539479886129907 0.066583885679537255 0 -0.038242948428809286 0.066810373864878439 0 -0.040375030961816959 0.064308491049600638 0 -0.041819104697638283 0.065991800426425509 0 -0.040436254660669239 0.066189647466533677 0 -0.027364804368072978 0.063758509209067463 0 -0.027139248006161135 0.063897166650489043 0 -0.027288745219980363 0.064157789876144927 0 -0.027621563559809176 0.064020718376650659 0 -0.027364804368072978 0.063758509209067463 0 -0.027288745219980363 0.064157789876144927 0 -0.027364804368072978 0.063758509209067463 0 -0.02724159780721068 0.063450861521066521 0 -0.027032974407807695 0.063631463660817483 0 -0.027592072592056007 0.063497122788069724 0 -0.027364804368072978 0.063758509209067463 0 -0.02724159780721068 0.063450861521066521 0 -0.026936266311229851 0.063193680273756173 0 -0.02724159780721068 0.063450861521066521 0 -0.027032974407807695 0.063631463660817483 0 -0.027364804368072978 0.063758509209067463 0 -0.027032974407807695 0.063631463660817483 0 -0.027139248006161135 0.063897166650489043 0 -0.027032974407807695 0.063631463660817483 0 -0.027139248006161135 0.063897166650489043 0 -0.026915116515462471 0.063838397211970779 0 -0.027139248006161135 0.063897166650489043 0 -0.026915116515462471 0.063838397211970779 0 -0.026923246440178156 0.064042290430325083 0 -0.026756665389222882 0.063947724056016148 0 -0.026915116515462471 0.063838397211970779 0 -0.026604869528946806 0.063644297470304548 0 -0.034652757477815578 0.062363813423939311 0 -0.037418458738437951 0.061350889950206752 0 -0.026756665389222882 0.063947724056016148 0 -0.026915116515462471 0.063838397211970779 0 -0.026923246440178156 0.064042290430325083 0 -0.034652757477815578 0.062363813423939311 0 -0.033719776026771682 0.062115751674407818 0 -0.027032974407807695 0.063631463660817483 0 -0.026915116515462471 0.063838397211970779 0 -0.026604869528946806 0.063644297470304548 0 -0.035675695488208328 0.058608539541826418 0 -0.037418458738437951 0.061350889950206752 0 -0.026936266311229851 0.063193680273756173 0 -0.027032974407807695 0.063631463660817483 0 -0.026604869528946806 0.063644297470304548 0 -0.0400215608607127 0.062432505391852106 0 -0.039940354992164175 0.062291008390380306 0 -0.040026330739560349 0.062340079113031972 0 -0.040124164706427108 0.058384138444020343 0 -0.037418458738437951 0.061350889950206752 0 -0.039940354992164175 0.062291008390380306 0 -0.039990446931300397 0.062288122095173253 0 -0.039984178571259896 0.062240437676645492 0 -0.040035377427257594 0.062313381451214254 0 -0.039990446931300397 0.062288122095173253 0 -0.039984178571259896 0.062240437676645492 0 -0.039940354992164175 0.062291008390380306 0 -0.040026330739560349 0.062340079113031972 0 -0.039990446931300397 0.062288122095173253 0 -0.040035377427257594 0.062313381451214254 0 -0.040026330739560349 0.062340079113031972 0 -0.039990446931300397 0.062288122095173253 0 -0.036086167422832625 0.062620797416262114 0 -0.036213341905013949 0.062852667682570251 0 -0.036309780649555527 0.062734474650080849 0 -0.0404906503776261 0.063262278777615352 0 -0.040306875139804091 0.063294065115165984 0 -0.040143929674705148 0.063372779861424242 0 -0.0404906503776261 0.063262278777615352 0 -0.040306875139804091 0.063294065115165984 0 -0.04027172060868512 0.063159764112511035 0 -0.040306875139804091 0.063294065115165984 0 -0.040143929674705148 0.063372779861424242 0 -0.04027172060868512 0.063159764112511035 0 -0.037418458738437951 0.061350889950206752 0 -0.037577656277094945 0.062232213532047768 0 -0.039486784295022295 0.063077993212775657 0 -0.040143929674705148 0.063372779861424242 0 -0.039990850679849317 0.062964130255302439 0 -0.034652757477815578 0.062363813423939311 0 -0.037577656277094945 0.062232213532047768 0 -0.039990850679849317 0.062964130255302439 0 -0.040409974577599268 0.06300746726839436 0 -0.04027172060868512 0.063159764112511035 0 -0.040143929674705148 0.063372779861424242 0 -0.039990850679849317 0.062964130255302439 0 -0.04027172060868512 0.063159764112511035 0 -0.0404906503776261 0.063262278777615352 0 -0.040409974577599268 0.06300746726839436 0 -0.04027172060868512 0.063159764112511035 0 -0.040403784065302657 0.062166859562517829 0 -0.040339334911028174 0.062612887887382299 0 -0.039672932254916644 0.062302911430749813 0 -0.039990850679849317 0.062964130255302439 0 -0.040339334911028174 0.062612887887382299 0 -0.039672932254916644 0.062302911430749813 0 -0.039990850679849317 0.062964130255302439 0 -0.040409974577599268 0.06300746726839436 0 -0.040339334911028174 0.062612887887382299 0 -0.039672932254916644 0.062302911430749813 0 -0.039418067445051629 0.06154208982300554 0 -0.040259182240060913 0.061420050279121383 0 -0.040403784065302657 0.062166859562517829 0 -0.039672932254916644 0.062302911430749813 0 -0.040259182240060913 0.061420050279121383 0 -0.039672932254916644 0.062302911430749813 0 -0.038946550838591068 0.062160560667869791 0 -0.039418067445051629 0.06154208982300554 0 -0.026770233567578544 0.063953461388191774 0 -0.026923246440178156 0.064042290430325083 0 -0.026967226612985857 0.06438251059156179 0 -0.034652757477815578 0.062363813423939311 0 -0.030690172767278073 0.064169399846464706 0 -0.039486784295022295 0.063077993212775657 0 -0.039672932254916644 0.062302911430749813 0 -0.038946550838591068 0.062160560667869791 0 -0.039486784295022295 0.063077993212775657 0 -0.039990850679849317 0.062964130255302439 0 -0.039672932254916644 0.062302911430749813 0 -0.027079323512091635 0.064120205410903255 0 -0.026967226612985857 0.06438251059156179 0 -0.027288745219980363 0.064157789876144927 0 -0.026923246440178156 0.064042290430325083 0 -0.027079323512091635 0.064120205410903255 0 -0.026967226612985857 0.06438251059156179 0 -0.027139248006161135 0.063897166650489043 0 -0.026923246440178156 0.064042290430325083 0 -0.027079323512091635 0.064120205410903255 0 -0.027139248006161135 0.063897166650489043 0 -0.027079323512091635 0.064120205410903255 0 -0.027288745219980363 0.064157789876144927 0 -0.026967226612985857 0.06438251059156179 0 -0.027291223611653884 0.064476782685261372 0 -0.027178451322019979 0.06481521313318632 0 -0.026967226612985857 0.06438251059156179 0 -0.027291223611653884 0.064476782685261372 0 -0.027288745219980363 0.064157789876144927 0 -0.027616468764085484 0.064295658144349996 0 -0.027291223611653884 0.064476782685261372 0 -0.027288745219980363 0.064157789876144927 0 -0.015164060292717921 0.069822908744890527 0 -0.017883054909337996 0.070828865467197119 0 -0.016377768754695717 0.067965729574095995 0 -0.025019434756098351 0.065872391288945814 0 -0.019170270857997433 0.06645715361116554 0 -0.018422203955487337 0.071650929618194553 0 -0.018571707366170025 0.068868681469411455 0 -0.016636443132615555 0.068313177962203112 0 -0.027566925206003009 0.064628977114442529 0 -0.027291223611653884 0.064476782685261372 0 -0.027178451322019979 0.06481521313318632 0 -0.015429874143907212 0.071982326380147788 0 -0.015164060292717921 0.069822908744890527 0 -0.017883054909337996 0.070828865467197119 0 -0.021023632767860869 0.067433931795612939 0 -0.025019434756098351 0.065872391288945814 0 -0.038946550838591068 0.062160560667869791 0 -0.038410020496806675 0.061224099922063339 0 -0.039418067445051629 0.06154208982300554 0 -0.030690172767278073 0.064169399846464706 0 -0.025019434756098351 0.065872391288945814 0 -0.025019434756098351 0.065872391288945814 0 -0.029128176192511117 0.066612791900237278 0 -0.018422203955487337 0.071650929618194553 0 -0.021980852367528631 0.069964836307366232 0 -0.018571707366170025 0.068868681469411455 0 -0.038410020496806675 0.061224099922063339 0 -0.039528465933533562 0.060696820551143338 0 -0.039418067445051629 0.06154208982300554 0 -0.039528465933533562 0.060696820551143338 0 -0.039418067445051629 0.06154208982300554 0 -0.040259182240060913 0.061420050279121383 0 -0.029128176192511117 0.066612791900237278 0 -0.033650119168032615 0.066292395440816623 0 -0.02337588917175619 0.06974369662204298 0 -0.024619131875542023 0.069152717712463493 0 -0.026977391602974635 0.072701141159657423 0 -0.032059242346799369 0.066991255274572031 0 -0.031457521878199647 0.06517838944818781 0 -0.033115355258489895 0.066535394450904145 0 -0.030657002078957642 0.065558445381709782 0 -0.032059242346799369 0.066991255274572031 0 -0.031457521878199647 0.06517838944818781 0 -0.029128176192511117 0.066612791900237278 0 -0.027708207740008255 0.067585567364477628 0 -0.027708207740008255 0.067585567364477628 0 -0.02738803815913822 0.067739968926475241 0 -0.023429655976744672 0.069626120628396695 0 -0.022798606237811929 0.067009307588993011 0 -0.024402546478953801 0.06763577124547078 0 -0.023429655976744672 0.069626120628396695 0 -0.024619131875542023 0.069152717712463493 0 -0.024402546478953801 0.06763577124547078 0 -0.022798606237811929 0.067009307588993011 0 -0.024402546478953801 0.06763577124547078 0 -0.023863220149869906 0.066085370692403694 0 -0.023863220149869906 0.066085370692403694 0 -0.021439954375608826 0.06499984430624689 0 -0.024995209704929851 0.064999299896241161 0 -0.022798606237811929 0.067009307588993011 0 -0.023863220149869906 0.066085370692403694 0 -0.021439954375608826 0.06499984430624689 0 -0.024402546478953801 0.06763577124547078 0 -0.023863220149869906 0.066085370692403694 0 -0.0259496286498869 0.066398483629482294 0 -0.022798606237811929 0.067009307588993011 0 -0.021439954375608826 0.06499984430624689 0 -0.020503958233482156 0.067117383503362063 0 -0.023429655976744672 0.069626120628396695 0 -0.022798606237811929 0.067009307588993011 0 -0.020503958233482156 0.067117383503362063 0 -0.022073723240976267 0.070075223178090396 0 -0.023446473402256637 0.069424415591437028 0 -0.020624010712375948 0.067140977155508291 0 -0.022073723240976267 0.070075223178090396 0 -0.020624010712375948 0.067140977155508291 0 -0.020036073448995505 0.067989154590428036 0 -0.027708207740008255 0.067585567364477628 0 -0.021946936584735136 0.06621357560091351 0 -0.029128176192511117 0.066612791900237278 0 -0.026809677410938901 0.0659214595022517 0 -0.021980852367528631 0.069964836307366232 0 -0.018571707366170025 0.068868681469411455 0 -0.020036073448995505 0.067989154590428036 0 -0.020624010712375948 0.067140977155508291 0 -0.020036073448995505 0.067989154590428036 0 -0.01819823497062352 0.0670093901899316 0 -0.018571707366170025 0.068868681469411455 0 -0.020036073448995505 0.067989154590428036 0 -0.01819823497062352 0.0670093901899316 0 -0.020624010712375948 0.067140977155508291 0 -0.017887127814627726 0.064999949169032498 0 -0.01819823497062352 0.0670093901899316 0 -0.021439954375608826 0.06499984430624689 0 -0.020503958233482156 0.067117383503362063 0 -0.017887066299062136 0.065000058969691202 0 -0.021946936584735136 0.06621357560091351 0 -0.017891547154022081 0.06500006306441973 0 -0.014864558456613173 0.065000014862093974 0 -0.017887127814627726 0.064999949169032498 0 -0.01819823497062352 0.0670093901899316 0 -0.014864558456613173 0.065000014862093974 0 -0.01819823497062352 0.0670093901899316 0 -0.016636443132615555 0.068313177962203112 0 -0.018571707366170025 0.068868681469411455 0 -0.01819823497062352 0.0670093901899316 0 -0.016636443132615555 0.068313177962203112 0 -0.031638079635438847 0.066539160906451358 0 -0.033012598280909591 0.067073584329550864 0 -0.029903528005179224 0.066786326793077264 0 -0.031638079635438847 0.066539160906451358 0 -0.034179186507986507 0.066532581371932464 0 -0.033012598280909591 0.067073584329550864 0 -0.034179186507986507 0.066532581371932464 0 -0.035780448174160574 0.066790133435532167 0 -0.033012598280909591 0.067073584329550864 0 -0.035961008950364838 0.067020399747349801 0 -0.035780448174160574 0.066790133435532167 0 -0.033012598280909591 0.067073584329550864 0 -0.034179186507986507 0.066532581371932464 0 -0.035780448174160574 0.066790133435532167 0 -0.036415471070076463 0.066553523432459627 0 -0.033248406583327159 0.068082146466752341 0 -0.035961008950364838 0.067020399747349801 0 -0.033012598280909591 0.067073584329550864 0 -0.033248406583327159 0.068082146466752341 0 -0.033012598280909591 0.067073584329550864 0 -0.029480966885817996 0.067728815136101433 0 -0.035539042371924588 0.068013664367517074 0 -0.032863697410630853 0.067623360408742866 0 -0.03345953059968166 0.068417135054899741 0 -0.032059242346799369 0.066991255274572031 0 -0.033115355258489895 0.066535394450904145 0 -0.03642363377189952 0.06665767032141616 0 -0.032863697410630853 0.067623360408742866 0 -0.027708207740008255 0.067585567364477628 0 -0.032863697410630853 0.067623360408742866 0 -0.032863697410630853 0.067623360408742866 0 -0.03110718686143157 0.067107244095953894 0 -0.024619131875542023 0.069152717712463493 0 -0.026977391602974635 0.072701141159657423 0 -0.026410962352434227 0.069590178755746412 0 -0.029480966885817996 0.067728815136101433 0 -0.028280671280953743 0.066861309321682064 0 -0.029903528005179224 0.066786326793077264 0 -0.033012598280909591 0.067073584329550864 0 -0.029480966885817996 0.067728815136101433 0 -0.029903528005179224 0.066786326793077264 0 -0.031638079635438847 0.066539160906451358 0 -0.029903528005179224 0.066786326793077264 0 -0.02952623548423634 0.066126154978814272 0 -0.029903528005179224 0.066786326793077264 0 -0.028202539161873177 0.066446632919062332 0 -0.02952623548423634 0.066126154978814272 0 -0.028202539161873177 0.066446632919062332 0 -0.02952623548423634 0.066126154978814272 0 -0.027515037112177395 0.065812009481960643 0 -0.028280671280953743 0.066861309321682064 0 -0.028202539161873177 0.066446632919062332 0 -0.0259496286498869 0.066398483629482294 0 -0.024402546478953801 0.06763577124547078 0 -0.026410962352434227 0.069590178755746412 0 -0.0259496286498869 0.066398483629482294 0 -0.03110718686143157 0.067107244095953894 0 -0.030447548135910451 0.066548982977116755 0 -0.024619131875542023 0.069152717712463493 0 -0.024402546478953801 0.06763577124547078 0 -0.026410962352434227 0.069590178755746412 0 -0.028280671280953743 0.066861309321682064 0 -0.029903528005179224 0.066786326793077264 0 -0.028202539161873177 0.066446632919062332 0 -0.028202539161873177 0.066446632919062332 0 -0.0259496286498869 0.066398483629482294 0 -0.027515037112177395 0.065812009481960643 0 -0.023863220149869906 0.066085370692403694 0 -0.0259496286498869 0.066398483629482294 0 -0.024995209704929851 0.064999299896241161 0 -0.0259496286498869 0.066398483629482294 0 -0.024995209704929851 0.064999299896241161 0 -0.027515037112177395 0.065812009481960643 0 -0.024995209704929851 0.064999299896241161 0 -0.027515037112177395 0.065812009481960643 0 -0.02854855429248675 0.06499900012017594 0 -0.02952623548423634 0.066126154978814272 0 -0.027515037112177395 0.065812009481960643 0 -0.02854855429248675 0.06499900012017594 0 -0.02854855429248675 0.06499900012017594 0 -0.031976653001398021 0.065945106162284162 0 -0.032101371448035973 0.064999354083913413 0 -0.02952623548423634 0.066126154978814272 0 -0.02854855429248675 0.06499900012017594 0 -0.031976653001398021 0.065945106162284162 0 -0.031638079635438847 0.066539160906451358 0 -0.034179186507986507 0.066532581371932464 0 -0.031976653001398021 0.065945106162284162 0 -0.031638079635438847 0.066539160906451358 0 -0.02952623548423634 0.066126154978814272 0 -0.031976653001398021 0.065945106162284162 0 -0.034179186507986507 0.066532581371932464 0 -0.031976653001398021 0.065945106162284162 0 -0.035073639045243299 0.066001418253019056 0 -0.031976653001398021 0.065945106162284162 0 -0.032101371448035973 0.064999354083913413 0 -0.035073639045243299 0.066001418253019056 0 -0.032101371448035973 0.064999354083913413 0 -0.035652820126982669 0.064997316078110171 0 -0.035073639045243299 0.066001418253019056 0 -0.035652820126982669 0.064997316078110171 0 -0.036859913326007153 0.065611279423576196 0 -0.035073639045243299 0.066001418253019056 0 -0.036859913326007153 0.065611279423576196 0 -0.035073639045243299 0.066001418253019056 0 -0.037272974189360646 0.06625176587311335 0 -0.034179186507986507 0.066532581371932464 0 -0.035073639045243299 0.066001418253019056 0 -0.036415471070076463 0.066553523432459627 0 -0.035073639045243299 0.066001418253019056 0 -0.037272974189360646 0.06625176587311335 0 -0.036415471070076463 0.066553523432459627 0 -0.037272974189360646 0.06625176587311335 0 -0.037884957020800809 0.06646111266319471 0 -0.036415471070076463 0.066553523432459627 0 -0.035780448174160574 0.066790133435532167 0 -0.036415471070076463 0.066553523432459627 0 -0.037862462128343911 0.066325426688626191 0 -0.037884957020800809 0.06646111266319471 0 -0.036415471070076463 0.066553523432459627 0 -0.037862462128343911 0.066325426688626191 0 -0.038547671319530928 0.066529901690327922 0 -0.040162951347396086 0.066635373501261655 0 -0.039367428073753472 0.066710000493759095 0 -0.040162951347396086 0.066635373501261655 0 -0.039947034769708172 0.067064050989355778 0 -0.039367428073753472 0.066710000493759095 0 -0.037272974189360646 0.06625176587311335 0 -0.037884957020800809 0.06646111266319471 0 -0.038547671319530928 0.066529901690327922 0 -0.037884957020800809 0.06646111266319471 0 -0.038547671319530928 0.066529901690327922 0 -0.039295057871606899 0.066110037438714242 0 -0.036859913326007153 0.065611279423576196 0 -0.037272974189360646 0.06625176587311335 0 -0.038410293777941272 0.065847265629514942 0 -0.037272974189360646 0.06625176587311335 0 -0.038547671319530928 0.066529901690327922 0 -0.038410293777941272 0.065847265629514942 0 -0.038547671319530928 0.066529901690327922 0 -0.038410293777941272 0.065847265629514942 0 -0.040162951347396086 0.066635373501261655 0 -0.038410293777941272 0.065847265629514942 0 -0.040085140193973426 0.065016503939463385 0 -0.040162951347396086 0.066635373501261655 0 -0.038118568441925404 0.065782962126693031 0 -0.04009564794565991 0.066387581976391552 0 -0.035652242440065408 0.065000041595237174 0 -0.038567679953369682 0.066480170031841271 0 -0.039931246918957747 0.064999485938880441 0 -0.038410293777941272 0.065847265629514942 0 -0.037995140836516027 0.06479116596072422 0 -0.040085140193973426 0.065016503939463385 0 -0.036859913326007153 0.065611279423576196 0 -0.038410293777941272 0.065847265629514942 0 -0.037995140836516027 0.06479116596072422 0 -0.035652820126982669 0.064997316078110171 0 -0.036859913326007153 0.065611279423576196 0 -0.037995140836516027 0.06479116596072422 0 -0.03565564268363542 0.065000320450237972 0 -0.038118568441925404 0.065782962126693031 0 -0.038567679953369682 0.066480170031841271 0 -0.039931246918957747 0.064999485938880441 0 -0.041479772929662262 0.067289715830095909 0 -0.039931246918957747 0.064999485938880441 0 -0.043487436794916887 0.066760621205723597 0 -0.045806152512461361 0.064998775487551064 0 -0.039931246918957747 0.064999485938880441 0 -0.043487436794916887 0.066760621205723597 0 -0.041479772929662262 0.067289715830095909 0 -0.043487436794916887 0.066760621205723597 0 -0.045806152512461361 0.064998775487551064 0 -0.047008232040053957 0.068103767595854292 0 -0.045806152512461361 0.064998775487551064 0 -0.047008232040053957 0.068103767595854292 0 -0.051046365782216878 0.067484658466696781 0 -0.047776345666808252 0.063777977516747617 0 -0.049193904695514885 0.067228692278454474 0 -0.051489572610836247 0.065348641588791681 0 -0.047776345666808252 0.063777977516747617 0 -0.045448112647486417 0.066528136109416658 0 -0.043481513818541831 0.066668791988113013 0 -0.043487436794916887 0.066760621205723597 0 -0.047008232040053957 0.068103767595854292 0 -0.043481513818541831 0.066668791988113013 0 -0.048518195320900674 0.066002444684026107 0 -0.046814967210734144 0.066284283786374937 0 -0.045448112647486417 0.066528136109416658 0 -0.049193904695514885 0.067228692278454474 0 -0.045571614629433231 0.068258518746947119 0 -0.04425237556539529 0.067131951518466779 0 -0.045448112647486417 0.066528136109416658 0 -0.043849751145478691 0.066768392846970864 0 -0.045448112647486417 0.066528136109416658 0 -0.043481513818541831 0.066668791988113013 0 -0.043849751145478691 0.066768392846970864 0 -0.04425237556539529 0.067131951518466779 0 -0.045448112647486417 0.066528136109416658 0 -0.045571614629433231 0.068258518746947119 0 -0.04425237556539529 0.067131951518466779 0 -0.042903617222651312 0.067514776050370734 0 -0.045571614629433231 0.068258518746947119 0 -0.047776345666808252 0.063777977516747617 0 -0.045448112647486417 0.066528136109416658 0 -0.049193904695514885 0.067228692278454474 0 -0.040085140193973426 0.065016503939463385 0 -0.041406231842844442 0.06628180226089149 0 -0.040162951347396086 0.066635373501261655 0 -0.040085140193973426 0.065016503939463385 0 -0.041406231842844442 0.06628180226089149 0 -0.04329578010046066 0.066630665433507777 0 -0.04009564794565991 0.066387581976391552 0 -0.041117864093236076 0.066744586038835485 0 -0.041406231842844442 0.06628180226089149 0 -0.042428886902025613 0.066621804101724705 0 -0.041209633289304576 0.0668763661552296 0 -0.043487436794916887 0.066760621205723597 0 -0.043481513818541831 0.066668791988113013 0 -0.04329578010046066 0.066630665433507777 0 -0.043487436794916887 0.066760621205723597 0 -0.041479772929662262 0.067289715830095909 0 -0.04329578010046066 0.066630665433507777 0 -0.043481513818541831 0.066668791988113013 0 -0.043145427805988186 0.066674998228642202 0 -0.043849751145478691 0.066768392846970864 0 -0.043481513818541831 0.066668791988113013 0 -0.04329578010046066 0.066630665433507777 0 -0.043145427805988186 0.066674998228642202 0 -0.041406231842844442 0.06628180226089149 0 -0.04329578010046066 0.066630665433507777 0 -0.042428886902025613 0.066621804101724705 0 -0.043145427805988186 0.066674998228642202 0 -0.042428886902025613 0.066621804101724705 0 -0.042950568877706381 0.066754085469218113 0 -0.04329578010046066 0.066630665433507777 0 -0.043145427805988186 0.066674998228642202 0 -0.042428886902025613 0.066621804101724705 0 -0.042428886902025613 0.066621804101724705 0 -0.042371903010561041 0.066932474599664643 0 -0.041209633289304576 0.0668763661552296 0 -0.042428886902025613 0.066621804101724705 0 -0.042371903010561041 0.066932474599664643 0 -0.042950568877706381 0.066754085469218113 0 -0.043145427805988186 0.066674998228642202 0 -0.043849751145478691 0.066768392846970864 0 -0.042950568877706381 0.066754085469218113 0 -0.043849751145478691 0.066768392846970864 0 -0.042950568877706381 0.066754085469218113 0 -0.043191383351779515 0.066980474170164395 0 -0.042371903010561041 0.066932474599664643 0 -0.042950568877706381 0.066754085469218113 0 -0.043191383351779515 0.066980474170164395 0 -0.04425237556539529 0.067131951518466779 0 -0.043849751145478691 0.066768392846970864 0 -0.043191383351779515 0.066980474170164395 0 -0.04425237556539529 0.067131951518466779 0 -0.043191383351779515 0.066980474170164395 0 -0.042903617222651312 0.067514776050370734 0 -0.042371903010561041 0.066932474599664643 0 -0.043191383351779515 0.066980474170164395 0 -0.042903617222651312 0.067514776050370734 0 -0.042371903010561041 0.066932474599664643 0 -0.042903617222651312 0.067514776050370734 0 -0.041327674780933313 0.067368607004195336 0 -0.042371903010561041 0.066932474599664643 0 -0.041327674780933313 0.067368607004195336 0 -0.041209633289304576 0.0668763661552296 0 -0.041327674780933313 0.067368607004195336 0 -0.041209633289304576 0.0668763661552296 0 -0.039947034769708172 0.067064050989355778 0 -0.041406231842844442 0.06628180226089149 0 -0.041209633289304576 0.0668763661552296 0 -0.040162951347396086 0.066635373501261655 0 -0.041209633289304576 0.0668763661552296 0 -0.040162951347396086 0.066635373501261655 0 -0.039947034769708172 0.067064050989355778 0 -0.041327674780933313 0.067368607004195336 0 -0.042179656715405432 0.068471959048002545 0 -0.039136784401351821 0.067093512431707289 0 -0.041327674780933313 0.067368607004195336 0 -0.039947034769708172 0.067064050989355778 0 -0.039136784401351821 0.067093512431707289 0 -0.042903617222651312 0.067514776050370734 0 -0.041327674780933313 0.067368607004195336 0 -0.042179656715405432 0.068471959048002545 0 -0.042903617222651312 0.067514776050370734 0 -0.042179656715405432 0.068471959048002545 0 -0.045571614629433231 0.068258518746947119 0 -0.035218896448708271 0.06606299443751204 0 -0.039136784401351821 0.067093512431707289 0 -0.035971864417438541 0.063511392983339993 0 -0.043340117747835874 0.063852229184770848 0 -0.041946740655688132 0.06434836374390053 0 -0.042179656715405432 0.068471959048002545 0 -0.042989743565627507 0.071025890408488057 0 -0.039136784401351821 0.067093512431707289 0 -0.042179656715405432 0.068471959048002545 0 -0.042989743565627507 0.071025890408488057 0 -0.04544737278255765 0.070282648333801642 0 -0.045571614629433231 0.068258518746947119 0 -0.04544737278255765 0.070282648333801642 0 -0.049773892625215581 0.070154995487254304 0 -0.049193904695514885 0.067228692278454474 0 -0.045571614629433231 0.068258518746947119 0 -0.049773892625215581 0.070154995487254304 0 -0.042179656715405432 0.068471959048002545 0 -0.045571614629433231 0.068258518746947119 0 -0.04544737278255765 0.070282648333801642 0 -0.042989743565627507 0.071025890408488057 0 -0.04544737278255765 0.070282648333801642 0 -0.046933474901057676 0.072644986961305863 0 -0.043340117747835874 0.063852229184770848 0 -0.050557854439525034 0.062411957259690537 0 -0.060924909858882562 0.059867978822474834 0 -0.060308174035523569 0.060726709725233557 0 -0.059895917755752905 0.059616358992491292 0 -0.050557854439525034 0.062411957259690537 0 -0.053159831827637116 0.063443797431817522 0 -0.04544737278255765 0.070282648333801642 0 -0.046933474901057676 0.072644986961305863 0 -0.049773892625215581 0.070154995487254304 0 -0.058982172210899277 0.059403465879982673 0 -0.058989600218559708 0.059395563611942724 0 -0.058984818359161195 0.059420772722115066 0 -0.050557854439525034 0.062411957259690537 0 -0.056622035840873775 0.061969386417471385 0 -0.058989600218559708 0.059395563611942724 0 -0.058998816236647447 0.059373232399848812 0 -0.058984818359161195 0.059420772722115066 0 -0.031551824810426919 0.065116140476283862 0 -0.034242373102320728 0.061649673442578594 0 -0.035971864417438541 0.063511392983339993 0 -0.058982172210899277 0.059403465879982673 0 -0.058989600218559708 0.059395563611942724 0 -0.058973361916316726 0.059391997487115579 0 -0.050557854439525034 0.062411957259690537 0 -0.048906904977433954 0.0607560293193481 0 -0.035218896448708271 0.06606299443751204 0 -0.031551824810426919 0.065116140476283862 0 -0.035971864417438541 0.063511392983339993 0 -0.048906904977433954 0.0607560293193481 0 -0.057047362018750693 0.05927414761228831 0 -0.0553367643200725 0.054991371585669906 0 -0.052851290094816955 0.054234024016940115 0 -0.05314945039284779 0.057062719078436394 0 -0.058989600218559708 0.059395563611942724 0 -0.058973361916316726 0.059391997487115579 0 -0.058998816236647447 0.059373232399848812 0 -0.053482389797370647 0.053380970991493998 0 -0.0553367643200725 0.054991371585669906 0 -0.059618660865231717 0.052971914490576602 0 -0.048906904977433954 0.0607560293193481 0 -0.048972147330973499 0.060667329864085455 0 -0.053482389797370647 0.053380970991493998 0 -0.0553367643200725 0.054991371585669906 0 -0.052851290094816955 0.054234024016940115 0 -0.039136784401351821 0.067093512431707289 0 -0.038426134807281929 0.062783055464887924 0 -0.035971864417438541 0.063511392983339993 0 -0.034242373102320728 0.061649673442578594 0 -0.038426134807281929 0.062783055464887924 0 -0.035971864417438541 0.063511392983339993 0 -0.048906904977433954 0.0607560293193481 0 -0.044927716473247295 0.060257734150555742 0 -0.052851290094816955 0.054234024016940115 0 -0.048796249515119475 0.057108904662730851 0 -0.05314945039284779 0.057062719078436394 0 -0.053281077254516584 0.053619847686444018 0 -0.046431777755423204 0.056466747120784422 0 -0.052851290094816955 0.054234024016940115 0 -0.046431777755423204 0.056466747120784422 0 -0.052851290094816955 0.054234024016940115 0 -0.048796249515119475 0.057108904662730851 0 -0.046431777755423204 0.056466747120784422 0 -0.048796249515119475 0.057108904662730851 0 -0.044126077099780191 0.059365456947210349 0 -0.039136784401351821 0.067093512431707289 0 -0.038426134807281929 0.062783055464887924 0 -0.040997516646775617 0.062412115544447887 0 -0.046431777755423204 0.056466747120784422 0 -0.044126077099780191 0.059365456947210349 0 -0.040997516646775617 0.062412115544447887 0 -0.044927716473247295 0.060257734150555742 0 -0.044195517810023274 0.060551477399270984 0 -0.040997516646775617 0.062412115544447887 0 -0.041495827049288794 0.06147013924477035 0 -0.040153132415992228 0.063162527460539367 0 -0.041495827049288794 0.06147013924477035 0 -0.040603658045868608 0.062198229652761998 0 -0.042105596991607222 0.061217355162259436 0 -0.044126077099780191 0.059365456947210349 0 -0.040997516646775617 0.062412115544447887 0 -0.041495827049288794 0.06147013924477035 0 -0.044126077099780191 0.059365456947210349 0 -0.041495827049288794 0.06147013924477035 0 -0.042105596991607222 0.061217355162259436 0 -0.041495827049288794 0.06147013924477035 0 -0.040603658045868608 0.062198229652761998 0 -0.040153132415992228 0.063162527460539367 0 -0.039626788659441609 0.063577515995554182 0 -0.040603658045868608 0.062198229652761998 0 -0.040153132415992228 0.063162527460539367 0 -0.039626788659441609 0.063577515995554182 0 -0.040603658045868608 0.062198229652761998 0 -0.04017786089069228 0.062667750366324229 0 -0.039626788659441609 0.063577515995554182 0 -0.040153132415992228 0.063162527460539367 0 -0.039065601191765213 0.064862135359944603 0 -0.040997516646775617 0.062412115544447887 0 -0.040153132415992228 0.063162527460539367 0 -0.0394788833271182 0.064834539142795106 0 -0.040153132415992228 0.063162527460539367 0 -0.0394788833271182 0.064834539142795106 0 -0.039065601191765213 0.064862135359944603 0 -0.038314466765264843 0.066108096448776604 0 -0.039065601191765213 0.064862135359944603 0 -0.037862462128343911 0.066325426688626191 0 -0.0394788833271182 0.064834539142795106 0 -0.039065601191765213 0.064862135359944603 0 -0.037862462128343911 0.066325426688626191 0 -0.0394788833271182 0.064834539142795106 0 -0.037862462128343911 0.066325426688626191 0 -0.039295057871606899 0.066110037438714242 0 -0.037884957020800809 0.06646111266319471 0 -0.037862462128343911 0.066325426688626191 0 -0.039295057871606899 0.066110037438714242 0 -0.038547671319530928 0.066529901690327922 0 -0.039295057871606899 0.066110037438714242 0 -0.039367428073753472 0.066710000493759095 0 -0.039947034769708172 0.067064050989355778 0 -0.039136784401351821 0.067093512431707289 0 -0.039594675588019587 0.066224222859806225 0 -0.039295057871606899 0.066110037438714242 0 -0.039367428073753472 0.066710000493759095 0 -0.039594675588019587 0.066224222859806225 0 -0.039947034769708172 0.067064050989355778 0 -0.039367428073753472 0.066710000493759095 0 -0.039594675588019587 0.066224222859806225 0 -0.039136784401351821 0.067093512431707289 0 -0.040997516646775617 0.062412115544447887 0 -0.039594675588019587 0.066224222859806225 0 -0.040997516646775617 0.062412115544447887 0 -0.0394788833271182 0.064834539142795106 0 -0.039295057871606899 0.066110037438714242 0 -0.040997516646775617 0.062412115544447887 0 -0.039295057871606899 0.066110037438714242 0 -0.039594675588019587 0.066224222859806225 0 -0.064995675661830302 0.064997057112862716 0 -0.059805627754126546 0.065188396623154732 0 -0.053896354690744046 0.064995556585282055 0 -0.064995675661830302 0.064997057112862716 0 -0.064924761555805274 0.062727962439103918 0 -0.064996278499528715 0.052024876840660816 0 -0.066382316198118532 0.058162444475981845 0 -0.064924761555805274 0.062727962439103918 0 -0.064996278499528715 0.052024876840660816 0 -0.066382316198118532 0.058162444475981845 0 -0.066079874448458836 0.060172511486050018 0 -0.064924761555805274 0.062727962439103918 0 -0.064995675661830302 0.064997057112862716 0 -0.064924761555805274 0.062727962439103918 0 -0.059805627754126546 0.065188396623154732 0 -0.061097496963378115 0.066045529249822085 0 -0.064924761555805274 0.062727962439103918 0 -0.059805627754126546 0.065188396623154732 0 -0.062627391133680085 0.062419994946854414 0 -0.063188867623914305 0.062454336806466774 0 -0.059805627754126546 0.065188396623154732 0 -0.057342259309661824 0.065643157983685613 0 -0.056725639202108331 0.065638747378468615 0 -0.062627391133680085 0.062419994946854414 0 -0.061664445993844255 0.062108635454896775 0 -0.061097496963378115 0.066045529249822085 0 -0.059805627754126546 0.065188396623154732 0 -0.057342259309661824 0.065643157983685613 0 -0.066382316198118532 0.058162444475981845 0 -0.066079874448458836 0.060172511486050018 0 -0.064595350182267072 0.057935840101946662 0 -0.066382316198118532 0.058162444475981845 0 -0.064595350182267072 0.057935840101946662 0 -0.063987388725074104 0.059150868629117823 0 -0.064595350182267072 0.057935840101946662 0 -0.061277709830299593 0.060239755418128947 0 -0.063987388725074104 0.059150868629117823 0 -0.061664445993844255 0.062108635454896775 0 -0.061114613480031929 0.061926739350433586 0 -0.064595350182267072 0.057935840101946662 0 -0.05884741289942369 0.06091333569979436 0 -0.061277709830299593 0.060239755418128947 0 -0.057342259309661824 0.065643157983685613 0 -0.05884741289942369 0.06091333569979436 0 -0.05734285540244019 0.064342709484767752 0 -0.05884741289942369 0.06091333569979436 0 -0.057923283771883216 0.062868842547221152 0 -0.05734285540244019 0.064342709484767752 0 -0.05884741289942369 0.06091333569979436 0 -0.057923283771883216 0.062868842547221152 0 -0.058693676639552793 0.06150948208901641 0 -0.05884741289942369 0.06091333569979436 0 -0.058693676639552793 0.06150948208901641 0 -0.059496695723748071 0.060829708913858103 0 -0.057923283771883216 0.062868842547221152 0 -0.05734285540244019 0.064342709484767752 0 -0.056875395572647085 0.064252554390385602 0 -0.05734285540244019 0.064342709484767752 0 -0.055886662941217816 0.065877443455902018 0 -0.056875395572647085 0.064252554390385602 0 -0.05734285540244019 0.064342709484767752 0 -0.056725639202108331 0.065638747378468615 0 -0.055886662941217816 0.065877443455902018 0 -0.057342259309661824 0.065643157983685613 0 -0.05734285540244019 0.064342709484767752 0 -0.056725639202108331 0.065638747378468615 0 -0.053896354690744046 0.064995556585282055 0 -0.055886662941217816 0.065877443455902018 0 -0.051046365782216878 0.067484658466696781 0 -0.059805627754126546 0.065188396623154732 0 -0.056725639202108331 0.065638747378468615 0 -0.053896354690744046 0.064995556585282055 0 -0.056725639202108331 0.065638747378468615 0 -0.053896354690744046 0.064995556585282055 0 -0.055886662941217816 0.065877443455902018 0 -0.045806152512461361 0.064998775487551064 0 -0.053896354690744046 0.064995556585282055 0 -0.051046365782216878 0.067484658466696781 0 -0.053030057056634501 0.065439632172705237 0 -0.051530018420589997 0.065580971944026442 0 -0.047776345666808252 0.063777977516747617 0 -0.051489572610836247 0.065348641588791681 0 -0.054742331501511303 0.062978110191871647 0 -0.051489572610836247 0.065348641588791681 0 -0.054742331501511303 0.062978110191871647 0 -0.05360121892128783 0.067400556126884406 0 -0.048518195320900674 0.066002444684026107 0 -0.051530018420589997 0.065580971944026442 0 -0.055886662941217816 0.065877443455902018 0 -0.054742331501511303 0.062978110191871647 0 -0.056875395572647085 0.064252554390385602 0 -0.054742331501511303 0.062978110191871647 0 -0.056875395572647085 0.064252554390385602 0 -0.05360121892128783 0.067400556126884406 0 -0.055497354647196864 0.063311100043607155 0 -0.054909903212376779 0.063407536596003164 0 -0.057923283771883216 0.062868842547221152 0 -0.058693676639552793 0.06150948208901641 0 -0.059759565319380176 0.061810493212037201 0 -0.057923283771883216 0.062868842547221152 0 -0.056875395572647085 0.064252554390385602 0 -0.059759565319380176 0.061810493212037201 0 -0.049193904695514885 0.067228692278454474 0 -0.05360121892128783 0.067400556126884406 0 -0.049773892625215581 0.070154995487254304 0 -0.049193904695514885 0.067228692278454474 0 -0.051489572610836247 0.065348641588791681 0 -0.05360121892128783 0.067400556126884406 0 -0.059759565319380176 0.061810493212037201 0 -0.060308174035523569 0.060726709725233557 0 -0.059361410763349401 0.060730357533722051 0 -0.054909903212376779 0.063407536596003164 0 -0.053159831827637116 0.063443797431817522 0 -0.058693676639552793 0.06150948208901641 0 -0.059759565319380176 0.061810493212037201 0 -0.059361410763349401 0.060730357533722051 0 -0.058693676639552793 0.06150948208901641 0 -0.059361410763349401 0.060730357533722051 0 -0.058716218015545094 0.060093247373125665 0 -0.059411649789722486 0.060105761293104618 0 -0.058879970229394098 0.059499761457350739 0 -0.058716218015545094 0.060093247373125665 0 -0.059361410763349401 0.060730357533722051 0 -0.059411649789722486 0.060105761293104618 0 -0.058716218015545094 0.060093247373125665 0 -0.060308174035523569 0.060726709725233557 0 -0.059411649789722486 0.060105761293104618 0 -0.059895917755752905 0.059616358992491292 0 -0.060308174035523569 0.060726709725233557 0 -0.059361410763349401 0.060730357533722051 0 -0.059411649789722486 0.060105761293104618 0 -0.059618660865231717 0.052971914490576602 0 -0.064502073884567607 0.053581686789404365 0 -0.064089143045139768 0.053822008944020137 0 -0.058998816236647447 0.059373232399848812 0 -0.058966761065513476 0.059383049294456994 0 -0.058974393107187099 0.059305092806348624 0 -0.057047362018750693 0.05927414761228831 0 -0.061171307210785654 0.058279463548623317 0 -0.058998816236647447 0.059373232399848812 0 -0.058984818359161195 0.059420772722115066 0 -0.058966761065513476 0.059383049294456994 0 -0.062438567044569709 0.058603192547102737 0 -0.061171307210785654 0.058279463548623317 0 -0.058966761065513476 0.059383049294456994 0 -0.058879970229394098 0.059499761457350739 0 -0.058746738373653476 0.05924250141021016 0 -0.062849329371457832 0.057652632010220896 0 -0.062896872657762337 0.058050701332920403 0 -0.062349030626614219 0.057897880607042276 0 -0.058966761065513476 0.059383049294456994 0 -0.058746738373653476 0.05924250141021016 0 -0.058974393107187099 0.059305092806348624 0 -0.058984818359161195 0.059420772722115066 0 -0.058966761065513476 0.059383049294456994 0 -0.058879970229394098 0.059499761457350739 0 -0.059411649789722486 0.060105761293104618 0 -0.059895917755752905 0.059616358992491292 0 -0.058879970229394098 0.059499761457350739 0 -0.056622035840873775 0.061969386417471385 0 -0.057673254206752282 0.061675553525211278 0 -0.062438567044569709 0.058603192547102737 0 -0.060832987056018924 0.06026765728441507 0 -0.058879970229394098 0.059499761457350739 0 -0.058746738373653476 0.05924250141021016 0 -0.058716218015545094 0.060093247373125665 0 -0.060518076744155824 0.061863506962254275 0 -0.059777868268245701 0.063196291872731666 0 -0.059601178973169348 0.060932351363138133 0 -0.062438567044569709 0.058603192547102737 0 -0.06372123553417243 0.05755948547911538 0 -0.067443141418612448 0.057350947230393044 0 -0.066468380632276544 0.056953494604360076 0 -0.067344668882646785 0.056357497106285466 0 -0.067443141418612448 0.057350947230393044 0 -0.066468380632276544 0.056953494604360076 0 -0.066499935736822641 0.057939857894877635 0 -0.066468380632276544 0.056953494604360076 0 -0.066499935736822641 0.057939857894877635 0 -0.066130111434258815 0.057174534910205438 0 -0.062438567044569709 0.058603192547102737 0 -0.06345809693123973 0.059038903522635279 0 -0.060518076744155824 0.061863506962254275 0 -0.059777868268245701 0.063196291872731666 0 -0.061962793526193688 0.062301917441870323 0 -0.060518076744155824 0.061863506962254275 0 -0.061962793526193688 0.062301917441870323 0 -0.061140602878467093 0.061039258458158059 0 -0.061962793526193688 0.062301917441870323 0 -0.061140602878467093 0.061039258458158059 0 -0.062977475723249896 0.059987949024003472 0 -0.061140602878467093 0.061039258458158059 0 -0.060798776862508855 0.060588756533720721 0 -0.062977475723249896 0.059987949024003472 0 -0.060518076744155824 0.061863506962254275 0 -0.061140602878467093 0.061039258458158059 0 -0.059601178973169348 0.060932351363138133 0 -0.061140602878467093 0.061039258458158059 0 -0.059601178973169348 0.060932351363138133 0 -0.060798776862508855 0.060588756533720721 0 -0.058693676639552793 0.06150948208901641 0 -0.059601178973169348 0.060932351363138133 0 -0.059496695723748071 0.060829708913858103 0 -0.060337710940192302 0.060668637923225389 0 -0.060832987056018924 0.06026765728441507 0 -0.059601178973169348 0.060932351363138133 0 -0.059496695723748071 0.060829708913858103 0 -0.060798776862508855 0.060588756533720721 0 -0.061277709830299593 0.060239755418128947 0 -0.060798776862508855 0.060588756533720721 0 -0.063987388725074104 0.059150868629117823 0 -0.05884741289942369 0.06091333569979436 0 -0.059496695723748071 0.060829708913858103 0 -0.061277709830299593 0.060239755418128947 0 -0.059496695723748071 0.060829708913858103 0 -0.061277709830299593 0.060239755418128947 0 -0.060798776862508855 0.060588756533720721 0 -0.060798776862508855 0.060588756533720721 0 -0.063987388725074104 0.059150868629117823 0 -0.062977475723249896 0.059987949024003472 0 -0.066382316198118532 0.058162444475981845 0 -0.065488587363045359 0.058199028216133715 0 -0.066506888321880162 0.057016786886064569 0 -0.066382316198118532 0.058162444475981845 0 -0.063987388725074104 0.059150868629117823 0 -0.065488587363045359 0.058199028216133715 0 -0.063987388725074104 0.059150868629117823 0 -0.065488587363045359 0.058199028216133715 0 -0.064873839789759385 0.058564495532844284 0 -0.064873839789759385 0.058564495532844284 0 -0.066506888321880162 0.057016786886064569 0 -0.065153431806975248 0.058924079906227993 0 -0.065488587363045359 0.058199028216133715 0 -0.064873839789759385 0.058564495532844284 0 -0.066506888321880162 0.057016786886064569 0 -0.066506888321880162 0.057016786886064569 0 -0.065153431806975248 0.058924079906227993 0 -0.064540276659467793 0.058692426060164081 0 -0.063987388725074104 0.059150868629117823 0 -0.064873839789759385 0.058564495532844284 0 -0.062977475723249896 0.059987949024003472 0 -0.064873839789759385 0.058564495532844284 0 -0.065153431806975248 0.058924079906227993 0 -0.062977475723249896 0.059987949024003472 0 -0.061962793526193688 0.062301917441870323 0 -0.065153431806975248 0.058924079906227993 0 -0.062977475723249896 0.059987949024003472 0 -0.066499935736822641 0.057939857894877635 0 -0.065783313153761624 0.057940058162880219 0 -0.066130111434258815 0.057174534910205438 0 -0.066499935736822641 0.057939857894877635 0 -0.065153431806975248 0.058924079906227993 0 -0.065783313153761624 0.057940058162880219 0 -0.06345809693123973 0.059038903522635279 0 -0.063893017293688403 0.059034468115403187 0 -0.065783313153761624 0.057940058162880219 0 -0.066130111434258815 0.057174534910205438 0 -0.066085582674384871 0.056799597988972647 0 -0.066130111434258815 0.057174534910205438 0 -0.066085582674384871 0.056799597988972647 0 -0.065790564975318946 0.056581530228903339 0 -0.066468380632276544 0.056953494604360076 0 -0.066130111434258815 0.057174534910205438 0 -0.065790564975318946 0.056581530228903339 0 -0.066085582674384871 0.056799597988972647 0 -0.064540276659467793 0.058692426060164081 0 -0.063405692371902758 0.054031330978490832 0 -0.065783313153761624 0.057940058162880219 0 -0.066085582674384871 0.056799597988972647 0 -0.064540276659467793 0.058692426060164081 0 -0.066248344077805804 0.053549618384533974 0 -0.06619168186297486 0.050882951557355748 0 -0.065153431806975248 0.058924079906227993 0 -0.065783313153761624 0.057940058162880219 0 -0.064540276659467793 0.058692426060164081 0 -0.066287717687414593 0.05457801757213647 0 -0.066248344077805804 0.053549618384533974 0 -0.066506888321880162 0.057016786886064569 0 -0.068094714731192663 0.051963717718502278 0 -0.064996278499528715 0.052024876840660816 0 -0.068094714731192663 0.051963717718502278 0 -0.064996278499528715 0.052024876840660816 0 -0.068285783988631513 0.0484963423979115 0 -0.066382316198118532 0.058162444475981845 0 -0.066506888321880162 0.057016786886064569 0 -0.064996278499528715 0.052024876840660816 0 -0.064996278499528715 0.052024876840660816 0 -0.06499935875694586 0.042308845580921656 0 -0.066667303021303082 0.044925666730428346 0 -0.06499935875694586 0.042308845580921656 0 -0.066667303021303082 0.044925666730428346 0 -0.066176544937407683 0.040639248589466416 0 -0.066667303021303082 0.044925666730428346 0 -0.066713391203764141 0.042695693398028887 0 -0.066176544937407683 0.040639248589466416 0 -0.066667303021303082 0.044925666730428346 0 -0.068063046477533515 0.045265268531909236 0 -0.066713391203764141 0.042695693398028887 0 -0.064996278499528715 0.052024876840660816 0 -0.066667303021303082 0.044925666730428346 0 -0.068285783988631513 0.0484963423979115 0 -0.066667303021303082 0.044925666730428346 0 -0.068063046477533515 0.045265268531909236 0 -0.068285783988631513 0.0484963423979115 0 -0.06429109269391256 0.047097369868757323 0 -0.063405692371902758 0.054031330978490832 0 -0.068567930397393811 0.048378452169535915 0 -0.06429109269391256 0.047097369868757323 0 -0.068567930397393811 0.048378452169535915 0 -0.06682783639608593 0.044818029255673873 0 -0.066085582674384871 0.056799597988972647 0 -0.063405692371902758 0.054031330978490832 0 -0.068567930397393811 0.048378452169535915 0 -0.066227652099020901 0.047788881682508208 0 -0.06619168186297486 0.050882951557355748 0 -0.06559104552575154 0.056069708565115547 0 -0.065790564975318946 0.056581530228903339 0 -0.064590472192024739 0.055796079832175376 0 -0.065951503356876953 0.053574427255891267 0 -0.06600730136180373 0.051387306484118919 0 -0.066468380632276544 0.056953494604360076 0 -0.06559104552575154 0.056069708565115547 0 -0.065790564975318946 0.056581530228903339 0 -0.066085582674384871 0.056799597988972647 0 -0.065790564975318946 0.056581530228903339 0 -0.064590472192024739 0.055796079832175376 0 -0.06559104552575154 0.056069708565115547 0 -0.064590472192024739 0.055796079832175376 0 -0.065435120622131832 0.05487904383310286 0 -0.062967582046492165 0.052437243142815872 0 -0.065668809654097202 0.052874534738788066 0 -0.065435120622131832 0.05487904383310286 0 -0.068567930397393811 0.048378452169535915 0 -0.06682783639608593 0.044818029255673873 0 -0.067942798588484551 0.04218976309467401 0 -0.064590472192024739 0.055796079832175376 0 -0.062967582046492165 0.052437243142815872 0 -0.065435120622131832 0.05487904383310286 0 -0.06600730136180373 0.051387306484118919 0 -0.065903662152617989 0.048074589773841041 0 -0.066227652099020901 0.047788881682508208 0 -0.066277812681267312 0.046238015018896302 0 -0.06429109269391256 0.047097369868757323 0 -0.06682783639608593 0.044818029255673873 0 -0.066713391203764141 0.042695693398028887 0 -0.06682783639608593 0.044818029255673873 0 -0.066713391203764141 0.042695693398028887 0 -0.067942798588484551 0.04218976309467401 0 -0.066713391203764141 0.042695693398028887 0 -0.06710324187839635 0.041713480877324773 0 -0.066176544937407683 0.040639248589466416 0 -0.066713391203764141 0.042695693398028887 0 -0.067942798588484551 0.04218976309467401 0 -0.06710324187839635 0.041713480877324773 0 -0.062967582046492165 0.052437243142815872 0 -0.065369604907732054 0.050551699802711368 0 -0.065710980347054304 0.047316569989205172 0 -0.062967582046492165 0.052437243142815872 0 -0.065668809654097202 0.052874534738788066 0 -0.065369604907732054 0.050551699802711368 0 -0.065668809654097202 0.052874534738788066 0 -0.066970502258958953 0.052840892864185529 0 -0.066419826248139094 0.04962027254495914 0 -0.065668809654097202 0.052874534738788066 0 -0.065369604907732054 0.050551699802711368 0 -0.066419826248139094 0.04962027254495914 0 -0.065369604907732054 0.050551699802711368 0 -0.066419826248139094 0.04962027254495914 0 -0.065710980347054304 0.047316569989205172 0 -0.066970502258958953 0.052840892864185529 0 -0.067435957805344351 0.050471955196914962 0 -0.066419826248139094 0.04962027254495914 0 -0.066970502258958953 0.052840892864185529 0 -0.067999072789393641 0.053509730642974457 0 -0.067435957805344351 0.050471955196914962 0 -0.067999072789393641 0.053509730642974457 0 -0.068383838924479287 0.050951448907250355 0 -0.067435957805344351 0.050471955196914962 0 -0.066970502258958953 0.052840892864185529 0 -0.066910459048485679 0.054719659696810058 0 -0.067999072789393641 0.053509730642974457 0 -0.065668809654097202 0.052874534738788066 0 -0.066970502258958953 0.052840892864185529 0 -0.066637797878076263 0.054773760748493938 0 -0.066970502258958953 0.052840892864185529 0 -0.066910459048485679 0.054719659696810058 0 -0.066637797878076263 0.054773760748493938 0 -0.066910459048485679 0.054719659696810058 0 -0.066637797878076263 0.054773760748493938 0 -0.06623011716560552 0.055333947934563581 0 -0.065668809654097202 0.052874534738788066 0 -0.066637797878076263 0.054773760748493938 0 -0.065435120622131832 0.05487904383310286 0 -0.066637797878076263 0.054773760748493938 0 -0.065435120622131832 0.05487904383310286 0 -0.066121432383673295 0.055563023961352168 0 -0.06559104552575154 0.056069708565115547 0 -0.065435120622131832 0.05487904383310286 0 -0.066121432383673295 0.055563023961352168 0 -0.066468380632276544 0.056953494604360076 0 -0.06559104552575154 0.056069708565115547 0 -0.067344668882646785 0.056357497106285466 0 -0.06559104552575154 0.056069708565115547 0 -0.066121432383673295 0.055563023961352168 0 -0.066736845754990115 0.056362632388761706 0 -0.064986648242808073 0.057457226838454063 0 -0.06372123553417243 0.05755948547911538 0 -0.066637797878076263 0.054773760748493938 0 -0.066121432383673295 0.055563023961352168 0 -0.066736845754990115 0.056362632388761706 0 -0.066637797878076263 0.054773760748493938 0 -0.066459227524719611 0.054791284684649957 0 -0.06623011716560552 0.055333947934563581 0 -0.064445546042852908 0.055899484364133695 0 -0.06372123553417243 0.05755948547911538 0 -0.066459227524719611 0.054791284684649957 0 -0.06623011716560552 0.055333947934563581 0 -0.065482284002312499 0.055343909344315073 0 -0.06623011716560552 0.055333947934563581 0 -0.06555700950509423 0.055781217350254472 0 -0.065482284002312499 0.055343909344315073 0 -0.06555700950509423 0.055781217350254472 0 -0.064318475846189674 0.056408964127472129 0 -0.066015091883165677 0.055843723867634858 0 -0.06555700950509423 0.055781217350254472 0 -0.065482284002312499 0.055343909344315073 0 -0.064318475846189674 0.056408964127472129 0 -0.066459227524719611 0.054791284684649957 0 -0.065482284002312499 0.055343909344315073 0 -0.064680693731724609 0.05459758095274779 0 -0.06372123553417243 0.05755948547911538 0 -0.061171307210785654 0.058279463548623317 0 -0.066459227524719611 0.054791284684649957 0 -0.064680693731724609 0.05459758095274779 0 -0.064391067910737884 0.053779304361326649 0 -0.065482284002312499 0.055343909344315073 0 -0.064680693731724609 0.05459758095274779 0 -0.063800753878129945 0.055585079602989404 0 -0.059618660865231717 0.052971914490576602 0 -0.061598758118992736 0.054913627551443349 0 -0.064089143045139768 0.053822008944020137 0 -0.061598758118992736 0.054913627551443349 0 -0.064089143045139768 0.053822008944020137 0 -0.063406582962325264 0.054949496888681983 0 -0.064680693731724609 0.05459758095274779 0 -0.064089143045139768 0.053822008944020137 0 -0.063406582962325264 0.054949496888681983 0 -0.064680693731724609 0.05459758095274779 0 -0.064391067910737884 0.053779304361326649 0 -0.064089143045139768 0.053822008944020137 0 -0.061171307210785654 0.058279463548623317 0 -0.061196485961298112 0.05826172465864967 0 -0.064680693731724609 0.05459758095274779 0 -0.063406582962325264 0.054949496888681983 0 -0.063800753878129945 0.055585079602989404 0 -0.063406582962325264 0.054949496888681983 0 -0.062659966404550335 0.055558618281870753 0 -0.063800753878129945 0.055585079602989404 0 -0.061598758118992736 0.054913627551443349 0 -0.063406582962325264 0.054949496888681983 0 -0.062659966404550335 0.055558618281870753 0 -0.061598758118992736 0.054913627551443349 0 -0.062659966404550335 0.055558618281870753 0 -0.061896483779465265 0.05659780281008206 0 -0.062659966404550335 0.055558618281870753 0 -0.063800753878129945 0.055585079602989404 0 -0.061896483779465265 0.05659780281008206 0 -0.063800753878129945 0.055585079602989404 0 -0.064318475846189674 0.056408964127472129 0 -0.061896483779465265 0.05659780281008206 0 -0.065482284002312499 0.055343909344315073 0 -0.063800753878129945 0.055585079602989404 0 -0.064318475846189674 0.056408964127472129 0 -0.064318475846189674 0.056408964127472129 0 -0.061972615307694427 0.057692294357257583 0 -0.061896483779465265 0.05659780281008206 0 -0.064318475846189674 0.056408964127472129 0 -0.063466617656858113 0.058286127735052429 0 -0.061972615307694427 0.057692294357257583 0 -0.064318475846189674 0.056408964127472129 0 -0.063466617656858113 0.058286127735052429 0 -0.066015091883165677 0.055843723867634858 0 -0.063466617656858113 0.058286127735052429 0 -0.066015091883165677 0.055843723867634858 0 -0.067999072789393641 0.053509730642974457 0 -0.066910459048485679 0.054719659696810058 0 -0.066015091883165677 0.055843723867634858 0 -0.067999072789393641 0.053509730642974457 0 -0.066910459048485679 0.054719659696810058 0 -0.06623011716560552 0.055333947934563581 0 -0.066015091883165677 0.055843723867634858 0 -0.06623011716560552 0.055333947934563581 0 -0.06555700950509423 0.055781217350254472 0 -0.066015091883165677 0.055843723867634858 0 -0.065379593504247643 0.057207284239452393 0 -0.067999072789393641 0.053509730642974457 0 -0.068785867349600335 0.053487645758752887 0 -0.067999072789393641 0.053509730642974457 0 -0.068785867349600335 0.053487645758752887 0 -0.068383838924479287 0.050951448907250355 0 -0.06251422719545198 0.057846942468866992 0 -0.064391486420268276 0.057400950693913287 0 -0.068785867349600335 0.053487645758752887 0 -0.073116780579648211 0.050028843375511119 0 -0.075436867916025357 0.05235855524081532 0 -0.065379593504247643 0.057207284239452393 0 -0.068785867349600335 0.053487645758752887 0 -0.062531801118005118 0.060800786569745045 0 -0.066298190276423016 0.055480818657173282 0 -0.066565802676679858 0.056052115792237699 0 -0.073116780579648211 0.050028843375511119 0 -0.06990414793779208 0.048479022233262753 0 -0.072156449921700686 0.046534374411731638 0 -0.068785867349600335 0.053487645758752887 0 -0.073116780579648211 0.050028843375511119 0 -0.06990414793779208 0.048479022233262753 0 -0.068785867349600335 0.053487645758752887 0 -0.068383838924479287 0.050951448907250355 0 -0.06990414793779208 0.048479022233262753 0 -0.068383838924479287 0.050951448907250355 0 -0.06990414793779208 0.048479022233262753 0 -0.068153403477980629 0.047749659902306882 0 -0.072111764812944804 0.043933499338096538 0 -0.068144804076243626 0.041650934462959213 0 -0.06990414793779208 0.048479022233262753 0 -0.068534849394634612 0.043360858297106057 0 -0.068153403477980629 0.047749659902306882 0 -0.06990414793779208 0.048479022233262753 0 -0.072156449921700686 0.046534374411731638 0 -0.068534849394634612 0.043360858297106057 0 -0.071074052700675225 0.041696920468689398 0 -0.071514491165884722 0.037520780357666476 0 -0.068712708615297477 0.036736204465767107 0 -0.071074052700675225 0.041696920468689398 0 -0.071514491165884722 0.037520780357666476 0 -0.074402573327254834 0.039789329853691914 0 -0.071514491165884722 0.037520780357666476 0 -0.07427825647703111 0.035063943764559645 0 -0.069301205620248843 0.033819694187517922 0 -0.071514491165884722 0.037520780357666476 0 -0.068712708615297477 0.036736204465767107 0 -0.069301205620248843 0.033819694187517922 0 -0.071074052700675225 0.041696920468689398 0 -0.068712708615297477 0.036736204465767107 0 -0.067676372248974617 0.039061933900526744 0 -0.068712708615297477 0.036736204465767107 0 -0.067057114143197635 0.036509676352464007 0 -0.067874604318352155 0.033216142824812001 0 -0.068712708615297477 0.036736204465767107 0 -0.067676372248974617 0.039061933900526744 0 -0.067057114143197635 0.036509676352464007 0 -0.067057114143197635 0.036509676352464007 0 -0.065587924556416405 0.038789113040992695 0 -0.065409243250898572 0.036074325081447471 0 -0.068534849394634612 0.043360858297106057 0 -0.065587924556416405 0.038789113040992695 0 -0.066609474846474115 0.042470531950441863 0 -0.068144804076243626 0.041650934462959213 0 -0.066187735681554546 0.040487812471446373 0 -0.067676372248974617 0.039061933900526744 0 -0.067057114143197635 0.036509676352464007 0 -0.065587924556416405 0.038789113040992695 0 -0.065587924556416405 0.038789113040992695 0 -0.066609474846474115 0.042470531950441863 0 -0.065639929412840317 0.040954761347669448 0 -0.066609474846474115 0.042470531950441863 0 -0.066216170958669121 0.04346564824504786 0 -0.065639929412840317 0.040954761347669448 0 -0.066216170958669121 0.04346564824504786 0 -0.066025580001169884 0.042602500913093144 0 -0.065639929412840317 0.040954761347669448 0 -0.066216170958669121 0.04346564824504786 0 -0.065987603106557116 0.044090997341909771 0 -0.066463480164425867 0.045811674586020881 0 -0.066216170958669121 0.04346564824504786 0 -0.065987603106557116 0.044090997341909771 0 -0.066025580001169884 0.042602500913093144 0 -0.066216170958669121 0.04346564824504786 0 -0.067120868651454918 0.045038547702149427 0 -0.066463480164425867 0.045811674586020881 0 -0.066609474846474115 0.042470531950441863 0 -0.066216170958669121 0.04346564824504786 0 -0.067120868651454918 0.045038547702149427 0 -0.068534849394634612 0.043360858297106057 0 -0.066609474846474115 0.042470531950441863 0 -0.067120868651454918 0.045038547702149427 0 -0.068534849394634612 0.043360858297106057 0 -0.067120868651454918 0.045038547702149427 0 -0.068153403477980629 0.047749659902306882 0 -0.067120868651454918 0.045038547702149427 0 -0.067010037454661331 0.047950090319031018 0 -0.068153403477980629 0.047749659902306882 0 -0.067010037454661331 0.047950090319031018 0 -0.068153403477980629 0.047749659902306882 0 -0.067435957805344351 0.050471955196914962 0 -0.068383838924479287 0.050951448907250355 0 -0.068153403477980629 0.047749659902306882 0 -0.067435957805344351 0.050471955196914962 0 -0.067010037454661331 0.047950090319031018 0 -0.067435957805344351 0.050471955196914962 0 -0.066419826248139094 0.04962027254495914 0 -0.067010037454661331 0.047950090319031018 0 -0.066419826248139094 0.04962027254495914 0 -0.066463480164425867 0.045811674586020881 0 -0.066419826248139094 0.04962027254495914 0 -0.065710980347054304 0.047316569989205172 0 -0.066463480164425867 0.045811674586020881 0 -0.065987603106557116 0.044090997341909771 0 -0.065710980347054304 0.047316569989205172 0 -0.066463480164425867 0.045811674586020881 0 -0.067120868651454918 0.045038547702149427 0 -0.067010037454661331 0.047950090319031018 0 -0.066463480164425867 0.045811674586020881 0 -0.067942798588484551 0.04218976309467401 0 -0.06710324187839635 0.041713480877324773 0 -0.065509031616073576 0.043075815607675115 0 -0.065903662152617989 0.048074589773841041 0 -0.065889967129133323 0.04617873206403772 0 -0.062967582046492165 0.052437243142815872 0 -0.065710980347054304 0.047316569989205172 0 -0.065509031616073576 0.043075815607675115 0 -0.06710324187839635 0.041713480877324773 0 -0.066615502389045109 0.04175762268618944 0 -0.065509031616073576 0.043075815607675115 0 -0.065987603106557116 0.044090997341909771 0 -0.065710980347054304 0.047316569989205172 0 -0.065509031616073576 0.043075815607675115 0 -0.06710324187839635 0.041713480877324773 0 -0.066706508802295478 0.040701270622082182 0 -0.066176544937407683 0.040639248589466416 0 -0.06710324187839635 0.041713480877324773 0 -0.066706508802295478 0.040701270622082182 0 -0.066615502389045109 0.04175762268618944 0 -0.066598111217507874 0.04116019325611138 0 -0.067079975414339535 0.039094590281015515 0 -0.066428595065786508 0.038312603045515127 0 -0.066706508802295478 0.040701270622082182 0 -0.066598111217507874 0.04116019325611138 0 -0.066428595065786508 0.038312603045515127 0 -0.066706508802295478 0.040701270622082182 0 -0.066615502389045109 0.04175762268618944 0 -0.066598111217507874 0.04116019325611138 0 -0.066598111217507874 0.04116019325611138 0 -0.066025580001169884 0.042602500913093144 0 -0.067079975414339535 0.039094590281015515 0 -0.066615502389045109 0.04175762268618944 0 -0.066598111217507874 0.04116019325611138 0 -0.065509031616073576 0.043075815607675115 0 -0.066598111217507874 0.04116019325611138 0 -0.065509031616073576 0.043075815607675115 0 -0.066025580001169884 0.042602500913093144 0 -0.065987603106557116 0.044090997341909771 0 -0.065509031616073576 0.043075815607675115 0 -0.066025580001169884 0.042602500913093144 0 -0.066520266699598762 0.038446804801514772 0 -0.066380557227570788 0.036368076229560682 0 -0.065587924556416405 0.038789113040992695 0 -0.065639929412840317 0.040954761347669448 0 -0.063688841439393448 0.037849152782927269 0 -0.066025580001169884 0.042602500913093144 0 -0.069194707514438999 0.035868532403505377 0 -0.067079975414339535 0.039094590281015515 0 -0.066025580001169884 0.042602500913093144 0 -0.065639929412840317 0.040954761347669448 0 -0.063688841439393448 0.037849152782927269 0 -0.065587924556416405 0.038789113040992695 0 -0.063688841439393448 0.037849152782927269 0 -0.065409243250898572 0.036074325081447471 0 -0.069194707514438999 0.035868532403505377 0 -0.067169064334954162 0.03593498274894117 0 -0.068259023495346752 0.031181500136399601 0 -0.069194707514438999 0.035868532403505377 0 -0.067169064334954162 0.03593498274894117 0 -0.067079975414339535 0.039094590281015515 0 -0.067169064334954162 0.03593498274894117 0 -0.067079975414339535 0.039094590281015515 0 -0.066428595065786508 0.038312603045515127 0 -0.066428595065786508 0.038312603045515127 0 -0.066398326035129643 0.033872055532136701 0 -0.064996800736521351 0.035109183796143917 0 -0.067169064334954162 0.03593498274894117 0 -0.066428595065786508 0.038312603045515127 0 -0.066398326035129643 0.033872055532136701 0 -0.06499935875694586 0.042308845580921656 0 -0.064996800736521351 0.035109183796143917 0 -0.066176544937407683 0.040639248589466416 0 -0.066428595065786508 0.038312603045515127 0 -0.064996800736521351 0.035109183796143917 0 -0.066176544937407683 0.040639248589466416 0 -0.066706508802295478 0.040701270622082182 0 -0.066428595065786508 0.038312603045515127 0 -0.066176544937407683 0.040639248589466416 0 -0.041917203920157547 0.063055723518752271 0 -0.041456146562310496 0.06287493367564316 0 -0.041591359425858503 0.062463953041743091 0 -0.063017370321566027 0.054259084572451544 0 -0.061711004286832606 0.054209770360351066 0 -0.063017370321566027 0.054259084572451544 0 -0.065825255006793593 0.056440955761135017 0 -0.04209105981084324 0.063756663974939662 0 -0.046697366689479623 0.063874481488837967 0 -0.044408973201560752 0.062743760728665277 0 -0.091825203411978737 0.055025539477994462 0 -0.085450171812716358 0.053644883613954066 0 -0.089345294120491192 0.05176153623628757 0 -0.085450171812716358 0.053644883613954066 0 -0.089345294120491192 0.05176153623628757 0 -0.087365876786545726 0.048457125921624898 0 -0.090054075660750812 0.049238331986494591 0 -0.089345294120491192 0.05176153623628757 0 -0.087365876786545726 0.048457125921624898 0 -0.090054075660750812 0.049238331986494591 0 -0.089345294120491192 0.05176153623628757 0 -0.092771713233572223 0.049880919510246251 0 -0.091825203411978737 0.055025539477994462 0 -0.089345294120491192 0.05176153623628757 0 -0.092771713233572223 0.049880919510246251 0 -0.063017370321566027 0.054259084572451544 0 -0.064905206750398958 0.054511813941336633 0 -0.041513494420350953 0.062879288470922001 0 -0.041351861444550067 0.063152064130048646 0 -0.041347290375774691 0.062994882742196695 0 -0.041351861444550067 0.063152064130048646 0 -0.041266160990455679 0.063175915115921577 0 -0.041266439413974509 0.063095038821761831 0 -0.041266160990455679 0.063175915115921577 0 -0.041123582877047669 0.063092611312348446 0 -0.041027004007032707 0.06323330459205477 0 -0.041266160990455679 0.063175915115921577 0 -0.041123582877047669 0.063092611312348446 0 -0.041266439413974509 0.063095038821761831 0 -0.041123582877047669 0.063092611312348446 0 -0.041221915417165703 0.063018367345839529 0 -0.041266439413974509 0.063095038821761831 0 -0.041123582877047669 0.063092611312348446 0 -0.041221915417165703 0.063018367345839529 0 -0.041022026883812172 0.062968358765960727 0 -0.041221915417165703 0.063018367345839529 0 -0.041266439413974509 0.063095038821761831 0 -0.041347290375774691 0.062994882742196695 0 -0.041351861444550067 0.063152064130048646 0 -0.041266439413974509 0.063095038821761831 0 -0.041347290375774691 0.062994882742196695 0 -0.040768911730074499 0.063306115668899016 0 -0.040882099459402771 0.063048750603382331 0 -0.041027004007032707 0.06323330459205477 0 -0.041123582877047669 0.063092611312348446 0 -0.040882099459402771 0.063048750603382331 0 -0.041027004007032707 0.06323330459205477 0 -0.041123582877047669 0.063092611312348446 0 -0.040882099459402771 0.063048750603382331 0 -0.041022026883812172 0.062968358765960727 0 -0.040882099459402771 0.063048750603382331 0 -0.041022026883812172 0.062968358765960727 0 -0.040729930212216117 0.062790549186695549 0 -0.041022026883812172 0.062968358765960727 0 -0.040729930212216117 0.062790549186695549 0 -0.041004291823458924 0.062816743538652575 0 -0.040729930212216117 0.062790549186695549 0 -0.041004291823458924 0.062816743538652575 0 -0.040789029185733322 0.062605725271395796 0 -0.041347290375774691 0.062994882742196695 0 -0.041235092232894385 0.06292299545907773 0 -0.041456146562310496 0.06287493367564316 0 -0.041513494420350953 0.062879288470922001 0 -0.041347290375774691 0.062994882742196695 0 -0.041456146562310496 0.06287493367564316 0 -0.041221915417165703 0.063018367345839529 0 -0.041347290375774691 0.062994882742196695 0 -0.041235092232894385 0.06292299545907773 0 -0.041221915417165703 0.063018367345839529 0 -0.041022026883812172 0.062968358765960727 0 -0.041235092232894385 0.06292299545907773 0 -0.041022026883812172 0.062968358765960727 0 -0.041235092232894385 0.06292299545907773 0 -0.041004291823458924 0.062816743538652575 0 -0.041177796847542879 0.062657473962140789 0 -0.041004291823458924 0.062816743538652575 0 -0.040789029185733322 0.062605725271395796 0 -0.041235092232894385 0.06292299545907773 0 -0.041177796847542879 0.062657473962140789 0 -0.041004291823458924 0.062816743538652575 0 -0.041235092232894385 0.06292299545907773 0 -0.041177796847542879 0.062657473962140789 0 -0.041456146562310496 0.06287493367564316 0 -0.041177796847542879 0.062657473962140789 0 -0.041456146562310496 0.06287493367564316 0 -0.041591359425858503 0.062463953041743091 0 -0.041177796847542879 0.062657473962140789 0 -0.041591359425858503 0.062463953041743091 0 -0.041120726250188595 0.062159092169877563 0 -0.041177796847542879 0.062657473962140789 0 -0.041120726250188595 0.062159092169877563 0 -0.040789029185733322 0.062605725271395796 0 -0.041591359425858503 0.062463953041743091 0 -0.041120726250188595 0.062159092169877563 0 -0.042332944841378159 0.061919568011017188 0 -0.040481242937663489 0.062563363780052436 0 -0.040729930212216117 0.062790549186695549 0 -0.040789029185733322 0.062605725271395796 0 -0.041120726250188595 0.062159092169877563 0 -0.040789029185733322 0.062605725271395796 0 -0.040525120790291656 0.062400796149816903 0 -0.040481242937663489 0.062563363780052436 0 -0.040789029185733322 0.062605725271395796 0 -0.040525120790291656 0.062400796149816903 0 -0.040603658045868608 0.062198229652761998 0 -0.04017786089069228 0.062667750366324229 0 -0.040525120790291656 0.062400796149816903 0 -0.040357334677479276 0.062487837918035131 0 -0.04017786089069228 0.062667750366324229 0 -0.040525120790291656 0.062400796149816903 0 -0.040603658045868608 0.062198229652761998 0 -0.041120726250188595 0.062159092169877563 0 -0.040525120790291656 0.062400796149816903 0 -0.040603658045868608 0.062198229652761998 0 -0.041120726250188595 0.062159092169877563 0 -0.042105596991607222 0.061217355162259436 0 -0.042105596991607222 0.061217355162259436 0 -0.042332944841378159 0.061919568011017188 0 -0.044190139434370203 0.060754641027962131 0 -0.041120726250188595 0.062159092169877563 0 -0.042105596991607222 0.061217355162259436 0 -0.042332944841378159 0.061919568011017188 0 -0.063017370321566027 0.054259084572451544 0 -0.060477657901055873 0.057707899710175835 0 -0.041917203920157547 0.063055723518752271 0 -0.041591359425858503 0.062463953041743091 0 -0.042332944841378159 0.061919568011017188 0 -0.04209105981084324 0.063756663974939662 0 -0.044408973201560752 0.062743760728665277 0 -0.042332944841378159 0.061919568011017188 0 -0.044408973201560752 0.062743760728665277 0 -0.044190139434370203 0.060754641027962131 0 -0.049061068064586329 0.059125015911923637 0 -0.044408973201560752 0.062743760728665277 0 -0.042332944841378159 0.061919568011017188 0 -0.044190139434370203 0.060754641027962131 0 -0.044126077099780191 0.059365456947210349 0 -0.042105596991607222 0.061217355162259436 0 -0.044190139434370203 0.060754641027962131 0 -0.044126077099780191 0.059365456947210349 0 -0.044190139434370203 0.060754641027962131 0 -0.049061068064586329 0.059125015911923637 0 -0.048796249515119475 0.057108904662730851 0 -0.044126077099780191 0.059365456947210349 0 -0.049061068064586329 0.059125015911923637 0 -0.048796249515119475 0.057108904662730851 0 -0.049061068064586329 0.059125015911923637 0 -0.05314945039284779 0.057062719078436394 0 -0.054425950595667842 0.057242296122412176 0 -0.057706784239890591 0.05771877493594451 0 -0.049061068064586329 0.059125015911923637 0 -0.056861475204760689 0.057843546668255634 0 -0.051840523033477227 0.060643430301865746 0 -0.049061068064586329 0.059125015911923637 0 -0.05314945039284779 0.057062719078436394 0 -0.056491632666774802 0.059802976428290126 0 -0.046697366689479623 0.063874481488837967 0 -0.044408973201560752 0.062743760728665277 0 -0.049061068064586329 0.059125015911923637 0 -0.046697366689479623 0.063874481488837967 0 -0.049061068064586329 0.059125015911923637 0 -0.051840523033477227 0.060643430301865746 0 -0.0553367643200725 0.054991371585669906 0 -0.059618660865231717 0.052971914490576602 0 -0.058095423939092998 0.056155555994990863 0 -0.061598758118992736 0.054913627551443349 0 -0.058095423939092998 0.056155555994990863 0 -0.061896483779465265 0.05659780281008206 0 -0.059618660865231717 0.052971914490576602 0 -0.061598758118992736 0.054913627551443349 0 -0.058095423939092998 0.056155555994990863 0 -0.05314945039284779 0.057062719078436394 0 -0.058095423939092998 0.056155555994990863 0 -0.056491632666774802 0.059802976428290126 0 -0.0553367643200725 0.054991371585669906 0 -0.05314945039284779 0.057062719078436394 0 -0.058095423939092998 0.056155555994990863 0 -0.058095423939092998 0.056155555994990863 0 -0.056491632666774802 0.059802976428290126 0 -0.061896483779465265 0.05659780281008206 0 -0.056491632666774802 0.059802976428290126 0 -0.061972615307694427 0.057692294357257583 0 -0.061896483779465265 0.05659780281008206 0 -0.065379593504247643 0.057207284239452393 0 -0.058226963034631825 0.060292029559230208 0 -0.062531801118005118 0.060800786569745045 0 -0.06251422719545198 0.057846942468866992 0 -0.057706784239890591 0.05771877493594451 0 -0.063466617656858113 0.058286127735052429 0 -0.056491632666774802 0.059802976428290126 0 -0.061972615307694427 0.057692294357257583 0 -0.065379593504247643 0.057207284239452393 0 -0.056861475204760689 0.057843546668255634 0 -0.058226963034631825 0.060292029559230208 0 -0.056861475204760689 0.057843546668255634 0 -0.058226963034631825 0.060292029559230208 0 -0.051840523033477227 0.060643430301865746 0 -0.058226963034631825 0.060292029559230208 0 -0.062531801118005118 0.060800786569745045 0 -0.05349035249718348 0.063525623243813917 0 -0.066565802676679858 0.056052115792237699 0 -0.066264123182214557 0.056629108221767525 0 -0.077855624663386344 0.050908688154963022 0 -0.075436867916025357 0.05235855524081532 0 -0.079696688379007966 0.052350527894223189 0 -0.065825255006793593 0.056440955761135017 0 -0.066264123182214557 0.056629108221767525 0 -0.046697366689479623 0.063874481488837967 0 -0.051840523033477227 0.060643430301865746 0 -0.05349035249718348 0.063525623243813917 0 -0.058226963034631825 0.060292029559230208 0 -0.051840523033477227 0.060643430301865746 0 -0.05349035249718348 0.063525623243813917 0 -0.077855624663386344 0.050908688154963022 0 -0.079696688379007966 0.052350527894223189 0 -0.081776057219561438 0.048935141542471812 0 -0.085450171812716358 0.053644883613954066 0 -0.079696688379007966 0.052350527894223189 0 -0.081776057219561438 0.048935141542471812 0 -0.085450171812716358 0.053644883613954066 0 -0.081776057219561438 0.048935141542471812 0 -0.087365876786545726 0.048457125921624898 0 -0.081776057219561438 0.048935141542471812 0 -0.084808042559150712 0.045064917725993844 0 -0.087365876786545726 0.048457125921624898 0 -0.081776057219561438 0.048935141542471812 0 -0.080778947038477017 0.043680628622092731 0 -0.084808042559150712 0.045064917725993844 0 -0.081776057219561438 0.048935141542471812 0 -0.080778947038477017 0.043680628622092731 0 -0.075579551917029836 0.044885850584596695 0 -0.079531462163670352 0.047575792502581857 0 -0.076691749891641042 0.046273935616660537 0 -0.080778947038477017 0.043680628622092731 0 -0.077409413552828168 0.041244878447133287 0 -0.079577996835643483 0.039106986274822987 0 -0.080778947038477017 0.043680628622092731 0 -0.084808042559150712 0.045064917725993844 0 -0.084587924675008461 0.041007280533714392 0 -0.080778947038477017 0.043680628622092731 0 -0.084587924675008461 0.041007280533714392 0 -0.079577996835643483 0.039106986274822987 0 -0.073116780579648211 0.050028843375511119 0 -0.072156449921700686 0.046534374411731638 0 -0.077230577447891025 0.048516151563345752 0 -0.073116780579648211 0.050028843375511119 0 -0.075436867916025357 0.05235855524081532 0 -0.077230577447891025 0.048516151563345752 0 -0.077855624663386344 0.050908688154963022 0 -0.075436867916025357 0.05235855524081532 0 -0.077230577447891025 0.048516151563345752 0 -0.077855624663386344 0.050908688154963022 0 -0.081776057219561438 0.048935141542471812 0 -0.077230577447891025 0.048516151563345752 0 -0.075579551917029836 0.044885850584596695 0 -0.077409413552828168 0.041244878447133287 0 -0.074402573327254834 0.039789329853691914 0 -0.080778947038477017 0.043680628622092731 0 -0.075579551917029836 0.044885850584596695 0 -0.077409413552828168 0.041244878447133287 0 -0.071074052700675225 0.041696920468689398 0 -0.075579551917029836 0.044885850584596695 0 -0.074402573327254834 0.039789329853691914 0 -0.072111764812944804 0.043933499338096538 0 -0.076691749891641042 0.046273935616660537 0 -0.077409413552828168 0.041244878447133287 0 -0.074402573327254834 0.039789329853691914 0 -0.076976214573710983 0.038315578215646635 0 -0.077409413552828168 0.041244878447133287 0 -0.076976214573710983 0.038315578215646635 0 -0.079577996835643483 0.039106986274822987 0 -0.076976214573710983 0.038315578215646635 0 -0.078890850481645736 0.036649860275884912 0 -0.07427825647703111 0.035063943764559645 0 -0.071362089220304903 0.034808859537327194 0 -0.070371137543028317 0.034109214619298361 0 -0.071514491165884722 0.037520780357666476 0 -0.074402573327254834 0.039789329853691914 0 -0.07427825647703111 0.035063943764559645 0 -0.074402573327254834 0.039789329853691914 0 -0.076976214573710983 0.038315578215646635 0 -0.07427825647703111 0.035063943764559645 0 -0.079409243250474618 0.045677368426713064 0 -0.079234104086228843 0.044603512055480479 0 -0.080770017981843731 0.039149238959615903 0 -0.079577996835643483 0.039106986274822987 0 -0.081082779644535682 0.038092348166212292 0 -0.076976214573710983 0.038315578215646635 0 -0.079577996835643483 0.039106986274822987 0 -0.078890850481645736 0.036649860275884912 0 -0.079577996835643483 0.039106986274822987 0 -0.078890850481645736 0.036649860275884912 0 -0.081082779644535682 0.038092348166212292 0 -0.065532089790283091 0.030822997181969975 0 -0.064110725841092203 0.03053325972625243 0 -0.064787577535556459 0.031428984556377999 0 -0.071362089220304903 0.034808859537327194 0 -0.071439387632783652 0.036077748767048883 0 -0.081082779644535682 0.038092348166212292 0 -0.081340804680965342 0.038765440591668185 0 -0.081273678348949746 0.038810214050175595 0 -0.064110725841092203 0.03053325972625243 0 -0.063003199250466171 0.030412658688699964 0 -0.063349732174571668 0.030997737666004634 0 -0.071439387632783652 0.036077748767048883 0 -0.069496117053832324 0.038242851489753309 0 -0.063003199250466171 0.030412658688699964 0 -0.062648246080958356 0.031009664057460095 0 -0.063349732174571668 0.030997737666004634 0 -0.081340804680965342 0.038765440591668185 0 -0.081316418406898544 0.03885000612770375 0 -0.081272182855286576 0.038884758881443042 0 -0.081340804680965342 0.038765440591668185 0 -0.081316418406898544 0.03885000612770375 0 -0.081273678348949746 0.038810214050175595 0 -0.081305028327800413 0.038925697179717007 0 -0.081273678348949746 0.038810214050175595 0 -0.081236070577492644 0.039044061236291457 0 -0.081316418406898544 0.03885000612770375 0 -0.081305028327800413 0.038925697179717007 0 -0.081273678348949746 0.038810214050175595 0 -0.081316418406898544 0.03885000612770375 0 -0.081305028327800413 0.038925697179717007 0 -0.081308551350253333 0.038917392348678082 0 -0.080770017981843731 0.039149238959615903 0 -0.081082779644535682 0.038092348166212292 0 -0.081273678348949746 0.038810214050175595 0 -0.080770017981843731 0.039149238959615903 0 -0.081273678348949746 0.038810214050175595 0 -0.081236070577492644 0.039044061236291457 0 -0.079409243250474618 0.045677368426713064 0 -0.077319691568656423 0.048331122211473711 0 -0.084808042559150712 0.045064917725993844 0 -0.084587924675008461 0.041007280533714392 0 -0.089200121485383935 0.042929940774312891 0 -0.089200121485383935 0.042929940774312891 0 -0.090747372191999326 0.046844021005124942 0 -0.093700145631495743 0.044692434237382235 0 -0.081305028327800413 0.038925697179717007 0 -0.081236070577492644 0.039044061236291457 0 -0.081332292706783674 0.038996435152869893 0 -0.077319691568656423 0.048331122211473711 0 -0.066335770652479684 0.051367314423559213 0 -0.081305028327800413 0.038925697179717007 0 -0.081332292706783674 0.038996435152869893 0 -0.081308551350253333 0.038917392348678082 0 -0.092771713233572223 0.049880919510246251 0 -0.090747372191999326 0.046844021005124942 0 -0.093700145631495743 0.044692434237382235 0 -0.090054075660750812 0.049238331986494591 0 -0.092771713233572223 0.049880919510246251 0 -0.090747372191999326 0.046844021005124942 0 -0.090054075660750812 0.049238331986494591 0 -0.090747372191999326 0.046844021005124942 0 -0.087365876786545726 0.048457125921624898 0 -0.089200121485383935 0.042929940774312891 0 -0.090747372191999326 0.046844021005124942 0 -0.087365876786545726 0.048457125921624898 0 -0.084808042559150712 0.045064917725993844 0 -0.089200121485383935 0.042929940774312891 0 -0.087365876786545726 0.048457125921624898 0 -0.040768911730074499 0.063306115668899016 0 -0.041027004007032707 0.06323330459205477 0 -0.04117745515272684 0.063469214720156958 0 -0.050572684393984081 0.053552549207172125 0 -0.059844406700303332 0.051919565704942883 0 -0.041266160990455679 0.063175915115921577 0 -0.041335121457573343 0.063164337730701944 0 -0.041349287441450631 0.063175202940461167 0 -0.057284342954747255 0.056244747973498023 0 -0.059844406700303332 0.051919565704942883 0 -0.041266160990455679 0.063175915115921577 0 -0.041027004007032707 0.06323330459205477 0 -0.04117745515272684 0.063469214720156958 0 -0.064905206750398958 0.054511813941336633 0 -0.066335770652479684 0.051367314423559213 0 -0.041351861444550067 0.063152064130048646 0 -0.041266160990455679 0.063175915115921577 0 -0.041349287441450631 0.063175202940461167 0 -0.059844406700303332 0.051919565704942883 0 -0.060022827178768619 0.049166043404231245 0 -0.059844406700303332 0.051919565704942883 0 -0.066335770652479684 0.051367314423559213 0 -0.081332292706783674 0.038996435152869893 0 -0.081308551350253333 0.038917392348678082 0 -0.081272182855286576 0.038884758881443042 0 -0.081042272198475346 0.039492176502105271 0 -0.081441984373385207 0.039267633413553098 0 -0.081260232342234562 0.038986796541727202 0 -0.081330717890905777 0.039620786256086164 0 -0.081042272198475346 0.039492176502105271 0 -0.081441984373385207 0.039267633413553098 0 -0.066335770652479684 0.051367314423559213 0 -0.069703734883661439 0.044414931009904644 0 -0.060022827178768619 0.049166043404231245 0 -0.062097789700607586 0.049342291670681097 0 -0.050572684393984081 0.053552549207172125 0 -0.060022827178768619 0.049166043404231245 0 -0.055151492349310487 0.052009698783213362 0 -0.057439439157205834 0.052834816149776552 0 -0.057108748253902802 0.054113809104582626 0 -0.046622658319039528 0.053798463722870872 0 -0.046467857550335806 0.054378302593627914 0 -0.047214949028990538 0.054414030745761476 0 -0.060022827178768619 0.049166043404231245 0 -0.060277732544974504 0.041732940503117086 0 -0.046467857550335806 0.054378302593627914 0 -0.047214949028990538 0.054414030745761476 0 -0.047065269240556283 0.054975459021610038 0 -0.081340804680965342 0.038765440591668185 0 -0.081236913594626439 0.038948411146708495 0 -0.081272182855286576 0.038884758881443042 0 -0.081223005911849125 0.03899032650859293 0 -0.081236913594626439 0.038948411146708495 0 -0.081260232342234562 0.038986796541727202 0 -0.069496117053832324 0.038242851489753309 0 -0.060277732544974504 0.041732940503117086 0 -0.081042272198475346 0.039492176502105271 0 -0.081260232342234562 0.038986796541727202 0 -0.081272182855286576 0.038884758881443042 0 -0.081316418406898544 0.03885000612770375 0 -0.081308551350253333 0.038917392348678082 0 -0.081272182855286576 0.038884758881443042 0 -0.081236913594626439 0.038948411146708495 0 -0.081260232342234562 0.038986796541727202 0 -0.081272182855286576 0.038884758881443042 0 -0.063003199250466171 0.030412658688699964 0 -0.062040971540157218 0.030294485598925464 0 -0.062648246080958356 0.031009664057460095 0 -0.060277732544974504 0.041732940503117086 0 -0.061895557949543545 0.033321994542028041 0 -0.062040971540157218 0.030294485598925464 0 -0.061806217310323139 0.031265408759868087 0 -0.062648246080958356 0.031009664057460095 0 -0.061576126994839449 0.031529700607156728 0 -0.061854073508260415 0.031368920550435678 0 -0.061730430092832522 0.031814691910859928 0 -0.061806217310323139 0.031265408759868087 0 -0.062648246080958356 0.031009664057460095 0 -0.062609149087249558 0.031576615432785213 0 -0.062609149087249558 0.031576615432785213 0 -0.062246540321767928 0.032025142403426993 0 -0.06295666963433981 0.032048289724562834 0 -0.061806217310323139 0.031265408759868087 0 -0.062609149087249558 0.031576615432785213 0 -0.062246540321767928 0.032025142403426993 0 -0.061806217310323139 0.031265408759868087 0 -0.062246540321767928 0.032025142403426993 0 -0.061624698909587473 0.032196962638845049 0 -0.062246540321767928 0.032025142403426993 0 -0.061965244714474788 0.032459762383725929 0 -0.061624698909587473 0.032196962638845049 0 -0.062246540321767928 0.032025142403426993 0 -0.062585466956780939 0.032337781918581852 0 -0.061965244714474788 0.032459762383725929 0 -0.062246540321767928 0.032025142403426993 0 -0.062585466956780939 0.032337781918581852 0 -0.06295666963433981 0.032048289724562834 0 -0.062585466956780939 0.032337781918581852 0 -0.061965244714474788 0.032459762383725929 0 -0.062761108519933648 0.032686542922688661 0 -0.061965244714474788 0.032459762383725929 0 -0.061624698909587473 0.032196962638845049 0 -0.061550590016003714 0.032497568823393205 0 -0.061965244714474788 0.032459762383725929 0 -0.061550590016003714 0.032497568823393205 0 -0.061436061932815721 0.032595535465401837 0 -0.063570818497273779 0.03276808088151207 0 -0.063099057573056005 0.03243541545567017 0 -0.063668991064212976 0.032177207800732049 0 -0.062585466956780939 0.032337781918581852 0 -0.063099057573056005 0.03243541545567017 0 -0.062761108519933648 0.032686542922688661 0 -0.063570818497273779 0.03276808088151207 0 -0.063099057573056005 0.03243541545567017 0 -0.062761108519933648 0.032686542922688661 0 -0.063099057573056005 0.03243541545567017 0 -0.06295666963433981 0.032048289724562834 0 -0.063668991064212976 0.032177207800732049 0 -0.062585466956780939 0.032337781918581852 0 -0.063099057573056005 0.03243541545567017 0 -0.06295666963433981 0.032048289724562834 0 -0.063570818497273779 0.03276808088151207 0 -0.063668991064212976 0.032177207800732049 0 -0.064442153023450313 0.032605592917691738 0 -0.063668991064212976 0.032177207800732049 0 -0.063162340004230502 0.031537135345468155 0 -0.063930218054476615 0.031484457808411047 0 -0.063668991064212976 0.032177207800732049 0 -0.063930218054476615 0.031484457808411047 0 -0.064592147539761419 0.032112861032753202 0 -0.06295666963433981 0.032048289724562834 0 -0.063668991064212976 0.032177207800732049 0 -0.063162340004230502 0.031537135345468155 0 -0.062609149087249558 0.031576615432785213 0 -0.06295666963433981 0.032048289724562834 0 -0.063162340004230502 0.031537135345468155 0 -0.062648246080958356 0.031009664057460095 0 -0.063162340004230502 0.031537135345468155 0 -0.063349732174571668 0.030997737666004634 0 -0.062648246080958356 0.031009664057460095 0 -0.062609149087249558 0.031576615432785213 0 -0.063162340004230502 0.031537135345468155 0 -0.063162340004230502 0.031537135345468155 0 -0.063349732174571668 0.030997737666004634 0 -0.063930218054476615 0.031484457808411047 0 -0.064110725841092203 0.03053325972625243 0 -0.063349732174571668 0.030997737666004634 0 -0.063930218054476615 0.031484457808411047 0 -0.064110725841092203 0.03053325972625243 0 -0.063930218054476615 0.031484457808411047 0 -0.064787577535556459 0.031428984556377999 0 -0.065532089790283091 0.030822997181969975 0 -0.064787577535556459 0.031428984556377999 0 -0.065993445564093534 0.032188306882679735 0 -0.064787577535556459 0.031428984556377999 0 -0.064592147539761419 0.032112861032753202 0 -0.065993445564093534 0.032188306882679735 0 -0.064592147539761419 0.032112861032753202 0 -0.065993445564093534 0.032188306882679735 0 -0.065278478048135635 0.032586087043305782 0 -0.063930218054476615 0.031484457808411047 0 -0.064787577535556459 0.031428984556377999 0 -0.064592147539761419 0.032112861032753202 0 -0.067328969786206144 0.031612873942707682 0 -0.065993445564093534 0.032188306882679735 0 -0.067660136090218065 0.032784047849825727 0 -0.065532089790283091 0.030822997181969975 0 -0.067328969786206144 0.031612873942707682 0 -0.065993445564093534 0.032188306882679735 0 -0.067660136090218065 0.032784047849825727 0 -0.067035862788019568 0.033371279067953924 0 -0.06865296569455312 0.033144168819656941 0 -0.065993445564093534 0.032188306882679735 0 -0.067660136090218065 0.032784047849825727 0 -0.067035862788019568 0.033371279067953924 0 -0.065993445564093534 0.032188306882679735 0 -0.067035862788019568 0.033371279067953924 0 -0.065278478048135635 0.032586087043305782 0 -0.067035862788019568 0.033371279067953924 0 -0.065278478048135635 0.032586087043305782 0 -0.065306731399253609 0.03284565898625548 0 -0.066957379444045728 0.031650312458800858 0 -0.065306731399253609 0.03284565898625548 0 -0.066487552751842594 0.033224018670370364 0 -0.067158768922094034 0.032627401078143881 0 -0.066632728641650804 0.032773879672595624 0 -0.066957379444045728 0.031650312458800858 0 -0.067294344390757585 0.032256999582866389 0 -0.066487552751842594 0.033224018670370364 0 -0.064592147539761419 0.032112861032753202 0 -0.064442153023450313 0.032605592917691738 0 -0.065278478048135635 0.032586087043305782 0 -0.063668991064212976 0.032177207800732049 0 -0.064592147539761419 0.032112861032753202 0 -0.064442153023450313 0.032605592917691738 0 -0.064442153023450313 0.032605592917691738 0 -0.065278478048135635 0.032586087043305782 0 -0.065306731399253609 0.03284565898625548 0 -0.064442153023450313 0.032605592917691738 0 -0.065306731399253609 0.03284565898625548 0 -0.064230874405102792 0.03308340613498769 0 -0.063570818497273779 0.03276808088151207 0 -0.064442153023450313 0.032605592917691738 0 -0.064230874405102792 0.03308340613498769 0 -0.064230874405102792 0.03308340613498769 0 -0.064724005449823693 0.033411146967981004 0 -0.064358204806621952 0.033577040963257448 0 -0.065306731399253609 0.03284565898625548 0 -0.064230874405102792 0.03308340613498769 0 -0.064724005449823693 0.033411146967981004 0 -0.062735093735090966 0.033542863944889728 0 -0.062318979170666575 0.033540735342711098 0 -0.064724005449823693 0.033411146967981004 0 -0.064358204806621952 0.033577040963257448 0 -0.064318671822232512 0.033193890843338285 0 -0.064230874405102792 0.03308340613498769 0 -0.064358204806621952 0.033577040963257448 0 -0.06337434937878228 0.03313295819933304 0 -0.063863407159977098 0.033751369667001305 0 -0.062215878538668223 0.033772373356281651 0 -0.062799622331858318 0.033306504616831933 0 -0.063863407159977098 0.033751369667001305 0 -0.064318671822232512 0.033193890843338285 0 -0.062799622331858318 0.033306504616831933 0 -0.064813740296590441 0.032527938217306464 0 -0.064648641350390584 0.031871205139784337 0 -0.067294344390757585 0.032256999582866389 0 -0.066487552751842594 0.033224018670370364 0 -0.067782953799228551 0.03229075309923897 0 -0.064724005449823693 0.033411146967981004 0 -0.063863407159977098 0.033751369667001305 0 -0.064318671822232512 0.033193890843338285 0 -0.064777607140431182 0.032726344902334448 0 -0.064813740296590441 0.032527938217306464 0 -0.065306731399253609 0.03284565898625548 0 -0.064724005449823693 0.033411146967981004 0 -0.066487552751842594 0.033224018670370364 0 -0.060463486244469226 0.033761070777444897 0 -0.060600646040019988 0.033635717870153001 0 -0.060513742550522574 0.033617567290838223 0 -0.062318979170666575 0.033540735342711098 0 -0.061799835032699361 0.033581849368648671 0 -0.060463486244469226 0.033761070777444897 0 -0.060600646040019988 0.033635717870153001 0 -0.060723252527796832 0.033463400643609954 0 -0.060600646040019988 0.033635717870153001 0 -0.060664612991048875 0.033666749133030215 0 -0.060513742550522574 0.033617567290838223 0 -0.060463486244469226 0.033761070777444897 0 -0.060513742550522574 0.033617567290838223 0 -0.060405617661936833 0.033535935897039654 0 -0.060513742550522574 0.033617567290838223 0 -0.060405617661936833 0.033535935897039654 0 -0.060586625131747493 0.033824132964339323 0 -0.061469646559931611 0.031648527691850052 0 -0.061412379662840175 0.030463646771053839 0 -0.060405617661936833 0.033535935897039654 0 -0.058920884330139658 0.032112443341533257 0 -0.060215571024148505 0.031632852666282074 0 -0.060731136183878695 0.033762159855122591 0 -0.060725731361185142 0.033839928898630037 0 -0.060586625131747493 0.033824132964339323 0 -0.060664612991048875 0.033666749133030215 0 -0.060513742550522574 0.033617567290838223 0 -0.060586625131747493 0.033824132964339323 0 -0.060664612991048875 0.033666749133030215 0 -0.060731136183878695 0.033762159855122591 0 -0.060586625131747493 0.033824132964339323 0 -0.06124157319938963 0.034033068744286202 0 -0.061242303934774117 0.033176396480736066 0 -0.063001114149102783 0.03358598549940843 0 -0.062735093735090966 0.033542863944889728 0 -0.062922737629689446 0.033518895260983547 0 -0.06124157319938963 0.034033068744286202 0 -0.060405617661936833 0.033535935897039654 0 -0.061242303934774117 0.033176396480736066 0 -0.06124157319938963 0.034033068744286202 0 -0.060463486244469226 0.033761070777444897 0 -0.060405617661936833 0.033535935897039654 0 -0.061242303934774117 0.033176396480736066 0 -0.061721664262153829 0.032319182665174667 0 -0.060215571024148505 0.031632852666282074 0 -0.060405617661936833 0.033535935897039654 0 -0.061242303934774117 0.033176396480736066 0 -0.060215571024148505 0.031632852666282074 0 -0.061242303934774117 0.033176396480736066 0 -0.063001114149102783 0.03358598549940843 0 -0.061721664262153829 0.032319182665174667 0 -0.063001114149102783 0.03358598549940843 0 -0.063051964691085136 0.033113069184167405 0 -0.062753240559214843 0.032293077093240911 0 -0.063001114149102783 0.03358598549940843 0 -0.062753240559214843 0.032293077093240911 0 -0.061721664262153829 0.032319182665174667 0 -0.063001114149102783 0.03358598549940843 0 -0.062835194512738529 0.033281258938486685 0 -0.062741146760423722 0.033037906880796122 0 -0.063001114149102783 0.03358598549940843 0 -0.063051964691085136 0.033113069184167405 0 -0.062835194512738529 0.033281258938486685 0 -0.062983349564067218 0.033144304526577788 0 -0.063051964691085136 0.033113069184167405 0 -0.062835194512738529 0.033281258938486685 0 -0.062983349564067218 0.033144304526577788 0 -0.063051964691085136 0.033113069184167405 0 -0.063510124724173167 0.032325985000107624 0 -0.058282072374502628 0.030438849226657388 0 -0.058099617998065865 0.030617305152255716 0 -0.05636164366343363 0.028784611347783595 0 -0.062983349564067218 0.033144304526577788 0 -0.062591363451468415 0.033460000645559575 0 -0.063510124724173167 0.032325985000107624 0 -0.060265372123315349 0.031222611492326392 0 -0.059745839762625694 0.030083785469719619 0 -0.058818007027510943 0.02973959396558647 0 -0.059523932255738196 0.029066539768467185 0 -0.058282072374502628 0.030438849226657388 0 -0.060384962464974642 0.029290902138329102 0 -0.060685655804230951 0.030922159298502228 0 -0.058282072374502628 0.030438849226657388 0 -0.061049727705342505 0.032634736921743797 0 -0.060685655804230951 0.030922159298502228 0 -0.058282072374502628 0.030438849226657388 0 -0.058099617998065865 0.030617305152255716 0 -0.061049727705342505 0.032634736921743797 0 -0.060265372123315349 0.031222611492326392 0 -0.06053471332879938 0.031704596197579225 0 -0.062591363451468415 0.033460000645559575 0 -0.062835194512738529 0.033281258938486685 0 -0.061049727705342505 0.032634736921743797 0 -0.062983349564067218 0.033144304526577788 0 -0.062591363451468415 0.033460000645559575 0 -0.062835194512738529 0.033281258938486685 0 -0.062835194512738529 0.033281258938486685 0 -0.061049727705342505 0.032634736921743797 0 -0.062741146760423722 0.033037906880796122 0 -0.061049727705342505 0.032634736921743797 0 -0.061914303734400981 0.032638138031744091 0 -0.062741146760423722 0.033037906880796122 0 -0.061049727705342505 0.032634736921743797 0 -0.061914303734400981 0.032638138031744091 0 -0.061436061932815721 0.032595535465401837 0 -0.061965244714474788 0.032459762383725929 0 -0.061914303734400981 0.032638138031744091 0 -0.061436061932815721 0.032595535465401837 0 -0.061965244714474788 0.032459762383725929 0 -0.061914303734400981 0.032638138031744091 0 -0.062761108519933648 0.032686542922688661 0 -0.061914303734400981 0.032638138031744091 0 -0.062761108519933648 0.032686542922688661 0 -0.062741146760423722 0.033037906880796122 0 -0.062761108519933648 0.032686542922688661 0 -0.06337434937878228 0.03313295819933304 0 -0.062741146760423722 0.033037906880796122 0 -0.063570818497273779 0.03276808088151207 0 -0.064230874405102792 0.03308340613498769 0 -0.06337434937878228 0.03313295819933304 0 -0.063570818497273779 0.03276808088151207 0 -0.062761108519933648 0.032686542922688661 0 -0.06337434937878228 0.03313295819933304 0 -0.063001114149102783 0.03358598549940843 0 -0.06337434937878228 0.03313295819933304 0 -0.062741146760423722 0.033037906880796122 0 -0.064358204806621952 0.033577040963257448 0 -0.063001114149102783 0.03358598549940843 0 -0.06337434937878228 0.03313295819933304 0 -0.064996800736521351 0.035109183796143917 0 -0.064998906809930715 0.025798820520000331 0 -0.066385399462609226 0.030123930187316624 0 -0.0650007359264137 0.025793922997539107 0 -0.065930949965812918 0.026480023982524428 0 -0.065000034240185661 0.025791485730826003 0 -0.067414670287942374 0.024942213538256493 0 -0.066267373679890301 0.024035757712493951 0 -0.066094168944014542 0.027897045096483785 0 -0.066385399462609226 0.030123930187316624 0 -0.066350900368814525 0.029524671041706148 0 -0.064998906809930715 0.025798820520000331 0 -0.066094168944014542 0.027897045096483785 0 -0.066385399462609226 0.030123930187316624 0 -0.066398326035129643 0.033872055532136701 0 -0.064996800736521351 0.035109183796143917 0 -0.066385399462609226 0.030123930187316624 0 -0.066398326035129643 0.033872055532136701 0 -0.066385399462609226 0.030123930187316624 0 -0.068259023495346752 0.031181500136399601 0 -0.066385399462609226 0.030123930187316624 0 -0.068259023495346752 0.031181500136399601 0 -0.066350900368814525 0.029524671041706148 0 -0.066197419509910552 0.033462977426677414 0 -0.066095722014435337 0.032015030009098715 0 -0.067169064334954162 0.03593498274894117 0 -0.066398326035129643 0.033872055532136701 0 -0.068259023495346752 0.031181500136399601 0 -0.063688841439393448 0.037849152782927269 0 -0.065409243250898572 0.036074325081447471 0 -0.064252889369833338 0.033097584845458147 0 -0.066380557227570788 0.036368076229560682 0 -0.066197419509910552 0.033462977426677414 0 -0.065409243250898572 0.036074325081447471 0 -0.064252889369833338 0.033097584845458147 0 -0.066372975512932406 0.034485946092624939 0 -0.064252889369833338 0.033097584845458147 0 -0.06605340014484043 0.03091644554637096 0 -0.066557620740130732 0.032514089593708134 0 -0.064252889369833338 0.033097584845458147 0 -0.066557620740130732 0.032514089593708134 0 -0.066372975512932406 0.034485946092624939 0 -0.066419566083265588 0.030818127982041713 0 -0.06605340014484043 0.03091644554637096 0 -0.066696280465073726 0.031353592385430361 0 -0.066419566083265588 0.030818127982041713 0 -0.06631065123816543 0.030378006574556003 0 -0.066620116549692646 0.030697335071349922 0 -0.066419566083265588 0.030818127982041713 0 -0.06605340014484043 0.03091644554637096 0 -0.06631065123816543 0.030378006574556003 0 -0.06605340014484043 0.03091644554637096 0 -0.06631065123816543 0.030378006574556003 0 -0.066251650003322046 0.03001191065934123 0 -0.06605340014484043 0.03091644554637096 0 -0.066350900368814525 0.029524671041706148 0 -0.066251650003322046 0.03001191065934123 0 -0.064252889369833338 0.033097584845458147 0 -0.06605340014484043 0.03091644554637096 0 -0.066350900368814525 0.029524671041706148 0 -0.066094168944014542 0.027897045096483785 0 -0.066350900368814525 0.029524671041706148 0 -0.066274456300638121 0.029668430571446091 0 -0.065930949965812918 0.026480023982524428 0 -0.066830540180710024 0.027159257037364042 0 -0.067414670287942374 0.024942213538256493 0 -0.068960467509563264 0.024197920808247002 0 -0.069351242750203546 0.024353330293252661 0 -0.066350900368814525 0.029524671041706148 0 -0.066274456300638121 0.029668430571446091 0 -0.066251650003322046 0.03001191065934123 0 -0.068960467509563264 0.024197920808247002 0 -0.069351242750203546 0.024353330293252661 0 -0.069362766299349427 0.023836853353277378 0 -0.069351242750203546 0.024353330293252661 0 -0.069362766299349427 0.023836853353277378 0 -0.070047532346858579 0.023808494401001502 0 -0.066274456300638121 0.029668430571446091 0 -0.066409182477092321 0.030161969723615633 0 -0.066613646549515321 0.030430305342470813 0 -0.066830540180710024 0.027159257037364042 0 -0.066495053867281481 0.028032951591671729 0 -0.069351242750203546 0.024353330293252661 0 -0.070047532346858579 0.023808494401001502 0 -0.071551412017241328 0.023991529377831028 0 -0.0665517799475078 0.030403623817192849 0 -0.066409182477092321 0.030161969723615633 0 -0.066600688489566878 0.030417050639863993 0 -0.066409182477092321 0.030161969723615633 0 -0.066600688489566878 0.030417050639863993 0 -0.066613646549515321 0.030430305342470813 0 -0.0665517799475078 0.030403623817192849 0 -0.066482714451352926 0.030396163437266085 0 -0.066409182477092321 0.030161969723615633 0 -0.066482714451352926 0.030396163437266085 0 -0.06631065123816543 0.030378006574556003 0 -0.066409182477092321 0.030161969723615633 0 -0.066482714451352926 0.030396163437266085 0 -0.06631065123816543 0.030378006574556003 0 -0.066620116549692646 0.030697335071349922 0 -0.0665517799475078 0.030403623817192849 0 -0.066482714451352926 0.030396163437266085 0 -0.066657393039881621 0.030557938351000857 0 -0.06631065123816543 0.030378006574556003 0 -0.066251650003322046 0.03001191065934123 0 -0.066409182477092321 0.030161969723615633 0 -0.066274456300638121 0.029668430571446091 0 -0.066251650003322046 0.03001191065934123 0 -0.066409182477092321 0.030161969723615633 0 -0.066685358751805757 0.03037004950658282 0 -0.067180313520822738 0.030875426437112115 0 -0.067737736288681433 0.031196483335773802 0 -0.066495053867281481 0.028032951591671729 0 -0.064582142193038428 0.030575019095647298 0 -0.06702942970908575 0.030876752069704791 0 -0.067180313520822738 0.030875426437112115 0 -0.067316066725447127 0.031111671954077519 0 -0.06702942970908575 0.030876752069704791 0 -0.067316066725447127 0.031111671954077519 0 -0.067000102875881304 0.03105542053111237 0 -0.06702942970908575 0.030876752069704791 0 -0.066821766370168442 0.030748451485456119 0 -0.067000102875881304 0.03105542053111237 0 -0.066620116549692646 0.030697335071349922 0 -0.066821766370168442 0.030748451485456119 0 -0.067000102875881304 0.03105542053111237 0 -0.066482714451352926 0.030396163437266085 0 -0.066620116549692646 0.030697335071349922 0 -0.066657393039881621 0.030557938351000857 0 -0.066620116549692646 0.030697335071349922 0 -0.066657393039881621 0.030557938351000857 0 -0.066821766370168442 0.030748451485456119 0 -0.066657393039881621 0.030557938351000857 0 -0.066821766370168442 0.030748451485456119 0 -0.066807147738718015 0.030572205738276962 0 -0.06702942970908575 0.030876752069704791 0 -0.066821766370168442 0.030748451485456119 0 -0.066807147738718015 0.030572205738276962 0 -0.066807147738718015 0.030572205738276962 0 -0.066685358751805757 0.03037004950658282 0 -0.067180313520822738 0.030875426437112115 0 -0.0665517799475078 0.030403623817192849 0 -0.066657393039881621 0.030557938351000857 0 -0.066657727236208331 0.03049361749041726 0 -0.0665517799475078 0.030403623817192849 0 -0.066657727236208331 0.03049361749041726 0 -0.066600688489566878 0.030417050639863993 0 -0.066657393039881621 0.030557938351000857 0 -0.066807147738718015 0.030572205738276962 0 -0.066657727236208331 0.03049361749041726 0 -0.066807147738718015 0.030572205738276962 0 -0.066690629432983359 0.030468261664604264 0 -0.066685358751805757 0.03037004950658282 0 -0.066657727236208331 0.03049361749041726 0 -0.066690629432983359 0.030468261664604264 0 -0.066600688489566878 0.030417050639863993 0 -0.066807147738718015 0.030572205738276962 0 -0.066657727236208331 0.03049361749041726 0 -0.066690629432983359 0.030468261664604264 0 -0.06648953306718168 0.02804657749409268 0 -0.066495053867281481 0.028032951591671729 0 -0.066690629432983359 0.030468261664604264 0 -0.066600688489566878 0.030417050639863993 0 -0.066685358751805757 0.03037004950658282 0 -0.06702942970908575 0.030876752069704791 0 -0.066807147738718015 0.030572205738276962 0 -0.067180313520822738 0.030875426437112115 0 -0.067180313520822738 0.030875426437112115 0 -0.067482880741234749 0.031137817886876633 0 -0.067737736288681433 0.031196483335773802 0 -0.067180313520822738 0.030875426437112115 0 -0.067482880741234749 0.031137817886876633 0 -0.067316066725447127 0.031111671954077519 0 -0.067649042089352143 0.031334181179528749 0 -0.067774883235743738 0.031473012641800829 0 -0.067737736288681433 0.031196483335773802 0 -0.067482880741234749 0.031137817886876633 0 -0.067649042089352143 0.031334181179528749 0 -0.067737736288681433 0.031196483335773802 0 -0.067649042089352143 0.031334181179528749 0 -0.067546225997416456 0.031437767135084789 0 -0.06786958789371661 0.031628076583703764 0 -0.067316066725447127 0.031111671954077519 0 -0.067546225997416456 0.031437767135084789 0 -0.067000102875881304 0.03105542053111237 0 -0.067482880741234749 0.031137817886876633 0 -0.067649042089352143 0.031334181179528749 0 -0.067316066725447127 0.031111671954077519 0 -0.067649042089352143 0.031334181179528749 0 -0.067316066725447127 0.031111671954077519 0 -0.067546225997416456 0.031437767135084789 0 -0.067546225997416456 0.031437767135084789 0 -0.067585869062712731 0.031912977776564905 0 -0.067000102875881304 0.03105542053111237 0 -0.067546225997416456 0.031437767135084789 0 -0.067585869062712731 0.031912977776564905 0 -0.06786958789371661 0.031628076583703764 0 -0.067585869062712731 0.031912977776564905 0 -0.067000102875881304 0.03105542053111237 0 -0.066696280465073726 0.031353592385430361 0 -0.067585869062712731 0.031912977776564905 0 -0.066696280465073726 0.031353592385430361 0 -0.066557620740130732 0.032514089593708134 0 -0.066419566083265588 0.030818127982041713 0 -0.066620116549692646 0.030697335071349922 0 -0.066696280465073726 0.031353592385430361 0 -0.066620116549692646 0.030697335071349922 0 -0.067000102875881304 0.03105542053111237 0 -0.066696280465073726 0.031353592385430361 0 -0.06605340014484043 0.03091644554637096 0 -0.066696280465073726 0.031353592385430361 0 -0.066557620740130732 0.032514089593708134 0 -0.066557620740130732 0.032514089593708134 0 -0.066372975512932406 0.034485946092624939 0 -0.067874604318352155 0.033216142824812001 0 -0.067057114143197635 0.036509676352464007 0 -0.065409243250898572 0.036074325081447471 0 -0.066372975512932406 0.034485946092624939 0 -0.067057114143197635 0.036509676352464007 0 -0.066372975512932406 0.034485946092624939 0 -0.067874604318352155 0.033216142824812001 0 -0.067585869062712731 0.031912977776564905 0 -0.066557620740130732 0.032514089593708134 0 -0.067874604318352155 0.033216142824812001 0 -0.067874604318352155 0.033216142824812001 0 -0.069301205620248843 0.033819694187517922 0 -0.06865296569455312 0.033144168819656941 0 -0.067585869062712731 0.031912977776564905 0 -0.067874604318352155 0.033216142824812001 0 -0.068102258699906965 0.03177920636470008 0 -0.067623005888208715 0.032770399860555244 0 -0.067678264985041786 0.0326038434163703 0 -0.068712708615297477 0.036736204465767107 0 -0.067874604318352155 0.033216142824812001 0 -0.069301205620248843 0.033819694187517922 0 -0.070371137543028317 0.034109214619298361 0 -0.069653076419302989 0.033897757282575554 0 -0.067328969786206144 0.031612873942707682 0 -0.067660136090218065 0.032784047849825727 0 -0.069301205620248843 0.033819694187517922 0 -0.067660136090218065 0.032784047849825727 0 -0.069301205620248843 0.033819694187517922 0 -0.06865296569455312 0.033144168819656941 0 -0.066957379444045728 0.031650312458800858 0 -0.068102258699906965 0.03177920636470008 0 -0.067766125286885623 0.031868779868157615 0 -0.067158768922094034 0.032627401078143881 0 -0.067678264985041786 0.0326038434163703 0 -0.067585869062712731 0.031912977776564905 0 -0.068102258699906965 0.03177920636470008 0 -0.06786958789371661 0.031628076583703764 0 -0.068102258699906965 0.03177920636470008 0 -0.06786958789371661 0.031628076583703764 0 -0.067766125286885623 0.031868779868157615 0 -0.06786958789371661 0.031628076583703764 0 -0.067820368220943061 0.03172163146566169 0 -0.067766125286885623 0.031868779868157615 0 -0.067649042089352143 0.031334181179528749 0 -0.06786958789371661 0.031628076583703764 0 -0.067774883235743738 0.031473012641800829 0 -0.06786958789371661 0.031628076583703764 0 -0.067774883235743738 0.031473012641800829 0 -0.067820368220943061 0.03172163146566169 0 -0.067774883235743738 0.031473012641800829 0 -0.067820368220943061 0.03172163146566169 0 -0.067737736288681433 0.031196483335773802 0 -0.066957379444045728 0.031650312458800858 0 -0.067294344390757585 0.032256999582866389 0 -0.067766125286885623 0.031868779868157615 0 -0.067294344390757585 0.032256999582866389 0 -0.067766125286885623 0.031868779868157615 0 -0.067782953799228551 0.03229075309923897 0 -0.067820368220943061 0.03172163146566169 0 -0.067766125286885623 0.031868779868157615 0 -0.067782953799228551 0.03229075309923897 0 -0.061799835032699361 0.033581849368648671 0 -0.061502871372016855 0.0336379646020303 0 -0.062215878538668223 0.033772373356281651 0 -0.062799622331858318 0.033306504616831933 0 -0.061227499797148706 0.033566795087335621 0 -0.060723252527796832 0.033463400643609954 0 -0.061227499797148706 0.033566795087335621 0 -0.060957582435937151 0.033550222805939216 0 -0.067820368220943061 0.03172163146566169 0 -0.067782953799228551 0.03229075309923897 0 -0.067737736288681433 0.031196483335773802 0 -0.064648641350390584 0.031871205139784337 0 -0.064582142193038428 0.030575019095647298 0 -0.062215878538668223 0.033772373356281651 0 -0.061227499797148706 0.033566795087335621 0 -0.060806876631167156 0.033656833016246682 0 -0.061227499797148706 0.033566795087335621 0 -0.060957582435937151 0.033550222805939216 0 -0.061006435714177271 0.033523218533153966 0 -0.061227499797148706 0.033566795087335621 0 -0.061006435714177271 0.033523218533153966 0 -0.060979278659649083 0.033569122587130518 0 -0.060957582435937151 0.033550222805939216 0 -0.061006435714177271 0.033523218533153966 0 -0.060925106587636974 0.033587684445484704 0 -0.061006435714177271 0.033523218533153966 0 -0.060925106587636974 0.033587684445484704 0 -0.060977200750423108 0.033635172063119424 0 -0.060957582435937151 0.033550222805939216 0 -0.060925106587636974 0.033587684445484704 0 -0.060790390108718062 0.033613940129417125 0 -0.060723252527796832 0.033463400643609954 0 -0.060957582435937151 0.033550222805939216 0 -0.060790390108718062 0.033613940129417125 0 -0.060600646040019988 0.033635717870153001 0 -0.060723252527796832 0.033463400643609954 0 -0.060790390108718062 0.033613940129417125 0 -0.060600646040019988 0.033635717870153001 0 -0.060664612991048875 0.033666749133030215 0 -0.060790390108718062 0.033613940129417125 0 -0.060664612991048875 0.033666749133030215 0 -0.060790390108718062 0.033613940129417125 0 -0.060836331647095898 0.033668692228266461 0 -0.060664612991048875 0.033666749133030215 0 -0.060836331647095898 0.033668692228266461 0 -0.060731136183878695 0.033762159855122591 0 -0.060925106587636974 0.033587684445484704 0 -0.060790390108718062 0.033613940129417125 0 -0.060836331647095898 0.033668692228266461 0 -0.060836331647095898 0.033668692228266461 0 -0.060731136183878695 0.033762159855122591 0 -0.060852329898612105 0.033813083194532675 0 -0.060731136183878695 0.033762159855122591 0 -0.060852329898612105 0.033813083194532675 0 -0.060725731361185142 0.033839928898630037 0 -0.060836331647095898 0.033668692228266461 0 -0.060977200750423108 0.033635172063119424 0 -0.060852329898612105 0.033813083194532675 0 -0.065311011135947422 0.016011055524461026 0 -0.065425000342794651 0.017457994554296048 0 -0.064569018563409977 0.017176808762592175 0 -0.063730082428360521 0.025323695254008228 0 -0.062305211998991861 0.025298399050625239 0 -0.060925106587636974 0.033587684445484704 0 -0.060836331647095898 0.033668692228266461 0 -0.060977200750423108 0.033635172063119424 0 -0.065311011135947422 0.016011055524461026 0 -0.066187727698664378 0.016875372976836181 0 -0.065425000342794651 0.017457994554296048 0 -0.066187727698664378 0.016875372976836181 0 -0.066704625287036107 0.015705344650638022 0 -0.067413615223571435 0.016522873766419147 0 -0.065311011135947422 0.016011055524461026 0 -0.066187727698664378 0.016875372976836181 0 -0.066704625287036107 0.015705344650638022 0 -0.065311011135947422 0.016011055524461026 0 -0.066704625287036107 0.015705344650638022 0 -0.066023312478621726 0.014885432426488253 0 -0.066126740214287244 0.021544910624029082 0 -0.065373926325970499 0.025870622349185707 0 -0.071448493588263898 0.020004262120355588 0 -0.072879481100637633 0.021758672622192991 0 -0.071086460597959422 0.021437228530630993 0 -0.072879481100637633 0.021758672622192991 0 -0.071430142212099965 0.022608204339096633 0 -0.071086460597959422 0.021437228530630993 0 -0.061006435714177271 0.033523218533153966 0 -0.060977200750423108 0.033635172063119424 0 -0.060960320903175332 0.033533121228485757 0 -0.063730082428360521 0.025323695254008228 0 -0.065373926325970499 0.025870622349185707 0 -0.060977200750423108 0.033635172063119424 0 -0.060978407636989529 0.033527320685627367 0 -0.060960320903175332 0.033533121228485757 0 -0.065373926325970499 0.025870622349185707 0 -0.065419199812913803 0.026930428747876919 0 -0.060856229859032558 0.033583494516606006 0 -0.060873775425521838 0.033582473769751438 0 -0.060806876631167156 0.033656833016246682 0 -0.060978407636989529 0.033527320685627367 0 -0.060960320903175332 0.033533121228485757 0 -0.060873775425521838 0.033582473769751438 0 -0.061006435714177271 0.033523218533153966 0 -0.060960320903175332 0.033533121228485757 0 -0.060873775425521838 0.033582473769751438 0 -0.061006435714177271 0.033523218533153966 0 -0.060873775425521838 0.033582473769751438 0 -0.060979278659649083 0.033569122587130518 0 -0.061227499797148706 0.033566795087335621 0 -0.060979278659649083 0.033569122587130518 0 -0.060806876631167156 0.033656833016246682 0 -0.060873775425521838 0.033582473769751438 0 -0.060979278659649083 0.033569122587130518 0 -0.060806876631167156 0.033656833016246682 0 -0.066495053867281481 0.028032951591671729 0 -0.065373926325970499 0.025870622349185707 0 -0.060856229859032558 0.033583494516606006 0 -0.060870938243301698 0.033557570813868225 0 -0.060873775425521838 0.033582473769751438 0 -0.071551412017241328 0.023991529377831028 0 -0.072879481100637633 0.021758672622192991 0 -0.071430142212099965 0.022608204339096633 0 -0.071551412017241328 0.023991529377831028 0 -0.071430142212099965 0.022608204339096633 0 -0.071020279949290818 0.023179275505496758 0 -0.069934419205205003 0.022803777345993304 0 -0.070645419280847638 0.022550344285555232 0 -0.070449911979339364 0.023394672619922563 0 -0.069934419205205003 0.022803777345993304 0 -0.06935774761182803 0.02271067930863338 0 -0.069863906309900317 0.022004480229395478 0 -0.069934419205205003 0.022803777345993304 0 -0.070645419280847638 0.022550344285555232 0 -0.069863906309900317 0.022004480229395478 0 -0.071430142212099965 0.022608204339096633 0 -0.070645419280847638 0.022550344285555232 0 -0.071086460597959422 0.021437228530630993 0 -0.071430142212099965 0.022608204339096633 0 -0.070645419280847638 0.022550344285555232 0 -0.071020279949290818 0.023179275505496758 0 -0.071551412017241328 0.023991529377831028 0 -0.071020279949290818 0.023179275505496758 0 -0.070449911979339364 0.023394672619922563 0 -0.070047532346858579 0.023808494401001502 0 -0.071551412017241328 0.023991529377831028 0 -0.070449911979339364 0.023394672619922563 0 -0.070645419280847638 0.022550344285555232 0 -0.071020279949290818 0.023179275505496758 0 -0.070449911979339364 0.023394672619922563 0 -0.070047532346858579 0.023808494401001502 0 -0.070449911979339364 0.023394672619922563 0 -0.069582485739266411 0.02339754625854272 0 -0.069934419205205003 0.022803777345993304 0 -0.070449911979339364 0.023394672619922563 0 -0.069582485739266411 0.02339754625854272 0 -0.068960467509563264 0.024197920808247002 0 -0.069362766299349427 0.023836853353277378 0 -0.068794640540775512 0.023044359400435064 0 -0.069362766299349427 0.023836853353277378 0 -0.070047532346858579 0.023808494401001502 0 -0.069582485739266411 0.02339754625854272 0 -0.068960467509563264 0.024197920808247002 0 -0.068794640540775512 0.023044359400435064 0 -0.066923030033357436 0.022102340752587987 0 -0.069362766299349427 0.023836853353277378 0 -0.069582485739266411 0.02339754625854272 0 -0.068794640540775512 0.023044359400435064 0 -0.069582485739266411 0.02339754625854272 0 -0.068794640540775512 0.023044359400435064 0 -0.06935774761182803 0.02271067930863338 0 -0.069934419205205003 0.022803777345993304 0 -0.069582485739266411 0.02339754625854272 0 -0.06935774761182803 0.02271067930863338 0 -0.068794640540775512 0.023044359400435064 0 -0.06935774761182803 0.02271067930863338 0 -0.068538264630086262 0.021990307074863508 0 -0.06935774761182803 0.02271067930863338 0 -0.068538264630086262 0.021990307074863508 0 -0.069863906309900317 0.022004480229395478 0 -0.068538264630086262 0.021990307074863508 0 -0.069801762958930189 0.020542795134670024 0 -0.068412955810615836 0.019604419480038601 0 -0.068538264630086262 0.021990307074863508 0 -0.069801762958930189 0.020542795134670024 0 -0.069863906309900317 0.022004480229395478 0 -0.071448493588263898 0.020004262120355588 0 -0.069801762958930189 0.020542795134670024 0 -0.071086460597959422 0.021437228530630993 0 -0.069801762958930189 0.020542795134670024 0 -0.069863906309900317 0.022004480229395478 0 -0.071086460597959422 0.021437228530630993 0 -0.070645419280847638 0.022550344285555232 0 -0.069863906309900317 0.022004480229395478 0 -0.071086460597959422 0.021437228530630993 0 -0.071448493588263898 0.020004262120355588 0 -0.069801762958930189 0.020542795134670024 0 -0.069850776023476224 0.01833426511460139 0 -0.066126740214287244 0.021544910624029082 0 -0.066690436047109988 0.019765156004783863 0 -0.067413615223571435 0.016522873766419147 0 -0.068223298259136117 0.017395664680826806 0 -0.066949185810862302 0.017246094786929501 0 -0.066187727698664378 0.016875372976836181 0 -0.067413615223571435 0.016522873766419147 0 -0.066949185810862302 0.017246094786929501 0 -0.066690436047109988 0.019765156004783863 0 -0.066862497561753262 0.019274014036345471 0 -0.069850776023476224 0.01833426511460139 0 -0.068352725516168222 0.018260873303826083 0 -0.068223298259136117 0.017395664680826806 0 -0.069850776023476224 0.01833426511460139 0 -0.068352725516168222 0.018260873303826083 0 -0.068412955810615836 0.019604419480038601 0 -0.069801762958930189 0.020542795134670024 0 -0.069850776023476224 0.01833426511460139 0 -0.068412955810615836 0.019604419480038601 0 -0.068412955810615836 0.019604419480038601 0 -0.066791701946548793 0.020273036839515812 0 -0.067189228085805658 0.018446901605348967 0 -0.068352725516168222 0.018260873303826083 0 -0.068412955810615836 0.019604419480038601 0 -0.067189228085805658 0.018446901605348967 0 -0.068352725516168222 0.018260873303826083 0 -0.067189228085805658 0.018446901605348967 0 -0.067461993581040658 0.017085174079841635 0 -0.067189228085805658 0.018446901605348967 0 -0.065001159964985122 0.017659267372839169 0 -0.067461993581040658 0.017085174079841635 0 -0.065001875291173475 0.017655874289017284 0 -0.066768991531823141 0.016543160824182248 0 -0.066791701946548793 0.020273036839515812 0 -0.067189228085805658 0.018446901605348967 0 -0.065001159964985122 0.017659267372839169 0 -0.066791701946548793 0.020273036839515812 0 -0.065001159964985122 0.017659267372839169 0 -0.064999014545776126 0.020211265242191044 0 -0.066791701946548793 0.020273036839515812 0 -0.064999014545776126 0.020211265242191044 0 -0.066923030033357436 0.022102340752587987 0 -0.065000025094408137 0.020213070754234681 0 -0.067275282828272789 0.022605410626744055 0 -0.064999863110699302 0.023002587143304196 0 -0.065001778694411622 0.020214732205161789 0 -0.066861285822922861 0.022009537384657815 0 -0.068538264630086262 0.021990307074863508 0 -0.066791701946548793 0.020273036839515812 0 -0.066923030033357436 0.022102340752587987 0 -0.068538264630086262 0.021990307074863508 0 -0.068412955810615836 0.019604419480038601 0 -0.066791701946548793 0.020273036839515812 0 -0.067865199408211493 0.022966814686595505 0 -0.066861285822922861 0.022009537384657815 0 -0.068794640540775512 0.023044359400435064 0 -0.068538264630086262 0.021990307074863508 0 -0.066923030033357436 0.022102340752587987 0 -0.067414670287942374 0.024942213538256493 0 -0.068960467509563264 0.024197920808247002 0 -0.067275282828272789 0.022605410626744055 0 -0.067414670287942374 0.024942213538256493 0 -0.067275282828272789 0.022605410626744055 0 -0.066267373679890301 0.024035757712493951 0 -0.065000034240185661 0.025791485730826003 0 -0.066267373679890301 0.024035757712493951 0 -0.064999863110699302 0.023002587143304196 0 -0.067275282828272789 0.022605410626744055 0 -0.066267373679890301 0.024035757712493951 0 -0.064999863110699302 0.023002587143304196 0 -0.066852373713239224 0.0097632366185926682 0 -0.065000121319054222 0.0092365391137243808 0 -0.067484506693144763 0.008157282102502942 0 -0.065002569827514747 0.0092349237092895428 0 -0.067390286024839749 0.008017289424871496 0 -0.066852373713239224 0.0097632366185926682 0 -0.068598944882230978 0.0080755020219069919 0 -0.067484506693144763 0.008157282102502942 0 -0.066846806688705837 0.0099716384848335098 0 -0.068713590186817844 0.00967542574174045 0 -0.068598944882230978 0.0080755020219069919 0 -0.066846806688705837 0.0099716384848335098 0 -0.068713590186817844 0.00967542574174045 0 -0.068088073628591692 0.01091946717912964 0 -0.066506433182588642 0.01024834384805281 0 -0.067299333641197306 0.0093883947951228074 0 -0.066846806688705837 0.0099716384848335098 0 -0.068088073628591692 0.01091946717912964 0 -0.067302287859984655 0.01234528191267773 0 -0.068088073628591692 0.01091946717912964 0 -0.067302287859984655 0.01234528191267773 0 -0.069634796992109976 0.012963451435576662 0 -0.066846806688705837 0.0099716384848335098 0 -0.064999993467814751 0.011889496820154272 0 -0.067302287859984655 0.01234528191267773 0 -0.066506433182588642 0.01024834384805281 0 -0.065001761808378924 0.011887253794733413 0 -0.066852373713239224 0.0097632366185926682 0 -0.065000121319054222 0.0092365391137243808 0 -0.064999916115345779 0.011888852156766008 0 -0.064999922822328818 0.014772676512100753 0 -0.067401104910256748 0.015270995735087172 0 -0.067302287859984655 0.01234528191267773 0 -0.064999993467814751 0.011889496820154272 0 -0.064999922822328818 0.014772676512100753 0 -0.067302287859984655 0.01234528191267773 0 -0.065000015217268864 0.017656564682900933 0 -0.064999922822328818 0.014772676512100753 0 -0.067401104910256748 0.015270995735087172 0 -0.067401104910256748 0.015270995735087172 0 -0.067302287859984655 0.01234528191267773 0 -0.069634796992109976 0.012963451435576662 0 -0.066768991531823141 0.016543160824182248 0 -0.068033040813770429 0.015731924774299789 0 -0.068334420827902226 0.01827706394985848 0 -0.068223298259136117 0.017395664680826806 0 -0.067197308775674522 0.017939689274678369 0 -0.067461993581040658 0.017085174079841635 0 -0.068334420827902226 0.01827706394985848 0 -0.068223298259136117 0.017395664680826806 0 -0.068352725516168222 0.018260873303826083 0 -0.067461993581040658 0.017085174079841635 0 -0.068223298259136117 0.017395664680826806 0 -0.068223298259136117 0.017395664680826806 0 -0.066949185810862302 0.017246094786929501 0 -0.067197308775674522 0.017939689274678369 0 -0.068334420827902226 0.01827706394985848 0 -0.067197308775674522 0.017939689274678369 0 -0.066922858779153813 0.020560614782436499 0 -0.068033040813770429 0.015731924774299789 0 -0.068437575557683206 0.015293660306625064 0 -0.068088073628591692 0.01091946717912964 0 -0.069634796992109976 0.012963451435576662 0 -0.069609485816807121 0.010588236956532469 0 -0.069634796992109976 0.012963451435576662 0 -0.071703985909859227 0.010843444057974399 0 -0.069609485816807121 0.010588236956532469 0 -0.068713590186817844 0.00967542574174045 0 -0.068088073628591692 0.01091946717912964 0 -0.069609485816807121 0.010588236956532469 0 -0.068713590186817844 0.00967542574174045 0 -0.069609485816807121 0.010588236956532469 0 -0.070477334642120179 0.0089081660161354596 0 -0.068713590186817844 0.00967542574174045 0 -0.070477334642120179 0.0089081660161354596 0 -0.068598944882230978 0.0080755020219069919 0 -0.071703985909859227 0.010843444057974399 0 -0.069609485816807121 0.010588236956532469 0 -0.070477334642120179 0.0089081660161354596 0 -0.071703985909859227 0.010843444057974399 0 -0.070477334642120179 0.0089081660161354596 0 -0.073715599342393565 0.0088858701060965193 0 -0.066922858779153813 0.020560614782436499 0 -0.064904070740060452 0.022741229427113194 0 -0.06419032964586141 0.020509091537220251 0 -0.068437575557683206 0.015293660306625064 0 -0.068018395707571538 0.014899048662176659 0 -0.064904070740060452 0.022741229427113194 0 -0.06419032964586141 0.020509091537220251 0 -0.063147969035937238 0.022113047350628363 0 -0.066922858779153813 0.020560614782436499 0 -0.06419032964586141 0.020509091537220251 0 -0.065091347140099079 0.018310189230283339 0 -0.06606552563498666 0.020194157985982186 0 -0.06531391259532314 0.02067613593666523 0 -0.067197308775674522 0.017939689274678369 0 -0.066922858779153813 0.020560614782436499 0 -0.065091347140099079 0.018310189230283339 0 -0.066949185810862302 0.017246094786929501 0 -0.067197308775674522 0.017939689274678369 0 -0.066123376426622901 0.018126160884442667 0 -0.066187727698664378 0.016875372976836181 0 -0.066949185810862302 0.017246094786929501 0 -0.066123376426622901 0.018126160884442667 0 -0.066187727698664378 0.016875372976836181 0 -0.066123376426622901 0.018126160884442667 0 -0.065425000342794651 0.017457994554296048 0 -0.06531391259532314 0.02067613593666523 0 -0.063575939834642575 0.02218255671801847 0 -0.066123376426622901 0.018126160884442667 0 -0.065425000342794651 0.017457994554296048 0 -0.065012137481638019 0.018301789723171015 0 -0.06419032964586141 0.020509091537220251 0 -0.065091347140099079 0.018310189230283339 0 -0.062912999807056155 0.01868504655606058 0 -0.065012137481638019 0.018301789723171015 0 -0.064399583382141759 0.017979092278236637 0 -0.06382022732092385 0.018384172197901599 0 -0.062912999807056155 0.01868504655606058 0 -0.060459473743337336 0.018848554881445163 0 -0.062032818208195936 0.020773227153245588 0 -0.063575939834642575 0.02218255671801847 0 -0.060578775041065507 0.025251679941388647 0 -0.065425000342794651 0.017457994554296048 0 -0.065012137481638019 0.018301789723171015 0 -0.064399583382141759 0.017979092278236637 0 -0.065425000342794651 0.017457994554296048 0 -0.064399583382141759 0.017979092278236637 0 -0.064569018563409977 0.017176808762592175 0 -0.060852329898612105 0.033813083194532675 0 -0.060725731361185142 0.033839928898630037 0 -0.060734828954425613 0.033972483462261435 0 -0.064399583382141759 0.017979092278236637 0 -0.064569018563409977 0.017176808762592175 0 -0.06382022732092385 0.018384172197901599 0 -0.062305211998991861 0.025298399050625239 0 -0.060578775041065507 0.025251679941388647 0 -0.060725731361185142 0.033839928898630037 0 -0.060734828954425613 0.033972483462261435 0 -0.060586625131747493 0.033824132964339323 0 -0.057740925395690708 0.030677544961356884 0 -0.057810900316852785 0.030566027928591911 0 -0.058631792767098005 0.03114357859571238 0 -0.060583744221816525 0.019033144518031092 0 -0.060469811752430276 0.019202028884534632 0 -0.060637017945463771 0.020027575887868469 0 -0.060578775041065507 0.025251679941388647 0 -0.0601634326319384 0.025650917535636236 0 -0.060469811752430276 0.019202028884534632 0 -0.060637017945463771 0.020027575887868469 0 -0.059008578000978591 0.021690069705252824 0 -0.060578775041065507 0.025251679941388647 0 -0.06002948092696779 0.023505162959748277 0 -0.060583744221816525 0.019033144518031092 0 -0.060637017945463771 0.020027575887868469 0 -0.062032818208195936 0.020773227153245588 0 -0.060626112421618257 0.021042089475233373 0 -0.060711609438290702 0.021870604592023706 0 -0.059008578000978591 0.021690069705252824 0 -0.060637017945463771 0.020027575887868469 0 -0.060626112421618257 0.021042089475233373 0 -0.059008578000978591 0.021690069705252824 0 -0.062032818208195936 0.020773227153245588 0 -0.061916923086371735 0.021985410925998379 0 -0.060711609438290702 0.021870604592023706 0 -0.060626112421618257 0.021042089475233373 0 -0.062032818208195936 0.020773227153245588 0 -0.060711609438290702 0.021870604592023706 0 -0.060637017945463771 0.020027575887868469 0 -0.060626112421618257 0.021042089475233373 0 -0.062032818208195936 0.020773227153245588 0 -0.06419032964586141 0.020509091537220251 0 -0.062912999807056155 0.01868504655606058 0 -0.062032818208195936 0.020773227153245588 0 -0.06419032964586141 0.020509091537220251 0 -0.062032818208195936 0.020773227153245588 0 -0.063147969035937238 0.022113047350628363 0 -0.062032818208195936 0.020773227153245588 0 -0.061916923086371735 0.021985410925998379 0 -0.063147969035937238 0.022113047350628363 0 -0.061916923086371735 0.021985410925998379 0 -0.063147969035937238 0.022113047350628363 0 -0.061798073760722369 0.023121564166700827 0 -0.06526389651339895 0.018803034424630688 0 -0.065733647530952247 0.018163307774932975 0 -0.060711609438290702 0.021870604592023706 0 -0.061749033755094267 0.023694461883907822 0 -0.059605112133166972 0.023779295070380839 0 -0.061916923086371735 0.021985410925998379 0 -0.060711609438290702 0.021870604592023706 0 -0.061798073760722369 0.023121564166700827 0 -0.060012589012028876 0.024780281635910423 0 -0.060970564799781551 0.025284162863045752 0 -0.059239362982457827 0.025466910282879666 0 -0.060012589012028876 0.024780281635910423 0 -0.061749033755094267 0.023694461883907822 0 -0.060970564799781551 0.025284162863045752 0 -0.060012589012028876 0.024780281635910423 0 -0.061749033755094267 0.023694461883907822 0 -0.059605112133166972 0.023779295070380839 0 -0.063147969035937238 0.022113047350628363 0 -0.061798073760722369 0.023121564166700827 0 -0.062870051419666909 0.02462406793373282 0 -0.061749033755094267 0.023694461883907822 0 -0.062708527259305744 0.02517394059807215 0 -0.060970564799781551 0.025284162863045752 0 -0.065733647530952247 0.018163307774932975 0 -0.066194616475622386 0.014523834030699611 0 -0.066194616475622386 0.014523834030699611 0 -0.062064464069693383 0.015614761022978384 0 -0.066113163779479081 0.008554029589212515 0 -0.064870145914587091 0.0096746361618270313 0 -0.065982446142651599 0.0096844747304240305 0 -0.060970564799781551 0.025284162863045752 0 -0.0606580800355008 0.026943265570962716 0 -0.059239362982457827 0.025466910282879666 0 -0.062708527259305744 0.02517394059807215 0 -0.060970564799781551 0.025284162863045752 0 -0.0606580800355008 0.026943265570962716 0 -0.064870145914587091 0.0096746361618270313 0 -0.06461580915691098 0.010656090434967777 0 -0.065621188102649192 0.01072174000157006 0 -0.064159544473045366 0.011541926670867795 0 -0.06461580915691098 0.010656090434967777 0 -0.065621188102649192 0.01072174000157006 0 -0.063005066352677608 0.0039145963917644891 0 -0.069252222438811961 0.0049077544351999926 0 -0.080324524415099949 -0.00015099823202210626 0 -0.077982364225688119 -0.00070030121356577343 0 -0.07754316498793401 0.0014555785748839474 0 -0.076272926544241032 -8.0828507361546702e-05 0 -0.07754316498793401 0.0014555785748839474 0 -0.075266967694894299 0.0011236717148814042 0 -0.077982364225688119 -0.00070030121356577343 0 -0.076272926544241032 -8.0828507361546702e-05 0 -0.07754316498793401 0.0014555785748839474 0 -0.065621188102649192 0.01072174000157006 0 -0.065982446142651599 0.0096844747304240305 0 -0.067068783813317254 0.0099031538197640896 0 -0.064870145914587091 0.0096746361618270313 0 -0.065621188102649192 0.01072174000157006 0 -0.065982446142651599 0.0096844747304240305 0 -0.069252222438811961 0.0049077544351999926 0 -0.070012851631065853 0.0074064617565188758 0 -0.07754316498793401 0.0014555785748839474 0 -0.074809531179810679 0.0030345096337172405 0 -0.075266967694894299 0.0011236717148814042 0 -0.074809531179810679 0.0030345096337172405 0 -0.075266967694894299 0.0011236717148814042 0 -0.073687329259493908 0.0014147254723285109 0 -0.074049033728042835 -0.00096266752607613811 0 -0.075266967694894299 0.0011236717148814042 0 -0.073687329259493908 0.0014147254723285109 0 -0.070012851631065853 0.0074064617565188758 0 -0.071224354501581197 0.0062522604192088828 0 -0.07491631038209759 0.0031697163926913434 0 -0.07248257321259699 0.0046014803577512269 0 -0.072320467933778346 0.0026999196488729981 0 -0.07491631038209759 0.0031697163926913434 0 -0.073687329259493908 0.0014147254723285109 0 -0.072320467933778346 0.0026999196488729981 0 -0.070012851631065853 0.0074064617565188758 0 -0.070158719888102475 0.0063646387958020412 0 -0.074084615249885272 0.0046974867428778684 0 -0.0736363880600098 0.0067066433016279058 0 -0.071965295527827669 0.0058798532389323539 0 -0.0736363880600098 0.0067066433016279058 0 -0.071956490844158422 0.0074658174168176911 0 -0.071965295527827669 0.0058798532389323539 0 -0.066194616475622386 0.014523834030699611 0 -0.070012851631065853 0.0074064617565188758 0 -0.066113163779479081 0.008554029589212515 0 -0.065982446142651599 0.0096844747304240305 0 -0.067068783813317254 0.0099031538197640896 0 -0.075697019291524337 0.0070179330759715212 0 -0.074084615249885272 0.0046974867428778684 0 -0.0736363880600098 0.0067066433016279058 0 -0.064904070740060452 0.022741229427113194 0 -0.063147969035937238 0.022113047350628363 0 -0.062870051419666909 0.02462406793373282 0 -0.068018395707571538 0.014899048662176659 0 -0.066194616475622386 0.014523834030699611 0 -0.073715599342393565 0.0088858701060965193 0 -0.075697019291524337 0.0070179330759715212 0 -0.0736363880600098 0.0067066433016279058 0 -0.073715599342393565 0.0088858701060965193 0 -0.0736363880600098 0.0067066433016279058 0 -0.071956490844158422 0.0074658174168176911 0 -0.070477334642120179 0.0089081660161354596 0 -0.073715599342393565 0.0088858701060965193 0 -0.071956490844158422 0.0074658174168176911 0 -0.070477334642120179 0.0089081660161354596 0 -0.071956490844158422 0.0074658174168176911 0 -0.069782638560226998 0.0070382611031354582 0 -0.070477334642120179 0.0089081660161354596 0 -0.069782638560226998 0.0070382611031354582 0 -0.068598944882230978 0.0080755020219069919 0 -0.070062038076718805 0.0060923772289777339 0 -0.070361955200747325 0.0030875311626625771 0 -0.067788682241765777 0.0041416345360788167 0 -0.069645545548170623 0.0068986622543370756 0 -0.071224354501581197 0.0062522604192088828 0 -0.071956490844158422 0.0074658174168176911 0 -0.069782638560226998 0.0070382611031354582 0 -0.071965295527827669 0.0058798532389323539 0 -0.070062038076718805 0.0060923772289777339 0 -0.07248257321259699 0.0046014803577512269 0 -0.070361955200747325 0.0030875311626625771 0 -0.07248257321259699 0.0046014803577512269 0 -0.072320467933778346 0.0026999196488729981 0 -0.070361955200747325 0.0030875311626625771 0 -0.071201183559478951 3.4711879502574055e-05 0 -0.073687329259493908 0.0014147254723285109 0 -0.072320467933778346 0.0026999196488729981 0 -0.071201183559478951 3.4711879502574055e-05 0 -0.072320467933778346 0.0026999196488729981 0 -0.070361955200747325 0.0030875311626625771 0 -0.071196861091141914 -9.8980945624955582e-05 0 -0.068584659680907017 0.0007957946038180966 0 -0.071201183559478951 3.4711879502574055e-05 0 -0.070361955200747325 0.0030875311626625771 0 -0.068261204894872751 0.0010139385561237573 0 -0.070361955200747325 0.0030875311626625771 0 -0.068261204894872751 0.0010139385561237573 0 -0.067788682241765777 0.0041416345360788167 0 -0.068261204894872751 0.0010139385561237573 0 -0.065230136133909183 0.0019616426835561583 0 -0.067788682241765777 0.0041416345360788167 0 -0.065000003990555152 -0.0019783287586650957 0 -0.066416290542686593 0.00029044854233751041 0 -0.064999979276351982 0.0017598464754066702 0 -0.068318619088315963 0.00081293304253257832 0 -0.066416290542686593 0.00029044854233751041 0 -0.065230136133909183 0.0019616426835561583 0 -0.068584659680907017 0.0007957946038180966 0 -0.067107930237753063 0.0012995942498393981 0 -0.066416290542686593 0.00029044854233751041 0 -0.065230136133909183 0.0019616426835561583 0 -0.064999979276351982 0.0017598464754066702 0 -0.065230136133909183 0.0019616426835561583 0 -0.064999979276351982 0.0017598464754066702 0 -0.064999950337147117 0.0054978824815604191 0 -0.065230136133909183 0.0019616426835561583 0 -0.064999950337147117 0.0054978824815604191 0 -0.067788682241765777 0.0041416345360788167 0 -0.064999950337147117 0.0054978824815604191 0 -0.067788682241765777 0.0041416345360788167 0 -0.067570446939069981 0.0076484677853198959 0 -0.070062038076718805 0.0060923772289777339 0 -0.067788682241765777 0.0041416345360788167 0 -0.067570446939069981 0.0076484677853198959 0 -0.069782638560226998 0.0070382611031354582 0 -0.068598944882230978 0.0080755020219069919 0 -0.067484506693144763 0.008157282102502942 0 -0.069645545548170623 0.0068986622543370756 0 -0.067390286024839749 0.008017289424871496 0 -0.064999974425454216 0.0092359620500950014 0 -0.064999950337147117 0.0054978824815604191 0 -0.067570446939069981 0.0076484677853198959 0 -0.056262021588764567 0.02613490540936303 0 -0.055341038286481098 0.02596271630318512 0 -0.055291704737213572 0.027251731310159615 0 -0.056262021588764567 0.02613490540936303 0 -0.056961923741895411 0.027242747144519613 0 -0.055291704737213572 0.027251731310159615 0 -0.055341038286481098 0.02596271630318512 0 -0.055291704737213572 0.027251731310159615 0 -0.054396601176329384 0.025899970407299362 0 -0.059027946045868661 0.028530294559439829 0 -0.058031909016026111 0.026628991145815576 0 -0.055341038286481098 0.02596271630318512 0 -0.054396601176329384 0.025899970407299362 0 -0.054891604714075865 0.024965961347215265 0 -0.055341038286481098 0.02596271630318512 0 -0.0556997856016853 0.025595956972507827 0 -0.054891604714075865 0.024965961347215265 0 -0.0556997856016853 0.025595956972507827 0 -0.056306262150842806 0.025316121012275955 0 -0.054891604714075865 0.024965961347215265 0 -0.056262021588764567 0.02613490540936303 0 -0.055341038286481098 0.02596271630318512 0 -0.0556997856016853 0.025595956972507827 0 -0.056262021588764567 0.02613490540936303 0 -0.0556997856016853 0.025595956972507827 0 -0.056306262150842806 0.025316121012275955 0 -0.055947785480652178 0.024839744657288668 0 -0.056604182978432387 0.025062549451084964 0 -0.056262021588764567 0.02613490540936303 0 -0.056306262150842806 0.025316121012275955 0 -0.057541599711737244 0.025524950523871229 0 -0.057541599711737244 0.025524950523871229 0 -0.056961923741895411 0.027242747144519613 0 -0.058424653607054247 0.027357468055959323 0 -0.056262021588764567 0.02613490540936303 0 -0.057541599711737244 0.025524950523871229 0 -0.056961923741895411 0.027242747144519613 0 -0.056961923741895411 0.027242747144519613 0 -0.057838829962934886 0.028593925368267367 0 -0.05636164366343363 0.028784611347783595 0 -0.056961923741895411 0.027242747144519613 0 -0.058424653607054247 0.027357468055959323 0 -0.057838829962934886 0.028593925368267367 0 -0.058282072374502628 0.030438849226657388 0 -0.057838829962934886 0.028593925368267367 0 -0.058900641055994858 0.028904329463582363 0 -0.058424653607054247 0.027357468055959323 0 -0.057838829962934886 0.028593925368267367 0 -0.058900641055994858 0.028904329463582363 0 -0.058282072374502628 0.030438849226657388 0 -0.057838829962934886 0.028593925368267367 0 -0.05636164366343363 0.028784611347783595 0 -0.063051964691085136 0.033113069184167405 0 -0.063510124724173167 0.032325985000107624 0 -0.062753240559214843 0.032293077093240911 0 -0.063510124724173167 0.032325985000107624 0 -0.063269968069983293 0.030359437130336436 0 -0.062753240559214843 0.032293077093240911 0 -0.059745839762625694 0.030083785469719619 0 -0.059027946045868661 0.028530294559439829 0 -0.056961923741895411 0.027242747144519613 0 -0.05636164366343363 0.028784611347783595 0 -0.055291704737213572 0.027251731310159615 0 -0.063269968069983293 0.030359437130336436 0 -0.062753240559214843 0.032293077093240911 0 -0.061799943494786888 0.030963886880624399 0 -0.062753240559214843 0.032293077093240911 0 -0.061721664262153829 0.032319182665174667 0 -0.061799943494786888 0.030963886880624399 0 -0.061721664262153829 0.032319182665174667 0 -0.061799943494786888 0.030963886880624399 0 -0.060215571024148505 0.031632852666282074 0 -0.060453106545414574 0.030088838534622971 0 -0.061799943494786888 0.030963886880624399 0 -0.060215571024148505 0.031632852666282074 0 -0.060453106545414574 0.030088838534622971 0 -0.061799943494786888 0.030963886880624399 0 -0.061269105633431312 0.029132306973302637 0 -0.063269968069983293 0.030359437130336436 0 -0.061799943494786888 0.030963886880624399 0 -0.061269105633431312 0.029132306973302637 0 -0.060578775041065507 0.025251679941388647 0 -0.061412379662840175 0.030463646771053839 0 -0.057740925395690708 0.030677544961356884 0 -0.058920884330139658 0.032112443341533257 0 -0.058631792767098005 0.03114357859571238 0 -0.058920884330139658 0.032112443341533257 0 -0.060215571024148505 0.031632852666282074 0 -0.058631792767098005 0.03114357859571238 0 -0.060215571024148505 0.031632852666282074 0 -0.059248242787043257 0.030384510765039927 0 -0.058631792767098005 0.03114357859571238 0 -0.060453106545414574 0.030088838534622971 0 -0.060215571024148505 0.031632852666282074 0 -0.059248242787043257 0.030384510765039927 0 -0.059196915846212825 0.027980705374799453 0 -0.058817693860942211 0.027533834339349649 0 -0.0601634326319384 0.025650917535636236 0 -0.058817693860942211 0.027533834339349649 0 -0.057810900316852785 0.030566027928591911 0 -0.059248242787043257 0.030384510765039927 0 -0.058631792767098005 0.03114357859571238 0 -0.054350855185206437 0.030869491518220861 0 -0.057370028316481476 0.030506434738613631 0 -0.056073320222999372 0.027990298968758306 0 -0.0601634326319384 0.025650917535636236 0 -0.059024060641482572 0.025427613055692581 0 -0.060453106545414574 0.030088838534622971 0 -0.057370028316481476 0.030506434738613631 0 -0.058907111168970933 0.028770353534490315 0 -0.056073320222999372 0.027990298968758306 0 -0.058907111168970933 0.028770353534490315 0 -0.057983239139462225 0.027073082710554541 0 -0.057370028316481476 0.030506434738613631 0 -0.056073320222999372 0.027990298968758306 0 -0.058907111168970933 0.028770353534490315 0 -0.056073320222999372 0.027990298968758306 0 -0.057983239139462225 0.027073082710554541 0 -0.058030459272126196 0.024818140294144395 0 -0.058907111168970933 0.028770353534490315 0 -0.057983239139462225 0.027073082710554541 0 -0.059799089145276194 0.027288107273928663 0 -0.058598509870008829 0.025960113829678243 0 -0.057983239139462225 0.027073082710554541 0 -0.059799089145276194 0.027288107273928663 0 -0.058598509870008829 0.025960113829678243 0 -0.057983239139462225 0.027073082710554541 0 -0.058030459272126196 0.024818140294144395 0 -0.059024060641482572 0.025427613055692581 0 -0.05882088358600155 0.025229715584141683 0 -0.060711609438290702 0.021870604592023706 0 -0.059008578000978591 0.021690069705252824 0 -0.059605112133166972 0.023779295070380839 0 -0.059008578000978591 0.021690069705252824 0 -0.059605112133166972 0.023779295070380839 0 -0.058030459272126196 0.024818140294144395 0 -0.063269968069983293 0.030359437130336436 0 -0.061269105633431312 0.029132306973302637 0 -0.062367600363423703 0.027726864051722859 0 -0.060453106545414574 0.030088838534622971 0 -0.058907111168970933 0.028770353534490315 0 -0.061269105633431312 0.029132306973302637 0 -0.058907111168970933 0.028770353534490315 0 -0.061269105633431312 0.029132306973302637 0 -0.059799089145276194 0.027288107273928663 0 -0.059799089145276194 0.027288107273928663 0 -0.062367600363423703 0.027726864051722859 0 -0.060491791184103617 0.024672760513741804 0 -0.058598509870008829 0.025960113829678243 0 -0.059799089145276194 0.027288107273928663 0 -0.059277421641646497 0.02564983007472255 0 -0.058031909016026111 0.026628991145815576 0 -0.05660401569120465 0.02426702684966453 0 -0.061269105633431312 0.029132306973302637 0 -0.059799089145276194 0.027288107273928663 0 -0.062367600363423703 0.027726864051722859 0 -0.05660401569120465 0.02426702684966453 0 -0.055221563742227635 0.024435506872585097 0 -0.052380573019340189 0.024136994000129464 0 -0.053282067250370505 0.023648049046638642 0 -0.053870868272469785 0.024520089569898748 0 -0.054396601176329384 0.025899970407299362 0 -0.05350417151320961 0.0246286161624539 0 -0.054891604714075865 0.024965961347215265 0 -0.05660401569120465 0.02426702684966453 0 -0.057219518514165457 0.023800164055967153 0 -0.059799089145276194 0.027288107273928663 0 -0.059277421641646497 0.02564983007472255 0 -0.060491791184103617 0.024672760513741804 0 -0.059277421641646497 0.02564983007472255 0 -0.060491791184103617 0.024672760513741804 0 -0.05844907037600152 0.024836957652082704 0 -0.056328971993386441 0.023981427907123584 0 -0.056540501088446021 0.024272951767211282 0 -0.056834448007115353 0.024101811433320495 0 -0.052380573019340189 0.024136994000129464 0 -0.051850078412556282 0.023397096293332958 0 -0.053282067250370505 0.023648049046638642 0 -0.056624203303498856 0.023109488435359753 0 -0.054909728447301479 0.023045276872230219 0 -0.053297576305656354 0.022439866715679085 0 -0.053957397533591897 0.022060602202944299 0 -0.053430878492784974 0.021914197348988054 0 -0.05660401569120465 0.02426702684966453 0 -0.056624203303498856 0.023109488435359753 0 -0.051850078412556282 0.023397096293332958 0 -0.053282067250370505 0.023648049046638642 0 -0.052979242175110498 0.022726796669197184 0 -0.053282067250370505 0.023648049046638642 0 -0.052979242175110498 0.022726796669197184 0 -0.053870710797643641 0.022998016732623396 0 -0.059605112133166972 0.023779295070380839 0 -0.058784634091370629 0.024706482981139723 0 -0.058030459272126196 0.024818140294144395 0 -0.060012589012028876 0.024780281635910423 0 -0.058784634091370629 0.024706482981139723 0 -0.059239362982457827 0.025466910282879666 0 -0.060012589012028876 0.024780281635910423 0 -0.059605112133166972 0.023779295070380839 0 -0.058784634091370629 0.024706482981139723 0 -0.058784634091370629 0.024706482981139723 0 -0.058164505605178031 0.024732508551274748 0 -0.059239362982457827 0.025466910282879666 0 -0.060491791184103617 0.024672760513741804 0 -0.058236623798253541 0.0244719718100696 0 -0.05844907037600152 0.024836957652082704 0 -0.058784634091370629 0.024706482981139723 0 -0.058336924471273727 0.024744908627642039 0 -0.058164505605178031 0.024732508551274748 0 -0.058336924471273727 0.024744908627642039 0 -0.058164505605178031 0.024732508551274748 0 -0.05844907037600152 0.024836957652082704 0 -0.058164505605178031 0.024732508551274748 0 -0.058236623798253541 0.0244719718100696 0 -0.05844907037600152 0.024836957652082704 0 -0.05722701200004033 0.023799018969919872 0 -0.057219518514165457 0.023800164055967153 0 -0.058784634091370629 0.024706482981139723 0 -0.058336924471273727 0.024744908627642039 0 -0.058030459272126196 0.024818140294144395 0 -0.058336924471273727 0.024744908627642039 0 -0.058030459272126196 0.024818140294144395 0 -0.05844907037600152 0.024836957652082704 0 -0.058598509870008829 0.025960113829678243 0 -0.058030459272126196 0.024818140294144395 0 -0.05844907037600152 0.024836957652082704 0 -0.058598509870008829 0.025960113829678243 0 -0.059277421641646497 0.02564983007472255 0 -0.05844907037600152 0.024836957652082704 0 -0.058164505605178031 0.024732508551274748 0 -0.058004889721353446 0.024800660486284289 0 -0.059239362982457827 0.025466910282879666 0 -0.056624203303498856 0.023109488435359753 0 -0.057219518514165457 0.023800164055967153 0 -0.056628406047930541 0.025739314080183314 0 -0.05772795770631671 0.025100473756611515 0 -0.057627704408119471 0.025821079526265611 0 -0.056628406047930541 0.025739314080183314 0 -0.057627704408119471 0.025821079526265611 0 -0.057905268767527815 0.026548562313594641 0 -0.056628406047930541 0.025739314080183314 0 -0.057905268767527815 0.026548562313594641 0 -0.057657890552247452 0.027160364905475652 0 -0.056624203303498856 0.023109488435359753 0 -0.058017612402453858 0.019298592616201288 0 -0.057627704408119471 0.025821079526265611 0 -0.057905268767527815 0.026548562313594641 0 -0.058249310247675823 0.025895858192405811 0 -0.05772795770631671 0.025100473756611515 0 -0.057627704408119471 0.025821079526265611 0 -0.058249310247675823 0.025895858192405811 0 -0.0606580800355008 0.026943265570962716 0 -0.058996195594947412 0.026438456298830168 0 -0.059239362982457827 0.025466910282879666 0 -0.05772795770631671 0.025100473756611515 0 -0.058249310247675823 0.025895858192405811 0 -0.059239362982457827 0.025466910282879666 0 -0.057219518514165457 0.023800164055967153 0 -0.057862851855564959 0.024071551285271046 0 -0.058249310247675823 0.025895858192405811 0 -0.058996195594947412 0.026438456298830168 0 -0.059239362982457827 0.025466910282879666 0 -0.057905268767527815 0.026548562313594641 0 -0.058249310247675823 0.025895858192405811 0 -0.058996195594947412 0.026438456298830168 0 -0.062064464069693383 0.015614761022978384 0 -0.060558112018274886 0.012094484698191094 0 -0.0606580800355008 0.026943265570962716 0 -0.058975571542160585 0.027349783720823705 0 -0.058711144401919498 0.028629128921241816 0 -0.0606580800355008 0.026943265570962716 0 -0.058996195594947412 0.026438456298830168 0 -0.058975571542160585 0.027349783720823705 0 -0.064870145914587091 0.0096746361618270313 0 -0.06461580915691098 0.010656090434967777 0 -0.063618125369488812 0.010800598205797369 0 -0.057905268767527815 0.026548562313594641 0 -0.058996195594947412 0.026438456298830168 0 -0.058975571542160585 0.027349783720823705 0 -0.058975571542160585 0.027349783720823705 0 -0.057655856977847461 0.027175669292745425 0 -0.058711144401919498 0.028629128921241816 0 -0.058017612402453858 0.019298592616201288 0 -0.056448370671505481 0.016971018449738633 0 -0.0528904807658023 0.021875283402327 0 -0.053142437641296635 0.021211427888795324 0 -0.053430878492784974 0.021914197348988054 0 -0.058017612402453858 0.019298592616201288 0 -0.060558112018274886 0.012094484698191094 0 -0.057905268767527815 0.026548562313594641 0 -0.058975571542160585 0.027349783720823705 0 -0.057655856977847461 0.027175669292745425 0 -0.057864882398931151 0.019819957527449392 0 -0.058017612402453858 0.019298592616201288 0 -0.056337644682660198 0.01247861213094251 0 -0.060558112018274886 0.012094484698191094 0 -0.057279627692432909 0.013698622280768201 0 -0.057246232536905098 0.013930300723009095 0 -0.057009907027145347 0.013960244023528115 0 -0.057158550695950688 0.014173731379389515 0 -0.057246232536905098 0.013930300723009095 0 -0.057009907027145347 0.013960244023528115 0 -0.064159544473045366 0.011541926670867795 0 -0.06461580915691098 0.010656090434967777 0 -0.063618125369488812 0.010800598205797369 0 -0.058854620674816137 0.0071833242337542309 0 -0.06047768071679914 0.0065815385977899673 0 -0.059377719755038076 0.0050684071635639268 0 -0.063005066352677608 0.0039145963917644891 0 -0.060558112018274886 0.012094484698191094 0 -0.054909728447301479 0.023045276872230219 0 -0.05487601551720514 0.022557940625425169 0 -0.053957397533591897 0.022060602202944299 0 -0.054188358219174095 0.021499624461388301 0 -0.054635032380752631 0.021696090307675709 0 -0.053957397533591897 0.022060602202944299 0 -0.05369547746724268 0.021477856173027551 0 -0.054188358219174095 0.021499624461388301 0 -0.053957397533591897 0.022060602202944299 0 -0.053430878492784974 0.021914197348988054 0 -0.05369547746724268 0.021477856173027551 0 -0.053142437641296635 0.021211427888795324 0 -0.053430878492784974 0.021914197348988054 0 -0.05369547746724268 0.021477856173027551 0 -0.053297576305656354 0.022439866715679085 0 -0.0528904807658023 0.021875283402327 0 -0.053430878492784974 0.021914197348988054 0 -0.053142437641296635 0.021211427888795324 0 -0.05369547746724268 0.021477856173027551 0 -0.053541318867554422 0.021057195231189065 0 -0.053396331901281159 0.020532507056301871 0 -0.053142437641296635 0.021211427888795324 0 -0.053541318867554422 0.021057195231189065 0 -0.05369547746724268 0.021477856173027551 0 -0.053541318867554422 0.021057195231189065 0 -0.053962368390660369 0.020999668269199183 0 -0.053962368390660369 0.020999668269199183 0 -0.054188358219174095 0.021499624461388301 0 -0.05479482514695834 0.021027516204400361 0 -0.05369547746724268 0.021477856173027551 0 -0.053962368390660369 0.020999668269199183 0 -0.054188358219174095 0.021499624461388301 0 -0.05479482514695834 0.021027516204400361 0 -0.055351127798215619 0.021370297877389074 0 -0.054635032380752631 0.021696090307675709 0 -0.054188358219174095 0.021499624461388301 0 -0.05479482514695834 0.021027516204400361 0 -0.054635032380752631 0.021696090307675709 0 -0.055671109105618254 0.020838502410013011 0 -0.05479482514695834 0.021027516204400361 0 -0.055351127798215619 0.021370297877389074 0 -0.055087024568003427 0.022288338308628575 0 -0.05487601551720514 0.022557940625425169 0 -0.055351127798215619 0.021370297877389074 0 -0.054149072150983725 0.022038536006728511 0 -0.055895374283135471 0.022915014502972172 0 -0.052979242175110498 0.022726796669197184 0 -0.054149072150983725 0.022038536006728511 0 -0.053870710797643641 0.022998016732623396 0 -0.054149072150983725 0.022038536006728511 0 -0.053870710797643641 0.022998016732623396 0 -0.054736853645655739 0.023560676441599357 0 -0.053282067250370505 0.023648049046638642 0 -0.053870710797643641 0.022998016732623396 0 -0.054736853645655739 0.023560676441599357 0 -0.054149072150983725 0.022038536006728511 0 -0.054736853645655739 0.023560676441599357 0 -0.055895374283135471 0.022915014502972172 0 -0.054736853645655739 0.023560676441599357 0 -0.055183456250143641 0.024813164930458577 0 -0.055895374283135471 0.022915014502972172 0 -0.055947785480652178 0.024839744657288668 0 -0.055221563742227635 0.024435506872585097 0 -0.05548011608240884 0.023659099175085442 0 -0.055847803801197665 0.022550721111729705 0 -0.055403408928148504 0.02495738269162669 0 -0.055183456250143641 0.024813164930458577 0 -0.053870868272469785 0.024520089569898748 0 -0.054736853645655739 0.023560676441599357 0 -0.055183456250143641 0.024813164930458577 0 -0.053870868272469785 0.024520089569898748 0 -0.053282067250370505 0.023648049046638642 0 -0.054736853645655739 0.023560676441599357 0 -0.053870868272469785 0.024520089569898748 0 -0.057541599711737244 0.025524950523871229 0 -0.056578168959413255 0.023972546211994131 0 -0.058149661648733746 0.023594780584505481 0 -0.055403408928148504 0.02495738269162669 0 -0.057541599711737244 0.025524950523871229 0 -0.056578168959413255 0.023972546211994131 0 -0.055183456250143641 0.024813164930458577 0 -0.056578168959413255 0.023972546211994131 0 -0.05584206607823794 0.022539369951619488 0 -0.055403408928148504 0.02495738269162669 0 -0.055183456250143641 0.024813164930458577 0 -0.056578168959413255 0.023972546211994131 0 -0.056578168959413255 0.023972546211994131 0 -0.05584206607823794 0.022539369951619488 0 -0.057169769812619647 0.022571118769357561 0 -0.056578168959413255 0.023972546211994131 0 -0.057169769812619647 0.022571118769357561 0 -0.058149661648733746 0.023594780584505481 0 -0.057169769812619647 0.022571118769357561 0 -0.05808464823067451 0.021644017850854177 0 -0.058149661648733746 0.023594780584505481 0 -0.057169769812619647 0.022571118769357561 0 -0.056428347975944558 0.020206065643266841 0 -0.05808464823067451 0.021644017850854177 0 -0.055351127798215619 0.021370297877389074 0 -0.055895374283135471 0.022915014502972172 0 -0.056407438940109814 0.021213755806943929 0 -0.05584206607823794 0.022539369951619488 0 -0.057169769812619647 0.022571118769357561 0 -0.056428347975944558 0.020206065643266841 0 -0.055847803801197665 0.022550721111729705 0 -0.056443451180674495 0.020674261117751537 0 -0.055671109105618254 0.020838502410013011 0 -0.055351127798215619 0.021370297877389074 0 -0.056407438940109814 0.021213755806943929 0 -0.056428347975944558 0.020206065643266841 0 -0.058190507951684636 0.020180630547472853 0 -0.05808464823067451 0.021644017850854177 0 -0.057777033183606337 0.019037721256814789 0 -0.056428347975944558 0.020206065643266841 0 -0.058190507951684636 0.020180630547472853 0 -0.058190507951684636 0.020180630547472853 0 -0.059124158451708229 0.019995514350002273 0 -0.059217743257185991 0.021345418460715575 0 -0.058533331901338095 0.018995730410306801 0 -0.058190507951684636 0.020180630547472853 0 -0.059124158451708229 0.019995514350002273 0 -0.05979559112671079 0.019116937442110696 0 -0.059124158451708229 0.019995514350002273 0 -0.060222818856657818 0.020762825566170613 0 -0.059124158451708229 0.019995514350002273 0 -0.059217743257185991 0.021345418460715575 0 -0.060222818856657818 0.020762825566170613 0 -0.059217743257185991 0.021345418460715575 0 -0.060179278857879423 0.022127548647395395 0 -0.060222818856657818 0.020762825566170613 0 -0.059217743257185991 0.021345418460715575 0 -0.060179278857879423 0.022127548647395395 0 -0.059477248630130118 0.02316951202390095 0 -0.058190507951684636 0.020180630547472853 0 -0.059217743257185991 0.021345418460715575 0 -0.05808464823067451 0.021644017850854177 0 -0.059217743257185991 0.021345418460715575 0 -0.05808464823067451 0.021644017850854177 0 -0.059477248630130118 0.02316951202390095 0 -0.05979559112671079 0.019116937442110696 0 -0.061600571400032549 0.020072546131792986 0 -0.060222818856657818 0.020762825566170613 0 -0.061600571400032549 0.020072546131792986 0 -0.060222818856657818 0.020762825566170613 0 -0.061485586635423896 0.021874891977225162 0 -0.060179278857879423 0.022127548647395395 0 -0.060222818856657818 0.020762825566170613 0 -0.061485586635423896 0.021874891977225162 0 -0.061485586635423896 0.021874891977225162 0 -0.062788611377202458 0.02253445634497209 0 -0.063134604418062651 0.021327784719156098 0 -0.061600571400032549 0.020072546131792986 0 -0.061485586635423896 0.021874891977225162 0 -0.063134604418062651 0.021327784719156098 0 -0.061291299302606517 0.023804375045583418 0 -0.063407609178698851 0.023938747425917097 0 -0.062788611377202458 0.02253445634497209 0 -0.061485586635423896 0.021874891977225162 0 -0.061291299302606517 0.023804375045583418 0 -0.062788611377202458 0.02253445634497209 0 -0.060179278857879423 0.022127548647395395 0 -0.061485586635423896 0.021874891977225162 0 -0.061291299302606517 0.023804375045583418 0 -0.060179278857879423 0.022127548647395395 0 -0.061291299302606517 0.023804375045583418 0 -0.059477248630130118 0.02316951202390095 0 -0.061291299302606517 0.023804375045583418 0 -0.05967011353358849 0.024687433323485292 0 -0.060968846001432542 0.025250594432615275 0 -0.061291299302606517 0.023804375045583418 0 -0.062948678524015769 0.025416425386312426 0 -0.063407609178698851 0.023938747425917097 0 -0.061291299302606517 0.023804375045583418 0 -0.060968846001432542 0.025250594432615275 0 -0.062948678524015769 0.025416425386312426 0 -0.057541599711737244 0.025524950523871229 0 -0.058149661648733746 0.023594780584505481 0 -0.05967011353358849 0.024687433323485292 0 -0.05808464823067451 0.021644017850854177 0 -0.058149661648733746 0.023594780584505481 0 -0.059477248630130118 0.02316951202390095 0 -0.061291299302606517 0.023804375045583418 0 -0.059477248630130118 0.02316951202390095 0 -0.05967011353358849 0.024687433323485292 0 -0.058149661648733746 0.023594780584505481 0 -0.059477248630130118 0.02316951202390095 0 -0.05967011353358849 0.024687433323485292 0 -0.057541599711737244 0.025524950523871229 0 -0.05967011353358849 0.024687433323485292 0 -0.059467044290980653 0.026295608529930271 0 -0.057541599711737244 0.025524950523871229 0 -0.058424653607054247 0.027357468055959323 0 -0.059467044290980653 0.026295608529930271 0 -0.058424653607054247 0.027357468055959323 0 -0.059467044290980653 0.026295608529930271 0 -0.05994985767768865 0.027739792793438599 0 -0.059467044290980653 0.026295608529930271 0 -0.06129813253332226 0.02659563991220705 0 -0.05994985767768865 0.027739792793438599 0 -0.05967011353358849 0.024687433323485292 0 -0.059467044290980653 0.026295608529930271 0 -0.060968846001432542 0.025250594432615275 0 -0.059467044290980653 0.026295608529930271 0 -0.060968846001432542 0.025250594432615275 0 -0.06129813253332226 0.02659563991220705 0 -0.061737504711565326 0.026859111797622952 0 -0.062397465923673137 0.026212132813351094 0 -0.060968846001432542 0.025250594432615275 0 -0.06129813253332226 0.02659563991220705 0 -0.062948678524015769 0.025416425386312426 0 -0.06308669939570552 0.027443668286088567 0 -0.062020129679536184 0.027029418964988155 0 -0.062948678524015769 0.025416425386312426 0 -0.061737504711565326 0.026859111797622952 0 -0.060641012285072925 0.027958958723293757 0 -0.062020129679536184 0.027029418964988155 0 -0.062298714473864258 0.028404403810222443 0 -0.06123589714590201 0.028305589472190296 0 -0.06308669939570552 0.027443668286088567 0 -0.062298714473864258 0.028404403810222443 0 -0.063838476689825591 0.028854756297516052 0 -0.06308669939570552 0.027443668286088567 0 -0.062020129679536184 0.027029418964988155 0 -0.062298714473864258 0.028404403810222443 0 -0.062298714473864258 0.028404403810222443 0 -0.063838476689825591 0.028854756297516052 0 -0.062711459911100137 0.029632453008982595 0 -0.062298714473864258 0.028404403810222443 0 -0.061633788468451793 0.029910159636104668 0 -0.062711459911100137 0.029632453008982595 0 -0.062298714473864258 0.028404403810222443 0 -0.06123589714590201 0.028305589472190296 0 -0.061633788468451793 0.029910159636104668 0 -0.060384962464974642 0.029290902138329102 0 -0.06123589714590201 0.028305589472190296 0 -0.061633788468451793 0.029910159636104668 0 -0.059523932255738196 0.029066539768467185 0 -0.060641012285072925 0.027958958723293757 0 -0.058424653607054247 0.027357468055959323 0 -0.058900641055994858 0.028904329463582363 0 -0.05994985767768865 0.027739792793438599 0 -0.065526976037988308 0.027853838471165605 0 -0.065692934856472249 0.028970400885764143 0 -0.064936242008994893 0.028596232994973683 0 -0.065526976037988308 0.027853838471165605 0 -0.066739751127589966 0.027824621036672201 0 -0.065692934856472249 0.028970400885764143 0 -0.045576770191812645 0.021155626225851137 0 -0.050140322319325907 0.02062371380080049 0 -0.066329840077023555 0.028026976730302914 0 -0.066219115166019901 0.028318278813726019 0 -0.065692934856472249 0.028970400885764143 0 -0.032191982638671221 0.024471370636669588 0 -0.032761810269387209 0.023735543726541707 0 -0.033669617639771172 0.025045299080783446 0 -0.045576770191812645 0.021155626225851137 0 -0.039881086574321378 0.019084472753735114 0 -0.039535739137461091 0.016871179579028454 0 -0.040134909854599936 0.016101208842985434 0 -0.039767030363097117 0.016032198652936952 0 -0.032191982638671221 0.024471370636669588 0 -0.032181820175313028 0.025603091943280896 0 -0.033669617639771172 0.025045299080783446 0 -0.066329840077023555 0.028026976730302914 0 -0.066219115166019901 0.028318278813726019 0 -0.066333410420657393 0.028538488312939737 0 -0.045576770191812645 0.021155626225851137 0 -0.047500592361277467 0.025391882544462337 0 -0.047819140656450501 0.025687740133318416 0 -0.047500592361277467 0.025391882544462337 0 -0.066368975860746943 0.028553543945295228 0 -0.065692934856472249 0.028970400885764143 0 -0.066394139914557143 0.030168287606569234 0 -0.047596586012570254 0.027927052538478873 0 -0.048204731240344481 0.029023690078858331 0 -0.047590546386954327 0.029499959192142582 0 -0.066219115166019901 0.028318278813726019 0 -0.066368975860746943 0.028553543945295228 0 -0.065692934856472249 0.028970400885764143 0 -0.032181820175313028 0.025603091943280896 0 -0.033669617639771172 0.025045299080783446 0 -0.033463969440146991 0.027941073270674174 0 -0.047500592361277467 0.025391882544462337 0 -0.043984059735655098 0.027404508831323296 0 -0.047500592361277467 0.025391882544462337 0 -0.052509308774126282 0.029308094355467079 0 -0.065692934856472249 0.028970400885764143 0 -0.064936242008994893 0.028596232994973683 0 -0.065184678304381252 0.029836805611136167 0 -0.064936242008994893 0.028596232994973683 0 -0.063838476689825591 0.028854756297516052 0 -0.065184678304381252 0.029836805611136167 0 -0.06308669939570552 0.027443668286088567 0 -0.063838476689825591 0.028854756297516052 0 -0.064457419861453646 0.027254281639868851 0 -0.064936242008994893 0.028596232994973683 0 -0.063838476689825591 0.028854756297516052 0 -0.064457419861453646 0.027254281639868851 0 -0.065526976037988308 0.027853838471165605 0 -0.064936242008994893 0.028596232994973683 0 -0.064457419861453646 0.027254281639868851 0 -0.065526976037988308 0.027853838471165605 0 -0.064457419861453646 0.027254281639868851 0 -0.065639698730142124 0.026380146173687866 0 -0.064457419861453646 0.027254281639868851 0 -0.064561847431483077 0.025209148397998399 0 -0.065639698730142124 0.026380146173687866 0 -0.06308669939570552 0.027443668286088567 0 -0.064457419861453646 0.027254281639868851 0 -0.062948678524015769 0.025416425386312426 0 -0.064457419861453646 0.027254281639868851 0 -0.062948678524015769 0.025416425386312426 0 -0.064561847431483077 0.025209148397998399 0 -0.064561847431483077 0.025209148397998399 0 -0.065639698730142124 0.026380146173687866 0 -0.065674253793698664 0.024430650149494706 0 -0.065639698730142124 0.026380146173687866 0 -0.06686220654411168 0.02551567990387461 0 -0.065674253793698664 0.024430650149494706 0 -0.065526976037988308 0.027853838471165605 0 -0.066739751127589966 0.027824621036672201 0 -0.065639698730142124 0.026380146173687866 0 -0.066739751127589966 0.027824621036672201 0 -0.065639698730142124 0.026380146173687866 0 -0.06686220654411168 0.02551567990387461 0 -0.039535739137461091 0.016871179579028454 0 -0.039767030363097117 0.016032198652936952 0 -0.039551148556027448 0.013055545801273548 0 -0.045576770191812645 0.021155626225851137 0 -0.04624773240648504 0.018293392481312492 0 -0.039767030363097117 0.016032198652936952 0 -0.039551148556027448 0.013055545801273548 0 -0.041511609877863162 0.014287179593591633 0 -0.040129142198339199 0.016097907152710433 0 -0.039767030363097117 0.016032198652936952 0 -0.041511609877863162 0.014287179593591633 0 -0.039881086574321378 0.019084472753735114 0 -0.039875613744620016 0.019073059400944867 0 -0.039551148556027448 0.013055545801273548 0 -0.041234358484034291 0.010881488747332651 0 -0.041295987811804789 0.012676986186944267 0 -0.039551148556027448 0.013055545801273548 0 -0.039585339800274198 0.0092724497254519592 0 -0.041234358484034291 0.010881488747332651 0 -0.06686220654411168 0.02551567990387461 0 -0.065674253793698664 0.024430650149494706 0 -0.066848980576121916 0.023002278588987381 0 -0.04624773240648504 0.018293392481312492 0 -0.041231802306817722 0.010197423052186553 0 -0.065674253793698664 0.024430650149494706 0 -0.065307726823547643 0.02298289149914402 0 -0.064684876874001276 0.023710358921955232 0 -0.065674253793698664 0.024430650149494706 0 -0.065307726823547643 0.02298289149914402 0 -0.066848980576121916 0.023002278588987381 0 -0.065307726823547643 0.02298289149914402 0 -0.066848980576121916 0.023002278588987381 0 -0.065193026763483 0.021338817083910683 0 -0.025195057007048671 -0.0099210210143445623 0 -0.025014321299160945 -0.010447777865072477 0 -0.026618462845044065 -0.0088779556306725817 0 -0.041093290460252861 0.0094931700623441528 0 -0.041231802306817722 0.010197423052186553 0 -0.025195057007048671 -0.0099210210143445623 0 -0.024643463949582778 -0.0091500976900383783 0 -0.024480913878888483 -0.0097428230008436058 0 -0.025195057007048671 -0.0099210210143445623 0 -0.025173606684549113 -0.0099836699556037113 0 -0.024480913878888483 -0.0097428230008436058 0 -0.041231802306817722 0.010197423052186553 0 -0.033444320437808657 0.0058747132671248085 0 -0.025173606684549113 -0.0099836699556037113 0 -0.024290974966662611 -0.010631732704060495 0 -0.024480913878888483 -0.0097428230008436058 0 -0.062948678524015769 0.025416425386312426 0 -0.064561847431483077 0.025209148397998399 0 -0.063407609178698851 0.023938747425917097 0 -0.064561847431483077 0.025209148397998399 0 -0.063407609178698851 0.023938747425917097 0 -0.064684876874001276 0.023710358921955232 0 -0.064561847431483077 0.025209148397998399 0 -0.065674253793698664 0.024430650149494706 0 -0.064684876874001276 0.023710358921955232 0 -0.063407609178698851 0.023938747425917097 0 -0.064684876874001276 0.023710358921955232 0 -0.064128198049084331 0.022429307507999756 0 -0.065307726823547643 0.02298289149914402 0 -0.064684876874001276 0.023710358921955232 0 -0.064128198049084331 0.022429307507999756 0 -0.063407609178698851 0.023938747425917097 0 -0.064128198049084331 0.022429307507999756 0 -0.062788611377202458 0.02253445634497209 0 -0.064128198049084331 0.022429307507999756 0 -0.062788611377202458 0.02253445634497209 0 -0.063134604418062651 0.021327784719156098 0 -0.064128198049084331 0.022429307507999756 0 -0.063134604418062651 0.021327784719156098 0 -0.065193026763483 0.021338817083910683 0 -0.065307726823547643 0.02298289149914402 0 -0.064128198049084331 0.022429307507999756 0 -0.065193026763483 0.021338817083910683 0 -0.063513945876529115 0.01965113495756296 0 -0.063134604418062651 0.021327784719156098 0 -0.065193026763483 0.021338817083910683 0 -0.05067508132445489 0.01014569636473118 0 -0.046373249893180854 0.0090299896800381217 0 -0.039461847053553711 -0.002618938881484803 0 -0.029750677747892716 -0.0091459487429869039 0 -0.030284486501725362 -0.0040188068207842997 0 -0.063513945876529115 0.01965113495756296 0 -0.061600571400032549 0.020072546131792986 0 -0.063134604418062651 0.021327784719156098 0 -0.024585175026887528 -0.008225100992769338 0 -0.026618462845044065 -0.0088779556306725817 0 -0.025127083047930838 -0.0067947832205964669 0 -0.024585175026887528 -0.008225100992769338 0 -0.025223589631400315 -0.0090839812826760437 0 -0.026618462845044065 -0.0088779556306725817 0 -0.025195057007048671 -0.0099210210143445623 0 -0.024643463949582778 -0.0091500976900383783 0 -0.025223589631400315 -0.0090839812826760437 0 -0.024585175026887528 -0.008225100992769338 0 -0.024643463949582778 -0.0091500976900383783 0 -0.025223589631400315 -0.0090839812826760437 0 -0.025195057007048671 -0.0099210210143445623 0 -0.025223589631400315 -0.0090839812826760437 0 -0.026618462845044065 -0.0088779556306725817 0 -0.041231802306817722 0.010197423052186553 0 -0.046373249893180854 0.0090299896800381217 0 -0.029750677747892716 -0.0091459487429869039 0 -0.026618462845044065 -0.0088779556306725817 0 -0.025127083047930838 -0.0067947832205964669 0 -0.025014321299160945 -0.010447777865072477 0 -0.029750677747892716 -0.0091459487429869039 0 -0.026618462845044065 -0.0088779556306725817 0 -0.029750677747892716 -0.0091459487429869039 0 -0.030284486501725362 -0.0040188068207842997 0 -0.025127083047930838 -0.0067947832205964669 0 -0.024585175026887528 -0.008225100992769338 0 -0.025127083047930838 -0.0067947832205964669 0 -0.024020914746548144 -0.0074174830750547323 0 -0.024585175026887528 -0.008225100992769338 0 -0.024020914746548144 -0.0074174830750547323 0 -0.023717718217055588 -0.0079955373022674702 0 -0.024585175026887528 -0.008225100992769338 0 -0.023860582224692492 -0.0086406064542893773 0 -0.023717718217055588 -0.0079955373022674702 0 -0.024585175026887528 -0.008225100992769338 0 -0.024643463949582778 -0.0091500976900383783 0 -0.023860582224692492 -0.0086406064542893773 0 -0.023717718217055588 -0.0079955373022674702 0 -0.023453067776225862 -0.0079886942817583746 0 -0.023603586645738132 -0.0084850266113229451 0 -0.023860582224692492 -0.0086406064542893773 0 -0.023717718217055588 -0.0079955373022674702 0 -0.023603586645738132 -0.0084850266113229451 0 -0.023453067776225862 -0.0079886942817583746 0 -0.023386117238124966 -0.008231027471735446 0 -0.023603586645738132 -0.0084850266113229451 0 -0.023717718217055588 -0.0079955373022674702 0 -0.023565729637082374 -0.007662636955818522 0 -0.023453067776225862 -0.0079886942817583746 0 -0.024020914746548144 -0.0074174830750547323 0 -0.023717718217055588 -0.0079955373022674702 0 -0.023565729637082374 -0.007662636955818522 0 -0.023565729637082374 -0.007662636955818522 0 -0.023269797368140811 -0.0077980581321083191 0 -0.023453067776225862 -0.0079886942817583746 0 -0.023269797368140811 -0.0077980581321083191 0 -0.023131813255761854 -0.0077416684787401727 0 -0.023302979319263745 -0.0079213006488224411 0 -0.023269797368140811 -0.0077980581321083191 0 -0.023453067776225862 -0.0079886942817583746 0 -0.023302979319263745 -0.0079213006488224411 0 -0.023269797368140811 -0.0077980581321083191 0 -0.023131813255761854 -0.0077416684787401727 0 -0.023260108055897618 -0.0079897570913626727 0 -0.023131813255761854 -0.0077416684787401727 0 -0.023260108055897618 -0.0079897570913626727 0 -0.023652943860855875 -0.0071099393534050639 0 -0.023131813255761854 -0.0077416684787401727 0 -0.0221487997490088 -0.0062890250825829138 0 -0.023652943860855875 -0.0071099393534050639 0 -0.025826336980476081 -0.0046171302673726974 0 -0.02628256561995225 -0.0031329945792095784 0 -0.023131813255761854 -0.0077416684787401727 0 -0.023386117238124966 -0.008231027471735446 0 -0.023340633583245618 -0.0085775729991152058 0 -0.023131813255761854 -0.0077416684787401727 0 -0.023302979319263745 -0.0079213006488224411 0 -0.023386117238124966 -0.008231027471735446 0 -0.023453067776225862 -0.0079886942817583746 0 -0.023302979319263745 -0.0079213006488224411 0 -0.023386117238124966 -0.008231027471735446 0 -0.023131813255761854 -0.0077416684787401727 0 -0.0221487997490088 -0.0062890250825829138 0 -0.021272266229182671 -0.0060658390596290924 0 -0.023386117238124966 -0.008231027471735446 0 -0.023340633583245618 -0.0085775729991152058 0 -0.023495518030993253 -0.0085155333514996216 0 -0.0221487997490088 -0.0062890250825829138 0 -0.021272266229182671 -0.0060658390596290924 0 -0.022194137485560376 -0.0041293631054056248 0 -0.019265488978744274 0.0023707149563639051 0 -0.020830111120533221 -0.0030734168273341585 0 -0.0221487997490088 -0.0062890250825829138 0 -0.023601377933316684 -0.004474487120100127 0 -0.023652943860855875 -0.0071099393534050639 0 -0.019218268260973052 -0.00076999814644682302 0 -0.019265488978744274 0.0023707149563639051 0 -0.0252484618301781 -0.0028570115777953506 0 -0.022194137485560376 -0.0041293631054056248 0 -0.022111018923385052 -0.0025182829734359995 0 -0.0221487997490088 -0.0062890250825829138 0 -0.0252484618301781 -0.0028570115777953506 0 -0.022194137485560376 -0.0041293631054056248 0 -0.021272266229182671 -0.0060658390596290924 0 -0.022194137485560376 -0.0041293631054056248 0 -0.020634727759194418 -0.0024179781257408104 0 -0.022194137485560376 -0.0041293631054056248 0 -0.022111018923385052 -0.0025182829734359995 0 -0.020634727759194418 -0.0024179781257408104 0 -0.02367738880360681 -0.0089280195973855218 0 -0.023576954332298256 -0.0086275261180487964 0 -0.023743698363210504 -0.0086594271032541612 0 -0.028095572857624394 0.0022100534954149474 0 -0.025654995396554036 -0.004680320514324425 0 -0.021272266229182671 -0.0060658390596290924 0 -0.020634727759194418 -0.0024179781257408104 0 -0.018382433588298826 -0.0025483604287532893 0 -0.023201783891936206 -0.011073409121504809 0 -0.023643385377869777 -0.010682952058962655 0 -0.023482333120004129 -0.010092187931557433 0 -0.02628256561995225 -0.0031329945792095784 0 -0.028095572857624394 0.0022100534954149474 0 -0.023340633583245618 -0.0085775729991152058 0 -0.02367738880360681 -0.0089280195973855218 0 -0.023576954332298256 -0.0086275261180487964 0 -0.023201783891936206 -0.011073409121504809 0 -0.023643385377869777 -0.010682952058962655 0 -0.023433485058406485 -0.011376320784365916 0 -0.041234358484034291 0.010881488747332651 0 -0.041295987811804789 0.012676986186944267 0 -0.042881742715506245 0.012487849172645159 0 -0.033444320437808657 0.0058747132671248085 0 -0.029196456601981471 0.0064264244447028128 0 -0.024290974966662611 -0.010631732704060495 0 -0.023643385377869777 -0.010682952058962655 0 -0.023433485058406485 -0.011376320784365916 0 -0.024290974966662611 -0.010631732704060495 0 -0.023643385377869777 -0.010682952058962655 0 -0.023482333120004129 -0.010092187931557433 0 -0.023860582224692492 -0.0086406064542893773 0 -0.024480913878888483 -0.0097428230008436058 0 -0.023482333120004129 -0.010092187931557433 0 -0.025098241248551201 -0.0062088386159447053 0 -0.025654995396554036 -0.004680320514324425 0 -0.024290974966662611 -0.010631732704060495 0 -0.024480913878888483 -0.0097428230008436058 0 -0.023482333120004129 -0.010092187931557433 0 -0.024643463949582778 -0.0091500976900383783 0 -0.023860582224692492 -0.0086406064542893773 0 -0.024480913878888483 -0.0097428230008436058 0 -0.023860582224692492 -0.0086406064542893773 0 -0.023603586645738132 -0.0084850266113229451 0 -0.023743698363210504 -0.0086594271032541612 0 -0.023495518030993253 -0.0085155333514996216 0 -0.023603586645738132 -0.0084850266113229451 0 -0.023576954332298256 -0.0086275261180487964 0 -0.023386117238124966 -0.008231027471735446 0 -0.023495518030993253 -0.0085155333514996216 0 -0.023603586645738132 -0.0084850266113229451 0 -0.023340633583245618 -0.0085775729991152058 0 -0.023495518030993253 -0.0085155333514996216 0 -0.023576954332298256 -0.0086275261180487964 0 -0.023603586645738132 -0.0084850266113229451 0 -0.023576954332298256 -0.0086275261180487964 0 -0.023743698363210504 -0.0086594271032541612 0 -0.027315410213574993 -0.00091218309756709969 0 -0.024981404859460727 -0.00065465607545933376 0 -0.025685711308063838 -0.0032272742321109616 0 -0.024981404859460727 -0.00065465607545933376 0 -0.025685711308063838 -0.0032272742321109616 0 -0.023679887510414513 -0.0019953532511178267 0 -0.025685711308063838 -0.0032272742321109616 0 -0.023873325869870014 -0.0037583927659726817 0 -0.023679887510414513 -0.0019953532511178267 0 -0.024981404859460727 -0.00065465607545933376 0 -0.023679887510414513 -0.0019953532511178267 0 -0.023451724888276113 0.0001733003785084598 0 -0.023679887510414513 -0.0019953532511178267 0 -0.021378853042513669 -0.00073714444875686859 0 -0.023451724888276113 0.0001733003785084598 0 -0.023679887510414513 -0.0019953532511178267 0 -0.021378853042513669 -0.00073714444875686859 0 -0.021375859243754604 -0.0030840562401764668 0 -0.021378853042513669 -0.00073714444875686859 0 -0.021375859243754604 -0.0030840562401764668 0 -0.020259043717343404 -0.0021610272192890303 0 -0.023209762278895561 -0.0037172357530331343 0 -0.022649974618057202 -0.0042356876815083898 0 -0.023359764032069488 -0.0050154557198573719 0 -0.023873325869870014 -0.0037583927659726817 0 -0.022967639322903133 -0.0033782921581423878 0 -0.023873325869870014 -0.0037583927659726817 0 -0.023679887510414513 -0.0019953532511178267 0 -0.022967639322903133 -0.0033782921581423878 0 -0.021375859243754604 -0.0030840562401764668 0 -0.019181442423995526 -0.0041871847401900603 0 -0.020259043717343404 -0.0021610272192890303 0 -0.019181442423995526 -0.0041871847401900603 0 -0.020259043717343404 -0.0021610272192890303 0 -0.019107401159954584 -0.00064580799473062142 0 -0.022649974618057202 -0.0042356876815083898 0 -0.021907426702892936 -0.0052984955604144339 0 -0.021907426702892936 -0.0052984955604144339 0 -0.020830111120533221 -0.0030734168273341585 0 -0.021378853042513669 -0.00073714444875686859 0 -0.020259043717343404 -0.0021610272192890303 0 -0.019107401159954584 -0.00064580799473062142 0 -0.021378853042513669 -0.00073714444875686859 0 -0.019107401159954584 -0.00064580799473062142 0 -0.020599967919450613 0.0010623560335521554 0 -0.019096614571087061 0.0026555998788621109 0 -0.019107401159954584 -0.00064580799473062142 0 -0.020599967919450613 0.0010623560335521554 0 -0.019096614571087061 0.0026555998788621109 0 -0.020599967919450613 0.0010623560335521554 0 -0.021636375230281769 0.0028186963533905992 0 -0.021636375230281769 0.0028186963533905992 0 -0.022172902392471702 0.0012180626564660705 0 -0.02354475418061119 0.0020990467438633175 0 -0.020599967919450613 0.0010623560335521554 0 -0.021636375230281769 0.0028186963533905992 0 -0.022172902392471702 0.0012180626564660705 0 -0.021378853042513669 -0.00073714444875686859 0 -0.020599967919450613 0.0010623560335521554 0 -0.022172902392471702 0.0012180626564660705 0 -0.021378853042513669 -0.00073714444875686859 0 -0.022172902392471702 0.0012180626564660705 0 -0.023451724888276113 0.0001733003785084598 0 -0.022172902392471702 0.0012180626564660705 0 -0.023451724888276113 0.0001733003785084598 0 -0.02354475418061119 0.0020990467438633175 0 -0.023451724888276113 0.0001733003785084598 0 -0.02354475418061119 0.0020990467438633175 0 -0.024500868012274819 0.00095924953650226266 0 -0.024981404859460727 -0.00065465607545933376 0 -0.023451724888276113 0.0001733003785084598 0 -0.024500868012274819 0.00095924953650226266 0 -0.021636375230281769 0.0028186963533905992 0 -0.02354475418061119 0.0020990467438633175 0 -0.023000970927651805 0.004199703958920855 0 -0.02354475418061119 0.0020990467438633175 0 -0.024938924967350399 0.0017947834780539117 0 -0.024500868012274819 0.00095924953650226266 0 -0.02354475418061119 0.0020990467438633175 0 -0.024938924967350399 0.0017947834780539117 0 -0.02447086774456516 0.0035018082908416562 0 -0.024938924967350399 0.0017947834780539117 0 -0.0254902687943389 0.0011320123243149392 0 -0.024500868012274819 0.00095924953650226266 0 -0.027315410213574993 -0.00091218309756709969 0 -0.024981404859460727 -0.00065465607545933376 0 -0.0254902687943389 0.0011320123243149392 0 -0.025334111215720993 0.0016034377342099913 0 -0.024938924967350399 0.0017947834780539117 0 -0.0254902687943389 0.0011320123243149392 0 -0.024981404859460727 -0.00065465607545933376 0 -0.0254902687943389 0.0011320123243149392 0 -0.024500868012274819 0.00095924953650226266 0 -0.026158060307774469 0.0044387992054869575 0 -0.024485649777252542 0.0050831818761326829 0 -0.025097390084801247 0.0067638664323700715 0 -0.023528665199532391 0.0045469557546680217 0 -0.023785738912309739 0.0036431669933733009 0 -0.026158060307774469 0.0044387992054869575 0 -0.024938924967350399 0.0017947834780539117 0 -0.02447086774456516 0.0035018082908416562 0 -0.026158060307774469 0.0044387992054869575 0 -0.024485649777252542 0.0050831818761326829 0 -0.02447086774456516 0.0035018082908416562 0 -0.024485649777252542 0.0050831818761326829 0 -0.02447086774456516 0.0035018082908416562 0 -0.023000970927651805 0.004199703958920855 0 -0.02354475418061119 0.0020990467438633175 0 -0.02447086774456516 0.0035018082908416562 0 -0.023000970927651805 0.004199703958920855 0 -0.024485649777252542 0.0050831818761326829 0 -0.022534568887909501 0.0067521605329446269 0 -0.025097390084801247 0.0067638664323700715 0 -0.024485649777252542 0.0050831818761326829 0 -0.023000970927651805 0.004199703958920855 0 -0.022534568887909501 0.0067521605329446269 0 -0.014937727826201275 0.012921735521454083 0 -0.015247679647776007 0.016361221963769424 0 -0.017670462541385913 0.016361041026705749 0 -0.023000970927651805 0.004199703958920855 0 -0.020882829584044228 0.0047395395138800584 0 -0.022534568887909501 0.0067521605329446269 0 -0.019281246199393046 0.0074915945658025817 0 -0.01985973425990803 0.011584486199937101 0 -0.021636375230281769 0.0028186963533905992 0 -0.023000970927651805 0.004199703958920855 0 -0.020882829584044228 0.0047395395138800584 0 -0.019265488978744274 0.0023707149563639051 0 -0.019281246199393046 0.0074915945658025817 0 -0.019096614571087061 0.0026555998788621109 0 -0.021636375230281769 0.0028186963533905992 0 -0.020882829584044228 0.0047395395138800584 0 -0.012178162711782688 0.0094590413446982956 0 -0.014937727826201275 0.012921735521454083 0 -0.01201919529177521 0.013587408679397115 0 -0.014937727826201275 0.012921735521454083 0 -0.013405666001525133 0.015711622881210922 0 -0.01201919529177521 0.013587408679397115 0 -0.014937727826201275 0.012921735521454083 0 -0.013405666001525133 0.015711622881210922 0 -0.015247679647776007 0.016361221963769424 0 -0.013405666001525133 0.015711622881210922 0 -0.01201919529177521 0.013587408679397115 0 -0.011870814423475812 0.017893015169462619 0 -0.013405666001525133 0.015711622881210922 0 -0.013744817714787867 0.018041158996237081 0 -0.015247679647776007 0.016361221963769424 0 -0.013405666001525133 0.015711622881210922 0 -0.013744817714787867 0.018041158996237081 0 -0.011870814423475812 0.017893015169462619 0 -0.018983461980242384 0.016041027392185138 0 -0.020158553230208785 0.016013051010832571 0 -0.013744817714787867 0.018041158996237081 0 -0.014785096911573944 0.020764740977738956 0 -0.011886539375540515 0.017891256535683707 0 -0.018153295541458083 0.018184539213061349 0 -0.020158553230208785 0.016013051010832571 0 -0.013744817714787867 0.018041158996237081 0 -0.014785096911573944 0.020764740977738956 0 -0.016212953259525004 0.01863403030891719 0 -0.014841030795964289 0.021100493923359272 0 -0.012040737625315287 0.018372720225952502 0 -0.011860782931490966 0.023159461009963331 0 -0.014785096911573944 0.020764740977738956 0 -0.016212953259525004 0.01863403030891719 0 -0.017734642976705555 0.02101316153629355 0 -0.016212953259525004 0.01863403030891719 0 -0.015247679647776007 0.016361221963769424 0 -0.017670462541385913 0.016361041026705749 0 -0.013744817714787867 0.018041158996237081 0 -0.016212953259525004 0.01863403030891719 0 -0.015247679647776007 0.016361221963769424 0 -0.01985973425990803 0.011584486199937101 0 -0.020106886028932815 0.015452072206167186 0 -0.022534568887909501 0.0067521605329446269 0 -0.024134178483535648 0.0087676333627354271 0 -0.025097390084801247 0.0067638664323700715 0 -0.016212953259525004 0.01863403030891719 0 -0.017670462541385913 0.016361041026705749 0 -0.020416218891789104 0.019798859034788861 0 -0.016212953259525004 0.01863403030891719 0 -0.017734642976705555 0.02101316153629355 0 -0.020416218891789104 0.019798859034788861 0 -0.017734642976705555 0.02101316153629355 0 -0.020416218891789104 0.019798859034788861 0 -0.019604349990398947 0.022255031250310725 0 -0.026302835594041275 0.0088968722926263677 0 -0.024134178483535648 0.0087676333627354271 0 -0.025097390084801247 0.0067638664323700715 0 -0.026302835594041275 0.0088968722926263677 0 -0.025722843524104155 0.010787775206054952 0 -0.024134178483535648 0.0087676333627354271 0 -0.027676804438740574 0.0070073682456708256 0 -0.028693123843458554 0.011111929669948723 0 -0.029153870271026342 0.013366892431640394 0 -0.029005304619035836 0.014679293098556943 0 -0.028219228465046358 0.01234929412426013 0 -0.029608907187988392 0.013819822224762732 0 -0.029153870271026342 0.013366892431640394 0 -0.029005304619035836 0.014679293098556943 0 -0.029608907187988392 0.013819822224762732 0 -0.029153870271026342 0.013366892431640394 0 -0.02978429908583765 0.012616495038155344 0 -0.031626504044096969 0.01295834620642306 0 -0.030662386389073214 0.014162735563159628 0 -0.02978429908583765 0.012616495038155344 0 -0.029608907187988392 0.013819822224762732 0 -0.030662386389073214 0.014162735563159628 0 -0.02978429908583765 0.012616495038155344 0 -0.039881086574321378 0.019084472753735114 0 -0.034689245315576045 0.012975026563248806 0 -0.034689245315576045 0.012975026563248806 0 -0.029196456601981471 0.0064264244447028128 0 -0.029608907187988392 0.013819822224762732 0 -0.030662386389073214 0.014162735563159628 0 -0.029711812815028587 0.015355707121035077 0 -0.041511609877863162 0.014287179593591633 0 -0.041295987811804789 0.012676986186944267 0 -0.042881742715506245 0.012487849172645159 0 -0.039551148556027448 0.013055545801273548 0 -0.041511609877863162 0.014287179593591633 0 -0.041295987811804789 0.012676986186944267 0 -0.028095572857624394 0.0022100534954149474 0 -0.029196456601981471 0.0064264244447028128 0 -0.028095572857624394 0.0022100534954149474 0 -0.027676804438740574 0.0070073682456708256 0 -0.029196456601981471 0.0064264244447028128 0 -0.027676804438740574 0.0070073682456708256 0 -0.029608907187988392 0.013819822224762732 0 -0.029711812815028587 0.015355707121035077 0 -0.029005304619035836 0.014679293098556943 0 -0.026845115186678061 0.0083127136624229943 0 -0.027607698413943782 0.0073358131420020404 0 -0.026014781086314678 0.0058046834704467169 0 -0.020634727759194418 -0.0024179781257408104 0 -0.018382433588298826 -0.0025483604287532893 0 -0.019103231293613718 -0.00031136149924391944 0 -0.020634727759194418 -0.0024179781257408104 0 -0.019103231293613718 -0.00031136149924391944 0 -0.021950792849115081 -0.00012384256245472923 0 -0.022111018923385052 -0.0025182829734359995 0 -0.020634727759194418 -0.0024179781257408104 0 -0.021950792849115081 -0.00012384256245472923 0 -0.019265488978744274 0.0023707149563639051 0 -0.019493316289553114 0.0080832449884575153 0 -0.0252484618301781 -0.0028570115777953506 0 -0.021950792849115081 -0.00012384256245472923 0 -0.025148675198609832 0.0012145143678085476 0 -0.0252484618301781 -0.0028570115777953506 0 -0.022111018923385052 -0.0025182829734359995 0 -0.021950792849115081 -0.00012384256245472923 0 -0.021950792849115081 -0.00012384256245472923 0 -0.025148675198609832 0.0012145143678085476 0 -0.021896921421092907 0.0024578914708244266 0 -0.025148675198609832 0.0012145143678085476 0 -0.021896921421092907 0.0024578914708244266 0 -0.02473902551360737 0.0052639220455251963 0 -0.019103231293613718 -0.00031136149924391944 0 -0.021950792849115081 -0.00012384256245472923 0 -0.021896921421092907 0.0024578914708244266 0 -0.027676804438740574 0.0070073682456708256 0 -0.02388113603261598 0.010214349457684336 0 -0.028785491011652925 0.014185998101266291 0 -0.027663083866973477 0.013124022917270609 0 -0.028219228465046358 0.01234929412426013 0 -0.027663083866973477 0.013124022917270609 0 -0.027984506084612552 0.012255485654105428 0 -0.026471418999243913 0.012027415543918497 0 -0.027663083866973477 0.013124022917270609 0 -0.028219228465046358 0.01234929412426013 0 -0.027984506084612552 0.012255485654105428 0 -0.017943193331795459 0.019295289588288838 0 -0.020002854621663704 0.020706135104188995 0 -0.022412515188630269 0.020033583077187 0 -0.02388113603261598 0.010214349457684336 0 -0.021109549636568657 0.015928570129849526 0 -0.025148675198609832 0.0012145143678085476 0 -0.025001179494003396 0.0055200300934867353 0 -0.02473902551360737 0.0052639220455251963 0 -0.019493316289553114 0.0080832449884575153 0 -0.020158553230208785 0.016013051010832571 0 -0.027814295256980353 0.020869271115144989 0 -0.021109549636568657 0.015928570129849526 0 -0.020002854621663704 0.020706135104188995 0 -0.022728818130538852 0.020339506842823974 0 -0.022412515188630269 0.020033583077187 0 -0.020158553230208785 0.016013051010832571 0 -0.021109549636568657 0.015928570129849526 0 -0.020158553230208785 0.016013051010832571 0 -0.017787720062577526 0.024286136662460434 0 -0.020002854621663704 0.020706135104188995 0 -0.022728818130538852 0.020339506842823974 0 -0.020553194704255671 0.023791080216455394 0 -0.022728818130538852 0.020339506842823974 0 -0.020553194704255671 0.023791080216455394 0 -0.02251102270713113 0.026363915271078415 0 -0.017943193331795459 0.019295289588288838 0 -0.020002854621663704 0.020706135104188995 0 -0.017758053589379586 0.02464562903268163 0 -0.027814295256980353 0.020869271115144989 0 -0.027342976551596988 0.026053239339236537 0 -0.020002854621663704 0.020706135104188995 0 -0.020553194704255671 0.023791080216455394 0 -0.017758053589379586 0.02464562903268163 0 -0.037850983691177405 0.024722188710644324 0 -0.03569009714501379 0.026430996616838297 0 -0.037773505754140534 0.027853088902210811 0 -0.037850983691177405 0.024722188710644324 0 -0.03569009714501379 0.026430996616838297 0 -0.035314204238619258 0.024209320270877778 0 -0.027814295256980353 0.020869271115144989 0 -0.033107933485536416 0.019634286101669091 0 -0.029153870271026342 0.013366892431640394 0 -0.028219228465046358 0.01234929412426013 0 -0.02978429908583765 0.012616495038155344 0 -0.028219228465046358 0.01234929412426013 0 -0.027984506084612552 0.012255485654105428 0 -0.02978429908583765 0.012616495038155344 0 -0.032761810269387209 0.023735543726541707 0 -0.035314204238619258 0.024209320270877778 0 -0.033669617639771172 0.025045299080783446 0 -0.039881086574321378 0.019084472753735114 0 -0.033107933485536416 0.019634286101669091 0 -0.03569009714501379 0.026430996616838297 0 -0.035314204238619258 0.024209320270877778 0 -0.033669617639771172 0.025045299080783446 0 -0.03569009714501379 0.026430996616838297 0 -0.033669617639771172 0.025045299080783446 0 -0.033463969440146991 0.027941073270674174 0 -0.033463969440146991 0.027941073270674174 0 -0.034756888060927769 0.03031577034932368 0 -0.035996916871174095 0.029002394964130925 0 -0.043984059735655098 0.027404508831323296 0 -0.042254863876771478 0.02984084884407889 0 -0.03569009714501379 0.026430996616838297 0 -0.033463969440146991 0.027941073270674174 0 -0.035996916871174095 0.029002394964130925 0 -0.048204731240344481 0.029023690078858331 0 -0.048794878921214653 0.030106061375643249 0 -0.048009789131123637 0.030186844262729016 0 -0.048794878921214653 0.030106061375643249 0 -0.048506384123621807 0.030875967191640243 0 -0.048009789131123637 0.030186844262729016 0 -0.036435278481732267 0.030868322909779589 0 -0.035996916871174095 0.029002394964130925 0 -0.037704202093525901 0.031028305262210225 0 -0.034756888060927769 0.03031577034932368 0 -0.036435278481732267 0.030868322909779589 0 -0.036080309362340329 0.032701424633564832 0 -0.034756888060927769 0.03031577034932368 0 -0.036435278481732267 0.030868322909779589 0 -0.035996916871174095 0.029002394964130925 0 -0.03569009714501379 0.026430996616838297 0 -0.035996916871174095 0.029002394964130925 0 -0.037773505754140534 0.027853088902210811 0 -0.017758053589379586 0.02464562903268163 0 -0.019763686426182928 0.026907282879907145 0 -0.017568894677567577 0.030016691832348404 0 -0.027342976551596988 0.026053239339236537 0 -0.026645370845226175 0.03058786653000364 0 -0.035996916871174095 0.029002394964130925 0 -0.037773505754140534 0.027853088902210811 0 -0.037704202093525901 0.031028305262210225 0 -0.020553194704255671 0.023791080216455394 0 -0.017758053589379586 0.02464562903268163 0 -0.019763686426182928 0.026907282879907145 0 -0.020553194704255671 0.023791080216455394 0 -0.019763686426182928 0.026907282879907145 0 -0.02251102270713113 0.026363915271078415 0 -0.017787720062577526 0.024286136662460434 0 -0.015911524911652607 0.030491351119960867 0 -0.02251102270713113 0.026363915271078415 0 -0.020213714409510707 0.029763882099103214 0 -0.022280519982787034 0.032410253200190337 0 -0.011860782931490966 0.023159461009963331 0 -0.011918025585177698 0.027543333813287527 0 -0.012470025704924217 0.027019014491218307 0 -0.019763686426182928 0.026907282879907145 0 -0.02251102270713113 0.026363915271078415 0 -0.020213714409510707 0.029763882099103214 0 -0.019763686426182928 0.026907282879907145 0 -0.020213714409510707 0.029763882099103214 0 -0.017568894677567577 0.030016691832348404 0 -0.036435278481732267 0.030868322909779589 0 -0.037704202093525901 0.031028305262210225 0 -0.037585390313040673 0.031453207067909543 0 -0.037704202093525901 0.031028305262210225 0 -0.037585390313040673 0.031453207067909543 0 -0.03748364313905686 0.034719248663104649 0 -0.026645370845226175 0.03058786653000364 0 -0.025381120620010206 0.035288553527854906 0 -0.037585390313040673 0.031453207067909543 0 -0.037130064322361149 0.033308090527250866 0 -0.03748364313905686 0.034719248663104649 0 -0.017568894677567577 0.030016691832348404 0 -0.019551407894997937 0.032653427516280822 0 -0.017390214829554114 0.035396102080602836 0 -0.020213714409510707 0.029763882099103214 0 -0.017568894677567577 0.030016691832348404 0 -0.019551407894997937 0.032653427516280822 0 -0.020213714409510707 0.029763882099103214 0 -0.019551407894997937 0.032653427516280822 0 -0.022280519982787034 0.032410253200190337 0 -0.019551407894997937 0.032653427516280822 0 -0.022280519982787034 0.032410253200190337 0 -0.020007300967357141 0.035371759663442949 0 -0.011918025585177698 0.027543333813287527 0 -0.012595552721646747 0.027885592936862626 0 -0.012161652239092319 0.028720189221859416 0 -0.015911524911652607 0.030491351119960867 0 -0.013015648315041756 0.040850787349838456 0 -0.022280519982787034 0.032410253200190337 0 -0.020007300967357141 0.035371759663442949 0 -0.022041211186879853 0.03844528474002093 0 -0.020007300967357141 0.035371759663442949 0 -0.019471547982522507 0.037902222311720579 0 -0.022041211186879853 0.03844528474002093 0 -0.037130064322361149 0.033308090527250866 0 -0.03748364313905686 0.034719248663104649 0 -0.036993696759096813 0.034002151439664591 0 -0.03748364313905686 0.034719248663104649 0 -0.03681164248119323 0.034710958559200908 0 -0.036993696759096813 0.034002151439664591 0 -0.019551407894997937 0.032653427516280822 0 -0.020007300967357141 0.035371759663442949 0 -0.017390214829554114 0.035396102080602836 0 -0.020007300967357141 0.035371759663442949 0 -0.018639528667048245 0.036872827698591362 0 -0.019471547982522507 0.037902222311720579 0 -0.020007300967357141 0.035371759663442949 0 -0.017390214829554114 0.035396102080602836 0 -0.018639528667048245 0.036872827698591362 0 -0.03672628541255045 0.035321389192841224 0 -0.035987061476822652 0.035425362150967005 0 -0.036766099352704695 0.036205050482222452 0 -0.03681164248119323 0.034710958559200908 0 -0.035987061476822652 0.035425362150967005 0 -0.036175520141037996 0.033591177130161243 0 -0.035987061476822652 0.035425362150967005 0 -0.03463576440865037 0.034984277969421169 0 -0.036175520141037996 0.033591177130161243 0 -0.03672628541255045 0.035321389192841224 0 -0.03681164248119323 0.034710958559200908 0 -0.035987061476822652 0.035425362150967005 0 -0.03748364313905686 0.034719248663104649 0 -0.03672628541255045 0.035321389192841224 0 -0.036766099352704695 0.036205050482222452 0 -0.03748364313905686 0.034719248663104649 0 -0.03672628541255045 0.035321389192841224 0 -0.03681164248119323 0.034710958559200908 0 -0.03681164248119323 0.034710958559200908 0 -0.036993696759096813 0.034002151439664591 0 -0.035771661821616334 0.032967075148311563 0 -0.040340520511566259 0.032138979210703633 0 -0.040647228652534749 0.031992249687064614 0 -0.035987061476822652 0.035425362150967005 0 -0.03463576440865037 0.034984277969421169 0 -0.035461639802681522 0.036132143552363973 0 -0.043768164915087462 0.033629728250443837 0 -0.040647228652534749 0.031992249687064614 0 -0.048484578746022536 0.031935617335738416 0 -0.048506384123621807 0.030875967191640243 0 -0.049375267424684864 0.031168671660329123 0 -0.048794878921214653 0.030106061375643249 0 -0.048506384123621807 0.030875967191640243 0 -0.049375267424684864 0.031168671660329123 0 -0.048484578746022536 0.031935617335738416 0 -0.048506384123621807 0.030875967191640243 0 -0.047862637363971554 0.030971224106081295 0 -0.042254863876771478 0.02984084884407889 0 -0.040647228652534749 0.031992249687064614 0 -0.037585390313040673 0.031453207067909543 0 -0.037130064322361149 0.033308090527250866 0 -0.035771661821616334 0.032967075148311563 0 -0.036435278481732267 0.030868322909779589 0 -0.037585390313040673 0.031453207067909543 0 -0.036080309362340329 0.032701424633564832 0 -0.03982541495508319 0.032383705590793808 0 -0.040647228652534749 0.031992249687064614 0 -0.037130064322361149 0.033308090527250866 0 -0.036993696759096813 0.034002151439664591 0 -0.035771661821616334 0.032967075148311563 0 -0.018365784016079249 0.019047147130045572 0 -0.016333656001632415 0.02240873441424612 0 -0.013297863218380206 0.028282811393369352 0 -0.013380299982045079 0.028199812293751916 0 -0.013336814505623693 0.028211883761246385 0 -0.016450745305730593 0.019542837039681658 0 -0.013354195097659501 0.024655502485294467 0 -0.016106298101709597 0.026104970554946576 0 -0.014550458429521724 0.026306218971605008 0 -0.014687478997354729 0.027065123799646117 0 -0.016106298101709597 0.026104970554946576 0 -0.015863300820216794 0.02580461982008448 0 -0.014550458429521724 0.026306218971605008 0 -0.018365784016079249 0.019047147130045572 0 -0.020106886028932815 0.015452072206167186 0 -0.023194056710922416 0.023240471480766463 0 -0.020416218891789104 0.019798859034788861 0 -0.019604349990398947 0.022255031250310725 0 -0.023194056710922416 0.023240471480766463 0 -0.019604349990398947 0.022255031250310725 0 -0.019539160963887425 0.024578029835648687 0 -0.019604349990398947 0.022255031250310725 0 -0.017701983329039932 0.023713037689954877 0 -0.019539160963887425 0.024578029835648687 0 -0.017734642976705555 0.02101316153629355 0 -0.019604349990398947 0.022255031250310725 0 -0.017701983329039932 0.023713037689954877 0 -0.014550458429521724 0.026306218971605008 0 -0.013311666535331064 0.026809917881072568 0 -0.014687478997354729 0.027065123799646117 0 -0.017701983329039932 0.023713037689954877 0 -0.019539160963887425 0.024578029835648687 0 -0.015927248237920466 0.025866356527931612 0 -0.016333656001632415 0.02240873441424612 0 -0.014544979241533739 0.024284226362566101 0 -0.015927248237920466 0.025866356527931612 0 -0.015167238301269087 0.023464030033837287 0 -0.01375774910881113 0.024846968505314385 0 -0.017701983329039932 0.023713037689954877 0 -0.015927248237920466 0.025866356527931612 0 -0.015167238301269087 0.023464030033837287 0 -0.014841030795964289 0.021100493923359272 0 -0.017701983329039932 0.023713037689954877 0 -0.015167238301269087 0.023464030033837287 0 -0.014785096911573944 0.020764740977738956 0 -0.017734642976705555 0.02101316153629355 0 -0.017701983329039932 0.023713037689954877 0 -0.018153295541458083 0.018184539213061349 0 -0.018473789428155855 0.019671305209872557 0 -0.014841030795964289 0.021100493923359272 0 -0.011860782931490966 0.023159461009963331 0 -0.015167238301269087 0.023464030033837287 0 -0.011860782931490966 0.023159461009963331 0 -0.015167238301269087 0.023464030033837287 0 -0.01375774910881113 0.024846968505314385 0 -0.011860782931490966 0.023159461009963331 0 -0.01375774910881113 0.024846968505314385 0 -0.012470025704924217 0.027019014491218307 0 -0.015927248237920466 0.025866356527931612 0 -0.01375774910881113 0.024846968505314385 0 -0.012470025704924217 0.027019014491218307 0 -0.013311666535331064 0.026809917881072568 0 -0.012470025704924217 0.027019014491218307 0 -0.01292665249366164 0.027403314854305316 0 -0.01292665249366164 0.027403314854305316 0 -0.012595552721646747 0.027885592936862626 0 -0.013307873678765507 0.027941637277101531 0 -0.014544979241533739 0.024284226362566101 0 -0.0136183326079972 0.024972324573150639 0 -0.011918025585177698 0.027543333813287527 0 -0.012470025704924217 0.027019014491218307 0 -0.012595552721646747 0.027885592936862626 0 -0.012470025704924217 0.027019014491218307 0 -0.01292665249366164 0.027403314854305316 0 -0.012595552721646747 0.027885592936862626 0 -0.012595552721646747 0.027885592936862626 0 -0.012855141173166256 0.028321651112105814 0 -0.013307873678765507 0.027941637277101531 0 -0.012595552721646747 0.027885592936862626 0 -0.012855141173166256 0.028321651112105814 0 -0.012161652239092319 0.028720189221859416 0 -0.013307873678765507 0.027941637277101531 0 -0.01333714586414321 0.028172655787799226 0 -0.013373823790745587 0.028154038055739659 0 -0.012855141173166256 0.028321651112105814 0 -0.013307873678765507 0.027941637277101531 0 -0.013228525196507844 0.028322447370995131 0 -0.013307873678765507 0.027941637277101531 0 -0.013228525196507844 0.028322447370995131 0 -0.01333714586414321 0.028172655787799226 0 -0.013228525196507844 0.028322447370995131 0 -0.01333714586414321 0.028172655787799226 0 -0.013345073737211971 0.028274709070435156 0 -0.013311666535331064 0.026809917881072568 0 -0.013307873678765507 0.027941637277101531 0 -0.014687478997354729 0.027065123799646117 0 -0.013311666535331064 0.026809917881072568 0 -0.01292665249366164 0.027403314854305316 0 -0.013307873678765507 0.027941637277101531 0 -0.012822243022978321 0.025827149440945125 0 -0.013354195097659501 0.024655502485294467 0 -0.013307873678765507 0.027941637277101531 0 -0.013370824070743125 0.0281450121878466 0 -0.013373823790745587 0.028154038055739659 0 -0.013307873678765507 0.027941637277101531 0 -0.013380299982045079 0.028199812293751916 0 -0.013370824070743125 0.0281450121878466 0 -0.013370824070743125 0.0281450121878466 0 -0.013373823790745587 0.028154038055739659 0 -0.013356166599289201 0.028173935126765519 0 -0.01333714586414321 0.028172655787799226 0 -0.013372298477082677 0.028234309335412787 0 -0.013373823790745587 0.028154038055739659 0 -0.01333714586414321 0.028172655787799226 0 -0.013345073737211971 0.028274709070435156 0 -0.013372298477082677 0.028234309335412787 0 -0.013372298477082677 0.028234309335412787 0 -0.013373823790745587 0.028154038055739659 0 -0.013367092874223713 0.028179798391151926 0 -0.013373823790745587 0.028154038055739659 0 -0.013367092874223713 0.028179798391151926 0 -0.013356166599289201 0.028173935126765519 0 -0.013367092874223713 0.028179798391151926 0 -0.013332140673566537 0.028179945708243944 0 -0.013356166599289201 0.028173935126765519 0 -0.013372298477082677 0.028234309335412787 0 -0.013367092874223713 0.028179798391151926 0 -0.013346825185518154 0.028146994545005341 0 -0.013367092874223713 0.028179798391151926 0 -0.013332140673566537 0.028179945708243944 0 -0.013346825185518154 0.028146994545005341 0 -0.013307308246136178 0.028211290894278238 0 -0.013332140673566537 0.028179945708243944 0 -0.013356166599289201 0.028173935126765519 0 -0.013370824070743125 0.0281450121878466 0 -0.013356166599289201 0.028173935126765519 0 -0.013336814505623693 0.028211883761246385 0 -0.013380299982045079 0.028199812293751916 0 -0.013370824070743125 0.0281450121878466 0 -0.013336814505623693 0.028211883761246385 0 -0.013307308246136178 0.028211290894278238 0 -0.013356166599289201 0.028173935126765519 0 -0.013336814505623693 0.028211883761246385 0 -0.013307308246136178 0.028211290894278238 0 -0.013299373472568588 0.028238750466432032 0 -0.013336814505623693 0.028211883761246385 0 0.0052406197259646349 0.058253104413061002 0 0.0069376680755028853 0.057725618209535062 0 0.0067278626977266102 0.059153208240928068 0 0.0069376680755028853 0.057725618209535062 0 0.0067278626977266102 0.059153208240928068 0 0.0088736408609337656 0.059365741629476949 0 0.0050433508181692453 0.057715218360612497 0 0.0049002176097147935 0.057125318700113392 0 0.0057640552266530779 0.057293251291178911 0 0.0050433508181692453 0.057715218360612497 0 0.0057640552266530779 0.057293251291178911 0 0.0058588926983820996 0.057480606837981202 0 -0.0036965152849345725 0.042000538890142262 0 -0.0031587679827375713 0.046133602105575641 0 0.0038910936693760641 0.053094307440331674 0 -0.0018107007198315708 0.049192394454002093 0 -0.013372298477082677 0.028234309335412787 0 -0.013346825185518154 0.028146994545005341 0 -0.013359734013714229 0.028396123634666325 0 -0.013345073737211971 0.028274709070435156 0 -0.013372298477082677 0.028234309335412787 0 -0.013359734013714229 0.028396123634666325 0 0.0069376680755028853 0.057725618209535062 0 0.010230349887542184 0.057012514554599103 0 0.0088736408609337656 0.059365741629476949 0 -0.0018107007198315708 0.049192394454002093 0 -0.0010339960761279706 0.054504991757002998 0 0.010230349887542184 0.057012514554599103 0 0.01150328653842911 0.05944397289689457 0 0.0088736408609337656 0.059365741629476949 0 -0.009823030850038909 0.048201889956207118 0 -0.0083812076798895109 0.047893625334257617 0 -0.0088021374524075661 0.050192973719155078 0 -0.0031587679827375713 0.046133602105575641 0 -0.0081113279896841868 0.044896628742906203 0 -0.013228525196507844 0.028322447370995131 0 -0.013359734013714229 0.028396123634666325 0 -0.012881522113617929 0.028737124680063262 0 -0.00073619907485527453 0.046631441258062345 0 -0.0017249351841766996 0.044749209577858419 0 -0.006216632787543995 0.045692589062888041 0 -0.0031587679827375713 0.046133602105575641 0 -0.0018107007198315708 0.049192394454002093 0 -0.013228525196507844 0.028322447370995131 0 -0.013345073737211971 0.028274709070435156 0 -0.013359734013714229 0.028396123634666325 0 -0.012855141173166256 0.028321651112105814 0 -0.013228525196507844 0.028322447370995131 0 -0.012881522113617929 0.028737124680063262 0 -0.0018107007198315708 0.049192394454002093 0 -0.0081113279896841868 0.044896628742906203 0 -0.0096191789339017068 0.043672987138951756 0 -0.013959562715441487 0.044577183808407049 0 -0.014017888987204762 0.04291206132783721 0 -0.0083812076798895109 0.047893625334257617 0 -0.0075734324906735788 0.049317944114058564 0 -0.0066034480927863893 0.048196848908892517 0 -0.0081113279896841868 0.044896628742906203 0 -0.013114357566843472 0.043281713379025866 0 -0.0081113279896841868 0.044896628742906203 0 -0.013015648315041756 0.040850787349838456 0 -0.012855141173166256 0.028321651112105814 0 -0.012881522113617929 0.028737124680063262 0 -0.012161652239092319 0.028720189221859416 0 -0.0083812076798895109 0.047893625334257617 0 -0.0075734324906735788 0.049317944114058564 0 -0.0088021374524075661 0.050192973719155078 0 -0.0077769905496743383 0.052203421465596145 0 -0.0088021374524075661 0.050192973719155078 0 -0.0065031105434486692 0.050993034600441058 0 -0.0075734324906735788 0.049317944114058564 0 -0.0088021374524075661 0.050192973719155078 0 -0.0065031105434486692 0.050993034600441058 0 -0.0026335693611701338 0.057254816765158562 0 -0.0010339960761279706 0.054504991757002998 0 0.010244323906200477 0.062953729005518294 0 0.012749240732224132 0.061878290559099006 0 0.010639287004399523 0.06106270022950655 0 0.010244323906200477 0.062953729005518294 0 0.010639287004399523 0.06106270022950655 0 0.0090052448046446416 0.061316310205426584 0 0.01150328653842911 0.05944397289689457 0 0.010639287004399523 0.06106270022950655 0 0.0088736408609337656 0.059365741629476949 0 0.012749240732224132 0.061878290559099006 0 0.01150328653842911 0.05944397289689457 0 0.010639287004399523 0.06106270022950655 0 0.0088736408609337656 0.059365741629476949 0 0.0090052448046446416 0.061316310205426584 0 0.0071420951577209572 0.06053249367661722 0 0.010639287004399523 0.06106270022950655 0 0.0088736408609337656 0.059365741629476949 0 0.0090052448046446416 0.061316310205426584 0 0.010244323906200477 0.062953729005518294 0 0.0090052448046446416 0.061316310205426584 0 0.0077217294913120441 0.06248909182470818 0 0.0052653201085989766 0.061462093083793197 0 0.0077217294913120441 0.06248909182470818 0 0.0071420951577209572 0.06053249367661722 0 0.0090052448046446416 0.061316310205426584 0 0.0077217294913120441 0.06248909182470818 0 0.0071420951577209572 0.06053249367661722 0 0.0067278626977266102 0.059153208240928068 0 0.0088736408609337656 0.059365741629476949 0 0.0071420951577209572 0.06053249367661722 0 0.0054866466570089069 0.059921505852775392 0 0.0067278626977266102 0.059153208240928068 0 0.0071420951577209572 0.06053249367661722 0 -0.030284363906871298 0.041943916551608791 0 -0.022901059091756784 0.041241117670734982 0 -0.030284363906871298 0.041943916551608791 0 -0.020236131367616914 0.048466019131556966 0 -0.022297685917928963 0.042786989319982954 0 -0.023503304871899729 0.042628377821577482 0 -0.023445141517821982 0.044242348970959113 0 -0.02788841230523317 0.046648687186492205 0 -0.028782884919952335 0.045802776326707068 0 -0.028817035131876036 0.046802306758570389 0 -0.034215615341084478 0.038429274424296542 0 -0.034178243269761106 0.037687728742025479 0 -0.035257566096456888 0.03744142879353652 0 -0.035568822599714035 0.041407035010717894 0 -0.030284363906871298 0.041943916551608791 0 -0.034178243269761106 0.037687728742025479 0 -0.035308201532523301 0.037418163178034862 0 -0.034632950860652191 0.03657294077807606 0 -0.031431923706359902 0.041445029922079116 0 -0.030284363906871298 0.041943916551608791 0 -0.03463576440865037 0.034984277969421169 0 -0.034632950860652191 0.03657294077807606 0 -0.033208593623440232 0.036293778551303994 0 -0.030284363906871298 0.041943916551608791 0 -0.030449472415741283 0.041527350758496173 0 -0.03463576440865037 0.034984277969421169 0 -0.034632950860652191 0.03657294077807606 0 -0.035461639802681522 0.036132143552363973 0 -0.035328199205136954 0.037468381756160019 0 -0.034632950860652191 0.03657294077807606 0 -0.035461639802681522 0.036132143552363973 0 -0.035043533494906812 0.037804734344733457 0 -0.036766099352704695 0.036205050482222452 0 -0.037306830445901724 0.037471921823848724 0 -0.035987061476822652 0.035425362150967005 0 -0.035461639802681522 0.036132143552363973 0 -0.036766099352704695 0.036205050482222452 0 -0.035328199205136954 0.037468381756160019 0 -0.035461639802681522 0.036132143552363973 0 -0.036766099352704695 0.036205050482222452 0 -0.030284363906871298 0.041943916551608791 0 -0.033060002231705632 0.039390890538112532 0 -0.018639528667048245 0.036872827698591362 0 -0.019471547982522507 0.037902222311720579 0 -0.017237016903285392 0.040728391511796747 0 -0.03748364313905686 0.034719248663104649 0 -0.036766099352704695 0.036205050482222452 0 -0.037306830445901724 0.037471921823848724 0 -0.025381120620010206 0.035288553527854906 0 -0.022901059091756784 0.041241117670734982 0 -0.017390214829554114 0.035396102080602836 0 -0.018639528667048245 0.036872827698591362 0 -0.017237016903285392 0.040728391511796747 0 -0.013114357566843472 0.043281713379025866 0 -0.022901059091756784 0.041241117670734982 0 -0.019471547982522507 0.037902222311720579 0 -0.021954004548200998 0.039903913721980426 0 -0.017237016903285392 0.040728391511796747 0 -0.019471547982522507 0.037902222311720579 0 -0.02200133615300898 0.038447641255060526 0 -0.021954004548200998 0.039903913721980426 0 -0.014465403739959139 0.040893223155529082 0 -0.013015648315041756 0.040850787349838456 0 -0.013015648315041756 0.040850787349838456 0 -0.013114357566843472 0.043281713379025866 0 -0.013114357566843472 0.043281713379025866 0 -0.011639706398887402 0.049174358974185581 0 -0.016413823843079881 0.043378764638305894 0 -0.014539772321381353 0.04586005263105572 0 -0.016269310920674688 0.047425901261101383 0 -0.0075734324906735788 0.049317944114058564 0 -0.0066034480927863893 0.048196848908892517 0 -0.0065031105434486692 0.050993034600441058 0 -0.016413823843079881 0.043378764638305894 0 -0.013222857721284518 0.043931913730062389 0 -0.014539772321381353 0.04586005263105572 0 -0.013222857721284518 0.043931913730062389 0 -0.014539772321381353 0.04586005263105572 0 -0.013097222446991184 0.047701601769562875 0 -0.022901059091756784 0.041241117670734982 0 -0.020236131367616914 0.048466019131556966 0 -0.014539772321381353 0.04586005263105572 0 -0.013097222446991184 0.047701601769562875 0 -0.016269310920674688 0.047425901261101383 0 -0.0064120525818856808 0.05381285358003584 0 -0.0077769905496743383 0.052203421465596145 0 -0.0065031105434486692 0.050993034600441058 0 -0.010360715186816602 0.054865543885526634 0 -0.011639706398887402 0.049174358974185581 0 -0.016112359987472118 0.051476135061901337 0 -0.016269310920674688 0.047425901261101383 0 -0.014604598680490691 0.049587865649091102 0 -0.0194034828643583 0.053842436935209619 0 -0.020236131367616914 0.048466019131556966 0 -0.013097222446991184 0.047701601769562875 0 -0.016269310920674688 0.047425901261101383 0 -0.014604598680490691 0.049587865649091102 0 -0.011799702205205372 0.057401834608795776 0 -0.011811780494445706 0.057260896601477616 0 -0.01184166749255661 0.057341364953837765 0 -0.020236131367616914 0.048466019131556966 0 -0.015081937744692141 0.051879951074922444 0 -0.030093484221456652 0.049412078208965718 0 -0.030160992759276313 0.047545871562027144 0 -0.028504806791090489 0.048085513852006108 0 -0.028782884919952335 0.045802776326707068 0 -0.030160992759276313 0.047545871562027144 0 -0.028817035131876036 0.046802306758570389 0 -0.030160992759276313 0.047545871562027144 0 -0.028817035131876036 0.046802306758570389 0 -0.028504806791090489 0.048085513852006108 0 -0.02788841230523317 0.046648687186492205 0 -0.028817035131876036 0.046802306758570389 0 -0.028504806791090489 0.048085513852006108 0 -0.02788841230523317 0.046648687186492205 0 -0.028504806791090489 0.048085513852006108 0 -0.027079212350956325 0.047418618679492174 0 -0.02829545482482938 0.049580880433993765 0 -0.02706864823107067 0.049012408526698852 0 -0.028504806791090489 0.048085513852006108 0 -0.042875372742876366 0.043419652760853591 0 -0.040793553475176367 0.043663338189876909 0 -0.04170370744248162 0.037337986876896372 0 -0.02706864823107067 0.049012408526698852 0 -0.028504806791090489 0.048085513852006108 0 -0.027079212350956325 0.047418618679492174 0 -0.039588750232651897 0.045422670490348559 0 -0.043456931137334141 0.038684569529803814 0 -0.042875372742876366 0.043419652760853591 0 -0.04170370744248162 0.037337986876896372 0 -0.042904187634624238 0.036207934874452424 0 -0.046615060963160329 0.040415863905459329 0 -0.047889589936282159 0.036546208605295054 0 -0.056471122151450275 0.03179566743927674 0 -0.047889589936282159 0.036546208605295054 0 -0.05989181472683603 0.031562853084600315 0 -0.059356370937123044 0.031942289522875061 0 -0.059801516888717245 0.03194068259087942 0 -0.058377122398051699 0.033278954908578857 0 -0.056539258550867062 0.033393877647139691 0 -0.056234134612041187 0.035290811807202102 0 -0.059644763434410025 0.032077892409967584 0 -0.059496585247008314 0.032232845119246505 0 -0.059890196648891704 0.032201550154274887 0 -0.059644763434410025 0.032077892409967584 0 -0.059356370937123044 0.031942289522875061 0 -0.059801516888717245 0.03194068259087942 0 -0.059644763434410025 0.032077892409967584 0 -0.059496585247008314 0.032232845119246505 0 -0.059356370937123044 0.031942289522875061 0 -0.047889589936282159 0.036546208605295054 0 -0.050353902815313906 0.033699933937079853 0 -0.043456931137334141 0.038684569529803814 0 -0.04649520567990767 0.035823310981430101 0 -0.059153177835415953 0.032179056474725541 0 -0.059119426335337129 0.03222842614976737 0 -0.059197058025826844 0.032467034788302457 0 -0.034215615341084478 0.038429274424296542 0 -0.033262310456561854 0.039346357631603948 0 -0.033237837283472488 0.037847914935621667 0 -0.059496585247008314 0.032232845119246505 0 -0.059356370937123044 0.031942289522875061 0 -0.059209590902627243 0.032505788493980066 0 -0.047889589936282159 0.036546208605295054 0 -0.043456931137334141 0.038684569529803814 0 -0.035568822599714035 0.041407035010717894 0 -0.043456931137334141 0.038684569529803814 0 -0.059153177835415953 0.032179056474725541 0 -0.059209590902627243 0.032505788493980066 0 -0.059197058025826844 0.032467034788302457 0 -0.034178243269761106 0.037687728742025479 0 -0.033237837283472488 0.037847914935621667 0 -0.033208593623440232 0.036293778551303994 0 -0.034215615341084478 0.038429274424296542 0 -0.034178243269761106 0.037687728742025479 0 -0.033237837283472488 0.037847914935621667 0 -0.059209590902627243 0.032505788493980066 0 -0.059197058025826844 0.032467034788302457 0 -0.059182947636884024 0.032867756061100123 0 -0.059496585247008314 0.032232845119246505 0 -0.059728096101772189 0.032436379702051543 0 -0.059890196648891704 0.032201550154274887 0 -0.059496585247008314 0.032232845119246505 0 -0.059209590902627243 0.032505788493980066 0 -0.059728096101772189 0.032436379702051543 0 -0.059209590902627243 0.032505788493980066 0 -0.059728096101772189 0.032436379702051543 0 -0.059182947636884024 0.032867756061100123 0 -0.059728096101772189 0.032436379702051543 0 -0.059742364878826934 0.032869177832181358 0 -0.059269540208392646 0.032785095402936872 0 -0.054396606918729384 0.031347923611691808 0 -0.049603990376309484 0.033770926448973379 0 -0.034178243269761106 0.037687728742025479 0 -0.034632950860652191 0.03657294077807606 0 -0.033208593623440232 0.036293778551303994 0 -0.04649520567990767 0.035823310981430101 0 -0.049603990376309484 0.033770926448973379 0 -0.060251972784030702 0.032485717058031598 0 -0.060736168067768138 0.032713282192913029 0 -0.060194085908405796 0.032947707843814088 0 -0.059728096101772189 0.032436379702051543 0 -0.059742364878826934 0.032869177832181358 0 -0.060251972784030702 0.032485717058031598 0 -0.059742364878826934 0.032869177832181358 0 -0.060251972784030702 0.032485717058031598 0 -0.060194085908405796 0.032947707843814088 0 -0.059728096101772189 0.032436379702051543 0 -0.060251972784030702 0.032485717058031598 0 -0.059890196648891704 0.032201550154274887 0 -0.060251972784030702 0.032485717058031598 0 -0.060200638319771176 0.032082250388782124 0 -0.059890196648891704 0.032201550154274887 0 -0.060251972784030702 0.032485717058031598 0 -0.060200638319771176 0.032082250388782124 0 -0.060575683850369579 0.032170576700741492 0 -0.060200638319771176 0.032082250388782124 0 -0.060426921803515478 0.0318930326177519 0 -0.060575683850369579 0.032170576700741492 0 -0.060200638319771176 0.032082250388782124 0 -0.059890196648891704 0.032201550154274887 0 -0.059801516888717245 0.03194068259087942 0 -0.060200638319771176 0.032082250388782124 0 -0.059801516888717245 0.03194068259087942 0 -0.060091202244814297 0.031787013480203893 0 -0.059644763434410025 0.032077892409967584 0 -0.059890196648891704 0.032201550154274887 0 -0.059801516888717245 0.03194068259087942 0 -0.05989181472683603 0.031562853084600315 0 -0.059801516888717245 0.03194068259087942 0 -0.060091202244814297 0.031787013480203893 0 -0.060132284359115364 0.031541646855018611 0 -0.05989181472683603 0.031562853084600315 0 -0.060091202244814297 0.031787013480203893 0 -0.060200638319771176 0.032082250388782124 0 -0.060091202244814297 0.031787013480203893 0 -0.060426921803515478 0.0318930326177519 0 -0.060334899984049013 0.031639313011470542 0 -0.060132284359115364 0.031541646855018611 0 -0.060091202244814297 0.031787013480203893 0 -0.060334899984049013 0.031639313011470542 0 -0.060091202244814297 0.031787013480203893 0 -0.060426921803515478 0.0318930326177519 0 -0.060334899984049013 0.031639313011470542 0 -0.060426921803515478 0.0318930326177519 0 -0.060671293972365876 0.031719858555260438 0 -0.060426921803515478 0.0318930326177519 0 -0.060671293972365876 0.031719858555260438 0 -0.060736109631958246 0.031968389607730796 0 -0.060671293972365876 0.031719858555260438 0 -0.06100821516787288 0.031845948005392505 0 -0.060736109631958246 0.031968389607730796 0 -0.060991712064180553 0.031501121646103275 0 -0.060671293972365876 0.031719858555260438 0 -0.06100821516787288 0.031845948005392505 0 -0.060991712064180553 0.031501121646103275 0 -0.06100821516787288 0.031845948005392505 0 -0.061342110284700449 0.031682948851093851 0 -0.060962746950755764 0.032160860656060955 0 -0.06131723877960308 0.03203727165502037 0 -0.061232904219546011 0.032343291753430245 0 -0.06100821516787288 0.031845948005392505 0 -0.060962746950755764 0.032160860656060955 0 -0.060736109631958246 0.031968389607730796 0 -0.06100821516787288 0.031845948005392505 0 -0.060962746950755764 0.032160860656060955 0 -0.06131723877960308 0.03203727165502037 0 -0.060962746950755764 0.032160860656060955 0 -0.060575683850369579 0.032170576700741492 0 -0.060736109631958246 0.031968389607730796 0 -0.060426921803515478 0.0318930326177519 0 -0.060575683850369579 0.032170576700741492 0 -0.060736109631958246 0.031968389607730796 0 -0.061730430092832522 0.031814691910859928 0 -0.061342110284700449 0.031682948851093851 0 -0.06131723877960308 0.03203727165502037 0 -0.061576126994839449 0.031529700607156728 0 -0.061730430092832522 0.031814691910859928 0 -0.061342110284700449 0.031682948851093851 0 -0.06100821516787288 0.031845948005392505 0 -0.061342110284700449 0.031682948851093851 0 -0.06131723877960308 0.03203727165502037 0 -0.061730430092832522 0.031814691910859928 0 -0.06131723877960308 0.03203727165502037 0 -0.061624698909587473 0.032196962638845049 0 -0.061895557949543545 0.033321994542028041 0 -0.061973203011394092 0.032442687185101016 0 -0.061624698909587473 0.032196962638845049 0 -0.061379912929545866 0.0325967175875847 0 -0.061550590016003714 0.032497568823393205 0 -0.06131723877960308 0.03203727165502037 0 -0.061624698909587473 0.032196962638845049 0 -0.061232904219546011 0.032343291753430245 0 -0.061624698909587473 0.032196962638845049 0 -0.061232904219546011 0.032343291753430245 0 -0.061379912929545866 0.0325967175875847 0 -0.061379912929545866 0.0325967175875847 0 -0.061550590016003714 0.032497568823393205 0 -0.061494106523828557 0.032578227304478145 0 -0.061232904219546011 0.032343291753430245 0 -0.061379912929545866 0.0325967175875847 0 -0.06115315847167381 0.032573824991987008 0 -0.060251972784030702 0.032485717058031598 0 -0.060575683850369579 0.032170576700741492 0 -0.06084686667154153 0.032431300912276209 0 -0.060962746950755764 0.032160860656060955 0 -0.060575683850369579 0.032170576700741492 0 -0.06084686667154153 0.032431300912276209 0 -0.060962746950755764 0.032160860656060955 0 -0.061232904219546011 0.032343291753430245 0 -0.06084686667154153 0.032431300912276209 0 -0.061232904219546011 0.032343291753430245 0 -0.06084686667154153 0.032431300912276209 0 -0.06115315847167381 0.032573824991987008 0 -0.06115315847167381 0.032573824991987008 0 -0.060736168067768138 0.032713282192913029 0 -0.061371603723825947 0.032724705695141666 0 -0.061379912929545866 0.0325967175875847 0 -0.06115315847167381 0.032573824991987008 0 -0.061371603723825947 0.032724705695141666 0 -0.06084686667154153 0.032431300912276209 0 -0.06115315847167381 0.032573824991987008 0 -0.060736168067768138 0.032713282192913029 0 -0.060251972784030702 0.032485717058031598 0 -0.06084686667154153 0.032431300912276209 0 -0.060736168067768138 0.032713282192913029 0 -0.063045029168630876 0.032679567063883051 0 -0.061371603723825947 0.032724705695141666 0 -0.062223832000489442 0.032138898901951603 0 -0.060736168067768138 0.032713282192913029 0 -0.06059321805629362 0.033135570469447428 0 -0.061371603723825947 0.032724705695141666 0 -0.061495010849739483 0.032102085860882396 0 -0.061466611857499076 0.032288462447037217 0 -0.061371603723825947 0.032724705695141666 0 -0.061400602110425362 0.032561106283782316 0 -0.062223832000489442 0.032138898901951603 0 -0.061400602110425362 0.032561106283782316 0 -0.062223832000489442 0.032138898901951603 0 -0.061995731469114801 0.031059717847701375 0 -0.061784047250124742 0.032098078174118722 0 -0.062131386189114832 0.031259933925729698 0 -0.061869308740047445 0.032519662691506607 0 -0.061824048924504556 0.031999425534794929 0 -0.062493304179232941 0.031345724991315334 0 -0.062223832000489442 0.032138898901951603 0 -0.061995731469114801 0.031059717847701375 0 -0.063419171518070333 0.031262245504052384 0 -0.063045029168630876 0.032679567063883051 0 -0.062223832000489442 0.032138898901951603 0 -0.063419171518070333 0.031262245504052384 0 -0.061550590016003714 0.032497568823393205 0 -0.061436061932815721 0.032595535465401837 0 -0.061494106523828557 0.032578227304478145 0 -0.061436061932815721 0.032595535465401837 0 -0.061494106523828557 0.032578227304478145 0 -0.061522737940564412 0.032385194877823147 0 -0.061653944292944005 0.032360229238892008 0 -0.061784047250124742 0.032098078174118722 0 -0.061379912929545866 0.0325967175875847 0 -0.061869308740047445 0.032519662691506607 0 -0.061494106523828557 0.032578227304478145 0 -0.061379912929545866 0.0325967175875847 0 -0.061371603723825947 0.032724705695141666 0 -0.061400602110425362 0.032561106283782316 0 -0.061869308740047445 0.032519662691506607 0 -0.061494106523828557 0.032578227304478145 0 -0.061522737940564412 0.032385194877823147 0 -0.061824048924504556 0.031999425534794929 0 -0.061522737940564412 0.032385194877823147 0 -0.061479556769858286 0.031671618761757808 0 -0.061869308740047445 0.032519662691506607 0 -0.061824048924504556 0.031999425534794929 0 -0.061522737940564412 0.032385194877823147 0 -0.061049727705342505 0.032634736921743797 0 -0.061436061932815721 0.032595535465401837 0 -0.061522737940564412 0.032385194877823147 0 -0.061049727705342505 0.032634736921743797 0 -0.061522737940564412 0.032385194877823147 0 -0.061479556769858286 0.031671618761757808 0 -0.061049727705342505 0.032634736921743797 0 -0.060685655804230951 0.030922159298502228 0 -0.061479556769858286 0.031671618761757808 0 -0.060685655804230951 0.030922159298502228 0 -0.061479556769858286 0.031671618761757808 0 -0.061633788468451793 0.029910159636104668 0 -0.061479556769858286 0.031671618761757808 0 -0.061633788468451793 0.029910159636104668 0 -0.062493304179232941 0.031345724991315334 0 -0.061824048924504556 0.031999425534794929 0 -0.061479556769858286 0.031671618761757808 0 -0.062493304179232941 0.031345724991315334 0 -0.060384962464974642 0.029290902138329102 0 -0.060685655804230951 0.030922159298502228 0 -0.061633788468451793 0.029910159636104668 0 -0.061995731469114801 0.031059717847701375 0 -0.062711459911100137 0.029632453008982595 0 -0.063419171518070333 0.031262245504052384 0 -0.062131386189114832 0.031259933925729698 0 -0.062365508168043454 0.030639128972284088 0 -0.061633788468451793 0.029910159636104668 0 -0.062493304179232941 0.031345724991315334 0 -0.062711459911100137 0.029632453008982595 0 -0.063838476689825591 0.028854756297516052 0 -0.062711459911100137 0.029632453008982595 0 -0.064096911737556481 0.030189210688929477 0 -0.062711459911100137 0.029632453008982595 0 -0.064096911737556481 0.030189210688929477 0 -0.063419171518070333 0.031262245504052384 0 -0.064096911737556481 0.030189210688929477 0 -0.063419171518070333 0.031262245504052384 0 -0.065070286696133642 0.030991950571440399 0 -0.063838476689825591 0.028854756297516052 0 -0.064096911737556481 0.030189210688929477 0 -0.065184678304381252 0.029836805611136167 0 -0.064096911737556481 0.030189210688929477 0 -0.065070286696133642 0.030991950571440399 0 -0.065184678304381252 0.029836805611136167 0 -0.065070286696133642 0.030991950571440399 0 -0.065184678304381252 0.029836805611136167 0 -0.066394139914557143 0.030168287606569234 0 -0.065692934856472249 0.028970400885764143 0 -0.065184678304381252 0.029836805611136167 0 -0.066394139914557143 0.030168287606569234 0 -0.048204731240344481 0.029023690078858331 0 -0.047590546386954327 0.029499959192142582 0 -0.048009789131123637 0.030186844262729016 0 -0.052509308774126282 0.029308094355467079 0 -0.054514124056495 0.031165665438564784 0 -0.047590546386954327 0.029499959192142582 0 -0.048009789131123637 0.030186844262729016 0 -0.047595261859020681 0.031040532931048838 0 -0.065070286696133642 0.030991950571440399 0 -0.066394139914557143 0.030168287606569234 0 -0.066369307909933908 0.031837228330092268 0 -0.054514124056495 0.031165665438564784 0 -0.06072941520766606 0.031527497830863289 0 -0.065070286696133642 0.030991950571440399 0 -0.066369307909933908 0.031837228330092268 0 -0.064748418988907583 0.032258399348606664 0 -0.048484578746022536 0.031935617335738416 0 -0.047862637363971554 0.030971224106081295 0 -0.04759876242388919 0.031039538060282063 0 -0.048506384123621807 0.030875967191640243 0 -0.048009789131123637 0.030186844262729016 0 -0.047862637363971554 0.030971224106081295 0 -0.048009789131123637 0.030186844262729016 0 -0.047862637363971554 0.030971224106081295 0 -0.047595261859020681 0.031040532931048838 0 -0.054263521331418582 0.031210364711626064 0 -0.054514124056495 0.031165665438564784 0 -0.049603990376309484 0.033770926448973379 0 -0.054514124056495 0.031165665438564784 0 -0.043768164915087462 0.033629728250443837 0 -0.049603990376309484 0.033770926448973379 0 -0.048484578746022536 0.031935617335738416 0 -0.047594877253111061 0.032703151886478189 0 -0.04759876242388919 0.031039538060282063 0 -0.059742364878826934 0.032869177832181358 0 -0.059252477757123716 0.033476335559059163 0 -0.05990264939901193 0.033321243546734873 0 -0.059742364878826934 0.032869177832181358 0 -0.059269540208392646 0.032785095402936872 0 -0.059252477757123716 0.033476335559059163 0 -0.059742364878826934 0.032869177832181358 0 -0.060194085908405796 0.032947707843814088 0 -0.05990264939901193 0.033321243546734873 0 -0.06059321805629362 0.033135570469447428 0 -0.060194085908405796 0.032947707843814088 0 -0.05990264939901193 0.033321243546734873 0 -0.061495010849739483 0.032102085860882396 0 -0.06072941520766606 0.031527497830863289 0 -0.060736168067768138 0.032713282192913029 0 -0.06059321805629362 0.033135570469447428 0 -0.060194085908405796 0.032947707843814088 0 -0.063045029168630876 0.032679567063883051 0 -0.063419171518070333 0.031262245504052384 0 -0.064748418988907583 0.032258399348606664 0 -0.063419171518070333 0.031262245504052384 0 -0.065070286696133642 0.030991950571440399 0 -0.064748418988907583 0.032258399348606664 0 
</DataArray>
</PointData>
<CellData Scalars="region_id,cross_section_updated," Vectors="" Tensors="stress,">
<DataArray type="Float64" Name="region_id" format="ascii">
5 5 6 5 5 5 5 6 5 5 5 5 5 5 5 5 5 5 5 5 6 5 5 5 5 6 5 5 5 5 5 5 5 6 5 5 5 5 5 5 5 5 6 5 5 5 5 5 5 5 5 5 5 5 6 6 5 5 5 5 5 5 5 5 6 5 5 5 5 5 5 5 5 5 5 5 5 5 5 5 5 5 5 5 5 5 5 6 5 5 5 5 5 5 5 5 5 5 5 6 5 5 5 6 5 5 5 5 5 5 5 5 5 5 5 5 5 5 5 5 5 5 5 5 5 5 5 5 5 5 5 5 5 5 5 5 5 5 5 5 5 5 5 5 5 5 5 5 5 6 5 6 5 5 5 5 5 5 5 5 5 5 5 5 5 5 5 5 5 5 5 5 5 5 5 5 5 5 6 5 5 6 5 6 5 5 5 5 5 5 5 5 5 5 5 5 5 5 6 5 6 5 5 5 5 5 5 5 6 5 6 5 5 5 5 5 5 6 5 5 6 5 5 5 5 5 5 6 6 5 5 6 5 6 5 6 6 5 5 5 6 5 5 5 5 5 5 5 5 5 5 5 5 5 6 5 5 5 5 5 5 5 6 5 5 5 5 5 5 5 6 5 5 5 5 6 5 5 5 5 5 5 6 5 5 5 6 5 5 5 5 5 5 5 6 5 5 5 5 5 5 6 5 5 5 5 5 5 6 5 5 5 5 5 5 5 6 5 5 5 5 5 5 5 5 5 5 5 5 5 5 5 5 5 5 5 5 5 6 6 5 5 5 5 5 6 5 5 5 5 5 5 5 6 5 6 5 5 5 6 5 5 5 6 5 6 5 5 5 5 5 5 5 6 5 5 5 5 5 5 5 6 5 5 5 6 5 5 5 5 5 5 5 5 5 5 5 5 5 5 5 5 5 5 5 5 5 5 5 5 5 5 5 5 5 5 5 5 6 5 5 5 5 5 5 5 5 5 5 5 5 5 5 5 5 5 5 5 5 5 5 5 5 5 5 5 5 5 5 5 5 6 5 5 5 5 5 5 5 5 5 5 5 5 5 5 5 5 5 5 5 5 6 5 5 5 5 5 5 5 6 5 5 5 5 5 6 5 5 6 5 6 5 5 5 5 6 5 5 6 5 5 5 5 5 5 6 5 5 5 5 5 5 5 5 5 5 5 5 5 5 5 5 5 5 5 6 5 5 5 5 5 5 5 5 5 5 5 6 6 5 5 5 5 5 5 5 5 5 5 5 5 5 5 5 5 5 5 5 5 5 6 5 6 6 5 5 6 5 5 5 5 5 5 5 5 5 5 5 5 5 6 5 5 5 5 5 5 5 6 6 5 5 5 5 5 5 5 5 6 6 5 5 5 6 5 5 5 5 5 5 5 5 5 5 5 5 5 5 5 5 5 5 5 5 5 5 5 5 5 5 5 5 5 5 5 5 5 5 5 6 5 5 6 5 5 5 5 6 5 5 5 6 5 5 5 6 5 5 6 5 5 5 5 5 5 5 5 5 5 5 5 5 5 5 5 5 5 5 5 5 6 5 5 5 6 5 5 5 5 5 6 5 5 5 5 5 5 6 5 5 5 5 5 5 5 5 5 5 5 5 5 5 5 5 5 5 6 5 5 5 5 5 5 5 5 5 5 5 5 5 5 5 5 5 5 5 5 5 6 5 5 5 5 5 5 5 5 5 5 5 5 5 5 5 6 5 5 5 5 5 5 5 5 5 5 5 5 5 5 5 5 5 5 6 5 5 5 5 5 5 5 6 5 5 5 5 5 5 5 5 5 5 5 5 5 5 5 5 5 5 5 5 5 6 5 5 5 5 5 5 5 5 5 6 5 5 5 5 5 5 5 5 6 5 5 5 5 5 5 5 5 5 5 5 5 5 5 5 5 5 5 5 6 5 5 5 5 5 6 5 5 5 6 5 5 5 5 5 5 6 5 5 5 5 5 5 5 5 5 5 6 5 5 5 5 5 5 5 5 5 5 5 5 6 5 6 5 5 5 5 5 5 5 6 5 6 5 5 5 5 5 5 5 5 5 5 5 5 5 5 5 5 5 5 5 5 5 5 5 5 5 5 5 5 5 5 5 5 5 5 5 5 5 5 5 5 5 5 5 5 5 6 6 5 5 6 5 5 5 5 5 5 5 5 5 5 5 5 5 5 5 5 6 5 5 5 5 6 5 5 6 5 5 5 5 5 5 6 5 6 5 5 6 5 5 5 5 5 5 5 5 5 5 6 5 5 5 5 5 6 6 5 5 5 5 6 5 5 6 5 6 5 5 5 5 5 6 5 5 6 5 5 5 5 5 5 5 5 5 5 5 5 6 5 5 5 5 5 5 5 5 5 5 5 5 5 5 5 6 5 6 5 6 6 5 6 5 5 6 5 5 5 5 5 5 6 5 6 5 5 6 5 5 5 6 5 5 6 5 5 5 5 5 6 5 5 6 5 5 5 5 5 6 5 6 5 5 6 5 5 6 5 5 5 5 5 5 5 5 6 5 5 5 5 5 5 5 5 5 5 6 5 5 5 5 6 5 5 6 5 5 5 5 5 6 5 5 5 5 5 6 5 6 5 5 5 5 5 5 6 5 5 5 5 5 5 5 5 6 6 6 5 5 5 5 6 5 6 5 5 5 6 6 5 5 5 6 5 5 5 6 5 6 5 6 6 5 6 5 5 5 5 6 5 5 5 6 5 6 5 6 5 5 5 5 5 5 5 6 5 5 5 5 6 5 5 5 5 5 5 5 5 6 5 6 6 5 5 5 6 5 5 5 5 6 6 5 5 6 6 5 5 5 5 5 6 5 5 5 5 5 5 5 5 6 5 6 5 5 5 5 5 5 5 5 5 5 5 5 5 5 5 5 5 6 5 5 5 5 5 5 5 5 5 5 5 5 5 5 5 5 5 5 5 5 5 5 5 5 5 6 5 6 5 5 5 5 5 6 6 5 5 5 5 6 6 5 6 5 5 6 5 5 6 5 5 5 5 6 6 5 5 5 5 5 5 5 5 6 5 5 6 5 5 5 6 5 5 6 5 5 5 5 5 5 6 5 5 5 5 5 5 6 5 5 5 5 5 6 5 5 6 6 5 5 6 5 5 6 5 5 5 5 5 5 5 5 5 5 5 5 6 5 6 5 5 6 5 5 5 5 5 5 6 5 5 5 6 6 6 5 5 5 6 6 5 6 6 5 5 6 5 5 6 5 6 5 6 5 5 5 6 6 5 5 6 6 6 6 5 5 5 6 6 5 5 6 6 6 5 6 6 5 5 6 5 6 6 5 6 5 5 6 5 6 6 5 5 5 5 6 6 5 5 6 5 5 5 6 5 5 5 5 5 5 5 5 5 5 5 5 5 5 5 5 5 5 5 5 5 5 5 5 5 5 5 5 5 5 5 5 5 5 5 5 5 5 5 5 5 5 5 5 5 5 5 5 5 5 5 5 5 5 5 5 5 5 6 5 6 5 5 5 5 5 5 5 5 5 5 5 5 5 5 6 5 5 5 5 5 5 5 5 5 5 6 5 5 5 5 5 5 5 5 5 5 5 5 5 5 5 5 5 5 5 5 5 5 5 5 5 5 5 5 5 5 5 5 5 5 5 5 5 5 5 5 5 5 5 5 5 5 6 5 5 5 6 5 6 5 5 5 5 5 6 5 6 5 5 5 5 5 5 5 5 5 5 5 5 5 5 5 5 5 5 5 5 5 5 5 5 5 6 5 5 5 5 5 5 6 5 6 5 5 5 6 5 5 6 5 5 5 5 5 5 5 5 5 5 5 5 5 5 5 5 5 5 5 5 5 5 5 5 5 5 5 5 5 5 5 5 5 5 5 5 5 6 5 6 5 5 5 5 5 5 5 5 5 5 6 5 5 5 5 5 5 5 5 5 5 5 5 5 5 5 5 5 6 5 5 5 6 6 5 6 5 5 5 5 5 5 5 5 6 5 5 5 5 6 5 5 5 5 5 5 5 6 5 5 6 5 6 5 5 6 5 5 6 6 5 5 5 5 5 5 5 5 5 5 5 5 5 5 5 6 5 6 5 5 5 6 5 6 5 5 5 5 5 5 5 5 5 5 5 5 6 5 6 5 5 5 5 5 5 5 5 6 5 5 6 5 5 5 6 6 5 5 5 5 5 5 5 5 5 5 5 5 5 5 5 5 5 5 5 5 5 6 5 5 5 5 5 6 5 6 5 5 5 5 6 5 5 6 5 5 5 5 5 6 5 5 5 5 6 5 5 5 5 5 5 5 6 5 5 5 6 5 5 5 5 5 5 5 5 5 5 5 6 5 5 5 5 5 5 5 5 6 5 5 5 5 5 5 6 5 5 5 5 5 5 6 5 5 5 5 5 5 5 5 5 5 5 6 5 5 5 6 5 5 5 6 5 6 5 5 5 5 5 5 6 5 5 5 5 5 5 5 5 5 5 5 5 5 5 5 6 5 5 5 5 5 6 5 5 5 5 5 5 5 5 6 5 5 5 5 5 5 5 5 5 5 5 5 5 5 5 5 6 5 5 5 5 6 5 5 5 5 5 5 5 5 5 5 5 5 5 5 5 5 5 5 5 5 5 5 5 5 5 5 6 5 5 5 6 5 6 5 5 5 5 6 5 6 5 5 5 5 5 6 5 5 5 5 5 5 5 5 5 6 5 5 5 5 5 5 5 5 5 5 5 5 5 5 5 5 5 5 5 5 5 5 5 5 6 6 5 5 5 5 5 6 5 5 5 6 5 5 5 6 5 5 6 5 6 5 5 5 5 6 5 5 5 5 6 6 5 5 5 5 5 5 5 5 5 5 5 5 6 5 5 5 5 6 5 5 5 5 5 6 5 5 6 5 5 5 5 5 5 5 5 5 5 5 5 5 5 5 5 6 5 5 6 5 5 5 6 5 5 5 5 5 5 5 5 5 5 5 6 5 5 5 5 5 5 5 5 5 5 5 5 5 5 5 5 6 5 5 6 5 6 5 5 6 5 6 5 6 5 5 5 5 5 5 5 5 5 5 5 5 5 6 5 6 6 5 5 6 6 5 5 6 6 5 5 5 6 5 6 5 5 6 5 5 5 5 6 6 5 6 5 5 6 6 5 5 6 5 5 5 6 5 5 5 6 6 6 5 5 6 5 6 6 5 5 5 5 5 5 5 5 5 5 5 6 6 5 6 5 6 5 6 5 5 5 6 5 5 5 5 5 6 5 5 5 5 5 5 5 5 5 5 5 5 5 5 5 5 5 5 5 5 5 5 5 5 6 5 5 5 5 5 5 5 5 5 5 5 5 5 5 5 5 5 5 6 5 5 5 5 5 5 5 5 5 5 5 6 5 5 5 5 5 6 5 5 5 5 5 5 5 5 5 5 5 5 5 5 6 5 5 5 5 5 5 5 5 5 5 5 5 5 5 6 5 6 5 5 5 5 6 5 5 5 5 5 5 5 5 5 5 5 5 6 5 6 5 5 5 5 6 5 5 5 5 5 5 5 6 5 5 5 5 5 5 5 6 5 5 5 6 5 6 5 5 5 5 5 5 5 5 5 6 5 5 5 5 5 5 5 5 5 5 5 5 5 5 5 5 5 5 5 5 5 5 5 5 5 5 5 5 5 5 5 5 5 5 5 5 5 5 5 5 5 5 5 6 5 5 6 5 5 5 5 5 5 5 5 5 5 6 5 5 5 5 5 6 5 5 6 5 5 5 5 5 5 6 5 5 5 5 6 5 5 6 5 6 5 5 5 5 5 5 5 5 5 5 5 6 5 6 5 5 5 5 6 5 5 5 5 5 5 5 5 5 5 5 5 5 5 5 5 5 5 5 5 5 6 5 5 5 5 6 5 5 5 5 5 5 5 6 5 5 5 5 5 6 5 5 5 6 5 5 5 6 5 5 6 5 5 5 6 5 5 6 5 5 5 5 5 5 5 5 5 5 5 5 5 5 5 5 5 5 5 5 5 5 5 5 5 5 5 5 5 5 5 6 5 5 5 5 5 5 5 5 5 5 5 6 5 5 5 5 5 5 5 5 5 5 5 5 5 5 5 6 6 5 5 5 6 5 5 5 5 6 5 5 6 5 5 5 5 5 5 5 5 5 5 5 5 5 6 6 5 5 5 5 5 5 5 5 5 5 5 6 5 5 6 5 5 5 5 5 5 5 5 5 5 5 5 5 5 5 5 5 5 5 6 5 5 5 6 5 5 5 5 5 6 5 5 5 5 5 5 5 5 5 5 5 5 5 5 5 5 5 5 5 5 6 5 5 6 5 5 5 5 5 5 5 5 5 5 5 5 5 5 5 5 5 5 5 6 5 5 5 5 5 5 5 5 5 5 5 5 5 5 5 5 5 5 5 5 5 5 5 5 5 5 5 5 5 5 5 5 6 5 5 5 5 5 5 6 5 5 5 5 5 6 5 5 5 5 6 5 5 5 5 5 5 5 5 5 5 5 5 5 5 5 5 5 5 5 5 5 5 6 5 5 5 5 5 5 5 6 5 5 6 5 5 6 5 5 5 5 5 5 6 5 5 5 5 5 5 5 5 5 5 6 5 6 5 5 5 5 5 5 5 5 6 5 5 6 5 5 5 6 5 5 5 6 5 5 5 6 6 5 5 6 5 5 6 5 5 6 5 5 5 5 5 5 5 5 5 6 5 5 5 6 5 5 5 6 5 5 5 6 5 6 5 5 6 5 5 5 5 5 5 5 5 6 5 5 6 5 5 5 5 5 5 5 5 5 5 5 5 5 6 5 6 5 5 5 6 6 5 6 5 5 5 5 6 5 6 5 5 5 5 5 5 5 5 5 6 5 5 5 5 5 5 5 5 5 5 5 5 5 5 5 5 5 5 5 5 5 5 5 5 5 5 5 5 6 5 5 5 5 5 5 6 5 5 5 5 5 5 6 5 5 5 5 5 5 6 5 5 5 6 5 5 5 6 5 5 6 5 5 5 5 5 5 6 5 5 5 6 6 5 5 5 5 5 5 5 5 5 5 5 5 5 5 5 5 5 6 5 5 5 5 5 5 5 6 5 5 5 5 5 6 5 5 5 5 5 6 5 5 6 5 5 5 5 6 5 5 5 5 5 5 6 5 6 5 6 6 5 6 5 5 5 6 5 5 5 5 5 6 5 5 5 6 5 5 5 5 6 6 6 5 5 5 5 6 6 5 6 5 5 5 5 5 5 6 5 6 5 5 6 5 5 5 6 5 5 6 5 5 5 5 5 5 5 5 5 5 5 5 6 5 5 5 5 6 5 5 5 5 6 5 5 5 5 5 5 5 5 5 6 6 6 5 5 5 6 6 5 5 6 5 6 5 5 5 5 5 5 5 6 5 5 5 5 5 5 5 5 5 5 5 5 5 5 5 5 6 5 5 5 5 5 5 5 5 5 6 5 5 6 5 6 5 6 5 5 6 5 5 5 6 6 5 5 6 5 5 5 6 5 5 5 5 6 5 5 5 5 5 5 5 5 5 5 5 6 6 5 5 5 5 5 5 5 5 5 5 5 5 5 5 5 5 5 5 5 5 5 5 5 5 5 5 5 5 5 5 5 5 6 5 5 5 5 5 5 5 5 5 5 5 5 5 5 5 5 5 5 5 6 5 5 5 5 5 5 6 6 5 5 6 6 5 5 5 6 5 5 5 5 5 5 5 5 5 5 5 5 5 5 5 5 5 5 5 5 5 5 5 6 5 6 5 6 5 5 5 5 5 5 6 5 6 6 5 5 6 5 5 5 5 5 5 6 6 5 5 6 6 5 5 6 6 5 5 5 5 5 5 5 5 6 5 5 5 5 5 6 5 5 6 5 5 5 6 5 5 5 5 5 5 5 5 5 5 5 5 5 5 5 5 5 5 5 5 5 5 5 5 5 5 5 5 5 5 5 5 5 5 6 5 5 6 5 6 6 5 5 5 5 5 5 5 5 5 6 5 5 5 5 5 6 5 5 5 5 5 5 5 6 5 5 5 5 5 5 5 5 6 5 5 5 5 5 6 5 5 5 5 5 5 5 5 5 5 5 5 5 5 5 5 5 5 5 5 5 5 5 5 5 5 5 5 5 5 6 6 5 5 5 5 5 5 5 6 5 5 5 6 5 6 5 5 5 5 5 5 5 5 5 5 5 5 5 5 5 5 5 5 5 5 5 6 5 5 5 5 5 5 6 5 5 5 5 5 5 5 6 5 5 6 5 5 5 5 5 5 6 5 5 5 6 5 5 6 6 5 5 5 5 5 5 5 5 5 5 5 5 5 5 5 5 5 5 5 5 5 5 5 5 5 5 5 5 6 5 5 5 5 5 5 5 5 5 5 5 5 5 5 5 5 5 5 5 6 5 5 5 6 6 5 5 5 5 5 6 5 5 5 6 5 5 5 5 5 6 5 5 5 5 5 5 5 5 5 5 5 5 5 5 5 5 5 5 5 5 5 6 5 5 5 5 5 5 6 5 5 5 5 5 5 5 5 5 5 5 5 6 5 5 5 5 6 5 6 5 5 5 5 5 5 5 5 5 5 5 5 5 6 5 5 5 5 5 6 5 5 5 5 5 5 6 5 5 5 5 5 5 5 5 5 5 5 5 6 5 5 6 5 5 6 5 5 6 5 5 5 5 5 5 5 5 5 5 6 5 5 5 5 5 5 5 5 6 5 5 5 6 5 5 5 6 5 5 6 5 5 5 6 5 5 5 5 5 6 5 6 5 5 5 5 6 6 5 5 5 6 5 5 5 5 6 5 5 5 5 5 5 5 5 5 5 5 5 5 5 5 6 5 5 6 6 5 5 5 5 6 5 5 5 5 5 5 6 5 5 5 5 5 5 6 5 5 5 5 5 5 5 5 6 5 5 5 5 5 5 5 5 5 5 6 5 5 6 5 5 6 5 5 5 5 5 6 6 5 5 6 6 5 6 5 6 5 6 6 5 5 6 5 6 5 6 5 6 5 6 5 5 6 5 6 5 6 5 5 5 5 5 5 6 5 5 5 6 5 5 5 5 5 5 5 5 5 6 5 5 6 5 6 5 6 5 5 5 6 6 5 5 5 5 5 5 5 5 5 5 5 6 5 5 5 5 5 6 5 5 5 5 5 5 5 5 5 5 5 5 5 5 5 5 5 6 5 5 5 5 5 5 6 5 5 5 6 5 5 6 5 5 5 6 5 6 6 5 5 5 5 5 5 5 5 5 6 5 5 5 5 5 5 5 6 5 6 5 6 5 5 5 5 5 5 5 5 5 5 5 5 5 5 5 5 5 5 5 5 5 5 5 5 5 5 5 5 5 5 5 5 5 5 5 5 5 6 5 5 6 6 5 5 5 5 6 5 5 5 5 5 6 5 5 6 6 5 5 5 5 5 5 6 5 6 5 5 6 6 5 6 5 5 5 6 5 5 5 5 6 5 5 5 6 5 5 6 6 5 5 5 6 5 5 5 5 6 5 5 6 5 5 5 6 5 5 6 5 5 5 6 5 6 5 5 6 5 5 6 6 5 5 6 5 6 6 5 5 5 5 6 5 5 5 5 6 5 5 5 5 5 5 5 5 5 5 5 5 6 5 5 5 5 6 5 6 5 5 5 5 5 6 6 6 5 5 5 5 5 5 5 5 6 5 5 5 5 5 5 6 5 5 5 5 6 5 5 5 5 5 5 5 5 5 5 5 5 5 5 5 5 5 5 6 5 6 5 5 6 6 5 6 5 5 6 5 6 5 6 5 6 5 5 5 5 6 5 5 5 6 5 5 5 5 5 5 5 5 5 5 5 5 5 5 5 5 5 5 5 5 5 5 5 5 5 6 5 5 5 5 5 6 5 5 5 5 5 5 5 5 5 5 5 6 5 5 5 5 5 6 5 5 6 6 5 5 5 6 5 5 6 6 5 6 5 5 5 5 5 5 5 5 5 5 5 5 5 5 5 5 6 5 5 5 5 6 5 5 5 5 5 5 5 5 6 6 5 5 6 5 5 5 5 5 5 5 5 5 6 6 5 5 6 5 5 5 6 5 5 5 5 5 5 5 5 5 5 5 5 5 5 5 5 5 5 5 5 5 5 5 5 5 5 6 5 5 5 5 5 5 5 5 5 5 5 5 5 5 5 5 5 5 5 5 6 5 5 5 6 6 5 5 5 6 5 5 6 5 5 5 5 5 6 5 6 5 5 5 5 5 5 5 5 6 5 5 5 6 5 5 6 5 6 5 5 5 6 5 5 5 6 5 5 5 5 5 5 5 5 5 5 5 5 5 5 5 5 5 6 5 5 5 5 5 5 5 5 5 6 5 5 5 5 5 5 5 5 6 5 5 5 5 5 5 5 5 5 5 5 5 5 6 5 5 5 6 5 5 5 5 5 5 5 5 5 5 5 5 5 5 5 5 5 5 5 6 5 5 5 6 5 6 5 5 5 6 5 5 5 6 6 5 5 5 5 5 5 5 5 5 5 5 5 5 5 5 5 5 5 5 5 5 5 6 5 5 5 5 6 5 5 5 5 6 5 5 5 5 5 5 5 6 5 5 5 5 6 5 5 5 5 5 5 6 5 5 5 5 5 5 6 5 5 5 6 5 5 5 5 5 5 5 5 5 6 5 5 5 5 5 5 6 5 5 5 5 5 5 5 5 5 5 5 6 5 5 6 5 5 5 5 5 6 5 5 6 5 5 5 5 5 5 5 6 6 5 5 5 5 6 5 5 5 5 5 5 6 5 5 5 5 5 5 5 5 5 5 6 5 5 5 5 5 5 5 5 5 5 5 5 6 5 6 5 5 5 6 5 5 6 5 5 5 5 6 5 5 5 5 5 6 5 5 5 5 5 5 5 5 6 5 5 5 5 6 5 5 5 5 5 5 5 6 5 5 5 5 5 5 5 5 5 5 6 5 5 5 6 5 6 5 5 5 5 5 5 6 5 6 5 6 5 5 5 5 6 5 5 5 5 5 5 5 5 5 5 5 5 5 5 6 5 6 5 5 5 5 5 5 5 6 5 5 5 5 5 5 5 5 5 5 5 5 5 6 5 5 5 5 6 5 5 5 5 5 5 5 5 5 5 5 5 5 5 5 5 5 5 5 5 5 5 5 5 6 5 5 5 5 6 5 5 5 6 5 5 6 5 5 6 5 5 5 5 5 5 5 5 5 5 5 5 5 5 5 6 5 5 6 5 5 5 5 5 5 5 6 5 5 5 5 5 6 5 5 5 6 5 5 5 6 5 5 5 5 5 5 5 6 5 5 5 6 5 6 6 5 5 5 5 5 6 5 5 5 5 5 5 5 5 5 5 6 5 5 5 5 5 5 5 5 5 5 5 5 5 5 5 5 5 5 5 5 5 5 5 5 5 5 5 5 5 5 5 5 5 5 5 5 5 6 5 5 5 5 5 5 5 5 5 5 5 5 5 5 5 5 6 5 5 5 5 5 5 5 5 5 6 5 5 5 5 5 5 5 6 5 5 5 5 5 5 5 5 5 5 5 5 5 5 5 5 5 5 5 5 5 6 5 5 5 5 5 5 5 5 5 5 5 5 5 5 5 5 5 6 5 5 5 5 5 5 5 5 5 5 5 5 5 5 5 5 5 5 5 5 5 5 5 5 5 5 5 5 5 5 5 5 5 5 5 5 5 5 5 5 5 5 5 5 5 5 6 5 5 5 5 5 5 5 5 5 5 5 5 5 6 5 6 5 5 5 5 5 6 5 5 5 5 5 6 6 5 5 5 5 5 5 5 5 5 5 5 5 5 5 5 5 5 6 6 5 5 5 5 5 5 6 5 6 5 5 5 5 5 5 5 5 5 6 5 5 5 5 5 5 5 5 5 5 5 5 5 5 5 5 5 5 5 6 5 5 5 5 5 6 5 6 5 5 5 5 5 5 5 6 5 5 5 6 5 5 5 6 5 5 6 5 5 5 6 5 5 6 5 6 5 6 5 5 6 5 5 5 5 5 5 5 5 5 5 5 5 5 5 5 5 5 5 5 5 5 6 5 6 5 5 5 5 5 5 5 6 5 5 5 5 5 5 5 5 5 5 5 5 5 5 5 5 5 5 5 6 5 5 5 6 5 5 5 5 5 5 5 5 5 5 6 5 5 5 5 6 5 5 6 5 5 5 5 5 6 5 5 5 5 6 5 6 5 5 6 5 5 5 5 5 5 5 6 5 5 6 5 6 5 5 5 5 5 5 5 5 5 5 5 5 5 5 5 5 5 5 6 5 5 5 5 5 5 5 6 5 5 5 5 6 5 5 5 5 5 5 5 5 5 6 5 5 5 5 6 5 5 5 5 5 5 5 5 5 5 5 5 6 5 5 5 5 5 5 5 5 5 6 5 5 5 5 5 5 5 5 5 5 5 5 6 5 5 6 5 5 5 5 5 5 5 5 5 6 6 6 5 5 5 6 5 5 5 5 5 5 6 5 5 5 6 6 5 5 5 5 5 5 5 5 5 5 5 5 6 5 5 5 6 6 5 5 5 5 5 6 5 5 5 5 6 5 5 5 5 6 5 5 5 5 5 6 6 6 5 5 5 6 6 5 5 5 5 5 5 5 5 5 6 6 5 5 5 6 6 5 5 5 5 5 5 5 5 5 5 5 5 5 5 5 5 5 6 5 6 5 5 5 5 6 5 5 5 5 5 5 5 6 5 5 5 5 5 5 5 6 5 5 6 5 6 6 5 5 5 6 6 5 5 5 6 6 5 5 5 5 5 5 5 5 5 5 6 5 5 5 5 5 5 5 6 5 5 5 5 6 5 5 5 5 5 5 6 5 5 5 5 6 5 6 5 5 5 5 5 5 5 5 5 5 5 5 5 5 6 5 5 5 5 5 5 5 6 5 5 5 5 6 5 5 5 6 5 5 5 5 5 5 5 5 5 5 5 5 5 5 5 5 5 5 5 5 5 5 6 5 6 5 5 6 5 5 5 6 5 5 6 5 5 5 5 5 5 5 5 5 5 5 5 5 5 5 5 5 5 5 5 6 6 6 5 5 5 5 5 5 5 5 5 5 5 5 5 6 5 5 5 6 5 5 6 5 5 5 5 6 5 5 6 6 5 5 5 5 6 5 5 6 5 6 5 5 5 5 5 5 5 5 5 5 5 5 6 5 5 5 5 5 5 5 6 5 6 5 5 5 5 6 5 5 5 5 5 5 5 5 5 5 5 5 5 5 5 5 5 5 5 5 5 5 5 6 5 5 5 6 5 6 5 5 5 6 5 5 5 5 5 6 5 5 6 5 5 5 5 5 5 5 5 6 5 5 5 5 5 6 5 5 5 5 5 5 5 5 5 5 5 5 5 5 6 5 5 5 5 6 5 5 5 5 5 5 5 5 5 5 5 5 6 5 5 5 5 6 5 5 5 5 5 5 5 5 5 5 5 5 5 6 5 5 6 5 5 5 6 5 5 5 5 5 5 5 5 5 5 5 5 5 6 6 5 6 6 5 5 5 6 6 5 6 5 6 5 6 5 5 5 6 5 6 5 5 5 5 6 5 5 5 5 5 5 6 5 5 5 5 5 6 5 5 6 5 5 6 5 5 6 5 5 5 5 5 6 5 6 5 5 5 5 5 5 5 5 5 5 5 5 5 6 5 5 6 5 5 5 5 5 5 5 5 5 6 5 5 5 5 5 5 5 5 5 6 5 5 6 5 6 5 5 5 5 5 5 5 6 5 5 5 5 5 5 5 6 5 6 5 5 6 5 5 5 6 5 5 5 5 6 5 5 5 5 5 6 5 5 5 5 5 5 5 5 5 5 5 5 5 5 5 5 5 5 5 5 5 6 5 5 6 5 5 5 6 5 5 5 5 6 5 5 5 5 5 5 5 5 5 5 5 5 5 5 5 5 5 5 5 5 5 5 5 6 5 5 5 5 5 5 6 5 5 5 5 5 5 5 5 5 5 5 5 5 6 5 6 5 5 6 5 5 5 5 6 6 5 6 5 6 5 5 5 5 5 6 5 5 6 6 5 5 5 5 5 6 5 5 6 5 5 5 5 5 5 5 5 6 6 5 5 5 6 5 6 5 5 5 5 5 6 5 6 5 5 5 5 5 6 6 5 5 5 5 6 5 5 5 5 6 5 5 5 5 5 5 5 5 5 5 5 5 5 5 5 5 5 6 5 5 6 5 5 5 6 5 5 5 5 5 5 5 5 5 5 5 5 5 5 5 5 5 5 5 6 5 5 5 5 5 5 5 5 5 5 5 5 5 5 6 6 5 5 5 6 5 5 5 5 5 6 5 5 5 5 5 5 5 5 5 5 5 6 5 5 6 5 5 5 5 5 5 5 5 5 5 6 5 5 5 6 5 6 5 6 5 5 5 6 6 5 6 5 5 6 5 5 6 6 5 5 5 6 5 5 6 5 6 5 5 5 6 5 5 6 6 5 6 5 5 6 5 6 5 5 5 5 5 5 5 5 5 6 5 5 5 5 5 6 5 5 5 5 5 5 5 5 5 5 6 5 5 5 5 6 6 5 5 6 5 6 5 5 5 5 5 6 5 5 6 5 6 5 5 5 5 5 5 5 6 5 5 5 5 5 5 5 5 5 6 5 6 5 6 5 6 5 5 5 5 6 5 5 5 5 5 6 6 5 5 5 5 5 5 6 5 5 5 5 5 6 5 5 5 5 6 5 5 6 5 6 5 5 5 6 5 6 5 5 6 6 6 5 5 5 5 5 5 6 6 6 5 5 5 5 6 5 6 5 6 5 5 5 5 5 5 6 5 5 5 5 5 5 5 5 5 5 5 5 5 5 5 5 5 5 5 5 5 5 5 5 5 5 5 5 5 5 5 5 5 5 5 5 5 5 5 5 5 5 5 5 5 5 5 5 5 6 5 5 5 6 6 5 5 5 5 5 5 5 5 5 5 5 5 5 5 5 5 5 5 5 6 5 5 5 5 5 5 5 6 5 5 6 5 5 6 5 5 6 5 6 5 5 6 5 5 5 6 5 6 5 6 6 5 5 5 6 6 5 5 6 5 5 6 5 5 5 5 5 5 5 5 5 5 5 5 6 5 5 5 5 6 5 5 5 5 6 5 5 5 5 5 5 5 5 5 6 5 6 5 5 5 5 6 5 5 5 6 5 5 5 5 5 5 6 5 5 6 5 5 5 6 5 5 5 5 5 5 5 6 5 5 5 5 5 6 5 5 5 5 5 5 5 5 5 5 5 5 5 5 5 6 5 5 5 5 5 6 5 5 6 5 6 5 5 5 5 6 6 5 5 6 5 5 5 5 5 5 5 5 5 5 5 6 5 6 5 5 5 5 5 6 5 5 5 6 5 5 5 6 5 5 5 5 5 5 5 5 5 5 5 5 5 6 5 5 5 5 5 5 5 6 5 6 5 5 5 5 5 5 5 6 6 5 5 5 5 5 5 5 5 5 6 5 5 5 5 5 5 6 6 6 5 6 5 5 5 5 5 5 6 5 6 5 6 5 6 5 5 5 5 5 5 6 5 5 6 5 5 5 5 6 5 5 5 5 5 5 5 5 5 5 5 5 5 5 5 5 5 5 5 5 5 6 5 6 5 5 5 5 5 5 5 5 5 5 5 5 5 5 5 5 5 5 5 5 5 5 5 5 5 5 5 5 5 5 5 5 5 5 5 5 5 5 5 5 5 5 5 5 5 5 5 5 5 5 5 5 5 5 5 5 5 5 6 5 5 5 5 5 5 5 5 5 5 5 5 5 5 5 5 5 5 5 5 5 5 5 6 5 5 5 6 5 6 5 5 5 5 5 5 5 5 5 5 5 5 5 5 5 5 5 5 5 5 5 5 5 5 5 5 5 5 5 5 5 5 5 5 5 5 5 5 5 6 5 6 5 5 5 5 5 5 5 5 5 5 5 5 5 5 5 5 5 5 5 5 5 5 5 5 5 6 5 5 5 5 5 5 5 5 5 5 5 5 5 5 5 5 5 5 5 5 5 5 5 5 5 5 5 5 5 5 5 5 5 5 5 5 5 5 5 5 5 5 5 5 5 5 5 5 5 5 5 5 5 5 5 5 5 5 5 5 5 5 5 5 5 5 5 5 5 6 5 5 5 5 5 5 5 6 5 5 6 5 5 5 5 5 5 5 5 5 5 5 5 5 5 5 5 5 5 5 5 6 5 5 5 5 5 5 5 5 5 5 5 5 5 5 5 5 5 5 5 5 5 5 5 5 5 5 5 5 5 5 5 5 6 5 5 5 5 6 5 6 5 5 5 5 5 5 6 5 5 6 5 5 6 6 5 6 5 5 5 6 5 5 5 5 5 5 5 5 5 5 5 5 5 5 5 6 5 5 5 5 5 5 5 5 6 5 5 5 5 5 5 5 5 5 5 5 5 5 5 5 5 5 5 5 5 5 5 5 5 5 5 5 5 5 5 5 5 5 5 5 5 6 5 5 5 5 5 5 5 6 5 5 6 5 6 5 5 5 5 5 5 5 5 5 5 5 6 6 5 5 6 5 5 6 6 5 5 5 5 6 5 6 5 5 6 5 6 6 5 6 5 6 5 5 5 5 5 5 5 6 5 6 5 5 5 5 5 6 5 5 5 6 5 5 6 5 6 5 6 6 5 5 6 5 5 5 5 5 5 6 5 5 5 5 5 5 5 5 6 6 5 5 5 6 5 5 5 5 6 6 5 6 5 5 5 6 5 5 5 5 5 5 5 5 5 5 5 5 5 5 5 5 6 5 5 5 5 5 5 6 5 6 5 5 5 6 6 5 5 6 5 6 5 5 5 5 5 5 5 5 5 5 5 5 6 6 5 5 5 5 5 6 5 5 5 5 5 5 5 6 5 5 5 6 5 6 5 5 6 5 5 5 5 5 5 5 5 5 6 5 5 6 5 5 5 5 5 5 5 5 5 5 5 6 5 5 5 5 5 5 5 5 5 5 5 5 5 5 5 5 5 5 5 5 5 5 6 5 5 5 5 5 5 5 5 5 5 5 6 5 5 5 5 6 5 5 5 5 5 5 5 5 5 5 5 6 5 5 5 5 5 6 5 6 5 5 5 5 5 5 5 5 5 6 5 5 6 5 5 6 5 5 5 5 6 5 5 5 5 5 5 5 5 5 5 5 5 5 5 5 5 5 5 5 5 5 6 5 5 6 5 6 5 5 5 5 5 5 5 5 5 6 5 5 6 6 6 5 5 5 6 5 5 5 5 5 5 6 6 5 6 5 5 6 5 5 6 5 5 5 5 6 5 5 5 5 6 5 5 5 5 5 5 5 5 5 5 5 6 5 5 6 5 6 6 5 5 6 6 6 5 5 5 5 5 5 5 5 5 5 6 5 5 5 5 5 5 5 5 5 6 5 5 5 5 5 6 5 5 5 5 5 5 5 5 5 5 6 5 5 5 5 5 5 5 5 5 5 5 5 5 5 5 5 5 5 5 5 5 5 5 5 6 6 5 5 5 5 5 5 5 5 6 5 5 5 5 5 5 5 5 5 5 5 5 5 5 5 5 6 5 5 5 5 6 5 5 5 6 6 5 5 5 5 5 5 6 5 6 5 5 5 6 5 5 5 5 5 5 5 5 6 5 6 6 5 5 5 5 5 5 5 5 5 5 5 5 6 5 5 6 5 6 5 5 5 5 5 5 5 5 5 5 5 5 5 5 5 5 5 5 5 5 5 5 5 6 5 5 5 5 5 6 5 5 5 5 5 5 5 5 5 5 6 5 5 5 6 5 5 5 5 5 5 5 5 5 5 5 6 6 5 5 5 5 5 6 5 5 5 6 5 5 5 5 5 5 5 5 5 5 6 5 5 5 5 5 5 5 6 6 5 6 5 5 5 5 6 5 5 5 5 5 6 5 5 5 5 5 5 5 5 5 5 6 5 5 5 5 5 5 5 5 5 5 6 5 5 5 5 5 5 5 6 5 5 5 5 5 5 5 5 5 5 5 5 5 5 5 5 5 5 5 5 6 5 5 5 6 5 5 5 5 5 5 5 5 5 5 5 5 5 6 5 6 6 5 6 6 5 5 5 5 5 6 5 5 5 5 5 5 5 6 5 5 6 5 5 6 5 5 6 5 5 6 6 6 6 5 5 6 6 5 5 6 5 5 6 5 5 5 5 6 6 6 6 5 5 5 6 5 6 5 6 5 6 6 5 5 5 5 5 5 5 6 5 5 6 5 6 5 5 6 6 5 5 5 5 5 5 5 5 5 5 5 5 5 5 5 5 5 6 5 5 5 5 5 5 5 5 5 5 5 5 5 5 5 5 5 6 5 5 5 5 5 5 5 5 5 5 5 5 5 5 6 6 5 5 5 5 6 5 6 5 5 5 6 6 5 6 5 5 5 5 5 5 5 5 5 5 5 5 5 5 5 5 5 5 5 6 5 6 5 5 5 5 6 5 5 5 5 5 5 5 5 5 5 5 5 5 5 5 5 5 5 5 5 6 5 5 5 5 5 5 5 5 5 5 5 5 5 5 6 5 5 5 5 5 5 5 5 5 5 5 5 5 5 5 5 5 5 5 5 5 5 5 5 5 5 5 5 5 5 5 5 5 5 5 5 5 5 5 5 5 5 5 5 5 5 5 5 5 5 5 5 5 5 5 5 5 5 5 5 5 5 6 5 5 5 6 5 5 6 5 5 5 5 5 5 5 5 5 5 5 6 5 5 5 5 6 5 5 5 5 5 5 5 5 5 5 5 5 5 5 5 5 5 5 5 5 5 5 5 5 5 5 5 5 5 6 5 5 5 5 6 5 5 5 5 5 5 5 5 5 5 6 5 5 6 5 5 5 5 5 5 5 5 5 5 5 5 6 5 5 5 5 5 5 5 5 6 5 5 5 5 5 5 5 5 5 5 6 5 6 5 5 5 6 5 5 5 6 5 6 5 6 6 5 5 5 5 5 6 5 5 5 5 5 5 5 5 5 5 5 5 5 5 5 5 5 5 5 5 5 5 5 6 5 5 6 5 5 5 6 5 6 5 5 5 5 5 5 5 5 5 5 5 5 6 5 5 5 5 5 5 5 5 5 5 5 5 5 5 5 5 5 5 5 6 5 5 5 5 5 5 5 5 5 5 5 5 5 5 5 5 5 5 5 5 5 5 5 5 5 5 5 6 5 5 5 5 5 5 5 5 5 5 5 5 5 5 5 5 5 5 6 5 5 5 6 5 5 5 6 6 5 5 5 5 5 6 5 5 5 5 5 5 5 6 6 5 5 5 6 5 6 5 5 5 5 5 5 6 6 5 5 6 6 5 5 5 5 5 5 5 5 5 5 6 5 5 5 5 5 5 6 5 5 5 5 5 5 5 5 5 5 5 5 5 5 5 5 5 6 5 5 5 5 6 5 5 6 5 5 5 5 5 5 5 5 5 5 5 6 5 6 5 6 5 5 5 5 5 5 5 5 5 5 5 5 5 5 5 5 5 5 5 6 5 5 6 5 5 5 6 5 5 6 5 5 5 5 6 5 5 5 5 5 5 5 6 5 5 5 5 5 5 5 5 5 5 5 5 5 5 5 5 5 5 5 5 5 5 5 5 5 5 5 5 5 6 5 5 5 5 5 5 5 5 5 5 5 5 5 5 5 5 5 5 5 5 5 5 5 5 5 5 5 5 5 5 5 5 5 5 5 5 5 6 6 6 5 5 6 5 5 5 6 5 6 5 5 5 5 5 6 5 5 5 5 5 5 5 6 5 5 5 5 5 5 5 5 5 5 5 5 5 5 6 5 5 5 6 5 6 5 5 5 5 5 5 5 5 6 5 5 5 5 5 5 5 6 5 6 5 6 5 5 5 5 5 5 5 5 6 5 5 6 6 6 5 6 5 6 5 5 5 5 5 5 5 5 5 5 5 5 5 5 5 5 5 5 5 5 5 6 5 5 6 6 5 5 5 6 5 5 5 5 5 5 5 6 5 6 5 5 5 5 6 5 5 6 5 5 5 5 5 5 5 6 5 5 6 5 5 5 6 5 5 5 5 5 5 5 5 5 6 5 5 5 5 5 5 6 5 5 6 5 5 5 5 6 5 5 5 5 5 5 6 6 6 5 5 5 6 5 6 5 6 5 5 5 5 5 5 6 5 5 5 6 5 5 5 6 5 5 5 5 5 5 5 5 5 5 5 5 6 5 5 5 6 5 5 5 5 5 6 6 5 5 6 5 6 6 6 5 5 5 6 5 5 5 5 5 6 5 5 5 5 5 5 5 5 5 5 5 5 6 5 5 5 5 5 5 6 5 5 6 5 5 6 5 5 5 5 5 6 5 5 6 5 6 5 6 5 5 5 5 5 5 6 5 5 5 5 6 5 5 5 5 5 5 5 5 5 5 6 5 5 5 5 5 6 5 5 5 5 5 5 5 5 5 5 5 5 5 5 5 6 5 5 5 5 5 6 5 6 5 5 5 5 5 6 5 5 5 5 5 6 5 5 5 5 5 6 5 5 5 5 5 5 5 5 5 5 6 5 6 5 6 5 5 6 5 5 5 5 5 5 5 5 6 5 6 5 5 5 5 5 5 5 5 5 5 6 5 5 5 5 5 5 5 5 5 5 6 5 5 5 6 5 6 6 5 5 5 6 5 5 5 6 6 5 5 5 5 5 5 5 5 5 5 6 6 5 5 5 5 5 6 5 5 5 5 5 5 5 5 5 5 6 5 6 6 6 5 5 5 5 5 5 5 5 6 5 5 5 5 5 5 5 5 5 5 5 5 5 5 5 5 5 5 5 5 5 5 5 5 5 5 5 5 5 6 5 5 5 5 6 5 5 5 5 5 5 5 5 6 5 5 5 5 5 5 5 5 6 5 5 5 5 5 5 5 5 5 5 5 5 5 5 5 5 5 5 5 5 5 5 5 5 5 5 6 5 5 5 5 5 5 6 5 6 5 5 6 5 5 5 6 5 6 5 5 5 6 5 5 5 6 5 5 5 5 5 5 6 5 5 5 5 5 5 5 5 5 5 5 5 5 5 5 5 5 5 5 5 5 5 5 5 5 5 5 6 5 6 5 5 5 5 6 5 5 5 5 5 5 5 5 5 5 5 5 5 6 5 5 6 5 5 6 5 5 5 5 5 6 5 5 5 5 5 5 5 5 6 5 6 5 5 5 5 5 6 6 5 5 6 5 5 5 6 5 5 5 5 5 5 5 6 5 5 5 5 5 5 5 5 5 5 5 5 5 5 5 5 6 5 5 5 5 5 6 5 6 5 5 5 5 5 5 5 5 5 5 5 5 6 5 6 5 5 5 5 5 5 6 6 5 5 5 5 5 5 5 5 5 5 5 5 5 5 5 5 5 5 5 5 5 6 5 5 6 5 5 5 5 5 6 5 5 5 5 5 5 6 5 5 5 5 5 5 5 5 5 5 5 5 5 5 5 5 6 5 5 6 5 5 5 5 6 5 5 5 5 5 5 5 5 5 5 5 6 5 5 5 5 5 5 5 5 5 5 5 5 5 5 5 5 5 5 5 6 5 5 5 5 5 5 5 5 5 5 5 5 6 5 5 5 5 5 5 5 5 5 5 5 5 5 6 6 5 5 5 5 5 5 6 5 5 5 5 5 5 5 5 5 5 5 5 5 5 5 5 5 5 5 5 5 5 5 5 5 5 5 5 5 5 5 5 5 5 5 6 5 5 5 5 5 5 5 5 6 5 5 5 5 5 5 5 5 5 5 5 5 6 5 5 5 5 6 5 6 5 5 5 5 5 5 5 5 6 5 5 5 5 5 5 5 5 5 5 6 5 5 5 6 5 5 6 5 5 5 5 6 5 5 6 5 5 5 5 5 5 5 5 6 5 5 5 6 5 5 5 5 5 5 5 6 5 6 5 6 5 6 6 5 5 5 6 6 6 5 5 6 5 5 5 6 5 5 5 5 6 5 5 5 5 5 5 5 5 5 5 5 5 5 5 5 5 5 5 5 5 5 5 5 5 5 5 5 5 5 5 5 5 5 5 5 5 5 5 6 5 5 5 5 5 5 5 5 6 5 5 5 5 6 5 5 6 5 5 6 5 5 5 5 6 5 5 5 5 5 6 5 5 5 5 5 5 5 5 5 5 5 5 5 6 6 5 5 5 6 5 5 5 5 5 5 5 5 5 5 5 5 5 5 6 5 5 5 5 5 5 6 5 5 6 5 5 5 5 5 5 5 5 5 5 6 5 5 5 5 5 6 5 5 5 5 5 5 5 5 5 5 6 5 5 5 5 5 5 5 5 5 5 5 5 5 5 5 6 5 5 5 5 5 5 5 5 5 5 5 5 5 5 5 5 5 5 5 5 5 5 5 6 5 6 5 5 5 6 5 5 5 5 5 5 5 5 5 6 5 5 5 6 5 5 5 5 5 5 5 5 5 5 5 5 5 5 5 5 6 5 5 5 5 5 6 5 5 5 6 5 6 5 5 5 5 5 5 6 5 5 5 5 5 5 5 5 5 5 5 5 5 5 5 5 5 5 5 5 5 5 5 5 5 5 5 6 5 5 6 5 5 5 5 5 5 5 6 5 5 5 5 6 5 5 6 5 5 5 5 5 5 6 5 5 5 6 5 5 5 6 5 5 5 5 5 6 5 5 5 5 5 6 5 5 5 5 5 5 5 5 6 5 5 6 5 5 5 5 6 5 5 5 5 6 5 5 5 5 6 5 5 5 6 5 6 5 5 5 5 5 5 5 5 5 5 6 5 5 5 5 5 5 5 6 6 5 5 5 5 5 6 5 5 5 5 5 6 5 5 5 6 5 5 6 5 5 6 5 5 5 6 5 5 5 5 5 5 6 5 5 5 5 5 6 5 5 5 5 5 6 5 5 5 5 5 5 6 5 5 5 5 6 5 5 5 5 5 6 5 5 5 5 5 5 5 5 5 5 6 5 5 5 5 5 5 5 6 5 5 5 5 6 6 5 5 6 5 5 5 5 5 5 5 6 5 5 5 5 5 5 5 6 5 6 5 5 6 5 5 5 5 6 5 6 5 5 5 5 5 5 5 5 5 5 6 5 5 5 5 5 6 5 5 5 6 5 5 5 5 6 5 5 6 5 5 5 5 5 6 5 6 5 6 6 5 5 5 5 6 6 5 5 5 5 5 5 5 5 5 5 5 5 5 6 5 5 5 5 5 5 6 6 5 5 5 5 5 5 5 5 5 5 5 5 5 6 5 5 5 5 5 5 5 5 5 5 5 5 5 5 5 5 5 5 5 5 5 5 5 5 5 5 5 5 5 5 5 5 5 6 5 5 6 5 5 5 5 5 5 5 6 5 5 5 6 5 5 6 5 5 5 6 6 5 5 5 5 6 6 5 5 5 5 5 5 5 5 5 5 5 5 5 5 6 5 5 6 5 5 5 6 5 5 5 5 6 5 5 6 5 5 5 5 5 5 5 5 5 5 5 6 5 5 5 5 5 5 5 6 5 5 5 5 5 5 5 5 5 5 5 5 5 5 5 5 5 5 6 5 5 5 5 5 5 6 5 6 5 5 5 5 5 6 5 5 6 5 5 5 6 5 5 5 6 5 5 5 5 5 5 5 5 5 5 5 5 5 5 6 5 5 5 5 6 6 5 5 5 5 5 5 5 5 5 5 5 5 5 5 5 5 5 5 5 6 5 5 5 5 5 5 5 5 6 5 6 5 5 5 5 5 5 5 6 5 6 5 5 5 5 5 6 5 5 5 5 5 5 6 5 5 5 5 5 6 6 5 5 5 6 6 6 5 5 5 5 5 6 5 5 5 5 5 6 5 5 5 5 6 5 6 6 5 6 6 5 5 5 6 5 5 5 6 5 5 5 6 5 5 5 6 5 5 5 5 5 5 5 5 6 5 5 5 6 5 5 5 5 5 5 6 5 5 5 5 5 5 6 5 5 5 5 5 5 5 5 5 5 5 5 5 5 6 5 6 5 5 5 6 5 5 6 5 6 5 6 5 5 6 5 5 5 5 5 5 6 5 5 5 5 6 5 5 5 5 5 5 6 5 5 5 5 5 5 5 5 5 5 6 5 5 5 5 5 5 5 5 5 5 5 5 5 5 5 5 5 5 5 6 6 5 5 5 6 5 5 6 5 5 6 5 5 6 5 5 6 6 5 5 5 5 6 5 5 5 5 5 5 5 5 5 5 5 6 6 5 5 5 6 5 6 5 6 5 5 5 5 5 6 5 5 6 5 6 5 5 6 6 6 5 5 5 5 6 5 5 6 5 6 5 5 6 5 5 5 5 5 5 5 5 6 5 6 6 5 5 5 5 5 6 6 5 5 5 6 6 5 5 5 5 5 5 5 5 6 5 6 5 5 5 5 5 5 5 5 5 5 5 5 5 5 5 5 5 5 5 5 5 5 5 5 5 5 5 5 5 6 5 5 5 5 5 5 5 5 5 5 5 5 5 5 5 6 5 5 6 5 5 5 5 5 6 5 5 5 5 5 5 5 5 5 5 5 5 5 6 5 5 5 5 5 5 5 5 5 6 5 5 6 5 5 5 5 6 6 6 5 5 5 5 5 6 5 5 5 
</DataArray>
<DataArray type="Float64" Name="stress" NumberOfComponents="9" format="ascii">
-2309581534.1524353 3842798969.0594177 0 3842798969.0594177 1945625.0246954868 0 0 0 0 -3700932.4365005493 820921161.39182663 0 820921161.39182663 -1358288034.3433838 0 0 0 0 -1774427.1193681359 5187657.3814550117 0 5187657.3814550117 -2140565.3489476889 0 0 0 0 1914153726.3612823 2602394479.9156723 0 2602394479.9156723 -1152864960.2979584 0 0 0 0 -486034343.30605316 3917230037.2546234 0 3917230037.2546234 -821511.92179870605 0 0 0 0 -496665153.10973358 2964876753.3516731 0 2964876753.3516731 -900235552.67126465 0 0 0 0 -1441891630.382782 2140138460.1920471 0 2140138460.1920471 -1197058404.3999367 0 0 0 0 -1991503.6260102838 5084595.6277991012 0 5084595.6277991012 -2039893.2799804509 0 0 0 0 -3480520335.3189926 3108804549.0136566 0 3108804549.0136566 -279909510.13059998 0 0 0 0 -1228579265.3901062 3411846646.994957 0 3411846646.994957 -355000172.2719574 0 0 0 0 -1236267342.6918018 2503559954.1450877 0 2503559954.1450877 -621600995.23709106 0 0 0 0 -414300226.18275452 2614016822.0702591 0 2614016822.0702591 -885421162.44986725 0 0 0 0 -356904638.44979858 2960319696.0852509 0 2960319696.0852509 -1192627403.6355438 0 0 0 0 -359049719.81115723 3011007928.6334 0 3011007928.6334 -1995734230.75 0 0 0 0 -8019132.0229110718 3582348765.0439072 0 3582348765.0439072 -1148205747.6812057 0 0 0 0 334618440.4708252 2647342547.3301086 0 2647342547.3301086 -1911901472.4620285 0 0 0 0 -501335914.47200012 2388301025.6028595 0 2388301025.6028595 -1199599377.1306019 0 0 0 0 422107907.75994873 2139410890.3967438 0 2139410890.3967438 -1235537763.2053432 0 0 0 0 587097363.25077057 1246063796.6787415 0 1246063796.6787415 -278211865.3022995 0 0 0 0 2098415169.0436935 2093383702.7014198 0 2093383702.7014198 -1750329572.8647919 0 0 0 0 -882081.59619086049 2429207.849889107 0 2429207.849889107 -2213850.0750403255 0 0 0 0 -1775524627.9581757 2041933606.2981186 0 2041933606.2981186 337201010.94771194 0 0 0 0 -780674090.88883972 3165859374.5675163 0 3165859374.5675163 -452436420.56478882 0 0 0 0 -1266424736.3789215 2999174819.3934937 0 2999174819.3934937 -472757750.48281193 0 0 0 0 -2004894079.0555344 3692331494.9323349 0 3692331494.9323349 -95096.500061035156 0 0 0 0 -1602481.80567047 3455015.1060504615 0 3455015.1060504615 -1852685.3386282176 0 0 0 0 1521904982.8659668 1206348048.7326889 0 1206348048.7326889 -678394287.33816528 0 0 0 0 -4057237974.9999695 2647378042.5777359 0 2647378042.5777359 583067766.12682343 0 0 0 0 -204519817.46412659 1495871310.0370331 0 1495871310.0370331 900381.72547912598 0 0 0 0 -2160360963.7135773 791108329.96164703 0 791108329.96164703 460163782.91915894 0 0 0 0 -2161235315.6875916 1587391922.4455779 0 1587391922.4455779 -490411600.12512207 0 0 0 0 50456680.673408508 345647579.5807724 0 345647579.5807724 -101930566.9394989 0 0 0 0 -2465215271.9634781 1316517651.1290359 0 1316517651.1290359 -606133040.94451904 0 0 0 0 -1392766.3188612759 586949.81091126055 0 586949.81091126055 -146733.06810022891 0 0 0 0 -2498087074.3444977 1230719965.7794724 0 1230719965.7794724 -345506098.38327026 0 0 0 0 -2510161045.9057617 1453706706.1617584 0 1453706706.1617584 -312598.00729736313 0 0 0 0 -2185905902.4239502 1326902266.1805038 0 1326902266.1805038 -898111693.98710632 0 0 0 0 -2903951296.2639008 2677882242.5124741 0 2677882242.5124741 -1039033579.5191774 0 0 0 0 -1342564988.9783783 276892150.05003357 0 276892150.05003357 371925215.1558609 0 0 0 0 -1105425345.2522583 -57712110.878585815 0 -57712110.878585815 189547665.62405396 0 0 0 0 -1350838307.9284363 53156868.328224182 0 53156868.328224182 241172572.93862915 0 0 0 0 -407123003.08289719 405486933.53226089 0 405486933.53226089 -87754403.38067627 0 0 0 0 -842141.49784312397 1901781.6673553213 0 1901781.6673553213 -3035499.6154379547 0 0 0 0 -140032929.92329979 -583785067.47982788 0 -583785067.47982788 291708269.08673096 0 0 0 0 153155106.56407166 17771566.46736145 0 17771566.46736145 73730725.542663574 0 0 0 0 -1032820538.625473 -76892232.918174744 0 -76892232.918174744 259882861.42889404 0 0 0 0 -9121351.2976226807 131337158.85932159 0 131337158.85932159 55593146.737365723 0 0 0 0 -1059976924.7431564 -207041128.37502289 0 -207041128.37502289 -356291393.74603271 0 0 0 0 -2263543876.3333588 602819936.07933044 0 602819936.07933044 110233693.35325623 0 0 0 0 -3138832518.0267792 2545954996.8577347 0 2545954996.8577347 -1345032435.8248901 0 0 0 0 -3051948015.3309326 1483087751.1791611 0 1483087751.1791611 624460010.08143997 0 0 0 0 -3212946139.2528992 2998035986.4274597 0 2998035986.4274597 -2005945468.9324124 0 0 0 0 -2100746273.1840439 1904263043.40065 0 1904263043.40065 -2002040542.955368 0 0 0 0 632037305.1757431 -667233064.55260468 0 -667233064.55260468 341611015.76303101 0 0 0 0 550711.21245787293 2854812.3136242926 0 2854812.3136242926 -6101474.0185632482 0 0 0 0 -830164.82790057361 620905.72737643868 0 620905.72737643868 -693155.20161687583 0 0 0 0 -2532273162.9630241 2717875911.3108792 0 2717875911.3108792 -2057929351.5870361 0 0 0 0 -2546960516.4738312 2907586462.8795166 0 2907586462.8795166 -2687621760.7847443 0 0 0 0 -952079205.45458984 1361103138.3889923 0 1361103138.3889923 -1179100955.5707397 0 0 0 0 -728090292.11126709 1322886261.5709381 0 1322886261.5709381 -328979091.93295288 0 0 0 0 -632900315.61340332 1754471215.4754181 0 1754471215.4754181 -781819823.67327881 0 0 0 0 1068289023.132019 -107058396.71548271 0 -107058396.71548271 -698708866.7902832 0 0 0 0 -294641993.11584473 -184656238.39250183 0 -184656238.39250183 677085155.93490601 0 0 0 0 359200333.01408386 661724167.46413803 0 661724167.46413803 -199478152.58895874 0 0 0 0 -353067.34931954462 7470201.0027439035 0 7470201.0027439035 -10382490.259982154 0 0 0 0 -205881619.07475281 526149714.94727325 0 526149714.94727325 450722845.80207825 0 0 0 0 618257310.95439148 152905266.31058502 0 152905266.31058502 232724159.17670822 0 0 0 0 821136922.26783371 749869868.86372948 0 749869868.86372948 -174472966.3888855 0 0 0 0 295386402.58743286 1243402282.4959793 0 1243402282.4959793 -545288145.70169067 0 0 0 0 -2643579731.2651215 171919537.58995056 0 171919537.58995056 -441541549.3757019 0 0 0 0 -1720967230.1550598 577964786.29107666 0 577964786.29107666 -414373241.40684509 0 0 0 0 -1009900253.7860794 -292205111.82116699 0 -292205111.82116699 -180282444.91983032 0 0 0 0 189734734.4911499 -96737537.977203369 0 -96737537.977203369 -455960640.63131714 0 0 0 0 -779826811.10784912 1218007491.834549 0 1218007491.834549 -609013184.80609894 0 0 0 0 -1170445359.9753876 634302005.20448303 0 634302005.20448303 -707473642.95185089 0 0 0 0 -468392230.05713654 -289818597.00630951 0 -289818597.00630951 265388457.43760681 0 0 0 0 -1245128867.9946442 359347606.00798798 0 359347606.00798798 -1679596517.7131958 0 0 0 0 -2901966414.1160278 859670293.87928772 0 859670293.87928772 -728044146.02416992 0 0 0 0 -2717816292.0535507 473726016.1091156 0 473726016.1091156 -493202218.69720459 0 0 0 0 -1869223964.0578461 1387380780.2620697 0 1387380780.2620697 -1264193583.4954834 0 0 0 0 -1286675815.8907013 627297800.04101562 0 627297800.04101562 -344323949.39042664 0 0 0 0 -1656898486.2620087 651598083.43051147 0 651598083.43051147 -133925417.28868103 0 0 0 0 -1621410827.5843048 1151803776.555397 0 1151803776.555397 217707503.70370483 0 0 0 0 -1563960818.3816833 1346634418.8301544 0 1346634418.8301544 -374838155.73060632 0 0 0 0 -1562733001.659749 405934994.40813041 0 405934994.40813041 64654615.664825439 0 0 0 0 1675328008.780365 602165013.89030075 0 602165013.89030075 -37522136.297805786 0 0 0 0 177366858.20597839 636354353.81551361 0 636354353.81551361 -673659386.40498352 0 0 0 0 -404221.10901657119 7365576.6340338439 0 7365576.6340338439 -8587911.7932775617 0 0 0 0 2268570913.1796112 398619758.72644043 0 398619758.72644043 333276471.90129089 0 0 0 0 1063363260.8405151 641492501.20011902 0 641492501.20011902 507529206.54716682 0 0 0 0 935682783.74181175 994853050.00947189 0 994853050.00947189 422819378.30792236 0 0 0 0 1119054338.9823608 375323298.07988739 0 375323298.07988739 452185037.73617554 0 0 0 0 327020546.72525787 1033196553.1090965 0 1033196553.1090965 118224287.60362244 0 0 0 0 606512982.28904724 649787821.68748474 0 649787821.68748474 61437178.524879456 0 0 0 0 515994876.34367371 756583403.49363708 0 756583403.49363708 -822602331.26245117 0 0 0 0 232345944.65759277 495347083.8788147 0 495347083.8788147 463517854.29462433 0 0 0 0 146489741.20211792 670399505.52918243 0 670399505.52918243 375680273.15658569 0 0 0 0 300392417.10525513 589487299.55903625 0 589487299.55903625 268219000.98875427 0 0 0 0 308136434.54003906 441084975.41133118 0 441084975.41133118 -7667138.3147888184 0 0 0 0 1157795.2786552943 5798816.3442894295 0 5798816.3442894295 -12638312.865900964 0 0 0 0 -3355270.0878677368 -233272078.79534531 0 -233272078.79534531 360838029.7532959 0 0 0 0 173076719.72299194 -53481493.291708946 0 -53481493.291708946 15781938.911224365 0 0 0 0 718223030.3878479 466293718.77426147 0 466293718.77426147 227249123.66287231 0 0 0 0 331983.24481714051 1504156.3742513731 0 1504156.3742513731 -4911763.5648315251 0 0 0 0 598339650.63446045 -99427613.883590698 0 -99427613.883590698 117088426.77655792 0 0 0 0 -1788576014.2131042 2153753825.0244141 0 2153753825.0244141 -2716396833.0670013 0 0 0 0 1872072803.3717346 -300066532.41308594 0 -300066532.41308594 -1888970226.1941071 0 0 0 0 397324834.32247925 674892216.98817444 0 674892216.98817444 -151530305.8628006 0 0 0 0 623311276.79847717 322849352.41879272 0 322849352.41879272 -1569350698.3646851 0 0 0 0 836295189.70146179 1067552671.6014938 0 1067552671.6014938 -1984510418.0277405 0 0 0 0 1630883311.1767578 1160110876.5226784 0 1160110876.5226784 -4720222486.7997894 0 0 0 0 851026666.75917053 988377215.6439743 0 988377215.6439743 -1652366425.8438959 0 0 0 0 -407304707.35882568 3406302436.5964355 0 3406302436.5964355 -3269473192.2351837 0 0 0 0 800822.31471252441 2355494342.0815506 0 2355494342.0815506 -5260825095.8815613 0 0 0 0 -937507545.58517456 2896093959.3439064 0 2896093959.3439064 -2400469558.7009735 0 0 0 0 -567702395.06045532 2553083635.495697 0 2553083635.495697 -2113310459.4765625 0 0 0 0 101235357.28118896 2680748236.409668 0 2680748236.409668 -2063802930.5836487 0 0 0 0 437733705.03741455 2322158349.2161064 0 2322158349.2161064 -1898246075.1872559 0 0 0 0 118211590.07223511 2970827601.3699646 0 2970827601.3699646 -2934615357.4757538 0 0 0 0 676821585.53240204 2257174576.961731 0 2257174576.961731 -1770446696.128418 0 0 0 0 677153371.14094543 1848109766.5788498 0 1848109766.5788498 -1334917465.9566193 0 0 0 0 435617455.578125 2207429315.6054382 0 2207429315.6054382 -1779982894.4425964 0 0 0 0 -1244912116.5491638 2490567948.8867683 0 2490567948.8867683 -1167150368.9359589 0 0 0 0 54338402.522796631 2075396570.036499 0 2075396570.036499 -1085277005.4483643 0 0 0 0 152983287.16548157 1953805596.2511673 0 1953805596.2511673 -939265908.93238831 0 0 0 0 265212341.03973389 1372828880.9720764 0 1372828880.9720764 -282758715.50468826 0 0 0 0 541197602.54456902 1312407541.5275259 0 1312407541.5275259 -844565131.91494751 0 0 0 0 508570994.52652168 1600681178.0803404 0 1600681178.0803404 -1544153197.6600037 0 0 0 0 454890396.01263428 1209540599.3889923 0 1209540599.3889923 -746054559.91750145 0 0 0 0 650701022.11593628 2153738165.6134567 0 2153738165.6134567 -2400670210.0497284 0 0 0 0 -6948868.748374939 22034425.637012482 0 22034425.637012482 -8744087.6015625 0 0 0 0 1430033.8448181152 36905650.781387329 0 36905650.781387329 -29645485.884170532 0 0 0 0 -47634191.050621033 83396746.527435303 0 83396746.527435303 -101274629.22821045 0 0 0 0 7059925.9680938721 8340425.9607543945 0 8340425.9607543945 -72984353.952224731 0 0 0 0 6482511.816283226 5560900.8874073029 0 5560900.8874073029 -76105831.771469116 0 0 0 0 107731542.93093109 27691262.659881592 0 27691262.659881592 -59786686.187591553 0 0 0 0 31092760.562637329 -8184389.709236145 0 -8184389.709236145 -61858380.611358643 0 0 0 0 69209592.830841064 -2105728.4121246338 0 -2105728.4121246338 -124681512.06765747 0 0 0 0 271938059.68010712 152689385.51439667 0 152689385.51439667 904394.42590332031 0 0 0 0 64215398.553215027 278523785.9810791 0 278523785.9810791 46482525.844894409 0 0 0 0 -6249227.9392852783 28406894.048049927 0 28406894.048049927 85434621.912643433 0 0 0 0 -43825268.963806152 136449495.82537079 0 136449495.82537079 -213032814.0789032 0 0 0 0 -307089083.2824173 198448672.6383667 0 198448672.6383667 25125977.269363403 0 0 0 0 -118459794.76418686 120287930.88623047 0 120287930.88623047 -412565.07646179199 0 0 0 0 -315405721.18800676 442624498.0476805 0 442624498.0476805 -436869395.7437439 0 0 0 0 -173922912.15312958 183507553.00330925 0 183507553.00330925 -132790502.4201355 0 0 0 0 -63067176.824386597 -43597757.006629944 0 -43597757.006629944 -110803625.30386734 0 0 0 0 -51590402.601318359 -30607714.668533325 0 -30607714.668533325 -19930205.253005981 0 0 0 0 78322980.238693237 70668965.777503967 0 70668965.777503967 -114710275.16805649 0 0 0 0 1011973.6870707199 1036198.7039769311 0 1036198.7039769311 1135865.9891798347 0 0 0 0 351813342.29563904 106802726.22533417 0 106802726.22533417 -380444596.07550049 0 0 0 0 -2429719.6697251797 819993.91780248657 0 819993.91780248657 -2898139.2941666096 0 0 0 0 -378361461.90689087 884894294.91713715 0 884894294.91713715 -1038255132.6472702 0 0 0 0 -365098962.72412872 57827616.187805176 0 57827616.187805176 -210781481.36742401 0 0 0 0 -963542850.60456848 325477046.83855057 0 325477046.83855057 -192789.23004150391 0 0 0 0 -1115192236.8396759 641045600.73023033 0 641045600.73023033 -129670755.24447632 0 0 0 0 -1773994377.4705811 412881040.76586914 0 412881040.76586914 396236.48847254942 0 0 0 0 -2100139400.5167389 841050534.45245361 0 841050534.45245361 -119713742.75509644 0 0 0 0 -1982527662.2676544 264770805.25604248 0 264770805.25604248 -121235362.7283783 0 0 0 0 -1869484094.4091644 434313878.52384949 0 434313878.52384949 56483041.496398926 0 0 0 0 -1705516889.904541 340797134.6135788 0 340797134.6135788 76262829.011428833 0 0 0 0 -1653714250.6858521 397151442.13198853 0 397151442.13198853 -54399786.451255798 0 0 0 0 -1905089760.4087524 437667227.65609741 0 437667227.65609741 -875902.46234923333 0 0 0 0 -1162679944.6337891 247192327.12081909 0 247192327.12081909 -49541407.852859497 0 0 0 0 -1321217917.4276123 282577751.76239014 0 282577751.76239014 -43165055.649055481 0 0 0 0 -1735252902.4440117 150519288.42855453 0 150519288.42855453 97669365.869873047 0 0 0 0 -1785047139.5593109 818498368.41879272 0 818498368.41879272 -373392970.73551941 0 0 0 0 -1850975892.9588776 277769599.63124084 0 277769599.63124084 112752002.31663513 0 0 0 0 -1818233996.2083588 647968917.61608887 0 647968917.61608887 -863595703.35743713 0 0 0 0 -2510482867.2645721 1500781165.7058868 0 1500781165.7058868 -691888896.17807007 0 0 0 0 -3230977950.6115036 1179269940.2740326 0 1179269940.2740326 -182688085.77131653 0 0 0 0 -2072994406.8390045 853124757.47993469 0 853124757.47993469 -98602546.731010437 0 0 0 0 -2320039656.7715149 843173731.17710876 0 843173731.17710876 52953440.49786377 0 0 0 0 -2552100268.701807 868375117.54050446 0 868375117.54050446 -1847898909.2289734 0 0 0 0 -3722321505.4404449 584250100.84651184 0 584250100.84651184 -84293116.093551636 0 0 0 0 -2364893272.0529251 2132824759.8301315 0 2132824759.8301315 -1250191751.9619446 0 0 0 0 -1158257352.4990082 241314163.28502655 0 241314163.28502655 201944623.04896545 0 0 0 0 490640599.8530426 276860143.81948853 0 276860143.81948853 -897605007.26002121 0 0 0 0 -18150849.347746894 8768944.3787919655 0 8768944.3787919655 3147775.6960513853 0 0 0 0 -530412826.02893066 -13705025.378135681 0 -13705025.378135681 399857962.41734314 0 0 0 0 -6161007905.4800568 978285192.08877563 0 978285192.08877563 -143035560.73049927 0 0 0 0 -1826711.5518011302 -112843.49053727835 0 -112843.49053727835 665860.32946064696 0 0 0 0 -6032360060.5783386 1331114450.8901672 0 1331114450.8901672 -799291156.55463409 0 0 0 0 -3280934.049301967 4090164.3449300341 0 4090164.3449300341 -535457.7823061347 0 0 0 0 -2914387477.7763786 306495747.57636094 0 306495747.57636094 -1796722959.8666382 0 0 0 0 -3904150874.4208679 1534428554.9255371 0 1534428554.9255371 -1402993002.9450989 0 0 0 0 -2268409891.4831848 -1651716894.9087372 0 -1651716894.9087372 -1125225982.9484558 0 0 0 0 -5711963387.0398102 -736043244.28523254 0 -736043244.28523254 71644266.472290039 0 0 0 0 -4060628484.586853 -2633013043.022522 0 -2633013043.022522 -812902162.99594879 0 0 0 0 -2775619430.4398193 -366174954.7795105 0 -366174954.7795105 34941001.106246948 0 0 0 0 -3292556486.6454773 -120867232.0266571 0 -120867232.0266571 -61804475.011901855 0 0 0 0 -2456417683.9739685 987789487.60575867 0 987789487.60575867 -276946253.80736542 0 0 0 0 -1694712717.7117615 52884427.191848755 0 52884427.191848755 166062132.22363281 0 0 0 0 -2117607463.696167 351075833.25731659 0 351075833.25731659 550682499.51719666 0 0 0 0 -2194621619.0103455 -826026707.97488022 0 -826026707.97488022 28008733.835189819 0 0 0 0 -1985212522.3022728 -724543806.98775864 0 -724543806.98775864 -346369044.22930908 0 0 0 0 -68149295.2552948 12086048.817878723 0 12086048.817878723 20020865.598937988 0 0 0 0 -43048083.257278442 8345409.4291305542 0 8345409.4291305542 10481835.680923462 0 0 0 0 -10081912.287393369 2354819.2791198716 0 2354819.2791198716 13974916.189210266 0 0 0 0 -17843500.48916626 25344689.446624756 0 25344689.446624756 2747606.3034210205 0 0 0 0 -16724130.68388265 10943788.541719869 0 10943788.541719869 13309108.997789651 0 0 0 0 -50337557.149124146 33992329.313121796 0 33992329.313121796 11584475.126968384 0 0 0 0 -42792062.51751709 -37737687.199165344 0 -37737687.199165344 -30780140.870872498 0 0 0 0 -91308084.191101074 3169629.9902038574 0 3169629.9902038574 23681144.393821716 0 0 0 0 -75253456.716773987 30421708.564990997 0 30421708.564990997 12761294.178588867 0 0 0 0 -45345276.082733154 13118027.453762054 0 13118027.453762054 23145959.564815521 0 0 0 0 -61095237.865142822 8161697.7559890747 0 8161697.7559890747 41592404.338722229 0 0 0 0 -46112788.025917053 49007632.099380493 0 49007632.099380493 65757760.635360718 0 0 0 0 -30252983.369222201 20125896.688606974 0 20125896.688606974 4861726.8909352897 0 0 0 0 -254653060.87724304 527082198.88048553 0 527082198.88048553 -710118740.48518372 0 0 0 0 -9778019.2635375969 9554857.5839164853 0 9554857.5839164853 -5140767.1254909784 0 0 0 0 87150261.835924149 127605225.22890663 0 127605225.22890663 33923832.332214355 0 0 0 0 -34781301.052261353 38407651.695854187 0 38407651.695854187 73837133.119926453 0 0 0 0 -211317587.57689667 130546908.2456131 0 130546908.2456131 143568419.47790527 0 0 0 0 -220824467.67764997 -92267121.089813948 0 -92267121.089813948 6681279.0825195312 0 0 0 0 -77195551.116455078 31478839.398651123 0 31478839.398651123 60077107.391784668 0 0 0 0 -10109442.114593506 88273243.250968933 0 88273243.250968933 66744758.469074249 0 0 0 0 -6637668.2917173803 4692622.6840914916 0 4692622.6840914916 14422635.547877282 0 0 0 0 3030483.8581161499 28815994.844528198 0 28815994.844528198 14107270.742843628 0 0 0 0 -62966366.422950745 -6213264.1268692017 0 -6213264.1268692017 78551473.393157959 0 0 0 0 -37467692.627837628 27754479.273701712 0 27754479.273701712 7304569.8676850908 0 0 0 0 -59035314.332550049 39868945.639335632 0 39868945.639335632 25802143.746510506 0 0 0 0 -47557242.199939728 37791847.990750313 0 37791847.990750313 16712249.344711304 0 0 0 0 -95741604.385444641 50725832.292072296 0 50725832.292072296 16005453.746429443 0 0 0 0 -63393845.952865601 66673045.42024231 0 66673045.42024231 -3771029.1010110378 0 0 0 0 -59372079.510574341 64101050.772579193 0 64101050.772579193 -6942486.4614562988 0 0 0 0 -46040633.014404297 55862227.050533295 0 55862227.050533295 -4179540.5791320801 0 0 0 0 -9609972.3558365777 35603706.673148558 0 35603706.673148558 2091529.2011562362 0 0 0 0 26459944.376425952 40279539.473934799 0 40279539.473934799 -5639519.6116329357 0 0 0 0 61801311.910574913 19433764.139350891 0 19433764.139350891 -30835194.385002136 0 0 0 0 1371480968.4724579 -312366612.97856903 0 -312366612.97856903 -223785218.08511353 0 0 0 0 11510295.878421694 3080864.172271464 0 3080864.172271464 -1901115.1711781025 0 0 0 0 277639143.75226212 536145580.85147095 0 536145580.85147095 469284345.23796844 0 0 0 0 8373258.5174351372 21077804.230182834 0 21077804.230182834 600146.28342931718 0 0 0 0 1023479675.3197575 -749029813.08200836 0 -749029813.08200836 -314185174.32510376 0 0 0 0 -196817.2374259904 6464454.0449977219 0 6464454.0449977219 1788076.1270400304 0 0 0 0 -697512.15060378611 23511905.465218455 0 23511905.465218455 4571682.267629426 0 0 0 0 -11237864.558181763 34142321.376022339 0 34142321.376022339 40820103.828289032 0 0 0 0 5441983.7518310547 18276858.196460724 0 18276858.196460724 1181568.7297744751 0 0 0 0 -17242834.271572113 9259008.612487793 0 9259008.612487793 10918860.038635254 0 0 0 0 4732928.7831926309 18885250.882720426 0 18885250.882720426 13729793.526379243 0 0 0 0 20347.309478759766 17151653.336357117 0 17151653.336357117 -14119972.685089111 0 0 0 0 1176077758.3494873 81417613.942062378 0 81417613.942062378 17246105.463104248 0 0 0 0 179401484.73191452 405976365.25747299 0 405976365.25747299 -35811153.289398193 0 0 0 0 52442352.530033112 336980005.18631744 0 336980005.18631744 14048584.291694641 0 0 0 0 49460674.724636078 316975743.89367294 0 316975743.89367294 -2285465.4210624695 0 0 0 0 39266509.981570005 243165450.16206932 0 243165450.16206932 -72560564.890579224 0 0 0 0 266323386.25415039 331148115.61938477 0 331148115.61938477 -181967010.16919136 0 0 0 0 161960214.4353447 355360356.13578415 0 355360356.13578415 -168115690.14881134 0 0 0 0 267553990.93752289 392641007.37581635 0 392641007.37581635 -370406320.16265869 0 0 0 0 823012891.60730171 281152050.65304565 0 281152050.65304565 -367848005.94975281 0 0 0 0 406256611.92940235 -72994092.610569 0 -72994092.610569 -74950978.06993866 0 0 0 0 -25033033.617414474 168322023.75496674 0 168322023.75496674 -117942874.75517082 0 0 0 0 133890888.33497143 144521780.90370178 0 144521780.90370178 -132150386.39883423 0 0 0 0 31858399.236427017 41570273.261913702 0 41570273.261913702 -351373.80964896828 0 0 0 0 -114225181.29071045 85607045.019950867 0 85607045.019950867 -14118716.432064056 0 0 0 0 -113514497.31497192 85662501.389583588 0 85662501.389583588 -14189731.87286377 0 0 0 0 -94154679.751708984 57710057.822235107 0 57710057.822235107 2651611.1018829346 0 0 0 0 -177208105.44116211 76563025.604103088 0 76563025.604103088 -1560457.1503601074 0 0 0 0 -223622196.23083496 113667544.08753967 0 113667544.08753967 -18240775.165718079 0 0 0 0 -122123508.24875641 93633097.41060257 0 93633097.41060257 -14308247.670089722 0 0 0 0 -238628709.60966492 97719689.767414093 0 97719689.767414093 -30004474.22328186 0 0 0 0 32409141.987589724 44255047.032438882 0 44255047.032438882 4480270.1770654172 0 0 0 0 -262013247.42459106 129480797.53659058 0 129480797.53659058 -68491946.832511902 0 0 0 0 -147369946.19487953 192102229.14703751 0 192102229.14703751 -54982448.248886108 0 0 0 0 -183323673.10729265 275866120.11724091 0 275866120.11724091 -99018404.054237366 0 0 0 0 -142073386.97174263 198910462.39779663 0 198910462.39779663 -15334644.031135559 0 0 0 0 -142269472.75122261 195001184.01024246 0 195001184.01024246 56183298.343765259 0 0 0 0 -331998303.15447998 234499888.97908783 0 234499888.97908783 9210655.9304656982 0 0 0 0 -238882764.5621357 143345279.42481995 0 143345279.42481995 -41000013.433071136 0 0 0 0 27727489.761359248 48256469.168093398 0 48256469.168093398 8859902.1197255328 0 0 0 0 740914289.03056335 666650597.73929596 0 666650597.73929596 -443598403.28390503 0 0 0 0 -337090642.09268188 376587355.27638245 0 376587355.27638245 189548876.48165894 0 0 0 0 -487700192.4447403 67085357.501457214 0 67085357.501457214 3282793.0552978516 0 0 0 0 -406109002.86282349 150786392.3639679 0 150786392.3639679 -66686282.127578735 0 0 0 0 -1196346.1795021296 1277712.4751384556 0 1277712.4751384556 1219886.5100175217 0 0 0 0 866637299.31982422 350892520.55786896 0 350892520.55786896 208806857.76316071 0 0 0 0 -308517181.11056519 -375555233.10339355 0 -375555233.10339355 236990224.64303923 0 0 0 0 520945597.53239441 -256016384.4464798 0 -256016384.4464798 -13294552.801132202 0 0 0 0 -255295550.25299072 -330660369.76576233 0 -330660369.76576233 122143126.27378845 0 0 0 0 -258983260.37650299 -177765199.74319839 0 -177765199.74319839 444687246.73719788 0 0 0 0 1408286073.3490448 1145039744.2626839 0 1145039744.2626839 -1099543716.8032837 0 0 0 0 -2605198.3297834136 2263635.8383648172 0 2263635.8383648172 3230296.3044228628 0 0 0 0 114540083.7623291 818281682.90332031 0 818281682.90332031 183302953.16975403 0 0 0 0 -369923654.0340271 11681990.21786499 0 11681990.21786499 -738170.31379699707 0 0 0 0 -216936747.01654053 3148354.2443237305 0 3148354.2443237305 -1995591.8677988052 0 0 0 0 -3830420.2755616885 2762335.3242998496 0 2762335.3242998496 3987437.9622956961 0 0 0 0 -192220514.45217896 18742576.39881134 0 18742576.39881134 2342682.468421936 0 0 0 0 -96686105.462295532 12602737.047439575 0 12602737.047439575 12189224.982269287 0 0 0 0 -158874348.68672562 4097553.4637126923 0 4097553.4637126923 7719757.9494781494 0 0 0 0 -102087127.39228821 6175557.221698761 0 6175557.221698761 5466330.0568389893 0 0 0 0 -130120064.57110596 34287484.433654785 0 34287484.433654785 13152495.747419357 0 0 0 0 37120390.542579651 72552640.142204285 0 72552640.142204285 -5248166.9478149414 0 0 0 0 -188308949.47354126 106053934.18070984 0 106053934.18070984 140879610.57258606 0 0 0 0 -7988470.3527266011 4334635.7159051895 0 4334635.7159051895 7749220.777731128 0 0 0 0 -231673995.44076538 -31648752.542297363 0 -31648752.542297363 95831487.584365845 0 0 0 0 97826089.03962326 -49249056.700162888 0 -49249056.700162888 -230265377.87651062 0 0 0 0 -1922442382.9714966 1236952571.8675308 0 1236952571.8675308 593673522.35393524 0 0 0 0 921160013.22540283 244586631.06037903 0 244586631.06037903 -1667767132.5669403 0 0 0 0 -1569180982.5920563 -15740881.493850708 0 -15740881.493850708 436254629.69356155 0 0 0 0 -1396464842.0256348 378763791.94407272 0 378763791.94407272 1333859208.2733917 0 0 0 0 -6413593.1204840355 3425889.9387111738 0 3425889.9387111738 9033720.26623068 0 0 0 0 -609946289.84962463 288513918.29710388 0 288513918.29710388 545573048.26359701 0 0 0 0 -1701810785.0076981 -399022448.37915039 0 -399022448.37915039 2104524242.1743469 0 0 0 0 -1935806778.2818451 1038145276.5269623 0 1038145276.5269623 2621467828.4261112 0 0 0 0 -1405382882.092926 -648526929.52930832 0 -648526929.52930832 5699890924.9321823 0 0 0 0 -3016195638.6293793 1551652856.9703121 0 1551652856.9703121 -494010280.83527374 0 0 0 0 34560926.903755188 1851753750.0270424 0 1851753750.0270424 -5992249504.2536545 0 0 0 0 -5765547.8970300406 1980085.1286366545 0 1980085.1286366545 -248463.97963433561 0 0 0 0 -904584952.14624023 -430941849.84354401 0 -430941849.84354401 -885124953.95815277 0 0 0 0 -224380908.23123169 814598946.65955734 0 814598946.65955734 -943632972.27182007 0 0 0 0 -1012046000.6873779 359435031.80391312 0 359435031.80391312 47638396.182983398 0 0 0 0 -246140571.7817688 -76947883.393081665 0 -76947883.393081665 14634800.745483398 0 0 0 0 96640900.850891113 399609448.80291748 0 399609448.80291748 -671000745.61812592 0 0 0 0 334079806.92751312 131972264.09736252 0 131972264.09736252 -373887634.38516235 0 0 0 0 -1023614543.3544388 664806179.40772629 0 664806179.40772629 -670442987.88052368 0 0 0 0 -1796765.1771311462 1310659.7610115148 0 1310659.7610115148 2157676.9101132154 0 0 0 0 -55613993.8543396 -76206469.302093506 0 -76206469.302093506 203303955.2412262 0 0 0 0 -399982992.5141449 -6557749.9390945435 0 -6557749.9390945435 52266474.731884003 0 0 0 0 -382281451.27824402 60943784.746376038 0 60943784.746376038 35033756.706817627 0 0 0 0 -108730316.4005127 -6193019.7838745117 0 -6193019.7838745117 11468877.951194763 0 0 0 0 -261787166.93252563 -62465085.140762329 0 -62465085.140762329 63239460.284088135 0 0 0 0 -126780459.50204468 -138980707.87680054 0 -138980707.87680054 73132152.683208466 0 0 0 0 -162640903.34326172 -193773474.25113678 0 -193773474.25113678 45539065.170013428 0 0 0 0 -204399611.62973022 -88844277.870239258 0 -88844277.870239258 127782039.20407104 0 0 0 0 -55404264.773387909 -73645345.722942352 0 -73645345.722942352 94098573.015258789 0 0 0 0 -101979676.42346191 -70655142.075378418 0 -70655142.075378418 110838710.36253357 0 0 0 0 -147602912.13647461 -31885324.975341797 0 -31885324.975341797 213301482.08218384 0 0 0 0 -53853841.095794678 23172863.689849854 0 23172863.689849854 164566576.12922668 0 0 0 0 44660530.074951172 56251276.543678284 0 56251276.543678284 29392283.348388672 0 0 0 0 -78341917.554077148 -14956865.002449036 0 -14956865.002449036 110441497.16937256 0 0 0 0 -20298935.659881592 -24214576.896064758 0 -24214576.896064758 84589226.027587891 0 0 0 0 -67474261.932922363 -34961160.434967041 0 -34961160.434967041 142864443.20874023 0 0 0 0 -83954680.289535522 -86685711.190677643 0 -86685711.190677643 44898990.807128906 0 0 0 0 -36857578.997581482 7433662.9548969269 0 7433662.9548969269 38180965.318878174 0 0 0 0 -15978100.104553223 40667866.256088257 0 40667866.256088257 62289705.79864502 0 0 0 0 -27282081.485137939 51005010.357437134 0 51005010.357437134 148594210.04135132 0 0 0 0 -8333450.7291641235 24059218.317279816 0 24059218.317279816 -20295876.471633911 0 0 0 0 -8145437.7882030681 8381500.1946532093 0 8381500.1946532093 9420310.5702542886 0 0 0 0 -889130.66975605488 2033377.3785749078 0 2033377.3785749078 -2855464.4796611257 0 0 0 0 -244357881.55448914 -234333898.67816162 0 -234333898.67816162 568989813.78731537 0 0 0 0 64769622.683532715 116305377.2040863 0 116305377.2040863 112486511.88263702 0 0 0 0 53196781.952072144 -105905821.78774834 0 -105905821.78774834 197248168.81408691 0 0 0 0 -85269416.067565918 49641808.725837708 0 49641808.725837708 294880282.48670197 0 0 0 0 131732296.00637817 158885134.70960999 0 158885134.70960999 91415001.953216553 0 0 0 0 -12735807.343078211 14290864.372348694 0 14290864.372348694 -1435633.5980978832 0 0 0 0 -926376.82542419434 -4971317.5117263794 0 -4971317.5117263794 -23741360.562362671 0 0 0 0 -29777886.003684998 15399147.770500183 0 15399147.770500183 7651493.5526123047 0 0 0 0 -55271703.951698303 -11556103.69519043 0 -11556103.69519043 21522653.663780212 0 0 0 0 -21809932.062484741 -19098295.406734467 0 -19098295.406734467 13740540.177108765 0 0 0 0 8772943.7393188477 17167549.550605774 0 17167549.550605774 4713546.2423706055 0 0 0 0 -72726796.839584351 32122824.953994751 0 32122824.953994751 77715830.674934387 0 0 0 0 -1586080.7746582031 32567795.63785553 0 32567795.63785553 6830676.7644577026 0 0 0 0 -10503792.265974104 7774875.1114892736 0 7774875.1114892736 11458549.367469825 0 0 0 0 -4372340.8803863525 20461647.145889282 0 20461647.145889282 4129687.6203689575 0 0 0 0 -11000098.951540738 17595999.166445609 0 17595999.166445609 881718.20556332916 0 0 0 0 22485111.17199707 35682063.681190491 0 35682063.681190491 11545243.117538452 0 0 0 0 -20485064.689849854 27607622.338088989 0 27607622.338088989 24504486.584838867 0 0 0 0 -23334558.764709473 37483843.284706116 0 37483843.284706116 29289951.765705109 0 0 0 0 -32275252.722867906 9576101.8945504576 0 9576101.8945504576 15411446.579084784 0 0 0 0 -37067870.558319092 24041085.943767548 0 24041085.943767548 29485572.248474121 0 0 0 0 -24801247.269958496 26527780.984512329 0 26527780.984512329 28528634.960720062 0 0 0 0 -50455150.415100098 -10576058.626441956 0 -10576058.626441956 -1563377.4638538361 0 0 0 0 -11087378.032988429 -3510955.6634256849 0 -3510955.6634256849 9497542.3055347372 0 0 0 0 -39929411.515823364 37429034.719192505 0 37429034.719192505 121375135.48226929 0 0 0 0 -843712.200580284 1323333.0243143067 0 1323333.0243143067 -1068900.7238823995 0 0 0 0 -34471521.477355957 52483990.329856873 0 52483990.329856873 126866401.11049652 0 0 0 0 -5712362.6713256836 -1118880.8169326782 0 -1118880.8169326782 153488905.82875061 0 0 0 0 177163265.62004089 -80246987.653598785 0 -80246987.653598785 -188247228.06903458 0 0 0 0 -120361344.6305542 -132552274.42511749 0 -132552274.42511749 7947116.3890914917 0 0 0 0 -139130048.73956299 6112753.0971298218 0 6112753.0971298218 186653048.98585272 0 0 0 0 -130521037.10477066 -66807906.292828083 0 -66807906.292828083 188006082.65432739 0 0 0 0 -162301311.99718666 64133931.414253235 0 64133931.414253235 18683332.450317383 0 0 0 0 -30912816.212721366 49807632.260263488 0 49807632.260263488 10285336.569689676 0 0 0 0 -154281394.11375976 24094985.905248642 0 24094985.905248642 20896037.294067383 0 0 0 0 -49827313.569793701 64313340.245079041 0 64313340.245079041 91144340.07208252 0 0 0 0 -193929390.26743698 82634616.109695435 0 82634616.109695435 8009281.7692871094 0 0 0 0 -185003005.40608311 69010821.9688797 0 69010821.9688797 26923582.615371704 0 0 0 0 -214666677.41873169 102088498.65038681 0 102088498.65038681 26842080.27192688 0 0 0 0 -209773549.62319231 106046015.08310699 0 106046015.08310699 21068989.058639526 0 0 0 0 -52289574.975831985 143221738.81529522 0 143221738.81529522 -97343992.018035889 0 0 0 0 11461697.917464782 52159751.163565189 0 52159751.163565189 15290017.959151812 0 0 0 0 -208177968.69247818 94174686.467048645 0 94174686.467048645 36488026.01102066 0 0 0 0 -209799120.52499679 103880095.7313 0 103880095.7313 27231688.326751709 0 0 0 0 -200005945.94537449 99811857.35068512 0 99811857.35068512 9380163.4035768509 0 0 0 0 521323.29023006558 2006739.6929535605 0 2006739.6929535605 2467966.49142351 0 0 0 0 -63812004.898162842 15330990.615631104 0 15330990.615631104 25364663.989372253 0 0 0 0 -31021708.048492432 30457047.389343262 0 30457047.389343262 -19370026.657928467 0 0 0 0 -36458509.234786987 42610826.852828979 0 42610826.852828979 17732843.745269775 0 0 0 0 -9753816.7074584961 -14069040.580154419 0 -14069040.580154419 -6143641.0799331665 0 0 0 0 -22370626.955322266 23097803.473709106 0 23097803.473709106 -79622162.972381592 0 0 0 0 132753922.78799438 -72283720.111679077 0 -72283720.111679077 -52867998.950073242 0 0 0 0 27775595.925262451 -135151199.87890625 0 -135151199.87890625 62270615.342025757 0 0 0 0 31259720.964904785 -124859966.12419128 0 -124859966.12419128 -63239317.911560059 0 0 0 0 115637724.54095459 -306765221.89830017 0 -306765221.89830017 42660882.676925659 0 0 0 0 157343598.36468506 -60924677.989440918 0 -60924677.989440918 145012806.31447601 0 0 0 0 275012891.69546509 -154272932.9291153 0 -154272932.9291153 -68703109.494781494 0 0 0 0 251773390.6787262 -139425292.07757568 0 -139425292.07757568 -179102399.06985474 0 0 0 0 101129960.79113579 99947504.659439087 0 99947504.659439087 -222315034.46922302 0 0 0 0 -229242125.13119698 204968756.67086792 0 204968756.67086792 -46834202.163593292 0 0 0 0 -199520945.66888809 116710073.41466522 0 116710073.41466522 -18900143.261468887 0 0 0 0 -206621102.55374527 120074440.0942955 0 120074440.0942955 49172152.314907074 0 0 0 0 -247283735.05740881 161764386.3042984 0 161764386.3042984 79292461.22718811 0 0 0 0 -195471569.2467823 82996723.016120911 0 82996723.016120911 140702591.68078613 0 0 0 0 -196690375.50536251 161181261.79552078 0 161181261.79552078 184391843.6115036 0 0 0 0 -226232750.03850555 58105846.262489319 0 58105846.262489319 85951952.19329071 0 0 0 0 -225340085.95018959 75270462.802509308 0 75270462.802509308 108282344.18436432 0 0 0 0 -235524574.08369255 143092595.20000458 0 143092595.20000458 66284944.725204468 0 0 0 0 -228829669.53199577 88871509.924575806 0 88871509.924575806 66343566.751307487 0 0 0 0 -203710171.97360516 54181221.483139038 0 54181221.483139038 48336686.976913452 0 0 0 0 -206396030.25370979 52294195.519638062 0 52294195.519638062 62620122.185933113 0 0 0 0 -217005042.10022068 50993770.866758347 0 50993770.866758347 90795647.291046143 0 0 0 0 -206470144.10785866 -10583655.654758453 0 -10583655.654758453 66996918.779388428 0 0 0 0 -213137747.78932571 10700382.947368622 0 10700382.947368622 99059948.553825378 0 0 0 0 -192709443.58512306 32806460.354652405 0 32806460.354652405 44079194.064180374 0 0 0 0 -200984703.95573997 16656630.149024963 0 16656630.149024963 51982774.882385254 0 0 0 0 -200304322.39927292 -6829049.9339752197 0 -6829049.9339752197 50907793.739618778 0 0 0 0 -213635538.65441132 -80781120.679977417 0 -80781120.679977417 3071879.4796943665 0 0 0 0 -42787565.225121662 44655789.186462231 0 44655789.186462231 13022485.782120392 0 0 0 0 -180164441.53715706 -48319037.698326111 0 -48319037.698326111 -29623794.395771027 0 0 0 0 -171865126.66653061 1941369.2740249634 0 1941369.2740249634 -5822052.6968536377 0 0 0 0 -205461063.49705887 -43953637.49446106 0 -43953637.49446106 44379541.797506332 0 0 0 0 -195916686.84078789 -35210653.834465027 0 -35210653.834465027 39638071.341278076 0 0 0 0 -195631162.18129635 -1887382.6428775787 0 -1887382.6428775787 41604778.484710693 0 0 0 0 -172593449.33115387 -79985251.884059906 0 -79985251.884059906 63917936.40875721 0 0 0 0 -172818482.09003448 -75214932.323581696 0 -75214932.323581696 22297320.54344368 0 0 0 0 -183987186.83587646 -58279394.465354919 0 -58279394.465354919 75535069.591415405 0 0 0 0 -178031611.43937683 -66494828.936290741 0 -66494828.936290741 94535563.709640503 0 0 0 0 -176246058.61494446 -53428236.263618469 0 -53428236.263618469 60321460.354356766 0 0 0 0 -208747946.35090637 -29939528.793613434 0 -29939528.793613434 154535949.82352448 0 0 0 0 -207695786.14167023 -11182360.417617798 0 -11182360.417617798 86760792.404310226 0 0 0 0 -226323897.85815167 55035932.188456237 0 55035932.188456237 192856794.36054993 0 0 0 0 -221791284.88169098 4265793.6110153198 0 4265793.6110153198 133504450.78828812 0 0 0 0 -209210468.75998688 -83197345.508148193 0 -83197345.508148193 193043150.48095322 0 0 0 0 -227232295.07162857 -2323475.2525444031 0 -2323475.2525444031 310624287.45982552 0 0 0 0 -179568293.92513847 -67061359.49423027 0 -67061359.49423027 130609200.77980804 0 0 0 0 -92679384.991077423 -157228281.23843384 0 -157228281.23843384 70154296.633401871 0 0 0 0 -189917374.980937 -259820721.66941214 0 -259820721.66941214 435471894.44122314 0 0 0 0 -170134189.0086174 -310361711.32872963 0 -310361711.32872963 137020520.10549927 0 0 0 0 -218197469.39445114 -116978016.09965897 0 -116978016.09965897 533605391.89955139 0 0 0 0 -196345862.95264435 -38046272.972807884 0 -38046272.972807884 304896431.26944733 0 0 0 0 -122184791.14536285 254873179.22893715 0 254873179.22893715 513283997.02641296 0 0 0 0 -172696307.48277664 135820882.26015091 0 135820882.26015091 253277504.29338646 0 0 0 0 -187653062.46055603 138553305.17383957 0 138553305.17383957 325134718.32318878 0 0 0 0 -84207706.913213968 248655156.62348795 0 248655156.62348795 159590148.63421631 0 0 0 0 -89937766.594734192 204897869.93531036 0 204897869.93531036 50205483.994998932 0 0 0 0 -21183042.198135376 332417250.43849182 0 332417250.43849182 250792983.1970253 0 0 0 0 -8047569.3623733521 315761958.40386009 0 315761958.40386009 158106857.5665741 0 0 0 0 65011742.852107048 390299516.19534397 0 390299516.19534397 177861639.2530365 0 0 0 0 286627395.70800781 150127594.99397278 0 150127594.99397278 -357287732.35118103 0 0 0 0 240124477.72486877 -222067581.84212923 0 -222067581.84212923 -189792715.86061096 0 0 0 0 -1536771.4780973345 2302456.7123543695 0 2302456.7123543695 -3728867.5954220323 0 0 0 0 -67867876.653503418 229750824.29489136 0 229750824.29489136 61345199.118942261 0 0 0 0 -495612814.78091431 -174698007.01226807 0 -174698007.01226807 552449938.05647278 0 0 0 0 -223907785.81445312 -103591557.340271 0 -103591557.340271 -81844458.771915436 0 0 0 0 -115255975.4967804 -214779941.17148209 0 -214779941.17148209 -1057169785.6836853 0 0 0 0 -290775039.40406799 187767292.58706665 0 187767292.58706665 -975201210.90306091 0 0 0 0 92432560.539825439 78288621.328193665 0 78288621.328193665 -1759289534.037674 0 0 0 0 224490939.93443298 107693902.66904068 0 107693902.66904068 -1121834107.7460938 0 0 0 0 112008883.81190491 143255053.51959991 0 143255053.51959991 -477572991.80924988 0 0 0 0 50075215.86227417 210712548.66784668 0 210712548.66784668 -898572307.722435 0 0 0 0 84714663.411468506 -208442403.19258118 0 -208442403.19258118 -719118839.14814758 0 0 0 0 167518594.68638611 366882192.31302261 0 366882192.31302261 -938952209.81497192 0 0 0 0 92826040.00453186 326562711.62931061 0 326562711.62931061 -437789310.86440134 0 0 0 0 93223487.886505127 115434725.50161743 0 115434725.50161743 -489667783.2957077 0 0 0 0 56742558.250030518 204196176.64468384 0 204196176.64468384 -425862766.06490803 0 0 0 0 136758140.38508606 254686550.93507385 0 254686550.93507385 -402351233.37618446 0 0 0 0 171749098.40368652 394220826.61787415 0 394220826.61787415 -341483801.68645096 0 0 0 0 226416.01824951172 126085690.86611557 0 126085690.86611557 249324980.91101074 0 0 0 0 214016823.02432251 -156563918.36966705 0 -156563918.36966705 -298573530.710495 0 0 0 0 69325977.508209229 325902143.02480316 0 325902143.02480316 112618138.38562012 0 0 0 0 -139904187.05020142 13560874.488342285 0 13560874.488342285 389813929.61901855 0 0 0 0 -785884.562913239 -582933.25780142471 0 -582933.25780142471 -975182.34686628869 0 0 0 0 -82548900.89743042 -76881599.114486694 0 -76881599.114486694 137391151.83079517 0 0 0 0 -86012661.458892822 54869941.226207733 0 54869941.226207733 -19274826.697891235 0 0 0 0 37950516.231994629 32575672.989631653 0 32575672.989631653 -29143690.365615845 0 0 0 0 -28147464.800994873 116197233.04124451 0 116197233.04124451 -72789772.368026733 0 0 0 0 44414493.497589111 44938747.542037964 0 44938747.542037964 -150114842.6262511 0 0 0 0 -64259309.626434326 26239598.110477448 0 26239598.110477448 65889914.769577026 0 0 0 0 9404073.8886108398 1602844.3096160889 0 1602844.3096160889 -12385166.374549866 0 0 0 0 -329680.4580790624 1818167.8528421298 0 1818167.8528421298 468348.03560708463 0 0 0 0 65350372.347198486 66799479.909584045 0 66799479.909584045 64399855.002716064 0 0 0 0 37646.063323974609 -9571220.9987182617 0 -9571220.9987182617 -22789764.401596069 0 0 0 0 -115005439.78895569 86723798.28502655 0 86723798.28502655 92531001.632080078 0 0 0 0 -21536330.114746094 -22185988.201904297 0 -22185988.201904297 88461872.688127041 0 0 0 0 26551222.714004517 -24122933.453521729 0 -24122933.453521729 59837919.543716431 0 0 0 0 -1196970.6015102649 5110173.7049354985 0 5110173.7049354985 1585895.1732680574 0 0 0 0 -13621935.752044678 4054330.2058029175 0 4054330.2058029175 59893596.082977295 0 0 0 0 -7658281.9715042114 4247308.272277832 0 4247308.272277832 -4703510.496887207 0 0 0 0 3750304.5532656908 1815353.2117730379 0 1815353.2117730379 -11148620.788107358 0 0 0 0 220416858.74545288 378998574.94280243 0 378998574.94280243 291284492.91822815 0 0 0 0 -4216986.7579006106 9214321.979918588 0 9214321.979918588 -9214831.4400076419 0 0 0 0 184056067.92286682 432688332.53026581 0 432688332.53026581 538819480.04234314 0 0 0 0 111205112.58624268 483104019.11369324 0 483104019.11369324 908098992.70095825 0 0 0 0 112162863.42605591 498087945.70266724 0 498087945.70266724 734614259.6000061 0 0 0 0 151465569.1267395 362021992.20263672 0 362021992.20263672 701656787.60093689 0 0 0 0 -8085555.8396977484 10634411.293381482 0 10634411.293381482 -6370851.0402553603 0 0 0 0 -6893228.4860553741 64531477.856666565 0 64531477.856666565 12416802.82321167 0 0 0 0 -73486119.746002197 -22700036.338020325 0 -22700036.338020325 -1692634.5255584717 0 0 0 0 -13411356.061391801 10738250.79604484 0 10738250.79604484 -1931107.4271477312 0 0 0 0 364221234.98480988 525495163.22961044 0 525495163.22961044 869535759.65274048 0 0 0 0 27884431.875167847 21193712.455757141 0 21193712.455757141 -32741141.495704651 0 0 0 0 378573039.83538628 785388536.37999344 0 785388536.37999344 1143938391.9616089 0 0 0 0 359494605.00927734 631046197.98321533 0 631046197.98321533 578919963.14595795 0 0 0 0 149643105.14332581 318250981.86924744 0 318250981.86924744 878342150.15304565 0 0 0 0 1486033291.1461563 1278622161.2492752 0 1278622161.2492752 860045348.78869629 0 0 0 0 -296389.46846036054 3409653.5460819118 0 3409653.5460819118 -2959867.4583001584 0 0 0 0 3399681570.1293182 1785513631.6335373 0 1785513631.6335373 504474191.34138489 0 0 0 0 165593906.68139648 1377202951.4828262 0 1377202951.4828262 2282846267.8752289 0 0 0 0 638143089.25216675 1669205805.2384033 0 1669205805.2384033 1277827805.3702698 0 0 0 0 -481712704.38822937 1780300266.860321 0 1780300266.860321 2052298809.6676941 0 0 0 0 550977266.32145691 393396501.31474304 0 393396501.31474304 861222559.72177505 0 0 0 0 515161345.31303406 713348641.87969208 0 713348641.87969208 1505759639.2227058 0 0 0 0 879193480.97287369 1152402460.3296833 0 1152402460.3296833 1743900428.7261353 0 0 0 0 -618185196.77166748 782239898.55872345 0 782239898.55872345 189207813.90097046 0 0 0 0 -1235252683.90271 641116349.69655991 0 641116349.69655991 1911304736.4834595 0 0 0 0 -3644163987.5194836 910588326.37940121 0 910588326.37940121 1067659997.400238 0 0 0 0 -2133056733.84272 2192188194.9410744 0 2192188194.9410744 1198011177.1685486 0 0 0 0 216570359.15461731 974927193.35270691 0 974927193.35270691 1010049497.2893524 0 0 0 0 -1505449554.8962555 466436196.96934509 0 466436196.96934509 5763004387.3777313 0 0 0 0 -191949562.06497192 -590334571.30987549 0 -590334571.30987549 3256196546.9288788 0 0 0 0 734105800.70373535 508836839.98002625 0 508836839.98002625 1891266475.5546885 0 0 0 0 -745056335.93151855 1663866699.5515404 0 1663866699.5515404 4204187742.0654297 0 0 0 0 -504841181.62617493 1288807083.6095543 0 1288807083.6095543 -1742356540.8726349 0 0 0 0 -447872909.87808228 1487649090.6499481 0 1487649090.6499481 -2147130877.2985077 0 0 0 0 -34779276.03024292 1236292556.0805511 0 1236292556.0805511 -2848384997.2886047 0 0 0 0 -14377264.907473966 7954044.7099186778 0 7954044.7099186778 -1021662.2665805725 0 0 0 0 -332644460.27523804 1406402580.6287689 0 1406402580.6287689 -1888281337.2541351 0 0 0 0 43448975.646820068 600760456.79892731 0 600760456.79892731 -1767237210.2253113 0 0 0 0 -250532199.52987671 1546347250.8827591 0 1546347250.8827591 -2096960285.1415253 0 0 0 0 -56525589.654205322 1165869231.4087982 0 1165869231.4087982 -2060659491.2754784 0 0 0 0 -246060021.42437744 1440737488.194725 0 1440737488.194725 -1884328937.1697083 0 0 0 0 -236719304.74593067 1178062525.0710745 0 1178062525.0710745 -1799774383.6870728 0 0 0 0 -397792142.55200195 1188615454.5807495 0 1188615454.5807495 -1716649963.6307144 0 0 0 0 -307624348.10232544 1077992935.8301468 0 1077992935.8301468 -1690122697.8294868 0 0 0 0 113973890.67235565 -106800810.66679955 0 -106800810.66679955 -1079953602.3850861 0 0 0 0 -242750930.10290527 -480259927.37696838 0 -480259927.37696838 -2423396.3312149048 0 0 0 0 -494793622.93017578 1044285966.2056427 0 1044285966.2056427 -953287059.2481842 0 0 0 0 -2257034.9680267423 -2112593.3352221064 0 -2112593.3352221064 3521668.6610743254 0 0 0 0 -16790540.662465781 13131068.171941556 0 13131068.171941556 -3486133.6608536374 0 0 0 0 -831301877.8609314 903778755.22501373 0 903778755.22501373 -211631909.16983795 0 0 0 0 -559550428.15658569 165761490.15000916 0 165761490.15000916 -16006691.814177394 0 0 0 0 143234062.9720459 1066554184.0324097 0 1066554184.0324097 -1684291530.9672852 0 0 0 0 -900712305.73086929 618697974.10756588 0 618697974.10756588 -1251502979.1858215 0 0 0 0 -528031299.09936523 1360513485.54776 0 1360513485.54776 -1644300975.8090706 0 0 0 0 -1112716346.5282593 1834781714.7398071 0 1834781714.7398071 -2029004422.92099 0 0 0 0 -152145158.76205444 1402671552.9032745 0 1402671552.9032745 -2584456302.7331314 0 0 0 0 -2151427679.1213684 1572309659.2158813 0 1572309659.2158813 -1948290737.662262 0 0 0 0 -1215790854.7466736 107033727.47129059 0 107033727.47129059 -2296705725.8176422 0 0 0 0 -949357111.40924072 615918342.21592712 0 615918342.21592712 -1376283820.4344826 0 0 0 0 -401355370.54512024 -180078835.47915649 0 -180078835.47915649 -1897594979.1529846 0 0 0 0 -785981926.11983681 862901215.78895283 0 862901215.78895283 -1824494658.6985779 0 0 0 0 -790409147.51563644 761741514.85160542 0 761741514.85160542 -4134022874.237915 0 0 0 0 -2408136024.8864136 2491398506.8322067 0 2491398506.8322067 -2122070237.7988205 0 0 0 0 -3218614451.6871643 701129918.07315063 0 701129918.07315063 -2302303843.9397888 0 0 0 0 -1158236348.0461426 930379554.17280579 0 930379554.17280579 -3080915252.1392365 0 0 0 0 -2497650945.7108917 2797007333.1419945 0 2797007333.1419945 -5128687786.3183594 0 0 0 0 -1122261380.3225417 1930763265.3692245 0 1930763265.3692245 -2869682220.1567688 0 0 0 0 363080060.10974121 544988345.88745117 0 544988345.88745117 -3773864236.2043228 0 0 0 0 28658618.486042023 -1548532142.3788772 0 -1548532142.3788772 -1378896613.1990967 0 0 0 0 -2886607470.8495483 -150377934.5991745 0 -150377934.5991745 643036513.80160522 0 0 0 0 -2069103.1426310241 1672704.9399333205 0 1672704.9399333205 -210415.40655875579 0 0 0 0 -565518659.9151001 1837336735.6451569 0 1837336735.6451569 -5905239277.697319 0 0 0 0 18037.682615118567 1446801.267847009 0 1446801.267847009 -961593.17205449194 0 0 0 0 -1129247.874825567 6155281.8612524271 0 6155281.8612524271 -5020151.7113164961 0 0 0 0 -2038010.0741629601 6232629.9857193232 0 6232629.9857193232 2409735.5557556152 0 0 0 0 -264261107.94313145 335946193.04936719 0 335946193.04936719 -575507624.21951294 0 0 0 0 -3076096.6897060852 6963288.2160552517 0 6963288.2160552517 2012898.938276954 0 0 0 0 -1380953676.2514954 259682564.68415451 0 259682564.68415451 287598932.97802734 0 0 0 0 -920231101.92447662 938119198.95668411 0 938119198.95668411 -607349969.02909851 0 0 0 0 -1523543333.7635193 1176667670.6871452 0 1176667670.6871452 -460379193.30625153 0 0 0 0 91878065.262237549 655737339.63204193 0 655737339.63204193 -1328685054.3665619 0 0 0 0 -585827673.31118774 356976263.05919647 0 356976263.05919647 -33581575.495803833 0 0 0 0 37241570.69519043 71949171.165939331 0 71949171.165939331 -208086664.35147095 0 0 0 0 -282179166.38548279 771253622.86054993 0 771253622.86054993 -1123698348.8374023 0 0 0 0 401366374.50112915 221433927.62808228 0 221433927.62808228 -1467870167.6384735 0 0 0 0 -79697351.405731201 516522471.42992401 0 516522471.42992401 -965753219.11903381 0 0 0 0 -115708135.87846375 1144646807.7302971 0 1144646807.7302971 -2042120409.2997894 0 0 0 0 351677679.01464844 212769960.25169373 0 212769960.25169373 -1241194528.8357124 0 0 0 0 52611202.656005859 454328942.39265442 0 454328942.39265442 -1288783507.9155273 0 0 0 0 -443735746.13961792 434248801.6280365 0 434248801.6280365 -389330200.56734467 0 0 0 0 -5591868.8655376583 6585681.2434523273 0 6585681.2434523273 -1697558.8586770073 0 0 0 0 -1657359.6496582031 5515669.0057830811 0 5515669.0057830811 -918756.63761138916 0 0 0 0 -1542969.4846343994 3001120.4077148438 0 3001120.4077148438 -1329969.5209503174 0 0 0 0 307258125.63334084 -302011207.31453657 0 -302011207.31453657 -47568324.275878906 0 0 0 0 -165599720.5305481 314399859.8191452 0 314399859.8191452 425076221.40606689 0 0 0 0 41135524.963989258 272499546.53364563 0 272499546.53364563 -41228239.736122131 0 0 0 0 -23494564.305023193 -204619763.10097504 0 -204619763.10097504 144663001.24755859 0 0 0 0 -7447048.7182312012 24202414.134262085 0 24202414.134262085 -25144318.181343079 0 0 0 0 -5858275.27071473 6102722.3247821927 0 6102722.3247821927 -2809381.1247390099 0 0 0 0 -3677766.4999421239 5267152.0854382291 0 5267152.0854382291 -1085468.3787784055 0 0 0 0 -7021716.1112136841 42209342.802485466 0 42209342.802485466 -16578861.24118042 0 0 0 0 37492312.75881958 -9017723.0865783691 0 -9017723.0865783691 2330449.6100018024 0 0 0 0 -19102034.338882446 11920018.993487358 0 11920018.993487358 1561858.0478897095 0 0 0 0 -22727647.005065918 54508164.258987427 0 54508164.258987427 31448737.712799072 0 0 0 0 -364729314.80360413 446264422.15212631 0 446264422.15212631 -434611853.07565308 0 0 0 0 -697019233.54449463 627940684.50479126 0 627940684.50479126 -242300008.69880295 0 0 0 0 -54256364.724121094 143379259.16514587 0 143379259.16514587 -199764170.76956177 0 0 0 0 -1392955.903793335 6556784.5972671509 0 6556784.5972671509 -4930369.3409729004 0 0 0 0 -1516305.9298301083 7838145.3252419382 0 7838145.3252419382 -1680467.645678252 0 0 0 0 -2345046.0204311158 5952687.9391827434 0 5952687.9391827434 2494160.6633050069 0 0 0 0 -4865658.9714202881 14240686.719345093 0 14240686.719345093 33340621.806060791 0 0 0 0 -66741962.913757324 20608474.581481934 0 20608474.581481934 11239465.412132263 0 0 0 0 -584752188.60952759 244162693.29592514 0 244162693.29592514 -124332686.54969406 0 0 0 0 1822406.482299149 2133835.6733954698 0 2133835.6733954698 -1883145.1689889953 0 0 0 0 -308893033.70581055 618554308.554245 0 618554308.554245 -622487742.47497177 0 0 0 0 -425966697.19192505 628750355.28310394 0 628750355.28310394 -499068921.93383789 0 0 0 0 82196062.171539307 785800002.32152557 0 785800002.32152557 -707664338.45112991 0 0 0 0 -180970905.3164444 820075066.94301796 0 820075066.94301796 -769482713.79458618 0 0 0 0 17662486.849258423 803368915.31564331 0 803368915.31564331 -772159319.48839569 0 0 0 0 -733737722.97354126 893099760.33934784 0 893099760.33934784 -540532479.433321 0 0 0 0 -199930939.91847229 858545862.56499481 0 858545862.56499481 -1032621485.848526 0 0 0 0 -391274649.49346924 1089639923.0892258 0 1089639923.0892258 -1301109584.9325256 0 0 0 0 -254973274.19943237 973284478.61340714 0 973284478.61340714 -1038396178.1142197 0 0 0 0 -407203351.20367432 1258260547.0037155 0 1258260547.0037155 -2269850572.2717438 0 0 0 0 43841698.16519165 808167581.89890289 0 808167581.89890289 -1071781633.3593903 0 0 0 0 106620789.41098022 673238216.40430832 0 673238216.40430832 -1021265910.1521912 0 0 0 0 4887566.7959442139 880480288.24129868 0 880480288.24129868 -1401534117.8736115 0 0 0 0 101468534.65042114 581405628.37733459 0 581405628.37733459 -1228818225.0531197 0 0 0 0 159542511.58824921 565471432.69724846 0 565471432.69724846 -1303946051.7622223 0 0 0 0 -139055964.35800171 459710363.96430969 0 459710363.96430969 -1489165394.7845459 0 0 0 0 -134183706.22579956 693218186.21896362 0 693218186.21896362 -2451260382.8364258 0 0 0 0 91158813.672777176 709985947.13410664 0 709985947.13410664 -1973963178.8495483 0 0 0 0 381641.16180419922 520867807.06497192 0 520867807.06497192 -750428546.09461975 0 0 0 0 141022163.89910889 674696759.41993713 0 674696759.41993713 -1077679180.4770355 0 0 0 0 221220630.29779053 387751931.99243069 0 387751931.99243069 -932281982.99603271 0 0 0 0 163212462.16765594 627599965.8827076 0 627599965.8827076 -983200362.14755249 0 0 0 0 123646563.68740845 554115845.69581223 0 554115845.69581223 -757848948.27483749 0 0 0 0 10008298.452529907 729905926.45450974 0 729905926.45450974 -584563041.26531219 0 0 0 0 27921.874336017056 628188534.41548359 0 628188534.41548359 -771569244.51707458 0 0 0 0 13461643.538604736 760508209.52308655 0 760508209.52308655 -791055247.75556564 0 0 0 0 58381229.592529297 743241055.92666626 0 743241055.92666626 -785232989.49243927 0 0 0 0 -52293291.513313293 850679294.32693863 0 850679294.32693863 -574385828.15560913 0 0 0 0 -146846858.00656128 779030438.4941597 0 779030438.4941597 -524971075.13698578 0 0 0 0 20918.971832275391 634128428.49951935 0 634128428.49951935 -550025647.27645493 0 0 0 0 -119894348.17262268 686976205.78309631 0 686976205.78309631 -221027361.63213348 0 0 0 0 -272576171.49554443 638221072.69502258 0 638221072.69502258 -236594974.95516014 0 0 0 0 -298899971.5416894 308348541.3516494 0 308348541.3516494 198448312.67022705 0 0 0 0 -365803.57913208008 426105641.62941551 0 426105641.62941551 -71309378.196598053 0 0 0 0 -35044882.838317871 145265121.24326706 0 145265121.24326706 1113447123.1189651 0 0 0 0 1562526.3406976163 237877.21464814991 0 237877.21464814991 -1299994.3118671961 0 0 0 0 -7164563.058013916 1176680756.2942581 0 1176680756.2942581 -39638450.374427795 0 0 0 0 457095693.26654053 608439187.65498352 0 608439187.65498352 383426574.26615524 0 0 0 0 -2174948.7912497297 586199.19686502591 0 586199.19686502591 2094437.8305190429 0 0 0 0 167750181.11349487 36096250.694507599 0 36096250.694507599 157426678.77956629 0 0 0 0 426855895.36230469 630285958.66281891 0 630285958.66281891 857841096.4947052 0 0 0 0 182545879.68440247 309730396.67299271 0 309730396.67299271 507878076.85124207 0 0 0 0 299730248.57990646 366031000.80442762 0 366031000.80442762 306769592.02967453 0 0 0 0 -3390816.9928658828 1004820.0768975355 0 1004820.0768975355 3164731.4753597528 0 0 0 0 -174119730.18183899 196467267.2840271 0 196467267.2840271 449975463.6292572 0 0 0 0 141851706.61750793 263894262.34260941 0 263894262.34260941 507319238.06873322 0 0 0 0 200452817.73303223 34798484.963687897 0 34798484.963687897 152308306.86695099 0 0 0 0 -1927044.4681334198 -1866647.2812574012 0 -1866647.2812574012 1870134.2670658194 0 0 0 0 -48546751.074508667 238617912.34512329 0 238617912.34512329 297519890.6415863 0 0 0 0 14754782.237640381 -8275900.1572494507 0 -8275900.1572494507 116785456.08943558 0 0 0 0 595431725.15586853 246244192.91383743 0 246244192.91383743 361690236.05293274 0 0 0 0 -855192.87492696941 -928496.09056439344 0 -928496.09056439344 894834.09809675813 0 0 0 0 83442166.795257568 170204663.67961693 0 170204663.67961693 -348997137.43552399 0 0 0 0 127965156.35009003 101051058.9876461 0 101051058.9876461 -243953913.0275116 0 0 0 0 -2172302.1595661044 -2288375.1001583776 0 -2288375.1001583776 2242329.2629817165 0 0 0 0 -52790595.121246338 89843117.147296906 0 89843117.147296906 436334608.17756271 0 0 0 0 -79779707.695617676 235792649.14344788 0 235792649.14344788 -230178706.84806061 0 0 0 0 -44967245.398544312 88327760.203907013 0 88327760.203907013 204671405.93352509 0 0 0 0 144598538.92298889 183856255.43600845 0 183856255.43600845 -6681909.1771011353 0 0 0 0 -21769311.679107666 66298272.391468048 0 66298272.391468048 -9942723.6113016605 0 0 0 0 128565.70287322998 199318844.49832153 0 199318844.49832153 61989762.605640411 0 0 0 0 -6070593.2026824951 -24161035.822498322 0 -24161035.822498322 -128002392.26280022 0 0 0 0 -110975.93408966064 195706005.1852169 0 195706005.1852169 -452722063.68404007 0 0 0 0 80071946.646728516 62952647.067146301 0 62952647.067146301 -854551394.99464798 0 0 0 0 -86789430.210258484 175675687.30720711 0 175675687.30720711 -478388154.45514679 0 0 0 0 30777086.300323486 38279558.346515656 0 38279558.346515656 -409784211.59713364 0 0 0 0 21757625.884778976 189568758.66881537 0 189568758.66881537 -256755606.99944305 0 0 0 0 33473068.781597137 210938024.69940472 0 210938024.69940472 -163491793.78379059 0 0 0 0 2345102.9703674316 79180925.549255371 0 79180925.549255371 -258230681.17832184 0 0 0 0 5356383.730682373 206524121.13450241 0 206524121.13450241 -418806609.21032715 0 0 0 0 14103355.640289307 239763048.98270798 0 239763048.98270798 -273852396.73152161 0 0 0 0 -6055350.0600585938 177341524.05338287 0 177341524.05338287 -210886901.34688759 0 0 0 0 10765910.20904541 142578725.46895599 0 142578725.46895599 -393771305.84767151 0 0 0 0 26673759.642572403 236547109.87873888 0 236547109.87873888 -295161115.61292267 0 0 0 0 -28264425.145198822 225078172.87451935 0 225078172.87451935 -215445756.86013031 0 0 0 0 -79268265.227310181 187809822.68250465 0 187809822.68250465 -574705591.28378677 0 0 0 0 -174934.99190397561 -1910313.3976426348 0 -1910313.3976426348 -1108578.128049301 0 0 0 0 49677386.085922241 165538682.2075882 0 165538682.2075882 -531931364.13877869 0 0 0 0 -89619104.189544678 168555505.46964645 0 168555505.46964645 -400346275.65857315 0 0 0 0 86565976.396469116 163073079.97627831 0 163073079.97627831 -794662218.36671829 0 0 0 0 -101800.89629980922 -2798542.9888393544 0 -2798542.9888393544 -1530017.1759344041 0 0 0 0 -22680591.631774902 12173903.901317596 0 12173903.901317596 -554631863.72291183 0 0 0 0 -557388980.0138855 -171664240.77184677 0 -171664240.77184677 -319657546.51725101 0 0 0 0 305510198.65170288 370507222.27666473 0 370507222.27666473 -1205494025.1763153 0 0 0 0 32741170.818054199 -309169814.23565292 0 -309169814.23565292 -1324652269.2315245 0 0 0 0 65158407.692382812 -20125253.380970001 0 -20125253.380970001 28652187.543038368 0 0 0 0 -1977844.49187392 908433.31903476268 0 908433.31903476268 948087.35044567473 0 0 0 0 -82405060.762025535 424765743.63218546 0 424765743.63218546 -450652103.99608231 0 0 0 0 -80919387.043945312 262688120.1709156 0 262688120.1709156 60395678.829055786 0 0 0 0 -32507582.583236694 143459963.19130516 0 143459963.19130516 -182346404.59581375 0 0 0 0 22092457.530914307 102251589.86919403 0 102251589.86919403 -241409726.6977253 0 0 0 0 1607158.3278198242 150189087.41028214 0 150189087.41028214 -383862998.41341972 0 0 0 0 143938836.91387367 71221837.702687979 0 71221837.702687979 -587543704.81005859 0 0 0 0 470919.26074846089 -3336244.8859552592 0 -3336244.8859552592 -1784195.0340902433 0 0 0 0 42396.577896118164 49687708.845066071 0 49687708.845066071 -447214609.1758213 0 0 0 0 155757540.02923584 90912448.945285797 0 90912448.945285797 -855107001.15724754 0 0 0 0 89492644.688781738 9874311.7511405945 0 9874311.7511405945 -354714185.11485291 0 0 0 0 101692487.62705994 44540890.058034897 0 44540890.058034897 -260872027.63178778 0 0 0 0 72056434.635368347 66729357.269701958 0 66729357.269701958 -83647018.093261719 0 0 0 0 80175828.119689941 -25235498.869800568 0 -25235498.869800568 -262069042.98061371 0 0 0 0 101092492.00210571 37435944.777721405 0 37435944.777721405 -321887558.53275299 0 0 0 0 105941119.1738739 13350614.984752655 0 13350614.984752655 -206261392.4752121 0 0 0 0 48011899.630218506 -13179798.171892166 0 -13179798.171892166 -192192098.5947876 0 0 0 0 57364914.257354736 -40261599.227394104 0 -40261599.227394104 -303108679.78937531 0 0 0 0 -8780130.53125 21594258.869995117 0 21594258.869995117 -286350537.14591503 0 0 0 0 -41053717.304870605 -96433309.540126801 0 -96433309.540126801 -156354344.65186691 0 0 0 0 -96662635.251220703 -62668818.84287262 0 -62668818.84287262 -303562725.41068935 0 0 0 0 -12637262.539505005 -25844099.013500214 0 -25844099.013500214 -296675097.69612694 0 0 0 0 -25346431.813842773 128442778.5815773 0 128442778.5815773 -767272377.39878654 0 0 0 0 -52876282.922546387 -164012285.7918644 0 -164012285.7918644 -600225548.5333786 0 0 0 0 2067175.1895599365 32479337.029281616 0 32479337.029281616 -560094378.55988312 0 0 0 0 36006364.235656738 46759459.662590027 0 46759459.662590027 -555087675.66820145 0 0 0 0 68465.098579496145 -872155.73403216153 0 -872155.73403216153 -475107.9033495998 0 0 0 0 33096340.695829391 236162195.85655284 0 236162195.85655284 -804126076.97449493 0 0 0 0 5427759.9307556152 201964552.28927994 0 201964552.28927994 -56392886.396341324 0 0 0 0 -23367058.683013916 57318065.57749939 0 57318065.57749939 -360721825.89377594 0 0 0 0 91414981.411468506 259161109.14759445 0 259161109.14759445 -330594020.44979858 0 0 0 0 55564180.828674316 282115575.54551697 0 282115575.54551697 -244118301.13199615 0 0 0 0 178411591.22613525 530027663.65811539 0 530027663.65811539 120169346.73067856 0 0 0 0 108699353.5513916 283100369.765728 0 283100369.765728 -305434903.14149475 0 0 0 0 -22268918.081634521 405534703.78590393 0 405534703.78590393 -146865179.36515045 0 0 0 0 -10439775.007568359 244008817.43981934 0 244008817.43981934 -96974554.920116425 0 0 0 0 14147981.857269287 238741626.58306122 0 238741626.58306122 -171953112.06985474 0 0 0 0 82410417.742027283 247224037.94637299 0 247224037.94637299 -296868327.87259674 0 0 0 0 1428679.1517009735 154592776.34137869 0 154592776.34137869 -235337590.34356308 0 0 0 0 84736562.764694214 219673727.26845169 0 219673727.26845169 -80394607.907211304 0 0 0 0 78423703.811523438 216104188.33000851 0 216104188.33000851 -64615915.732849121 0 0 0 0 53791299.942367554 291571698.38143921 0 291571698.38143921 -54262869.086358547 0 0 0 0 26488987.723865509 300807515.66139221 0 300807515.66139221 -9384578.0190887451 0 0 0 0 12149062.001190186 332475964.21223259 0 332475964.21223259 165594230.7585907 0 0 0 0 -26946275.370437622 305648858.46012497 0 305648858.46012497 403523951.33165741 0 0 0 0 -10967397.084686279 288489415.78440475 0 288489415.78440475 172541572.96127605 0 0 0 0 -17711744.632270813 266449147.36318207 0 266449147.36318207 268374903.55552673 0 0 0 0 302229141.54248047 611845897.70921326 0 611845897.70921326 -80032517.956390381 0 0 0 0 -1853797.8769916594 509737.06420762837 0 509737.06420762837 1753948.2547112107 0 0 0 0 24487419.14050293 28116121.293769836 0 28116121.293769836 135720742.15492249 0 0 0 0 -185157022.63449097 81352739.94657135 0 81352739.94657135 135577709.26919556 0 0 0 0 -138426538.89367676 177708453.92192459 0 177708453.92192459 225857121.61515808 0 0 0 0 -254310465.16191864 346790829.39131546 0 346790829.39131546 71787676.568496704 0 0 0 0 2322187.9262084961 263649468.36341858 0 263649468.36341858 90824678.967494965 0 0 0 0 -77020609.681335449 314763416.91687012 0 314763416.91687012 198622574.63027954 0 0 0 0 131854159.88345337 312518281.70605469 0 312518281.70605469 198289024.1502986 0 0 0 0 274808459.90206909 149915313.48280716 0 149915313.48280716 375769316.62726402 0 0 0 0 109604261.84231567 228818340.89154816 0 228818340.89154816 224010707.49847746 0 0 0 0 -12542374.962768555 208787977.79608345 0 208787977.79608345 380424275.41022491 0 0 0 0 133536998.32200623 217725774.26984787 0 217725774.26984787 358567946.51661301 0 0 0 0 122588800.6789856 62091955.865280151 0 62091955.865280151 136388575.23958278 0 0 0 0 23205498.399993896 317491429.64423752 0 317491429.64423752 704488589.80438995 0 0 0 0 -85023019.393249512 265350480.07698059 0 265350480.07698059 757219388.51240158 0 0 0 0 20462050.995178223 119298585.00476646 0 119298585.00476646 726459814.37659454 0 0 0 0 -707486.84884149861 1928406.7607095167 0 1928406.7607095167 989360.59267351776 0 0 0 0 179845494.75643492 373370508.489797 0 373370508.489797 472978575.97689819 0 0 0 0 -11149314.281730652 -185896367.70703435 0 -185896367.70703435 328765946.49235535 0 0 0 0 153804423.45703125 45177542.754570007 0 45177542.754570007 7821288.205696106 0 0 0 0 -84895372.937385559 -9831869.9840621948 0 -9831869.9840621948 652403265.51829529 0 0 0 0 -51386954.328735352 127460127.52648354 0 127460127.52648354 283127922.18618011 0 0 0 0 -73982879.043708801 109380999.76673317 0 109380999.76673317 289940906.78530121 0 0 0 0 130651593.25330353 404019530.34736156 0 404019530.34736156 460368903.57881927 0 0 0 0 -128908168.34552002 107394553.49822235 0 107394553.49822235 732912007.77244949 0 0 0 0 -574990.91687774658 -64838089.846961975 0 -64838089.846961975 243070379.2351532 0 0 0 0 48196612.334472656 -12634299.837547302 0 -12634299.837547302 16552804.987075806 0 0 0 0 3526995.8599395752 25583660.317516327 0 25583660.317516327 75959258.855026245 0 0 0 0 -3856139.4700393677 -382552.58793830872 0 -382552.58793830872 63968653.963272095 0 0 0 0 -25226381.048797607 55910963.302112579 0 55910963.302112579 158988330.45777893 0 0 0 0 -226003.59665679932 42320524.192508698 0 42320524.192508698 16352643.040931702 0 0 0 0 -1833243.8291168213 82619693.051510811 0 82619693.051510811 94942461.758369446 0 0 0 0 18192583.411956787 121221658.42505646 0 121221658.42505646 142311097.4986515 0 0 0 0 -127913003.37321472 -32141819.892696381 0 -32141819.892696381 17298862.504241943 0 0 0 0 3452931.2576599121 79434115.710407257 0 79434115.710407257 96853217.439743042 0 0 0 0 -4462175.329098925 2194261.8264526352 0 2194261.8264526352 6669270.9812320545 0 0 0 0 -12816246.536529541 -43394787.451229095 0 -43394787.451229095 -11775073.581996918 0 0 0 0 11871596.508483887 48714570.780403137 0 48714570.780403137 20420219.523208618 0 0 0 0 -17369834.574798584 29579706.346309662 0 29579706.346309662 4860765.9005050659 0 0 0 0 -63921108.006835938 75121595.117458344 0 75121595.117458344 -8997782.8391418457 0 0 0 0 -50402072.407371521 75116793.547498465 0 75116793.547498465 -20327724.848083496 0 0 0 0 -43125610.331939697 3372195.5916900635 0 3372195.5916900635 -12963711.849807739 0 0 0 0 -40752007.040649414 229872745.77586365 0 229872745.77586365 -509846154.31446838 0 0 0 0 -3103616.6195162684 -770295.51277737692 0 -770295.51277737692 2495915.125108039 0 0 0 0 20202658.028686523 73525553.363319397 0 73525553.363319397 -232380673.97370911 0 0 0 0 43929631.638580322 425714.57249450684 0 425714.57249450684 -119614777.38157654 0 0 0 0 -32293869.561798096 4056517.9981155396 0 4056517.9981155396 117508059.80958748 0 0 0 0 -56450727.3125 179214518.15003967 0 179214518.15003967 -70949138.169715881 0 0 0 0 -74668292.039550781 152873471.90524292 0 152873471.90524292 -30546873.58694458 0 0 0 0 -256276449.01889038 319839046.90694046 0 319839046.90694046 117273334.25556946 0 0 0 0 -106662270.10192871 289839433.10139465 0 289839433.10139465 -279974373.7871418 0 0 0 0 -77105482.061981201 31147011.581195831 0 31147011.581195831 59229992.561408997 0 0 0 0 -199200877.87459564 109870073.31592941 0 109870073.31592941 160132911.20471191 0 0 0 0 -181783759.99850464 149304580.86014175 0 149304580.86014175 5117319.766960144 0 0 0 0 -141920728.93919373 105006263.94355774 0 105006263.94355774 50026907.442375183 0 0 0 0 -114182716.16497803 21223284.525619507 0 21223284.525619507 -6320093.8569717407 0 0 0 0 -90629244.542648315 26260759.18290329 0 26260759.18290329 -12272045.015441895 0 0 0 0 -144713378.95230103 85618976.950977325 0 85618976.950977325 -7226840.7959861755 0 0 0 0 -186100058.17211914 53583344.494504929 0 53583344.494504929 9593801.7151260376 0 0 0 0 -250635885.8614502 -1385517.7438011169 0 -1385517.7438011169 17637809.987586975 0 0 0 0 -147514371.1373291 77595232.135744095 0 77595232.135744095 38977389.914093018 0 0 0 0 -168117686.11868286 33276936.228034973 0 33276936.228034973 31972575.632965088 0 0 0 0 -111169836.79658508 30568972.456727982 0 30568972.456727982 19681521.276405334 0 0 0 0 -154226969.28570557 78336832.212871552 0 78336832.212871552 -12556609.189506531 0 0 0 0 -195015973.22595215 17627810.000038147 0 17627810.000038147 -13752789.727114439 0 0 0 0 -678844.19008057937 536854.93846192211 0 536854.93846192211 1336095.6217623278 0 0 0 0 -487782017.93739319 -44594960.229152679 0 -44594960.229152679 69792371.607912064 0 0 0 0 -232885702.52923584 -5534502.1896915436 0 -5534502.1896915436 -22837960.109794617 0 0 0 0 129104553.42388916 191085332.39020157 0 191085332.39020157 155896306.16770411 0 0 0 0 701082477.20521545 430240053.33623123 0 430240053.33623123 52550454.499011993 0 0 0 0 53096064.561782837 255989212.36214447 0 255989212.36214447 158189100.04206848 0 0 0 0 116354970.33261108 244283374.19303894 0 244283374.19303894 -1601664.3219528198 0 0 0 0 119384983.5877533 169053805.4596405 0 169053805.4596405 134112949.15961647 0 0 0 0 16397230.449951172 252352390.62765121 0 252352390.62765121 157844435.38877106 0 0 0 0 228634943.43798828 262301882.5495739 0 262301882.5495739 142159419.32131195 0 0 0 0 -2103937.1360115595 1157186.5756012723 0 1157186.5756012723 3880804.8612502441 0 0 0 0 21541343.615760803 -47104917.932711601 0 -47104917.932711601 -123388294.6275959 0 0 0 0 -45338932.931991577 -37381947.119874477 0 -37381947.119874477 -84309153.391464233 0 0 0 0 -28831000.561782837 -82702995.515594482 0 -82702995.515594482 -145026689.6829617 0 0 0 0 -89373914.167724609 -182372650.081213 0 -182372650.081213 -146982578.24898529 0 0 0 0 -76296532.400503159 -67894878.272434235 0 -67894878.272434235 -84875995.607780457 0 0 0 0 -101556512.96892166 -40386589.15464592 0 -40386589.15464592 -49524141.102500916 0 0 0 0 -59850193.364498138 -59014418.035949707 0 -59014418.035949707 -87121994.093548775 0 0 0 0 -129582378.15326738 -77977093.600094795 0 -77977093.600094795 -65157254.1366539 0 0 0 0 -42127604.798883669 40334823.684034675 0 40334823.684034675 13770689.322397899 0 0 0 0 206270465.08140564 116710995.9259758 0 116710995.9259758 46422644.083900452 0 0 0 0 -101519651.43752956 -81633155.895320892 0 -81633155.895320892 -56362842.361175537 0 0 0 0 -123020786.3320837 -57523887.674938202 0 -57523887.674938202 -79384272.677520752 0 0 0 0 -120276601.23261642 -96887574.295606613 0 -96887574.295606613 -49822405.196502686 0 0 0 0 -543506701.26342773 614171596.8314209 0 614171596.8314209 -475758726.56549072 0 0 0 0 -215081006.62872505 -36948407.688014984 0 -36948407.688014984 -10309034.945419312 0 0 0 0 -248770055.89916992 -323401585.6807785 0 -323401585.6807785 564112491.94487762 0 0 0 0 -471047352.3026123 681364242.0295105 0 681364242.0295105 -398894292.26024818 0 0 0 0 -1490510882.1262207 373860092.25184631 0 373860092.25184631 892139852.37698364 0 0 0 0 -293173354.56613159 197463351.47009277 0 197463351.47009277 78521303.672567368 0 0 0 0 -75735724.442565918 43138215.580631256 0 43138215.580631256 76437287.188926697 0 0 0 0 220450360.40032959 -107353628.14523315 0 -107353628.14523315 96584587.842926025 0 0 0 0 33394346.930236816 53249590.810476303 0 53249590.810476303 -4295705.2801628113 0 0 0 0 -55222178.835220337 74235074.219326019 0 74235074.219326019 6191758.8607025146 0 0 0 0 -57690577.455169678 80904407.462677002 0 80904407.462677002 -9256935.2275695801 0 0 0 0 15250008.528533936 72508971.005777359 0 72508971.005777359 -42097293.096534729 0 0 0 0 -44481060.148406982 63300335.67181778 0 63300335.67181778 -26627795.952178955 0 0 0 0 -110660523.96606445 64767180.957923889 0 64767180.957923889 -11359292.614192963 0 0 0 0 -41899014.810005188 54041165.680098534 0 54041165.680098534 829212.86499023438 0 0 0 0 26321370.344416201 39534498.099986777 0 39534498.099986777 9011045.6346727069 0 0 0 0 15293738.080307007 71127124.068237305 0 71127124.068237305 1261508.4090681076 0 0 0 0 40499469.349494934 97585761.827756882 0 97585761.827756882 -4363887.8078575134 0 0 0 0 14384546.227096558 79770217.693695068 0 79770217.693695068 48701979.355581522 0 0 0 0 -55008076.161726952 -18994081.396755457 0 -18994081.396755457 -84510371.750793457 0 0 0 0 -53402002.009189606 -9168884.0054664612 0 -9168884.0054664612 -54045361.787890434 0 0 0 0 -29800263.047911994 35966265.833787538 0 35966265.833787538 11191292.941257659 0 0 0 0 -1275387304.4715424 -716398334.18412781 0 -716398334.18412781 582380134.7991786 0 0 0 0 -124717760.06455994 6310058.8788995743 0 6310058.8788995743 -273348416.50604248 0 0 0 0 -3474977330.613884 323723110.82987976 0 323723110.82987976 358463533.09252167 0 0 0 0 924855.24560078606 409133.72240860574 0 409133.72240860574 -237579.62793759815 0 0 0 0 1790496718.1298065 679987630.06109238 0 679987630.06109238 -538482518.66636276 0 0 0 0 77541406.428123474 358311379.89988327 0 358311379.89988327 293750821.72705269 0 0 0 0 -205799767.99918365 133237157.33084488 0 133237157.33084488 516533649.17879486 0 0 0 0 -128448303.93806267 94678225.859893799 0 94678225.859893799 63586872.940315247 0 0 0 0 21322260.935661316 921153998.53801727 0 921153998.53801727 -390072634.17562962 0 0 0 0 -453577497.02428055 9520203.5945277214 0 9520203.5945277214 104350566.81155014 0 0 0 0 -20471490.976495624 -648139.62355697341 0 -648139.62355697341 5086032.5644113645 0 0 0 0 -7330229.5693283081 145342060.80364609 0 145342060.80364609 171013439.84308624 0 0 0 0 -24711259.275360107 68893559.762638092 0 68893559.762638092 248512666.45269203 0 0 0 0 75469778.809127808 79227958.686668396 0 79227958.686668396 45786007.581100464 0 0 0 0 70797785.815509796 125984103.31876993 0 125984103.31876993 -556060.48697662354 0 0 0 0 -102358545.12067413 120068649.8068676 0 120068649.8068676 73378684.547958374 0 0 0 0 247110203.07762527 202589031.98404312 0 202589031.98404312 -18207035.601104736 0 0 0 0 71262623.428085327 123736319.07243443 0 123736319.07243443 9809911.4477462769 0 0 0 0 118308884.01241302 144094649.92354202 0 144094649.92354202 -8178422.7320556641 0 0 0 0 175435220.55546188 111325523.87193775 0 111325523.87193775 -58523774.51864624 0 0 0 0 60348820.761657715 41753933.988559723 0 41753933.988559723 -15030891.234251022 0 0 0 0 -2951891.4330029152 4004639.8252397291 0 4004639.8252397291 2223035.7904765159 0 0 0 0 157062490.34189606 99002614.637050629 0 99002614.637050629 -56420774.132339478 0 0 0 0 98371620.419631958 36963026.143037796 0 36963026.143037796 -102597976.01222229 0 0 0 0 21400932.747135162 -22819813.676314354 0 -22819813.676314354 -74212264.649124146 0 0 0 0 -110589599.6618576 17913214.643859863 0 17913214.643859863 29916771.946384311 0 0 0 0 -65784291.59727478 22252221.738716125 0 22252221.738716125 29746204.722709656 0 0 0 0 76024582.009029388 72517238.301264763 0 72517238.301264763 9653918.0584716797 0 0 0 0 18754237.755187988 15612169.272193909 0 15612169.272193909 78501258.69342041 0 0 0 0 57458145.617050171 -13138703.970474243 0 -13138703.970474243 73275184.834089279 0 0 0 0 35383560.903823853 30970077.551765442 0 30970077.551765442 42252963.030623436 0 0 0 0 11571151.934833527 59451979.61848259 0 59451979.61848259 39040111.583480835 0 0 0 0 -90203129.649185181 79987312.705612183 0 79987312.705612183 46164005.808586121 0 0 0 0 -57631006.714782715 64030819.719783783 0 64030819.719783783 40474405.141578674 0 0 0 0 -13172483.587287899 20134532.903020505 0 20134532.903020505 5005015.714053832 0 0 0 0 -97777175.102226257 77287938.375343323 0 77287938.375343323 45237506.871780396 0 0 0 0 -16863542.634929143 14476308.655953201 0 14476308.655953201 12556250.894345388 0 0 0 0 -114428726.33226776 58746188.528583527 0 58746188.528583527 38933966.926460266 0 0 0 0 -62938313.127471924 76212260.833831787 0 76212260.833831787 43855439.676017761 0 0 0 0 -367904412.71192169 -109898498.00421524 0 -109898498.00421524 79027239.902264595 0 0 0 0 277140100.03480911 478266659.1205883 0 478266659.1205883 -208705315.846138 0 0 0 0 -62362271.582763672 77599208.77368927 0 77599208.77368927 -29639447.065911293 0 0 0 0 -43664056.632171631 91724919.553638458 0 91724919.553638458 -25219928.061004639 0 0 0 0 -50062538.219924927 76547770.117261887 0 76547770.117261887 -38117657.465072632 0 0 0 0 30384257.954039298 33797455.75627517 0 33797455.75627517 2649045.5183676556 0 0 0 0 -94407963.573734283 189342418.26086044 0 189342418.26086044 -74747058.341926575 0 0 0 0 -52772886.337821372 51775257.816427551 0 51775257.816427551 20418933.460065987 0 0 0 0 -9111450.3920326233 65209603.523337364 0 65209603.523337364 -25772326.205932617 0 0 0 0 17109680.666864395 17566473.217113972 0 17566473.217113972 -60324420.024147034 0 0 0 0 24102020.73084259 27601842.500788212 0 27601842.500788212 -171063535.33034515 0 0 0 0 -40324822.72668457 102069292.8329277 0 102069292.8329277 -100375397.68167114 0 0 0 0 -6372424.9763793945 61765809.47832489 0 61765809.47832489 -73158102.103252411 0 0 0 0 -22964756.312911987 62356065.029632568 0 62356065.029632568 5491380.6150016785 0 0 0 0 -59351229.299346924 81553685.039619446 0 81553685.039619446 21081034.902572632 0 0 0 0 -54671482.208068848 102699364.32512665 0 102699364.32512665 -38124763.174507141 0 0 0 0 -65595322.855312347 84320546.766190529 0 84320546.766190529 -21079514.878494263 0 0 0 0 -109974455.20783997 106462538.09879303 0 106462538.09879303 16507497.62922287 0 0 0 0 -56515019.986587524 54036281.462924957 0 54036281.462924957 52662100.818050385 0 0 0 0 -108908821.65663147 51628629.587116241 0 51628629.587116241 71838147.508049011 0 0 0 0 -61211821.550796509 5016123.3915710449 0 5016123.3915710449 103410114.37777328 0 0 0 0 -116428755.70904636 38533720.065113068 0 38533720.065113068 57307554.707870483 0 0 0 0 -85824917.142044067 225827364.6954422 0 225827364.6954422 -363645564.89538765 0 0 0 0 -205034587.07835388 103994198.79315948 0 103994198.79315948 23126348.240478516 0 0 0 0 6745473.9732208252 70543283.766738892 0 70543283.766738892 -242231516.84560394 0 0 0 0 -202467796.16625977 155998777.77890015 0 155998777.77890015 -49172291.328495026 0 0 0 0 -138175627.0017395 95579854.671161652 0 95579854.671161652 -32975927.410461426 0 0 0 0 -42283325.769256592 95797249.565296173 0 95797249.565296173 -119305658.58280563 0 0 0 0 -132416464.92453003 150000913.81542969 0 150000913.81542969 -68698521.20923996 0 0 0 0 -111290368.65649414 200157267.95484161 0 200157267.95484161 -225483733.32482147 0 0 0 0 -228936369.98937988 172997595.16447449 0 172997595.16447449 -48942325.584259033 0 0 0 0 -616335955.85595703 560796486.91503906 0 560796486.91503906 -97023354.101978302 0 0 0 0 -543726343.28375244 -75228172.328201294 0 -75228172.328201294 290415449.08472443 0 0 0 0 -1261086722.8029175 377656610.65686798 0 377656610.65686798 809651037.71920776 0 0 0 0 -18472175.616317749 -318705431.42288017 0 -318705431.42288017 228913575.21926117 0 0 0 0 -1332613602.4974785 -71869746.401992798 0 -71869746.401992798 1316443922.2736816 0 0 0 0 -480592008.78572845 -564716833.94439125 0 -564716833.94439125 856610025.86607361 0 0 0 0 -221971302.72445679 -107647730.2250824 0 -107647730.2250824 26933817.454330444 0 0 0 0 -110020822.46908569 -92143649.58681488 0 -92143649.58681488 24239555.284353256 0 0 0 0 -164508200.54096985 17956025.194366455 0 17956025.194366455 79028394.73012352 0 0 0 0 -352358540.38626099 -176953055.75904083 0 -176953055.75904083 343264613.02839661 0 0 0 0 -436966350.78994751 128483799.89725876 0 128483799.89725876 41496704.12059021 0 0 0 0 -81225113.121536255 7868447.9926109314 0 7868447.9926109314 61559433.320968628 0 0 0 0 -198951491.01005554 -18387484.743041992 0 -18387484.743041992 55785684.487915039 0 0 0 0 -115037505.92369366 -16658889.521322012 0 -16658889.521322012 130848969.77651978 0 0 0 0 -49178917.530319214 48416029.088897705 0 48416029.088897705 162989052.93780518 0 0 0 0 -70148513.306411743 -56032785.352622986 0 -56032785.352622986 17070800.749778748 0 0 0 0 -72903834.653676033 -45531666.540429592 0 -45531666.540429592 9648002.2561645508 0 0 0 0 58290763.965194702 30068857.694379807 0 30068857.694379807 -95586287.525993347 0 0 0 0 19404255.93888092 -98348556.281333923 0 -98348556.281333923 -149384271.44228363 0 0 0 0 -131621460.08472252 -76565490.644987106 0 -76565490.644987106 101423106.18989182 0 0 0 0 612755784.17608643 489504715.27460766 0 489504715.27460766 -518675192.48670578 0 0 0 0 581942026.42582703 -527627755.85153008 0 -527627755.85153008 -481537611.4955616 0 0 0 0 -6621432.7416172512 5554580.2346866652 0 5554580.2346866652 2285661.6640049806 0 0 0 0 -54859.61817908287 -1392837.8424473507 0 -1392837.8424473507 595118.71193819493 0 0 0 0 -53694027.099943161 -194615996.59984779 0 -194615996.59984779 -49271692.772789001 0 0 0 0 -97205688.598571777 267475829.17169571 0 267475829.17169571 706820479.651124 0 0 0 0 645213.72749915719 2370598.1026840415 0 2370598.1026840415 315758.8985915347 0 0 0 0 298216147.85317993 -107409938.55101776 0 -107409938.55101776 -885595181.81246948 0 0 0 0 189599718.10443115 411985219.66952515 0 411985219.66952515 270294697.20220184 0 0 0 0 253941451.46784973 141043686.28630066 0 141043686.28630066 -183791772.09855461 0 0 0 0 55563355.076660156 235471753.58470345 0 235471753.58470345 -2863499.172706604 0 0 0 0 203502351.5632019 280105616.72644424 0 280105616.72644424 -506997715.11965179 0 0 0 0 -67289450.060119629 285627982.08091545 0 285627982.08091545 251105715.08573914 0 0 0 0 -84385034.07208252 -249543086.8845787 0 -249543086.8845787 -146021315.30567551 0 0 0 0 -329013969.07302856 120924363.57027817 0 120924363.57027817 109172603.03114319 0 0 0 0 -166719885.65237427 228903460.84166718 0 228903460.84166718 171146998.14640427 0 0 0 0 240463474.95281982 445485543.30949402 0 445485543.30949402 -123369859.21187973 0 0 0 0 -70319281.831466675 69250033.073459625 0 69250033.073459625 -29965819.792884827 0 0 0 0 -115057756.7495575 82270784.497754097 0 82270784.497754097 8942894.6360626221 0 0 0 0 -207035365.73095703 118928281.58459091 0 118928281.58459091 -5332872.8032836914 0 0 0 0 -67107589.160140991 117770641.38319016 0 117770641.38319016 -51673666.408496857 0 0 0 0 96750032.723220825 181869323.67850494 0 181869323.67850494 -414425381.71211624 0 0 0 0 112503669.69262695 173626738.57804489 0 173626738.57804489 127384386.84648514 0 0 0 0 3391367.8703350574 16989793.024954002 0 16989793.024954002 -615293.56601666985 0 0 0 0 35635817.268279076 175069122.49994707 0 175069122.49994707 243452878.55127716 0 0 0 0 485060989.12390137 226417658.93309021 0 226417658.93309021 -622217495.74132538 0 0 0 0 251041132.10125732 -71055812.985046387 0 -71055812.985046387 -119717711.50213623 0 0 0 0 -27302536.331970215 108757132.51218414 0 108757132.51218414 272790936.24250793 0 0 0 0 14448498.470829606 32610638.319097079 0 32610638.319097079 10258677.692347638 0 0 0 0 -370869908.3727417 39720333.510005951 0 39720333.510005951 433612904.90550995 0 0 0 0 -168640189.07015991 224331530.27392387 0 224331530.27392387 -69505924.650175095 0 0 0 0 -10584154.340788692 3847104.9200741127 0 3847104.9200741127 6198009.3450219594 0 0 0 0 -19435402.940958023 65368393.23720932 0 65368393.23720932 1512366.8758010864 0 0 0 0 -5280227.4662322998 70369871.815326691 0 70369871.815326691 -26450653.94382906 0 0 0 0 -14683230.757091522 81401039.908939362 0 81401039.908939362 -7792782.2090682983 0 0 0 0 -21245598.750091553 21326305.207420349 0 21326305.207420349 6401438.7974910736 0 0 0 0 -37589334.798606873 26365703.264739037 0 26365703.264739037 -288948857.82054901 0 0 0 0 -161105543.01147461 271607515.30513763 0 271607515.30513763 -213905501.4887104 0 0 0 0 19948787.177615806 25812397.528990608 0 25812397.528990608 2554086.5607545301 0 0 0 0 80737118.564361572 526361547.53063965 0 526361547.53063965 -523203057.61367226 0 0 0 0 18355096.424535438 23166782.786660872 0 23166782.786660872 -1106498.1365986504 0 0 0 0 -23390501.34185791 77678182.288002014 0 77678182.288002014 -334074729.46091461 0 0 0 0 86956490.252838135 -24432861.984127045 0 -24432861.984127045 -465303967.14298058 0 0 0 0 4974121.0501333773 8564508.5197065063 0 8564508.5197065063 -1699424.6429951601 0 0 0 0 142786557.22367096 83502715.393147469 0 83502715.393147469 -429000522.93751907 0 0 0 0 13062104.096588135 160919506.17589569 0 160919506.17589569 -90220230.863395691 0 0 0 0 52680679.931274414 63073076.885438919 0 63073076.885438919 -51778185.98866272 0 0 0 0 106066052.48835754 70747081.397551537 0 70747081.397551537 -42331262.844413757 0 0 0 0 27145905.191752434 57800097.966819763 0 57800097.966819763 330196688.59658051 0 0 0 0 10758738.558319092 225701908.51657486 0 225701908.51657486 216843966.66519928 0 0 0 0 38999292.562149048 207632849.40372086 0 207632849.40372086 -122210131.87887955 0 0 0 0 50409425.842834473 -45290252.600387573 0 -45290252.600387573 -241513780.1538887 0 0 0 0 -914540.41880893707 85919868.400502264 0 85919868.400502264 7698511.4744796753 0 0 0 0 879580.24727869034 126294111.79891109 0 126294111.79891109 -164873361.56985474 0 0 0 0 9555424.8926956207 6368764.8698391607 0 6368764.8698391607 -3191034.5417572279 0 0 0 0 3696790.2949752808 45585067.482800484 0 45585067.482800484 -36450283.653900146 0 0 0 0 1609671.9324951172 4472256.1578102112 0 4472256.1578102112 -5137316.6159851551 0 0 0 0 715010.73236083984 4929347.5991706848 0 4929347.5991706848 -4556550.9948272705 0 0 0 0 632103.58062744141 6047810.18699646 0 6047810.18699646 -18034281.771537781 0 0 0 0 6593204.8268203735 16540637.345107079 0 16540637.345107079 -33049882.348480225 0 0 0 0 1442340.5769650042 3959455.5390503183 0 3959455.5390503183 -7150356.7532275431 0 0 0 0 -325263.43748869002 6630208.8309414219 0 6630208.8309414219 1560726.4700237904 0 0 0 0 -3742019.1207122803 14510462.858642578 0 14510462.858642578 6646749.2077205181 0 0 0 0 1459532.3058166504 7546266.0318965912 0 7546266.0318965912 -5773530.0884857178 0 0 0 0 15653158.702850342 -14522205.640548706 0 -14522205.640548706 -43312850.320495605 0 0 0 0 24285585.162574768 12593531.679756165 0 12593531.679756165 -14556025.52520752 0 0 0 0 5162477.5552935153 15530359.99134028 0 15530359.99134028 1968509.3945107758 0 0 0 0 -13260111.939147949 41851235.391571045 0 41851235.391571045 62600943.545967102 0 0 0 0 -3593591.9461898804 13628780.240849495 0 13628780.240849495 4578398.537322998 0 0 0 0 2259415.3321489617 19141473.47213519 0 19141473.47213519 6419997.4982203906 0 0 0 0 -2893752.1570739746 17667660.752742767 0 17667660.752742767 24438964.959690094 0 0 0 0 -13001672.61526715 24334571.098789021 0 24334571.098789021 1521275.8342806855 0 0 0 0 1000082.7812347412 18343358.937439919 0 18343358.937439919 17488382.715524673 0 0 0 0 -21162802.856506348 67689764.745666504 0 67689764.745666504 29902557.857923508 0 0 0 0 -402175.54217529297 23220118.710552216 0 23220118.710552216 18594170.733677387 0 0 0 0 1811628.2738647461 64606757.435287476 0 64606757.435287476 107977.60646438599 0 0 0 0 -9462791.2164087296 -2133442.8256551027 0 -2133442.8256551027 -20669585.535884857 0 0 0 0 -3491976.6350633204 12029795.845156174 0 12029795.845156174 3314133.4039397305 0 0 0 0 -47798302.736755371 8796033.879570961 0 8796033.879570961 33964844.057970047 0 0 0 0 25321768.43548584 51792447.709365845 0 51792447.709365845 -42482035.685172081 0 0 0 0 -153125.453969419 2691808.7773005515 0 2691808.7773005515 525752.49200512073 0 0 0 0 -34599893.725585938 38042057.927444458 0 38042057.927444458 -23021672.939775467 0 0 0 0 -3074037.2294769287 21410395.715837479 0 21410395.715837479 32451790.064720154 0 0 0 0 1171524.957824707 25828847.874276161 0 25828847.874276161 6448054.5598640442 0 0 0 0 -39405278.19821167 17121321.876951218 0 17121321.876951218 12434950.939678192 0 0 0 0 11830698.445747375 -3954107.7523374557 0 -3954107.7523374557 23076208.221155167 0 0 0 0 -25076231.234237671 38703410.955214024 0 38703410.955214024 -27097262.322200775 0 0 0 0 -54690889.432983398 -7573084.5959396362 0 -7573084.5959396362 8968709.7897491455 0 0 0 0 -66373220.706809998 25731380.017886162 0 25731380.017886162 -8846574.1775245667 0 0 0 0 -36186341.898925781 35887126.776483536 0 35887126.776483536 -10639506.85662365 0 0 0 0 -66287429.525997162 22790807.317029715 0 22790807.317029715 -52401941.748809814 0 0 0 0 -130386826.25239563 11617330.821321487 0 11617330.821321487 -3967733.2566204071 0 0 0 0 -90496587.714447021 65872493.356255531 0 65872493.356255531 -8080677.9457454681 0 0 0 0 1526113.3150104061 1406074.6446691751 0 1406074.6446691751 -1073331.5790621489 0 0 0 0 -63943054.525939941 54607725.978242397 0 54607725.978242397 -42171799.27599144 0 0 0 0 -64398809.200881958 59866327.238080978 0 59866327.238080978 -13975527.192085266 0 0 0 0 -20532727.121795654 53315737.073627472 0 53315737.073627472 -13939287.918903828 0 0 0 0 -40173091.360908508 32142768.854500294 0 32142768.854500294 -4514164.2243270874 0 0 0 0 -6812851.3201293945 39661852.301341057 0 39661852.301341057 -9185788.8452558517 0 0 0 0 -10281036.518177032 33683032.500583172 0 33683032.500583172 26744309.993782043 0 0 0 0 -18704984.894134521 27565043.436182976 0 27565043.436182976 899743.58625650406 0 0 0 0 31193661.156768799 23600368.213576317 0 23600368.213576317 -3561213.8611855507 0 0 0 0 3888527.4455947876 2387813.5158658028 0 2387813.5158658028 23543662.715181351 0 0 0 0 10025479.978347778 6454013.0409803391 0 6454013.0409803391 3817077.4590187073 0 0 0 0 9721820.5551872253 6277431.6389905214 0 6277431.6389905214 12971965.085777283 0 0 0 0 6473075.7071228027 506130.57316207886 0 506130.57316207886 13853339.860271454 0 0 0 0 8764624.7881774902 9006323.8448991776 0 9006323.8448991776 20391422.700407982 0 0 0 0 -397426.84210205078 5581115.892665863 0 5581115.892665863 -4964154.5362148285 0 0 0 0 8895676.1682295799 6713537.3149363697 0 6713537.3149363697 12743235.789581299 0 0 0 0 2515676.3705622107 7873843.0940947179 0 7873843.0940947179 1347263.963133737 0 0 0 0 -19288347.45401001 6476041.5186882019 0 6476041.5186882019 -20650360.869293213 0 0 0 0 -129020.88601674139 303092.77958928794 0 303092.77958928794 -699838.76252287161 0 0 0 0 2628536.4028320312 1572207.7995452881 0 1572207.7995452881 -26360313.491958618 0 0 0 0 3414294.6295025945 10903537.953748632 0 10903537.953748632 4113055.8856938016 0 0 0 0 2155659.2615147978 7627.5194484293461 0 7627.5194484293461 -9346731.8319097906 0 0 0 0 -4087180.891418457 22863094.753993988 0 22863094.753993988 -29907871.543418884 0 0 0 0 -517031.7810793519 12633215.83508683 0 12633215.83508683 4607325.4504047129 0 0 0 0 3807270.8236236572 8981742.762336731 0 8981742.762336731 28373981.629253387 0 0 0 0 19547546.162261963 5080404.636174202 0 5080404.636174202 32941574.948147774 0 0 0 0 1137818.7269889414 2050410.1940604178 0 2050410.1940604178 1521085.7465047226 0 0 0 0 16346298.823822021 18060089.570735931 0 18060089.570735931 -53948615.139186859 0 0 0 0 -26211755.681232452 25077337.058436215 0 25077337.058436215 -4765585.2168691158 0 0 0 0 -25370826.248817444 21938587.688448697 0 21938587.688448697 -3323154.1598660946 0 0 0 0 -60677723.525810242 56157915.448526382 0 56157915.448526382 -31267642.553611755 0 0 0 0 -47835443.763292313 27202973.53054142 0 27202973.53054142 31980473.750656128 0 0 0 0 -26923570.637554169 20285433.04665228 0 20285433.04665228 2854028.6329300404 0 0 0 0 -29165138.225420713 18247566.876828145 0 18247566.876828145 6031908.958212466 0 0 0 0 -13190827.218070984 -30658466.014148712 0 -30658466.014148712 97361808.446968079 0 0 0 0 -6577123.7666088641 3847784.0554615036 0 3847784.0554615036 -1455578.5806826539 0 0 0 0 -30983104.107299805 -108618716.30538559 0 -108618716.30538559 196830893.57470894 0 0 0 0 -54457199.477897644 7308395.8267726898 0 7308395.8267726898 102064671.91747284 0 0 0 0 -36261724.266184568 18255084.905279577 0 18255084.905279577 13025077.512947574 0 0 0 0 -24560013.436378479 19858904.476161122 0 19858904.476161122 -4005575.9744768143 0 0 0 0 -27601743.687805176 23201847.553570032 0 23201847.553570032 -565226.01669621468 0 0 0 0 -95426341.477355957 53757919.724101067 0 53757919.724101067 -24806850.951059341 0 0 0 0 -5912750.2480665669 13099671.255596347 0 13099671.255596347 -3242229.4375958689 0 0 0 0 -81354654.10105896 57513230.296384335 0 57513230.296384335 16286254.112071991 0 0 0 0 -91998511.929504395 57917820.542953491 0 57917820.542953491 -20816935.89481163 0 0 0 0 -1437456.9864955172 -2206733.0003012419 0 -2206733.0003012419 2351820.7977872249 0 0 0 0 -81174248.523773193 65574700.844547749 0 65574700.844547749 -41300920.9640522 0 0 0 0 -38921805.780548096 -6962247.9061317444 0 -6962247.9061317444 112190133.72531319 0 0 0 0 -86672785.597633362 61421047.619198799 0 61421047.619198799 79959975.170951843 0 0 0 0 -27846956.043373108 37060173.66719389 0 37060173.66719389 89314698.591598511 0 0 0 0 -63127164.657196045 57131062.601760864 0 57131062.601760864 102014611.82028389 0 0 0 0 -20801743.139606394 14813837.383300925 0 14813837.383300925 6180073.0241274973 0 0 0 0 -15536113.092300415 27011204.198116779 0 27011204.198116779 67115609.846176147 0 0 0 0 -12278912.388765812 31353118.155367076 0 31353118.155367076 13962145.765855789 0 0 0 0 -8703981.1333344728 15341227.162582658 0 15341227.162582658 1893518.8101892923 0 0 0 0 34449671.663330078 20844352.395359039 0 20844352.395359039 -46153847.278709412 0 0 0 0 -83655705.667297363 105416632.48198318 0 105416632.48198318 -20478381.780639172 0 0 0 0 -74349737.817008972 34766470.587452412 0 34766470.587452412 40701028.714523315 0 0 0 0 119901815.57498169 23500979.502480745 0 23500979.502480745 -70194130.957148552 0 0 0 0 -144626742.78665161 90213268.545892715 0 90213268.545892715 10390667.670825958 0 0 0 0 -507040.47069391608 -567791.75919914991 0 -567791.75919914991 629308.43839947926 0 0 0 0 57420023.251541138 35175091.348186016 0 35175091.348186016 -54289111.258499146 0 0 0 0 -1762412.7035356387 10555665.492566638 0 10555665.492566638 2127600.6957633076 0 0 0 0 -22961357.084289551 33186431.836920738 0 33186431.836920738 -12091263.130937576 0 0 0 0 -24410176.890449524 18719259.891611814 0 18719259.891611814 -8196421.9536521137 0 0 0 0 -2292035.9380774349 10358399.942266114 0 10358399.942266114 965926.07654347341 0 0 0 0 -27397567.190723419 27102401.810611129 0 27102401.810611129 -5829774.3285355568 0 0 0 0 -25900484.713218689 22046644.400154471 0 22046644.400154471 -16683038.196602106 0 0 0 0 -18909960.94194676 9653777.796613548 0 9653777.796613548 8123658.8701126967 0 0 0 0 -26317157.488874197 28610143.538809992 0 28610143.538809992 -17533516.744659901 0 0 0 0 -13632243.94228363 -17589432.186639786 0 -17589432.186639786 66319921.862758636 0 0 0 0 503246882.90255737 49790065.238967896 0 49790065.238967896 -54033517.219442368 0 0 0 0 178315425.97357178 116409932.07516861 0 116409932.07516861 171520123.17813873 0 0 0 0 190932872.65895081 -43043062.483560562 0 -43043062.483560562 16813803.115852356 0 0 0 0 222432312.9855957 -47258668.606098175 0 -47258668.606098175 -58971998.363142729 0 0 0 0 108940884.0760498 -158269649.26479912 0 -158269649.26479912 119135541.12778091 0 0 0 0 -7741926.1016082764 -24015030.835899353 0 -24015030.835899353 15105040.554008484 0 0 0 0 -15227424.689039595 9030384.918907892 0 9030384.918907892 10601044.665490074 0 0 0 0 -27141720.007995605 36330304.984379768 0 36330304.984379768 -26993454.76029563 0 0 0 0 39271295.065536499 36570505.24487114 0 36570505.24487114 -14730607.423183441 0 0 0 0 30968647.489322662 -4538028.170832634 0 -4538028.170832634 -2982490.955280304 0 0 0 0 34989988.166748047 14114221.162166595 0 14114221.162166595 79648365.788085938 0 0 0 0 61074401.023254395 -21563033.636734009 0 -21563033.636734009 71136511.85577774 0 0 0 0 -19549978.481758118 13325102.822999001 0 13325102.822999001 27189817.489887238 0 0 0 0 -28869184.6394701 24081279.597741365 0 24081279.597741365 -23896557.343969345 0 0 0 0 -18507659.612375259 17970562.926995695 0 17970562.926995695 -16606302.278586388 0 0 0 0 -33747030.74647522 34457846.411413431 0 34457846.411413431 -13741885.073012352 0 0 0 0 -23594091.102386475 42387940.750620842 0 42387940.750620842 -36657004.608894825 0 0 0 0 -13092172.818142794 9732125.0513531156 0 9732125.0513531156 12423368.61756495 0 0 0 0 -14253916.626327038 -13291289.46306932 0 -13291289.46306932 64274751.227874756 0 0 0 0 -26824901.331306458 45622338.927013397 0 45622338.927013397 37373062.492851257 0 0 0 0 59677595.740722656 14532473.26802063 0 14532473.26802063 -90717314.109176636 0 0 0 0 16163437.985109329 23063991.000666142 0 23063991.000666142 -7266287.0866928101 0 0 0 0 2612246.9511179328 792769.99858140852 0 792769.99858140852 3624318.5255816393 0 0 0 0 4199050.9888916016 2143299.8629245758 0 2143299.8629245758 81110895.549751282 0 0 0 0 62911828.628601074 -13322266.527420044 0 -13322266.527420044 41160705.157585144 0 0 0 0 1731132.1509173512 617091.09206576925 0 617091.09206576925 2149458.7509184545 0 0 0 0 -20471264.284469604 -25269485.969562531 0 -25269485.969562531 -52981483.791244507 0 0 0 0 44769633.806594849 -59800163.610155106 0 -59800163.610155106 -37965879.501953125 0 0 0 0 -55637299.21824646 -63699015.174663544 0 -63699015.174663544 14425722.712692261 0 0 0 0 -19547372.188297272 133707077.06608009 0 133707077.06608009 -71605211.656272888 0 0 0 0 -77590257.768798828 -23790283.781841278 0 -23790283.781841278 -4192886.2142791748 0 0 0 0 1252642.8011920452 1396076.2808872759 0 1396076.2808872759 -3299732.4704937376 0 0 0 0 -1661401.9625396729 144613045.66419792 0 144613045.66419792 -81587212.515880585 0 0 0 0 -22193011.623748779 155067722.4824295 0 155067722.4824295 -82180392.406402588 0 0 0 0 165649358.16247559 -253601377.61956024 0 -253601377.61956024 -54696297.83605957 0 0 0 0 104390155.43062592 207403334.98822021 0 207403334.98822021 -79514511.663742065 0 0 0 0 222685161.6618042 89399589.129310608 0 89399589.129310608 19728118.743782043 0 0 0 0 19547.848690763116 -13120.079699391499 0 -13120.079699391499 -30837.39904798381 0 0 0 0 -75006583.604431152 -29183730.222064972 0 -29183730.222064972 144141243.46244049 0 0 0 0 372453.73070605099 500524.71570976824 0 500524.71570976824 -1971.6399010196328 0 0 0 0 781710871.08911133 -149343079.68743134 0 -149343079.68743134 25789328.285831451 0 0 0 0 901312573.7664566 152993779.03144073 0 152993779.03144073 -94168355.607727051 0 0 0 0 -30721122.645355225 42958462.757019043 0 42958462.757019043 -3730680.1234989166 0 0 0 0 -23581048.809875488 47604017.560487747 0 47604017.560487747 -21061943.856649399 0 0 0 0 -15273209.588104248 68170775.192281723 0 68170775.192281723 19440090.214061737 0 0 0 0 -128917901.06903076 2799418.8255367279 0 2799418.8255367279 52802716.532217979 0 0 0 0 2100868.7619610131 -3956.8545070700347 0 -3956.8545070700347 -324139.52634230442 0 0 0 0 46286901.198883057 63597066.901040077 0 63597066.901040077 -13486922.946178436 0 0 0 0 22923942.467769623 -24692753.434948444 0 -24692753.434948444 16346069.76026535 0 0 0 0 -41036478.437759399 22286446.079928398 0 22286446.079928398 -941021.61636734009 0 0 0 0 -4515697.0645141602 4774335.2620172501 0 4774335.2620172501 7442209.1004447937 0 0 0 0 -13844169.807746887 36246691.94746232 0 36246691.94746232 -14422598.845472336 0 0 0 0 -29056848.032241821 43541669.936902046 0 43541669.936902046 -10305728.336589813 0 0 0 0 -62730645.575302124 33636753.747346878 0 33636753.747346878 -18573358.615608215 0 0 0 0 -43433018.072402954 57945632.347817421 0 57945632.347817421 -19239720.366386503 0 0 0 0 5580218.3285715804 11162289.050662812 0 11162289.050662812 -9687470.551323412 0 0 0 0 -4254709.8513724953 6764393.3937458321 0 6764393.3937458321 7476813.095673536 0 0 0 0 -12863158.716711335 11777189.436556635 0 11777189.436556635 14732774.260949994 0 0 0 0 -31005062.974395752 30300960.464038134 0 30300960.464038134 -8917700.2331209183 0 0 0 0 -11601921.869773865 24133328.760485172 0 24133328.760485172 -33551418.246038437 0 0 0 0 -24223735.441665649 40894069.486433029 0 40894069.486433029 -37000082.56006074 0 0 0 0 -35578916.994430542 38648400.443435669 0 38648400.443435669 -6902368.6536827087 0 0 0 0 4650511.9995492809 13302600.559023589 0 13302600.559023589 -13466043.64753232 0 0 0 0 -11084639.792114258 18906849.264459968 0 18906849.264459968 -28395757.408393979 0 0 0 0 -6576458.477701731 6848926.9235603251 0 6848926.9235603251 14382558.305140406 0 0 0 0 -27536176.608108521 29324293.201765776 0 29324293.201765776 -5992569.1929788589 0 0 0 0 -14560762.176567078 29299771.679998875 0 29299771.679998875 -24115964.270032883 0 0 0 0 -59772819.748382568 -14519680.67988205 0 -14519680.67988205 64017932.803531647 0 0 0 0 -4121379.7203367688 19583839.964616857 0 19583839.964616857 -3851978.8699537329 0 0 0 0 -1003443.0944055542 -459368.43277278543 0 -459368.43277278543 2265784.1741211303 0 0 0 0 -10253618.591268539 21391922.906751752 0 21391922.906751752 34421461.186645508 0 0 0 0 27779219.564941406 16709203.048843384 0 16709203.048843384 514755.51619720459 0 0 0 0 768649.48428344727 13877384.366443634 0 13877384.366443634 39148044.61309433 0 0 0 0 3021678.2308382094 1799961.9736138349 0 1799961.9736138349 7666382.4561894657 0 0 0 0 -1046152.7036132812 -3454302.5801391602 0 -3454302.5801391602 40442375.431095123 0 0 0 0 -3243805.4099121094 38171088.860229492 0 38171088.860229492 -28045612.284106255 0 0 0 0 -8637247.7025299072 10302711.497743607 0 10302711.497743607 -2647741.5538020134 0 0 0 0 -359800.1506029591 9951801.6323296428 0 9951801.6323296428 3854839.3967417292 0 0 0 0 -8008025.3708648682 18294902.170116425 0 18294902.170116425 -26801633.85521698 0 0 0 0 -4517704.8104001731 4384226.7429807875 0 4384226.7429807875 13247806.129903033 0 0 0 0 -4975883.8800048828 9120366.2160720825 0 9120366.2160720825 -7243857.4608135223 0 0 0 0 -2435900.1920915619 6711169.078308288 0 6711169.078308288 -359046.49784287997 0 0 0 0 -2184439.3627967611 9318772.8396537825 0 9318772.8396537825 -998895.67060508206 0 0 0 0 -14652879.565124512 20941739.187364578 0 20941739.187364578 6766809.9600982666 0 0 0 0 -474201.35836784542 1324112.9650640343 0 1324112.9650640343 2430305.9938733489 0 0 0 0 1556903.6945800781 25276011.664077759 0 25276011.664077759 -32992037.531990051 0 0 0 0 -13931707.415206909 7951191.8071899414 0 7951191.8071899414 25063096.103041649 0 0 0 0 27760583.12878418 33465750.07050705 0 33465750.07050705 -34180981.053482056 0 0 0 0 30818310.79708004 66726353.079139829 0 66726353.079139829 -120255332.22019958 0 0 0 0 724198.44884710759 11133468.153768245 0 11133468.153768245 4623969.7327549495 0 0 0 0 -33574302.752853394 110895555.5742054 0 110895555.5742054 -39015475.470090866 0 0 0 0 27371833.892944336 13864161.984271049 0 13864161.984271049 -27634398.876197815 0 0 0 0 30638683.011711121 74948932.325935364 0 74948932.325935364 -69880711.042770386 0 0 0 0 1613190.0659938827 -259819.77111777291 0 -259819.77111777291 -918977.27519741468 0 0 0 0 -71889039.809875488 -22286200.065662384 0 -22286200.065662384 53891597.89393425 0 0 0 0 -2087873.2671358436 17328201.661880784 0 17328201.661880784 6153985.7692388026 0 0 0 0 -29840035.798980713 32282654.185993195 0 32282654.185993195 8037067.3865776062 0 0 0 0 -3472859.0588366762 20697346.638012476 0 20697346.638012476 -949779.70463403128 0 0 0 0 -5270629.4005584717 49148785.706248283 0 49148785.706248283 3149033.5743713379 0 0 0 0 -15127404.001098633 87591039.129196644 0 87591039.129196644 -15951679.317360163 0 0 0 0 -5225743.1023712158 52404430.70263958 0 52404430.70263958 53701799.594871521 0 0 0 0 23979454.955322266 26570154.06321764 0 26570154.06321764 -174875.46908664703 0 0 0 0 33616456.597213745 61169394.664512634 0 61169394.664512634 -6871191.2132568359 0 0 0 0 45441272.42980957 14259050.572990417 0 14259050.572990417 -5624847.1406805515 0 0 0 0 58418292.433555603 8038693.3769512177 0 8038693.3769512177 -8016254.5331192017 0 0 0 0 877232.03730078973 -503222.72011855245 0 -503222.72011855245 -112864.33985435404 0 0 0 0 4569919.4126281738 -6961303.8132963181 0 -6961303.8132963181 18785476.300067902 0 0 0 0 31463045.60446167 5349533.3554954529 0 5349533.3554954529 5955549.0121431351 0 0 0 0 46400577.827453613 -379041.5936088562 0 -379041.5936088562 1198307.5690288544 0 0 0 0 29850962.724514008 6250638.2884831429 0 6250638.2884831429 2449650.7181243896 0 0 0 0 -4268063.6168309078 12008745.195317715 0 12008745.195317715 -76485.68197170645 0 0 0 0 5562440.2504577637 24515471.047027588 0 24515471.047027588 -2240895.6507110596 0 0 0 0 28300080.837446213 14871460.773804307 0 14871460.773804307 74159.640148162842 0 0 0 0 -12671884.948425293 -6311289.0900526047 0 -6311289.0900526047 38334716.107688904 0 0 0 0 34556049.344329834 8552845.2901668549 0 8552845.2901668549 -14127909.342681885 0 0 0 0 3218423.91381073 25652616.094430447 0 25652616.094430447 -10625399.188606262 0 0 0 0 6562198.6627807617 11989142.453743935 0 11989142.453743935 146109.63282561302 0 0 0 0 -8385671.4424743652 7989620.1257510185 0 7989620.1257510185 416561.35948181152 0 0 0 0 -5815682.4699707031 5476444.2282409668 0 5476444.2282409668 -2153598.383102417 0 0 0 0 859917.32861484587 1747958.2081535393 0 1747958.2081535393 -821887.09943176759 0 0 0 0 24951068.102493286 19164549.586008072 0 19164549.586008072 -1512226.4630308151 0 0 0 0 2459470.7042600438 134587.88620483875 0 134587.88620483875 -11293.096907677129 0 0 0 0 3926891.9646421969 389795.62931296974 0 389795.62931296974 -1506986.4556306563 0 0 0 0 38916427.04058075 12232186.784213305 0 12232186.784213305 -9437447.0144691467 0 0 0 0 30942786.113677979 8915172.2531795502 0 8915172.2531795502 -3371836.9406652451 0 0 0 0 -556002.09243774414 1091793.832988739 0 1091793.832988739 2602199.7992444038 0 0 0 0 -2892278.9733275175 -87683.033110306598 0 -87683.033110306598 1983535.4195932536 0 0 0 0 3979115.826385498 17442075.316500664 0 17442075.316500664 24766354.604146957 0 0 0 0 -255577.39367675781 1752127.2207431793 0 1752127.2207431793 3687334.3414821625 0 0 0 0 -460963.65548706055 2098032.3861484528 0 2098032.3861484528 4015770.3246517181 0 0 0 0 -21903070.912017822 13203257.820500374 0 13203257.820500374 4006288.1326348782 0 0 0 0 -5223780.6178442836 2537907.9811148401 0 2537907.9811148401 1102622.3286434696 0 0 0 0 33226.387796133757 3423219.3653268814 0 3423219.3653268814 1930301.4928717986 0 0 0 0 -119766.25961303711 2204228.3005332947 0 2204228.3005332947 3677919.9368019104 0 0 0 0 -29365032.211578369 4072783.0543432236 0 4072783.0543432236 -41579045.295965195 0 0 0 0 -315733.47533111274 9592844.9987706244 0 9592844.9987706244 1354411.5800760686 0 0 0 0 -3156138.9299437478 2387942.7346849293 0 2387942.7346849293 -993093.08739036322 0 0 0 0 -20966533.184829712 24541718.447737694 0 24541718.447737694 8249766.0938835144 0 0 0 0 -19732117.384994507 33714502.609292269 0 33714502.609292269 6409700.4315032959 0 0 0 0 -20692493.930999756 3139248.813765049 0 3139248.813765049 65479589.445133209 0 0 0 0 -7876775.2014160156 4405513.2000980377 0 4405513.2000980377 -10125291.73652029 0 0 0 0 -9314140.9511871338 -2131949.4679198265 0 -2131949.4679198265 5741281.907119751 0 0 0 0 -151860.95998466015 789606.61552633345 0 789606.61552633345 -1024915.650792337 0 0 0 0 26029901.648162842 50444811.861209869 0 50444811.861209869 -18159461.637217045 0 0 0 0 19635403.569255829 74783113.137049556 0 74783113.137049556 68127243.67424202 0 0 0 0 -23609032.289352417 40033480.964739084 0 40033480.964739084 162350516.68071061 0 0 0 0 44767562.459854126 -15442594.356542945 0 -15442594.356542945 50695792.763049126 0 0 0 0 -29238927.894714355 -12711626.620474339 0 -12711626.620474339 151770566.2090044 0 0 0 0 -40841586.86479187 27258409.76952672 0 27258409.76952672 175849374.39809775 0 0 0 0 5758338.6679229736 58122438.347798467 0 58122438.347798467 112068954.11271572 0 0 0 0 -73190.167984008789 93588045.612272799 0 93588045.612272799 -119484755.65401435 0 0 0 0 1137756.5593470186 -1346314.1216355339 0 -1346314.1216355339 -1050086.5007486185 0 0 0 0 -6908393.5629577637 42581864.604434967 0 42581864.604434967 -76694743.044770122 0 0 0 0 2087419.6888321191 -2440416.4695634115 0 -2440416.4695634115 -1917108.5444732318 0 0 0 0 -55779098.849914551 26711009.249009132 0 26711009.249009132 -26440353.04987669 0 0 0 0 -1685889.3006744385 45705328.913992405 0 45705328.913992405 893731.3068151474 0 0 0 0 -23950406.175247192 1155438.7617456913 0 1155438.7617456913 40394236.555449963 0 0 0 0 8056413.6930847168 39554332.699374557 0 39554332.699374557 -82708462.914928079 0 0 0 0 -27616769.831634521 46284776.980684519 0 46284776.980684519 100354343.56092072 0 0 0 0 -25019758.868995667 43411127.263674498 0 43411127.263674498 67010435.946601868 0 0 0 0 -34299100.72744751 37690464.376998901 0 37690464.376998901 90632584.687213898 0 0 0 0 -32721312.121887207 52492675.33981514 0 52492675.33981514 135661658.85373735 0 0 0 0 -14438698.837341309 19233304.954145551 0 19233304.954145551 24927106.782500692 0 0 0 0 1063533.8692741394 -4799377.0679762438 0 -4799377.0679762438 -81578477.557445288 0 0 0 0 -20087616.762924194 42341298.552700281 0 42341298.552700281 12870025.526730135 0 0 0 0 4711472.1219711304 26714375.029597878 0 26714375.029597878 12023507.656018257 0 0 0 0 22721064.310699463 70747792.601801872 0 70747792.601801872 99278001.742622375 0 0 0 0 65647226.912994385 31567526.151226044 0 31567526.151226044 60804882.452682495 0 0 0 0 18008370.313781738 -11448136.931227684 0 -11448136.931227684 27724063.007396579 0 0 0 0 -48122.850128388774 15409882.663458418 0 15409882.663458418 135140668.7320919 0 0 0 0 28332676.386535645 80330216.074542999 0 80330216.074542999 88000110.537932396 0 0 0 0 1347096.9078589678 13532.211809042841 0 13532.211809042841 -1382533.9809268545 0 0 0 0 20804448.495880127 32212978.764005661 0 32212978.764005661 -13595202.561712265 0 0 0 0 -2720430.7409362793 56208192.946094513 0 56208192.946094513 218981624.02171135 0 0 0 0 -1170424.3945617676 18109939.841068268 0 18109939.841068268 91317039.494715691 0 0 0 0 21389206.29834938 -22219633.735347867 0 -22219633.735347867 69457389.879386902 0 0 0 0 24643849.37121582 -77114547.645820618 0 -77114547.645820618 205971887.10701418 0 0 0 0 -17879787.964759827 -8097901.7101948857 0 -8097901.7101948857 -4526299.8564834595 0 0 0 0 -20080622.786968231 12097558.230135083 0 12097558.230135083 211866.79201507568 0 0 0 0 -15543118.437072754 -4087627.1745376587 0 -4087627.1745376587 4858022.9355716705 0 0 0 0 22825326.515869141 14926773.511683464 0 14926773.511683464 8871630.489276886 0 0 0 0 10103762.389556885 -2983981.4979362488 0 -2983981.4979362488 -6416799.7153224945 0 0 0 0 -3021144.6695861816 -3008006.067232132 0 -3008006.067232132 7893486.7545444965 0 0 0 0 53196.333374023438 6186957.2752161026 0 6186957.2752161026 24751039.878780365 0 0 0 0 94485.377502441406 15716997.108831406 0 15716997.108831406 49195048.84708786 0 0 0 0 -2800827.8069458008 31449468.245765686 0 31449468.245765686 55286441.6600914 0 0 0 0 -4107223.6781616211 24018157.345046043 0 24018157.345046043 19418561.868612289 0 0 0 0 -21576678.457267761 31394288.537521362 0 31394288.537521362 82616852.118680954 0 0 0 0 -25332944.696434021 24798966.064818382 0 24798966.064818382 98901289.668300629 0 0 0 0 -22112674.259124756 24752663.846177101 0 24752663.846177101 92017245.944508076 0 0 0 0 -19728137.569015503 39713900.803339005 0 39713900.803339005 142841875.8400383 0 0 0 0 -11515275.452758789 -23712332.749696732 0 -23712332.749696732 123936547.84869003 0 0 0 0 -14455943.916015625 -1550695.1284351349 0 -1550695.1284351349 70539697.97052002 0 0 0 0 -14178910.306640625 -1715065.0800075531 0 -1715065.0800075531 67573144.583696365 0 0 0 0 -3602786.6817779541 10721844.672526836 0 10721844.672526836 58867561.852664948 0 0 0 0 -280707.28436279297 -6770603.5034122467 0 -6770603.5034122467 37534298.74630928 0 0 0 0 9714611.3100280762 -4743261.1708946228 0 -4743261.1708946228 -816461.01953887939 0 0 0 0 461225.94904012978 -391480.79887250066 0 -391480.79887250066 -1022669.4082965152 0 0 0 0 382946.25006103516 5664640.6176223755 0 5664640.6176223755 34943506.929653168 0 0 0 0 2851836.1261111945 197866.44908706844 0 197866.44908706844 -3049098.3113514613 0 0 0 0 -20760473.323364258 -3779884.6971969604 0 -3779884.6971969604 33242708.796813965 0 0 0 0 -8813469.6721801758 7815271.9810504913 0 7815271.9810504913 43429121.547058105 0 0 0 0 -5209232.1674804688 -20947529.719182968 0 -20947529.719182968 58529452.136451721 0 0 0 0 -4474220.8760986328 -1505520.4468917847 0 -1505520.4468917847 -12175201.99889946 0 0 0 0 -13553336.291748047 12232419.661149979 0 12232419.661149979 -14643318.840705872 0 0 0 0 53263.111540108919 -78308.726929835975 0 -78308.726929835975 -163847.55160839483 0 0 0 0 -442896.12845669687 82933.964836899191 0 82933.964836899191 428854.46022668947 0 0 0 0 -3406529.9906616211 19947691.495025635 0 19947691.495025635 1239506.8787918091 0 0 0 0 18021542.952636719 14248012.104400635 0 14248012.104400635 -7512490.5941467285 0 0 0 0 -5323678.2362670898 -2281796.4326553345 0 -2281796.4326553345 -1020124.1741981506 0 0 0 0 -13258629.718261719 -8972884.7067108154 0 -8972884.7067108154 -6023237.2054080963 0 0 0 0 1631133.8074338138 312250.29541805014 0 312250.29541805014 -3220890.5230556019 0 0 0 0 563912.03376351297 -887711.185121933 0 -887711.185121933 -915444.58960499195 0 0 0 0 919669.23718261719 -1292664.5317726135 0 -1292664.5317726135 -1105961.3535995483 0 0 0 0 264518.34878329933 -1052752.3737161793 0 -1052752.3737161793 1678481.6669754209 0 0 0 0 231877.57379150391 -1368449.7166252136 0 -1368449.7166252136 8027694.3665070534 0 0 0 0 -1029893.8754882812 -397283.51673126221 0 -397283.51673126221 -199777.89743041992 0 0 0 0 -1499373.0313114226 -135307.53916880675 0 -135307.53916880675 2253138.565318984 0 0 0 0 -6288475.9092254639 3149237.7303161621 0 3149237.7303161621 40637387.522331238 0 0 0 0 -1964297.650062561 8724198.4278404713 0 8724198.4278404713 38430792.819038391 0 0 0 0 2495717.8572504669 575022.08477459475 0 575022.08477459475 -945783.15652877698 0 0 0 0 1471251.3936309814 -376076.03553199768 0 -376076.03553199768 -4894716.6313176155 0 0 0 0 -8736099.3818664551 52413133.555521011 0 52413133.555521011 -95045646.825366974 0 0 0 0 9191759.8723602295 4385462.891623497 0 4385462.891623497 -4684490.4940567017 0 0 0 0 62410.608093261719 -5004.8577842712402 0 -5004.8577842712402 -1407511.0285224915 0 0 0 0 3178740.9684856087 -607848.59394690394 0 -607848.59394690394 -3574879.9288158705 0 0 0 0 -2035581.424657777 -3166921.4336169409 0 -3166921.4336169409 2190597.8698942168 0 0 0 0 32623587.988250732 -11112278.105770111 0 -11112278.105770111 -84758255.574585915 0 0 0 0 172727898.69857788 -65186268.757602692 0 -65186268.757602692 -48922216.361451149 0 0 0 0 18571649.918498993 -98477194.794794559 0 -98477194.794794559 -43938622.547828674 0 0 0 0 81103151.691162109 106144611.65869141 0 106144611.65869141 69752778.704526901 0 0 0 0 29009224.689208984 -14450963.992446899 0 -14450963.992446899 -33084791.417524338 0 0 0 0 75536272.648712158 56277814.516212463 0 56277814.516212463 -95970228.37137413 0 0 0 0 49373877.394683838 -8407527.564458847 0 -8407527.564458847 45629415.974784851 0 0 0 0 -89277831.719299316 51582149.214363098 0 51582149.214363098 44705531.167053223 0 0 0 0 -1708227.2188916206 -3439839.1071739323 0 -3439839.1071739323 1091905.0981485918 0 0 0 0 9416962.9405212402 7397599.5002145767 0 7397599.5002145767 8384084.4658737183 0 0 0 0 4943216.9022521973 -3552325.4021091461 0 -3552325.4021091461 -16984420.781299591 0 0 0 0 -1543804.6758633554 -3059118.6095142826 0 -3059118.6095142826 729921.80795383034 0 0 0 0 25246.271850585938 -4495106.6552410126 0 -4495106.6552410126 1838549.4515399933 0 0 0 0 -52585854.172569275 -72801462.11782074 0 -72801462.11782074 -50979760.088674545 0 0 0 0 4943216.9022674561 6183230.4685344696 0 6183230.4685344696 -2193595.8505048752 0 0 0 0 -3230129.6570516601 978398.72800264135 0 978398.72800264135 3086927.0692174863 0 0 0 0 -31709.242965698242 9782801.4371643066 0 9782801.4371643066 6437776.409532547 0 0 0 0 24832.615249633789 9820934.1705875397 0 9820934.1705875397 6416446.8624448776 0 0 0 0 -3713316.5066176206 883504.42560887337 0 883504.42560887337 3700397.2268761899 0 0 0 0 -106362853.72593689 -61199689.498220444 0 -61199689.498220444 -109647412.96557617 0 0 0 0 -101387238.12290573 -28568349.638529539 0 -28568349.638529539 97938312.009346008 0 0 0 0 -2692408.2258224487 131434836.27351856 0 131434836.27351856 -24379230.159881592 0 0 0 0 -31000231.341598511 61907678.349431992 0 61907678.349431992 -187468037.72441864 0 0 0 0 -151244.36970454128 50318063.003205545 0 50318063.003205545 -228603504.5100174 0 0 0 0 -50016024.575866699 73960811.779388428 0 73960811.779388428 -140162700.12306118 0 0 0 0 537766.39921218157 -1031172.7412620056 0 -1031172.7412620056 293559.4175759108 0 0 0 0 60135609.182388306 -53318237.184997559 0 -53318237.184997559 -17820163.228230596 0 0 0 0 -17083115.46697998 14702580.230104446 0 14702580.230104446 234788427.88588715 0 0 0 0 141646450.67090607 -2280174.5634069443 0 -2280174.5634069443 -74533658.392978668 0 0 0 0 -67747641.585525513 131385345.346241 0 131385345.346241 -125703109.53406525 0 0 0 0 119609294.95346069 849028.89074325562 0 849028.89074325562 -17680187.669773102 0 0 0 0 2814820.074798584 -16761611.863239288 0 -16761611.863239288 -7829471.5594367981 0 0 0 0 -3639456.9418479949 3469790.096209541 0 3469790.096209541 1712780.5855581164 0 0 0 0 48404304.417938232 83655925.258408546 0 83655925.258408546 73619225.209117889 0 0 0 0 25469882.843414307 -13129858.006786346 0 -13129858.006786346 25685869.591003418 0 0 0 0 -50928160.032348633 -18410927.476314545 0 -18410927.476314545 93615891.965047836 0 0 0 0 1900974.3899230957 91672381.389268398 0 91672381.389268398 -15517938.00169754 0 0 0 0 53463575.144836426 17117634.378317833 0 17117634.378317833 -72238760.646923065 0 0 0 0 1469369.9406971186 -63567.895252987742 0 -63567.895252987742 1179697.6077224731 0 0 0 0 10250067.840576172 16735818.66847229 0 16735818.66847229 -70544886.682628632 0 0 0 0 -11253444.670715332 33251099.244821548 0 33251099.244821548 -3106720.6241455078 0 0 0 0 7942265.8425149471 4667112.7040294372 0 4667112.7040294372 -2032488.2821910335 0 0 0 0 -1952139.4355495423 7411482.7252304032 0 7411482.7252304032 1795764.2964393813 0 0 0 0 9638040.011505127 36459616.396125793 0 36459616.396125793 32802744.206998825 0 0 0 0 15946717.114665985 31858915.670846701 0 31858915.670846701 10675604.682331085 0 0 0 0 -3164343.2676689476 4408506.4980344083 0 4408506.4980344083 3262222.9874149719 0 0 0 0 32611784.169705391 54062780.963168502 0 54062780.963168502 -4592170.4337387085 0 0 0 0 32666037.458862305 -4400694.5098457336 0 -4400694.5098457336 -94632744.029785156 0 0 0 0 477332.31720989943 831630.15184195712 0 831630.15184195712 -54369.740239260718 0 0 0 0 -20495653.193054199 -14956812.886634827 0 -14956812.886634827 -57839898.217971802 0 0 0 0 2756588.6128234863 9546039.7631340027 0 9546039.7631340027 -61330137.959457874 0 0 0 0 31945268.110595703 -33807916.705307007 0 -33807916.705307007 -190027725.40578365 0 0 0 0 45873734.555877686 3360661.8171920776 0 3360661.8171920776 -115476139.66077423 0 0 0 0 44316407.410583496 -2335221.3782196045 0 -2335221.3782196045 -114888458.29500198 0 0 0 0 56386554.962219238 -2906017.1208839417 0 -2906017.1208839417 -193918565.10903168 0 0 0 0 26105478.159729004 -2973690.0579071045 0 -2973690.0579071045 -58768594.443336487 0 0 0 0 22342081.170730591 13354764.74813652 0 13354764.74813652 -38413218.349243164 0 0 0 0 24173733.131622314 38226751.195213318 0 38226751.195213318 -105679261.23587036 0 0 0 0 24594063.528259277 20558727.082550049 0 20558727.082550049 -68768826.575771332 0 0 0 0 1268507.3171691895 9033906.4260520935 0 9033906.4260520935 -6103517.7928009033 0 0 0 0 35493551.07333374 16002842.557266235 0 16002842.557266235 -49712126.01184082 0 0 0 0 7449120.0434088111 6506867.1068389844 0 6506867.1068389844 -1063412.2863200079 0 0 0 0 22501299.247161865 19221517.261287689 0 19221517.261287689 -424782.45849609375 0 0 0 0 3899975.8830921389 4477097.3154767603 0 4477097.3154767603 -364097.33482973836 0 0 0 0 2551144.9116516113 4090927.2868652344 0 4090927.2868652344 1472526.379226923 0 0 0 0 2507940.6722717285 4048471.0129909515 0 4048471.0129909515 1843658.2417297363 0 0 0 0 3830867.0966198295 4447324.8074309528 0 4447324.8074309528 2784733.8295665029 0 0 0 0 1749676.2644958496 3914451.3437423706 0 3914451.3437423706 -4276845.3913345337 0 0 0 0 2943617.0671386719 6539717.4336700439 0 6539717.4336700439 2684297.5859527588 0 0 0 0 1225773.6858520508 4801404.1777420044 0 4801404.1777420044 2903009.0610771179 0 0 0 0 6103422.9046936035 -7119068.4259529114 0 -7119068.4259529114 -21161228.871444702 0 0 0 0 24430349.062866211 10893361.430603027 0 10893361.430603027 -38073451.431809425 0 0 0 0 12265903.950500488 10088742.846572876 0 10088742.846572876 21274198.370773315 0 0 0 0 21830.957878030837 1241744.0336970463 0 1241744.0336970463 1214681.5284214206 0 0 0 0 3588927.7098636627 9465301.017940402 0 9465301.017940402 6957523.2799377441 0 0 0 0 3738873.9058623314 3959927.6187172532 0 3959927.6187172532 2497412.1614227295 0 0 0 0 3895038.5127563477 5677797.8860931396 0 5677797.8860931396 3644386.393507719 0 0 0 0 4504709.8723233938 5522246.1238109767 0 5522246.1238109767 2814490.9672435876 0 0 0 0 6072423.6535259336 9593814.1090505943 0 9593814.1090505943 14211.544652202982 0 0 0 0 22194.565363943577 64130.482659555972 0 64130.482659555972 55397.583172533661 0 0 0 0 3076377.1880950928 12821133.754090309 0 12821133.754090309 12499513.08240509 0 0 0 0 5985117.7625732422 12865768.17032814 0 12865768.17032814 -1063243.7976989746 0 0 0 0 2023484.853012085 3161852.2381763458 0 3161852.2381763458 219819.18622589111 0 0 0 0 619317.75684864819 6283042.4069777131 0 6283042.4069777131 1639596.2739465479 0 0 0 0 2794937.424417913 3102692.2235203441 0 3102692.2235203441 -2552667.3220334016 0 0 0 0 -2092708.4639129639 5990172.4809594154 0 5990172.4809594154 -7442196.7072601318 0 0 0 0 5026731.214251332 6037321.5488537475 0 6037321.5488537475 2494705.6726778038 0 0 0 0 5139372.3395561129 6260741.6835092902 0 6260741.6835092902 -710748.79891639389 0 0 0 0 8261763.7957458496 23154023.148508072 0 23154023.148508072 -7691844.9792861938 0 0 0 0 4810437.0979156494 23505971.620733261 0 23505971.620733261 4802160.6897201538 0 0 0 0 298225.59399600327 3724794.5992205925 0 3724794.5992205925 -3167995.7378334403 0 0 0 0 176405.90838623047 2543558.1325035095 0 2543558.1325035095 -2116088.9464187622 0 0 0 0 201213.86279296875 3760378.8729095459 0 3760378.8729095459 -7416219.8526611328 0 0 0 0 2418129.262594834 6119373.9554747883 0 6119373.9554747883 3274461.7900492204 0 0 0 0 1722136.778503418 4346314.7021942139 0 4346314.7021942139 -4586437.5835113525 0 0 0 0 2795143.4164815247 5931458.9790376872 0 5931458.9790376872 1592066.237594923 0 0 0 0 1611699.8236961365 4969958.8031497002 0 4969958.8031497002 -2913986.2730102539 0 0 0 0 230734.08042688668 3346805.0218425356 0 3346805.0218425356 -3040437.7886637282 0 0 0 0 1327901.8602294922 3819283.2593460083 0 3819283.2593460083 -127744.78660964966 0 0 0 0 1057478.049621582 2816047.772064209 0 2816047.772064209 1125902.6182365417 0 0 0 0 3828035.3572998047 5205763.8314971924 0 5205763.8314971924 2310201.8758468628 0 0 0 0 5962573.7480137311 3728415.3546530753 0 3728415.3546530753 544481.21400016919 0 0 0 0 5856018.868649587 6093692.0607351288 0 6093692.0607351288 3124071.0731386915 0 0 0 0 1006835.6851501465 3333611.0128192902 0 3333611.0128192902 1355519.7203674316 0 0 0 0 1446302.1091308594 2212047.3738708496 0 2212047.3738708496 1271863.8363265991 0 0 0 0 5317472.265873991 4554635.210298866 0 4554635.210298866 2826191.9163875729 0 0 0 0 3404516.2163517177 4617377.9613849223 0 4617377.9613849223 3419366.3492507469 0 0 0 0 523604.37039716542 3202658.1704328768 0 3202658.1704328768 -2079524.7345294524 0 0 0 0 -1077756.3348806202 3836889.1707540266 0 3836889.1707540266 -1403890.3299848149 0 0 0 0 -1716817.0278320312 3842180.6030921936 0 3842180.6030921936 812826.98678588867 0 0 0 0 -1908780.6606750488 3512201.7179145813 0 3512201.7179145813 921732.67525482178 0 0 0 0 -1470521.2528076172 3013025.3091087341 0 3013025.3091087341 -311424.68962860107 0 0 0 0 -1899917.803520605 3551981.874677375 0 3551981.874677375 -38197.087493777741 0 0 0 0 5173588.4439349677 4591951.4409938455 0 4591951.4409938455 981285.83154464141 0 0 0 0 358521.39788818359 2776763.1632118225 0 2776763.1632118225 -1861908.8012084961 0 0 0 0 1587325.8234558105 4247214.7865123749 0 4247214.7865123749 1574156.1569519043 0 0 0 0 7392996.422495313 6901312.7134097219 0 6901312.7134097219 1957865.3599111848 0 0 0 0 2914849.3320253938 9467692.4824932683 0 9467692.4824932683 -2891019.6157612088 0 0 0 0 -773845.78268763423 3770125.7989473455 0 3770125.7989473455 -3079229.9297677558 0 0 0 0 8018494.018157959 14017349.232380867 0 14017349.232380867 -21099.465190887451 0 0 0 0 6328031.6704085767 1636631.420038715 0 1636631.420038715 -3020149.8047620952 0 0 0 0 4652019.01849626 2225670.6826909557 0 2225670.6826909557 1713108.1826630002 0 0 0 0 37316810.32232666 17346972.946399689 0 17346972.946399689 1961003.4215393066 0 0 0 0 3880873.0090560913 1902596.3232150078 0 1902596.3232150078 20366.710723876953 0 0 0 0 2798711.8488445841 3509583.1352720782 0 3509583.1352720782 3745438.1762230303 0 0 0 0 15103890.668029785 32900793.162445545 0 32900793.162445545 14498670.092210963 0 0 0 0 -1503551.8859004825 3216314.3907071352 0 3216314.3907071352 -1083501.9413615875 0 0 0 0 4834954.4550081342 5514506.4145955965 0 5514506.4145955965 659636.06678613462 0 0 0 0 -2719283.3283157349 3403008.6026887894 0 3403008.6026887894 -1028554.2760772705 0 0 0 0 -1006983.9690279961 6818740.5320144631 0 6818740.5320144631 -483090.85581769049 0 0 0 0 -2213520.9342651367 4344475.0798454285 0 4344475.0798454285 -1070936.9614334106 0 0 0 0 -3985069.6116943359 6982567.3099441528 0 6982567.3099441528 -5674218.3976287842 0 0 0 0 -1585264.5064706802 2896295.2917793319 0 2896295.2917793319 -1314138.3579963665 0 0 0 0 -2369014.2894229889 3756187.8961522579 0 3756187.8961522579 710170.50667953491 0 0 0 0 5106841.7227486521 2530968.7169252709 0 2530968.7169252709 -3033969.5786129786 0 0 0 0 -896895.4132797271 2850986.7723620478 0 2850986.7723620478 -1129441.750547098 0 0 0 0 -729417.10063171387 7939520.6146063805 0 7939520.6146063805 -23817906.52400589 0 0 0 0 4950258.5942993164 -11742440.356575012 0 -11742440.356575012 -37649607.916496277 0 0 0 0 15447720.549194336 9862281.882358551 0 9862281.882358551 -25180007.39761734 0 0 0 0 -175062.18579101562 2824534.0731945038 0 2824534.0731945038 -114516.11351013184 0 0 0 0 35303.540217384696 775408.11171759665 0 775408.11171759665 -1462507.0720899194 0 0 0 0 3475372.6739434898 3469792.2237804122 0 3469792.2237804122 -1686740.2492871312 0 0 0 0 4917148.5838623047 3536721.5194320679 0 3536721.5194320679 -2708511.8954391479 0 0 0 0 1594186.1991577148 8745539.3485412598 0 8745539.3485412598 3613048.753446579 0 0 0 0 769862.09275740385 241641.39543742687 0 241641.39543742687 -80750.448527872562 0 0 0 0 29637138.518325806 7359119.2627897263 0 7359119.2627897263 -33013142.097961426 0 0 0 0 33563902.514953613 -27930992.744037628 0 -27930992.744037628 -9380404.6631813049 0 0 0 0 -61522063.47631073 134438203.59068537 0 134438203.59068537 406757.8519821167 0 0 0 0 1518485.2688173354 -225193.42222661525 0 -225193.42222661525 -1605936.8081490975 0 0 0 0 5497044.036315918 -25922337.750938416 0 -25922337.750938416 -3382504.6397701502 0 0 0 0 26320808.172805786 35156170.084795952 0 35156170.084795952 -5350891.5222969055 0 0 0 0 52497774.038116455 11033998.659173965 0 11033998.659173965 -17544899.068000793 0 0 0 0 26535361.03717041 23910405.533412933 0 23910405.533412933 1142779.5602264404 0 0 0 0 14810114.718673706 10141114.214463234 0 10141114.214463234 -13345742.874465942 0 0 0 0 27200430.765441895 14869598.845630646 0 14869598.845630646 -26734187.74314785 0 0 0 0 16777998.807312012 4896303.0045280457 0 4896303.0045280457 -18412000.265365601 0 0 0 0 9087573.4486846924 312841761.52041245 0 312841761.52041245 -87671798.057630539 0 0 0 0 73553788.813323975 291564924.5780735 0 291564924.5780735 -80650346.705442429 0 0 0 0 107597118.820961 257982293.3110199 0 257982293.3110199 -202552654.79940796 0 0 0 0 160910307.3409729 325151858.27180862 0 325151858.27180862 -181521088.43823147 0 0 0 0 84210300.410079956 227199891.86744308 0 227199891.86744308 -240156081.91898346 0 0 0 0 156616420.21143341 226597008.74146843 0 226597008.74146843 -308176012.49315262 0 0 0 0 132130578.62625504 236688712.52835417 0 236688712.52835417 -270255115.46394348 0 0 0 0 168301805.2518158 329217536.21965027 0 329217536.21965027 -185515729.77065277 0 0 0 0 216970576.35876465 368177785.72044945 0 368177785.72044945 -115461606.97859287 0 0 0 0 167376837.39613342 357951717.46081734 0 357951717.46081734 -111241348.30696487 0 0 0 0 191247278.83044434 453819181.36992836 0 453819181.36992836 -47839144.338977814 0 0 0 0 77032911.647192955 383359084.45127892 0 383359084.45127892 -36407655.791904449 0 0 0 0 74159412.779060364 372533826.64218426 0 372533826.64218426 -65995343.673679352 0 0 0 0 -41197217.317581177 370046629.70150661 0 370046629.70150661 9692499.073849678 0 0 0 0 -47213617.526062012 357306755.14203644 0 357306755.14203644 41392663.797029495 0 0 0 0 -74737469.515083313 333511492.18718338 0 333511492.18718338 23149981.951713562 0 0 0 0 -99272620.554733276 292534056.86889076 0 292534056.86889076 58901278.667713165 0 0 0 0 -63851282.637893677 296129798.66674805 0 296129798.66674805 46198057.883302689 0 0 0 0 -83070625.174275398 295133605.68571949 0 295133605.68571949 49758576.507217407 0 0 0 0 -66142719.721076965 292305568.08390045 0 292305568.08390045 51361378.519325256 0 0 0 0 -60701654.69858551 244415096.25294495 0 244415096.25294495 27526389.098917961 0 0 0 0 -67310415.33731842 253527701.95986652 0 253527701.95986652 99667401.887241364 0 0 0 0 -10580849.986328125 239077606.36068344 0 239077606.36068344 -33192047.651582003 0 0 0 0 2809338.1582870483 310858983.37184143 0 310858983.37184143 -43616323.68983078 0 0 0 0 -31699249.671379089 315149919.76983261 0 315149919.76983261 29488994.789019585 0 0 0 0 11950983.545051575 227851160.79052401 0 227851160.79052401 -146281586.31601715 0 0 0 0 -24735086.059314728 233210747.52586603 0 233210747.52586603 20572486.075527191 0 0 0 0 -47776142.536888123 156263722.03986931 0 156263722.03986931 -39370908.498963356 0 0 0 0 -49980836.289435387 161963429.05525255 0 161963429.05525255 109377227.56769562 0 0 0 0 -36285160.599967957 45332279.028966904 0 45332279.028966904 -105075548.71026039 0 0 0 0 5878007.6003780365 100200836.19415903 0 100200836.19415903 -153536342.91056633 0 0 0 0 -4488373.7923431396 118505756.20281601 0 118505756.20281601 -17152252.734829903 0 0 0 0 64361288.695068359 84003608.772674084 0 84003608.772674084 -289189018.38037491 0 0 0 0 26870203.947227478 103226831.17051029 0 103226831.17051029 -173682141.10804749 0 0 0 0 62387078.860656738 207257105.11380959 0 207257105.11380959 -138707142.18713188 0 0 0 0 47634459.6665802 170575113.96037865 0 170575113.96037865 -223594295.11304855 0 0 0 0 73115456.68157959 129318596.13377094 0 129318596.13377094 -325814288.46395111 0 0 0 0 59597919.47416687 90114931.266159058 0 90114931.266159058 -277286612.4756937 0 0 0 0 96320156.527496338 156275119.13876247 0 156275119.13876247 -296910023.76874924 0 0 0 0 114883680.71406555 125163306.06071472 0 125163306.06071472 -358480002.05939102 0 0 0 0 65190177.161587238 45709023.470773339 0 45709023.470773339 -402119775.07941437 0 0 0 0 4349276.7064208984 -10826661.025714874 0 -10826661.025714874 -228033042.09732628 0 0 0 0 3550535.0447540283 -69544963.663492203 0 -69544963.663492203 -396831734.31611204 0 0 0 0 7763618.7338104248 -63856952.518588066 0 -63856952.518588066 -412752022.73075867 0 0 0 0 -1967042146.9071999 2944416237.7697067 0 2944416237.7697067 155827747.2592392 0 0 0 0 34376769.76701355 -31790740.77277565 0 -31790740.77277565 -491276033.21881104 0 0 0 0 50386261.20262146 21532638.292253494 0 21532638.292253494 -367924425.69383621 0 0 0 0 297233.95907592773 -35121737.82378006 0 -35121737.82378006 -464703420.4667511 0 0 0 0 -71460636.77696228 -114567167.0580101 0 -114567167.0580101 -441691913.56390572 0 0 0 0 2748265165.3151932 -859135834.81068993 0 -859135834.81068993 2570399199.2073402 0 0 0 0 -13473332.460075378 -105159321.36265945 0 -105159321.36265945 -740522278.56028938 0 0 0 0 -8519083.274784632 3995117.0536892638 0 3995117.0536892638 -627907.48407010362 0 0 0 0 -22318675.997661591 -205013767.95850658 0 -205013767.95850658 -735852249.5539341 0 0 0 0 -3288230.1874194294 1076441.9473883994 0 1076441.9473883994 165028.0428576952 0 0 0 0 -121493353.99433517 -199900207.38467598 0 -199900207.38467598 -534644802.39363861 0 0 0 0 -28618361.442966461 -122754011.8811264 0 -122754011.8811264 -584498931.56449127 0 0 0 0 -12327659.329376221 -63484425.480754852 0 -63484425.480754852 -546023735.50070572 0 0 0 0 41722629.899429321 -35598188.274967194 0 -35598188.274967194 -596190955.78298187 0 0 0 0 -34028426.49520874 -96973703.335147858 0 -96973703.335147858 -675216996.74266052 0 0 0 0 -12612885.56036523 -127205237.33450896 0 -127205237.33450896 -711680936.13917542 0 0 0 0 19382314.426330566 114580200.11192322 0 114580200.11192322 -638148799.13447571 0 0 0 0 35165068.49430275 -14131146.288925409 0 -14131146.288925409 -742548569.35342789 0 0 0 0 26227511.955999374 39364225.175952911 0 39364225.175952911 -515701286.6536026 0 0 0 0 100991462.65994263 122720551.81228638 0 122720551.81228638 -572619089.46612263 0 0 0 0 77087874.883377075 53708126.474960327 0 53708126.474960327 -469496550.14821243 0 0 0 0 122691004.58491516 168569500.98123169 0 168569500.98123169 -413875518.65681362 0 0 0 0 53966504.641783714 48618048.412647724 0 48618048.412647724 -447256893.64315033 0 0 0 0 -227852257.6548996 96195610.358774185 0 96195610.358774185 1677032835.1334305 0 0 0 0 -11714393.854322623 4713654.1713211192 0 4713654.1713211192 253304.90401156247 0 0 0 0 250492927.42980194 -29511696.798007965 0 -29511696.798007965 1385645670.2621994 0 0 0 0 -382944574.65175629 1070178783.523613 0 1070178783.523613 3365559718.9436722 0 0 0 0 -36126578.150192261 -82236743.463581085 0 -82236743.463581085 -722508923.36194611 0 0 0 0 -27460263.943122864 49361125.551702499 0 49361125.551702499 -630828425.61196136 0 0 0 0 -31460109.720443726 163771866.34853554 0 163771866.34853554 -970765333.63357496 0 0 0 0 -242404922.72111511 101655922.77233505 0 101655922.77233505 -698437023.58650208 0 0 0 0 -144680837.36759949 -222894268.15136528 0 -222894268.15136528 -903615066.71471405 0 0 0 0 -223777613.38980484 441629007.31443214 0 441629007.31443214 -1527216880.1318493 0 0 0 0 -13860857.604297638 -177030641.2874999 0 -177030641.2874999 -1791715755.3418503 0 0 0 0 -749615973.72117615 578461535.29466915 0 578461535.29466915 -756340369.76891899 0 0 0 0 -3753345.8814917281 683284.75867650006 0 683284.75867650006 371219.7706563035 0 0 0 0 -437128509.4436512 10017478.75442028 0 10017478.75442028 -220744884.91279221 0 0 0 0 -278896613.17449188 315248944.64063072 0 315248944.64063072 -645285996.81808805 0 0 0 0 -174144280.59946823 95255844.795821905 0 95255844.795821905 -251445670.9779892 0 0 0 0 -118485879.63594627 250671944.65936375 0 250671944.65936375 -402660648.43621063 0 0 0 0 21892642.807952881 129828741.21149445 0 129828741.21149445 -651285535.28727579 0 0 0 0 -195515279.68135834 195086004.99805546 0 195086004.99805546 -184245428.43022156 0 0 0 0 -130140289.48822021 66235930.996368408 0 66235930.996368408 38416205.891223907 0 0 0 0 -249440144.94541931 96501324.810778618 0 96501324.810778618 -182351944.3466959 0 0 0 0 -256865969.76443195 -17652046.195732832 0 -17652046.195732832 24210139.799571991 0 0 0 0 140290333.57147217 262041568.44651985 0 262041568.44651985 -304353057.45440102 0 0 0 0 141479741.8813858 160228473.66176796 0 160228473.66176796 -413280470.94320679 0 0 0 0 175819998.84277344 245956561.75762749 0 245956561.75762749 -326072973.1251297 0 0 0 0 105139519.56263733 153775188.85221291 0 153775188.85221291 -365500921.01449203 0 0 0 0 66661470.064434052 127521896.53503132 0 127521896.53503132 -389275628.52236938 0 0 0 0 45434605.452880859 59868367.109173775 0 59868367.109173775 -567325949.77558517 0 0 0 0 41141034.28565979 205588892.0835495 0 205588892.0835495 -438711080.54182816 0 0 0 0 79189759.327209473 144197465.72480583 0 144197465.72480583 -385464010.74601364 0 0 0 0 42292997.109102249 239404921.72680235 0 239404921.72680235 -267924604.91638947 0 0 0 0 -14024623.621208191 107013055.07515717 0 107013055.07515717 -227466047.95467758 0 0 0 0 5679402.9583892822 188788912.74061775 0 188788912.74061775 -186986668.66590977 0 0 0 0 26293853.986122131 127894814.23340797 0 127894814.23340797 -39858024.533157349 0 0 0 0 212876672.91046143 170964692.29362869 0 170964692.29362869 -240739638.90491486 0 0 0 0 148951119.20404816 267524962.50986004 0 267524962.50986004 -138891220.8184948 0 0 0 0 205475584.73213196 201763608.36235046 0 201763608.36235046 -260936640.13052559 0 0 0 0 254395458.38373566 338601976.27171516 0 338601976.27171516 -216441530.6711731 0 0 0 0 252199187.68994904 300416491.7524519 0 300416491.7524519 11446050.889797211 0 0 0 0 398914440.36925888 232085356.50382805 0 232085356.50382805 -136389067.75548553 0 0 0 0 421924116.46026611 260196315.08796501 0 260196315.08796501 20656380.7439785 0 0 0 0 185993206.70581055 128004081.72698879 0 128004081.72698879 -41106880.287349701 0 0 0 0 153427067.31856537 153416889.62126827 0 153416889.62126827 82558194.37792778 0 0 0 0 127455480.13922119 143167602.39997005 0 143167602.39997005 424976637.65191746 0 0 0 0 560228563.79417801 193811274.02468228 0 193811274.02468228 245746277.00225639 0 0 0 0 154689518.23830414 107358993.85420609 0 107358993.85420609 160557430.49213505 0 0 0 0 478515384.77616882 334745391.58090973 0 334745391.58090973 1212646836.2911797 0 0 0 0 908691989.50914001 187353999.78827667 0 187353999.78827667 194432313.255476 0 0 0 0 541606144.16658831 370544012.16671121 0 370544012.16671121 104371137.15291214 0 0 0 0 495582834.45633698 35406453.496915817 0 35406453.496915817 122418238.29037189 0 0 0 0 -152927386.50144386 5132352.7118620872 0 5132352.7118620872 198005878.96121025 0 0 0 0 -102396188.85810852 49421684.756313324 0 49421684.756313324 50744148.865118027 0 0 0 0 -41514365.958385468 39213288.335659981 0 39213288.335659981 196827933.69943047 0 0 0 0 -75099473.466003418 117218904.6197567 0 117218904.6197567 38226081.632141151 0 0 0 0 -74195759.307498932 28971102.931706905 0 28971102.931706905 201724027.5893631 0 0 0 0 -92610183.148582458 42337375.984194756 0 42337375.984194756 200891769.48316622 0 0 0 0 -45389466.677444458 -5371599.760863781 0 -5371599.760863781 33306340.939966202 0 0 0 0 -46070166.661020279 -18086455.615512133 0 -18086455.615512133 142288412.82380867 0 0 0 0 -24840207.042694092 71959434.93391943 0 71959434.93391943 189853708.98705196 0 0 0 0 -722392.78146146238 443339.41537752561 0 443339.41537752561 881560.4029920632 0 0 0 0 284366549.22621918 130632608.67293215 0 130632608.67293215 214215710.534091 0 0 0 0 644228396.80361176 474018283.11371088 0 474018283.11371088 214065644.93050539 0 0 0 0 -29700873.670089722 -57800831.13580513 0 -57800831.13580513 49093894.247389317 0 0 0 0 -1374453.9389801323 1267879.0239835232 0 1267879.0239835232 1469909.5555709982 0 0 0 0 812596560.32881165 380445301.33194256 0 380445301.33194256 113728012.91085625 0 0 0 0 291609.61769313959 693101.852439465 0 693101.852439465 1298115.6460560206 0 0 0 0 1410158932.3995514 792560565.78155231 0 792560565.78155231 377703556.21534157 0 0 0 0 473120430.69006348 530229815.84488583 0 530229815.84488583 554861235.40685511 0 0 0 0 374052566.37089539 300644054.65277672 0 300644054.65277672 189484612.1874094 0 0 0 0 431289100.41787958 302376305.13718611 0 302376305.13718611 205299667.72621441 0 0 0 0 421086462.69542694 281312546.88583565 0 281312546.88583565 185689277.46624088 0 0 0 0 770851.96415849961 1897523.7379828822 0 1897523.7379828822 3563631.2093320098 0 0 0 0 137422214.60498762 -138993206.60530138 0 -138993206.60530138 -384269188.06710243 0 0 0 0 785404.07636072114 1466845.0721041439 0 1466845.0721041439 2134409.5602766257 0 0 0 0 1843028.2117996216 7604602.3060855865 0 7604602.3060855865 -1379150.4814519882 0 0 0 0 88303818.604766846 100341087.71310043 0 100341087.71310043 -163095467.04926109 0 0 0 0 -9334759.1972732544 81653940.20506835 0 81653940.20506835 -218846473.58077431 0 0 0 0 -35281361.458469391 45203428.550593853 0 45203428.550593853 273894194.08925247 0 0 0 0 85530605.115631104 73774156.014633179 0 73774156.014633179 16984338.081845284 0 0 0 0 -70742950.855101109 -165642834.82961196 0 -165642834.82961196 462141278.81522942 0 0 0 0 -32115446.340797424 423859140.85455132 0 423859140.85455132 789255096.7430582 0 0 0 0 600379416.29258728 663055511.62983084 0 663055511.62983084 277221761.97477341 0 0 0 0 40056924.880455017 314330703.03501511 0 314330703.03501511 101198947.58754921 0 0 0 0 -109465640.31694031 316256076.49383545 0 316256076.49383545 237558825.11118126 0 0 0 0 115462823.81335831 425830794.07874489 0 425830794.07874489 63540082.693616867 0 0 0 0 49754519.398487091 460767981.81063271 0 460767981.81063271 128326880.46772194 0 0 0 0 47066936.926524997 423768689.98534513 0 423768689.98534513 38888727.765701294 0 0 0 0 47171436.620832682 427278868.17903221 0 427278868.17903221 70160039.311004639 0 0 0 0 167139602.7148819 536777568.10878468 0 536777568.10878468 240785837.55439091 0 0 0 0 333056177.90065002 451525598.36155128 0 451525598.36155128 -56312164.095478058 0 0 0 0 469338714.38721466 422767143.31502533 0 422767143.31502533 -50310996.776748657 0 0 0 0 -147202984.73928928 349933782.31754386 0 349933782.31754386 68996226.89282608 0 0 0 0 -163417901.75979137 273265853.20423067 0 273265853.20423067 53136148.535665512 0 0 0 0 -87198666.376319885 374314046.8609314 0 374314046.8609314 68472824.813327789 0 0 0 0 -97379336.529464722 382751657.43976021 0 382751657.43976021 87150842.900749207 0 0 0 0 -194892193.74555206 282234056.14894485 0 282234056.14894485 76399909.864838064 0 0 0 0 -123422568.179142 371738518.64963627 0 371738518.64963627 57779469.288455963 0 0 0 0 -193209582.39243889 300202858.21309209 0 300202858.21309209 -25554588.430135727 0 0 0 0 -591099886.17916107 368312529.01166725 0 368312529.01166725 -33860369.469587326 0 0 0 0 392205.28128883988 465191.96464507654 0 465191.96464507654 478144.4326637378 0 0 0 0 -5610609.9055500031 312743010.87573624 0 312743010.87573624 -405492289.21269035 0 0 0 0 69140554.736587524 144757643.67074394 0 144757643.67074394 -64172318.316942215 0 0 0 0 -104317328.2937851 217896770.83266068 0 217896770.83266068 -301528239.52898216 0 0 0 0 -1597275046.2217407 174400563.72508049 0 174400563.72508049 -49251207.829583645 0 0 0 0 -737299541.50709915 807364791.44767284 0 807364791.44767284 -782799132.72779274 0 0 0 0 -432192054.99618149 39198530.702293158 0 39198530.702293158 -40056558.390834808 0 0 0 0 1733893.0997952446 3243551.0741056204 0 3243551.0741056204 -20590529.963937491 0 0 0 0 -478640324.57512283 30910758.368553162 0 30910758.368553162 -4528442.5189571381 0 0 0 0 1080309.7897194829 168991.30674674362 0 168991.30674674362 -7485561.8425784241 0 0 0 0 -911275515.24084854 -1019331008.9911377 0 -1019331008.9911377 -547801298.19219398 0 0 0 0 138412213.29040527 382981547.58395576 0 382981547.58395576 324989743.92779303 0 0 0 0 542005651.86388397 -121034528.87338638 0 -121034528.87338638 -164458377.25160122 0 0 0 0 -10581588.158531353 16752802.262929089 0 16752802.262929089 -18651566.375066284 0 0 0 0 505984149.64725113 425644809.67336547 0 425644809.67336547 54101726.550870895 0 0 0 0 -103831135.12864685 -59828729.792398453 0 -59828729.792398453 -30174314.290313721 0 0 0 0 666494.06737955846 9477168.4547862243 0 9477168.4547862243 -31523949.677879915 0 0 0 0 44211931.734107971 -87805232.258506775 0 -87805232.258506775 -55307956.056556702 0 0 0 0 131427016.47967529 201368371.41840935 0 201368371.41840935 -68938329.607902527 0 0 0 0 229829084.19322968 111207821.85995865 0 111207821.85995865 -88165008.007671356 0 0 0 0 -4918568.9798278809 62940922.722080231 0 62940922.722080231 -88136635.231983185 0 0 0 0 -175234554.43151474 20762353.848042488 0 20762353.848042488 -15597441.161939621 0 0 0 0 -133383222.68183899 80499181.218381882 0 80499181.218381882 -2514655.4546585083 0 0 0 0 -156078530.16957092 257782404.283741 0 257782404.283741 74865832.230499029 0 0 0 0 -253103632.46603394 144098573.9879837 0 144098573.9879837 28943637.415473938 0 0 0 0 -386712291.18803787 231461975.17581844 0 231461975.17581844 72434904.944799423 0 0 0 0 -281001538.95959473 28263787.015863419 0 28263787.015863419 -13793748.939036369 0 0 0 0 243637464.04989624 322367242.40877533 0 322367242.40877533 188037333.20449066 0 0 0 0 60186649.537017822 129678013.86346054 0 129678013.86346054 68715335.889501572 0 0 0 0 -352395988.65228271 310253975.72820282 0 310253975.72820282 -5583682.3678359985 0 0 0 0 -1145311.2807312012 296578638.32201385 0 296578638.32201385 -268786814.74342346 0 0 0 0 -151371738.18226624 385584536.09127235 0 385584536.09127235 -95335483.715576172 0 0 0 0 -107780330.22944641 282493370.95031929 0 282493370.95031929 -42013840.572311401 0 0 0 0 190922459.40856934 408783535.69797516 0 408783535.69797516 -69221596.439380646 0 0 0 0 -23272636.138824463 334255678.33646774 0 334255678.33646774 -79229274.812776566 0 0 0 0 -217832157.15571594 273827568.2126236 0 273827568.2126236 -21021139.695093155 0 0 0 0 -331827850.29449463 424683650.19826889 0 424683650.19826889 -14708903.176246643 0 0 0 0 -192074294.47174072 268243614.35247803 0 268243614.35247803 -21455691.943893433 0 0 0 0 -332074835.00518799 211016754.26776505 0 211016754.26776505 72967260.148504734 0 0 0 0 -497196256.1390686 227020259.6898613 0 227020259.6898613 71724265.621163368 0 0 0 0 -651407790.42222595 324148108.66916847 0 324148108.66916847 31894900.6731987 0 0 0 0 -465603052.49185181 501093903.79208374 0 501093903.79208374 -271217122.23026276 0 0 0 0 -848221970.83493042 169730329.87028122 0 169730329.87028122 -46564391.131759644 0 0 0 0 -658186130.10009634 -216814617.07895193 0 -216814617.07895193 -25113097.635543823 0 0 0 0 -1208270251.0166016 -104912910.38742065 0 -104912910.38742065 -45986867.158917427 0 0 0 0 -164977153.44335938 -37604610.224477768 0 -37604610.224477768 -8130269.1346969604 0 0 0 0 -158578313.34518433 17136899.704710007 0 17136899.704710007 7564474.217502594 0 0 0 0 204224244.56103516 201325699.4141655 0 201325699.4141655 -77687775.561447144 0 0 0 0 257733954.27577209 247080330.91502571 0 247080330.91502571 -104620694.3479805 0 0 0 0 172395823.88393402 269164170.15292358 0 269164170.15292358 -91505195.840667725 0 0 0 0 63538791.15499115 176380110.28964615 0 176380110.28964615 67993800.860725403 0 0 0 0 -130900172.80134583 298026082.3323822 0 298026082.3323822 -7169134.5720329285 0 0 0 0 -181212133.11294556 -50898653.395477295 0 -50898653.395477295 181960906.97406006 0 0 0 0 -126761602.59119129 397118869.9874922 0 397118869.9874922 919990074.8223114 0 0 0 0 -8594879.7104915511 7749122.7505836934 0 7749122.7505836934 7602203.2664474361 0 0 0 0 1322012010.0425568 2065266609.9418564 0 2065266609.9418564 1402137094.2778034 0 0 0 0 -2405804.5866754353 5582613.6202289462 0 5582613.6202289462 -7768573.8930028845 0 0 0 0 487296863.64689636 -247122855.00164938 0 -247122855.00164938 -1372403442.1195602 0 0 0 0 2634812580.3981934 2110294995.0512428 0 2110294995.0512428 -1365539755.1478577 0 0 0 0 -4325372729.017395 644728801.11288071 0 644728801.11288071 2647322678.2464371 0 0 0 0 -1218903015.7346954 541823509.11148071 0 541823509.11148071 -418901955.56015015 0 0 0 0 -650414531.75753784 353842146.62586594 0 353842146.62586594 -2014548812.2597198 0 0 0 0 -650412334.55353379 356172592.81103712 0 356172592.81103712 -419665056.61412811 0 0 0 0 -246221095.45626831 205360932.14051819 0 205360932.14051819 -425111969.66095924 0 0 0 0 -520479480.49365234 -816450966.58059692 0 -816450966.58059692 -1368174294.199913 0 0 0 0 -2119868375.5750122 -2324693322.4367714 0 -2324693322.4367714 -2641582824.0147133 0 0 0 0 -1044550908.467804 -369804436.25526619 0 -369804436.25526619 903212067.06998444 0 0 0 0 -6429144.2512671202 11215652.385207238 0 11215652.385207238 -1784673.130684888 0 0 0 0 -120209732.20477295 -180243769.38749695 0 -180243769.38749695 758558204.70735359 0 0 0 0 -608131338.30770874 -377425552.84333038 0 -377425552.84333038 847810029.32627678 0 0 0 0 72098173.764282227 91798126.533779144 0 91798126.533779144 461716204.49376106 0 0 0 0 147229699.37966919 -256456303.39025116 0 -256456303.39025116 -100673833.92243195 0 0 0 0 319759741.9556427 -138839613.9709549 0 -138839613.9709549 -128338347.53286743 0 0 0 0 -373298811.98153687 -348958592.64243698 0 -348958592.64243698 115181181.95149612 0 0 0 0 -234659401.6020546 259343663.04792309 0 259343663.04792309 -192577822.24993134 0 0 0 0 232242040.72662354 -138675303.55746841 0 -138675303.55746841 -686959161.51488495 0 0 0 0 389361709.28489685 -173697977.63772202 0 -173697977.63772202 -127541319.93237305 0 0 0 0 220445231.20004272 -144428423.40205765 0 -144428423.40205765 -75755205.064308167 0 0 0 0 -24633027.266960144 22388449.750042379 0 22388449.750042379 -4769517.0759458542 0 0 0 0 -24450618.90398407 20955833.317897081 0 20955833.317897081 -9064984.4518102407 0 0 0 0 -104994997.44714355 -24726143.287118912 0 -24726143.287118912 54241465.482099533 0 0 0 0 -74074114.15130043 109671707.21281719 0 109671707.21281719 -10731430.079528809 0 0 0 0 -32075046.728179932 90044057.958574295 0 90044057.958574295 -109615640.90167618 0 0 0 0 -29264039.889251709 47646791.10619545 0 47646791.10619545 -32073545.986427307 0 0 0 0 -55709617.61227417 31513228.761898041 0 31513228.761898041 -10042624.7274189 0 0 0 0 -26888603.748272687 13959774.746979987 0 13959774.746979987 5974195.6056952821 0 0 0 0 -20642605.120803833 24939814.396439791 0 24939814.396439791 -8138243.9010770321 0 0 0 0 25689751.126422882 153858591.16504478 0 153858591.16504478 -124064768.22814608 0 0 0 0 279329345.10609436 -72058243.619697571 0 -72058243.619697571 -88141946.291542053 0 0 0 0 -2674089.6078566536 2350669.9435156062 0 2350669.9435156062 171430.90677272622 0 0 0 0 -10657719.024312697 33563985.441722542 0 33563985.441722542 -32132733.338578593 0 0 0 0 14246058.976669312 113921862.17279434 0 113921862.17279434 -43839416.473628998 0 0 0 0 -43038151.067698248 26232340.294728789 0 26232340.294728789 8777417.2271927334 0 0 0 0 -122966641.10057068 29574496.717926979 0 29574496.717926979 62485752.596973419 0 0 0 0 -73486384.982376099 23638294.954740524 0 23638294.954740524 -3431619.2183380127 0 0 0 0 -6978415.3766288757 15002513.696353912 0 15002513.696353912 -106157741.21026611 0 0 0 0 -89912776.238327026 132005060.36936569 0 132005060.36936569 -96642267.499624729 0 0 0 0 -55577157.682933807 73882403.437469482 0 73882403.437469482 -909946.87659072876 0 0 0 0 -135648693.27722931 168912221.0080719 0 168912221.0080719 35951456.342483521 0 0 0 0 -138763923.84898472 57597908.473491669 0 57597908.473491669 113714926.95846558 0 0 0 0 -136447241.39887142 44929964.220901489 0 44929964.220901489 -11021453.847400665 0 0 0 0 -2982014.6667072363 884467.96791534126 0 884467.96791534126 2677383.5973013826 0 0 0 0 -209919975.46976471 -174687498.88041687 0 -174687498.88041687 363986734.91679955 0 0 0 0 -177529802.82690048 -141420751.56042671 0 -141420751.56042671 146949976.10939789 0 0 0 0 -344318088.51205444 -89999437.504077911 0 -89999437.504077911 326392704.50071502 0 0 0 0 -405321887.20363617 -120793605.73055649 0 -120793605.73055649 498210754.35910034 0 0 0 0 241991.90541867539 472352.9476034008 0 472352.9476034008 212833.52809030749 0 0 0 0 -95092057.405994415 487896792.02202892 0 487896792.02202892 743699737.01993942 0 0 0 0 -307179872.84388733 24704573.322759628 0 24704573.322759628 622081137.80177307 0 0 0 0 408032609.47401428 617670698.48666763 0 617670698.48666763 425701905.79895782 0 0 0 0 -11245824.746189117 118654481.81009769 0 118654481.81009769 -8604541.5111961365 0 0 0 0 -149158856.19560242 176876425.43749619 0 176876425.43749619 328878465.08830941 0 0 0 0 102151178.53013611 -80619454.368335724 0 -80619454.368335724 -47970715.483566284 0 0 0 0 -46365253.018722534 38949385.8983078 0 38949385.8983078 -12519879.768600464 0 0 0 0 8748536.2455942407 1337212.4181865612 0 1337212.4181865612 -7027557.1872727871 0 0 0 0 -133192335.78121632 29690477.687485099 0 29690477.687485099 8343848.0008010864 0 0 0 0 -19856983.858428955 21211553.113182425 0 21211553.113182425 -4804573.9487130642 0 0 0 0 -34398521.064855263 28037217.422934651 0 28037217.422934651 -8085266.0148172937 0 0 0 0 -12938132.871856689 22573716.868577719 0 22573716.868577719 -7576341.0893301964 0 0 0 0 -19046242.238177329 17110343.811619762 0 17110343.811619762 -7014584.9259920456 0 0 0 0 -123346610.72690964 5523073.7789487839 0 5523073.7789487839 689109823.83582306 0 0 0 0 70189626.697357178 85511046.314998627 0 85511046.314998627 42741055.113830566 0 0 0 0 -6204776.7055019625 4122894.0927291531 0 4122894.0927291531 2487865.4865219891 0 0 0 0 166756972.90010834 229213847.77669811 0 229213847.77669811 450279687.44662476 0 0 0 0 -23248672.498298645 21165250.756532788 0 21165250.756532788 -4616832.1478348374 0 0 0 0 -30691616.416771062 13855152.109562609 0 13855152.109562609 4519761.280949085 0 0 0 0 -1192826.6450316533 2133720.3523624614 0 2133720.3523624614 535986.96899018437 0 0 0 0 -22763393.732765198 23174297.304932117 0 23174297.304932117 -4287475.8278436661 0 0 0 0 91822027.490737915 261804984.05660248 0 261804984.05660248 32882622.741855621 0 0 0 0 130634722.23489952 137975906.49706101 0 137975906.49706101 -17202301.313114166 0 0 0 0 360185039.68315125 -115766821.4363308 0 -115766821.4363308 148073782.03144455 0 0 0 0 52809271.01953125 309269655.07764816 0 309269655.07764816 10413671.299283981 0 0 0 0 -13439040.873512268 337216124.49685287 0 337216124.49685287 258873469.44824982 0 0 0 0 -58951258.981010437 249246494.61265373 0 249246494.61265373 89180147.853180885 0 0 0 0 -12246114.274925232 288488915.24568558 0 288488915.24568558 72684341.297905445 0 0 0 0 -11223680.785091937 205425811.71995726 0 205425811.71995726 12829080.414081573 0 0 0 0 -56337346.861701965 183535635.53151512 0 183535635.53151512 28222261.641787559 0 0 0 0 -75328655.183197021 256732627.93110657 0 256732627.93110657 59655117.078144073 0 0 0 0 -132849092.14257431 257267756.73549366 0 257267756.73549366 61098376.234996796 0 0 0 0 -24866659.512916565 198729752.11838341 0 198729752.11838341 19929396.219306946 0 0 0 0 -24197341.183197021 47265523.498298645 0 47265523.498298645 -10966326.70593214 0 0 0 0 -45742986.5222826 73066227.393585205 0 73066227.393585205 -40459705.303939819 0 0 0 0 -4108261.2984468937 21735180.568555333 0 21735180.568555333 -37330251.307659872 0 0 0 0 -48017139.348739624 22903632.414981365 0 22903632.414981365 -26209691.99448204 0 0 0 0 -29502616.121530946 27923393.842759971 0 27923393.842759971 3161797.0787225962 0 0 0 0 -17910445.266235352 31732472.387821198 0 31732472.387821198 -61882678.951694489 0 0 0 0 10177501.791290283 58805995.881538391 0 58805995.881538391 -84810623.69966507 0 0 0 0 -52719890.594537735 -24080269.985913277 0 -24080269.985913277 60633837.047172546 0 0 0 0 -13480878.883029606 6426810.145922523 0 6426810.145922523 11066130.686358891 0 0 0 0 -83341828.90133667 40730594.741975784 0 40730594.741975784 -2028604.7328701019 0 0 0 0 -3355430.0885520913 4862208.1607052125 0 4862208.1607052125 -2898588.8870812785 0 0 0 0 -21746306.839500427 132653903.7865963 0 132653903.7865963 153967754.06228256 0 0 0 0 225920378.44950867 142652527.85399628 0 142652527.85399628 -51777285.557380676 0 0 0 0 35492022.144870758 39516900.972926617 0 39516900.972926617 -51573104.463787079 0 0 0 0 183846218.84933472 91145788.102138519 0 91145788.102138519 129981410.60194016 0 0 0 0 153266629.45146942 83213824.007534027 0 83213824.007534027 78898050.694003105 0 0 0 0 282159303.27261353 319744858.7276783 0 319744858.7276783 348301215.02778244 0 0 0 0 -148418389.82967377 -29676159.460451603 0 -29676159.460451603 201314216.15505219 0 0 0 0 150935396.21525955 305401327.0798502 0 305401327.0798502 251587731.03701782 0 0 0 0 177488539.36413383 355645748.86762714 0 355645748.86762714 346522874.75512123 0 0 0 0 284507221.28705025 317637081.10252762 0 317637081.10252762 340579559.64975357 0 0 0 0 216572656.15581512 289816473.7497139 0 289816473.7497139 250864145.44185829 0 0 0 0 222456015.92221832 48926265.226301193 0 48926265.226301193 -84511381.446292877 0 0 0 0 15237.555962752551 441742.22481061518 0 441742.22481061518 -291294.32809822354 0 0 0 0 355321132.23721313 385976199.48584747 0 385976199.48584747 389001363.83509827 0 0 0 0 -422204.39577795868 1625293.6634471938 0 1625293.6634471938 826955.73668504134 0 0 0 0 -54291049.124531507 -78806404.708640158 0 -78806404.708640158 206982352.56364059 0 0 0 0 139236446.21959877 510053892.88449717 0 510053892.88449717 316170438.25278854 0 0 0 0 -106486317.72344208 174964742.67733002 0 174964742.67733002 631546949.38406944 0 0 0 0 192610644.50520182 204656414.97714663 0 204656414.97714663 544460295.02890396 0 0 0 0 -62077829.547172546 137133433.94351292 0 137133433.94351292 70173171.007101059 0 0 0 0 -112100603.51170349 123243558.23847198 0 123243558.23847198 227848810.60803747 0 0 0 0 -42768372.725982666 60747509.225365639 0 60747509.225365639 61350625.837509513 0 0 0 0 23590870.591510773 42528079.12176609 0 42528079.12176609 -71380383.014883995 0 0 0 0 -1425304.8340741917 2891151.893922925 0 2891151.893922925 262269.27177207544 0 0 0 0 -877892.07772827148 1544180.7191009521 0 1544180.7191009521 -1207120.3219547272 0 0 0 0 627488.15570831299 3355561.5970630646 0 3355561.5970630646 -4821035.979095459 0 0 0 0 286569.13440049812 3530886.2952754484 0 3530886.2952754484 -2571658.3286423516 0 0 0 0 -723007.43271255493 3545961.130147934 0 3545961.130147934 1584017.888759613 0 0 0 0 -40676860.77180481 7244663.1893081665 0 7244663.1893081665 7125327.18699646 0 0 0 0 1281701.9849700928 3192420.7181282043 0 3192420.7181282043 -1645550.6208950281 0 0 0 0 -325188.72958612291 3970266.957078347 0 3970266.957078347 -1336630.9555599336 0 0 0 0 384262.35292075435 3370901.349922074 0 3370901.349922074 -3069165.8163938113 0 0 0 0 -52502391.311099529 18940505.782585382 0 18940505.782585382 77108761.558647156 0 0 0 0 -589466.01787567139 3611240.9455623627 0 3611240.9455623627 -1613136.7223472595 0 0 0 0 81835132.487670898 123872886.01481247 0 123872886.01481247 107973805.72078896 0 0 0 0 83751349.650726318 59189887.126184464 0 59189887.126184464 164353995.47253609 0 0 0 0 112073495.1763649 -23799378.347494125 0 -23799378.347494125 8359722.035987854 0 0 0 0 91832275.548820496 10099448.880651474 0 10099448.880651474 -28675003.715328217 0 0 0 0 87997217.919095516 234770588.67021036 0 234770588.67021036 510560430.11548996 0 0 0 0 54804889.195259094 -96729126.031614304 0 -96729126.031614304 378036808.6930542 0 0 0 0 129757224.35881042 32708681.539747238 0 32708681.539747238 47732946.147068024 0 0 0 0 128191323.59450912 -23848748.729417801 0 -23848748.729417801 -125643043.39709473 0 0 0 0 95870748.425739288 -44466038.090681076 0 -44466038.090681076 -21289273.978874207 0 0 0 0 114623601.51107788 35089631.290542603 0 35089631.290542603 -88674556.4889431 0 0 0 0 102567528.82430267 18634363.460868835 0 18634363.460868835 -109507603.71225739 0 0 0 0 119422322.85933685 19838663.95108223 0 19838663.95108223 -52384650.602767944 0 0 0 0 78726796.326919556 85842421.082543373 0 85842421.082543373 -173098303.72052765 0 0 0 0 -11887191.701957703 79437887.627845764 0 79437887.627845764 -81687748.869022369 0 0 0 0 15444970.694091797 -42560260.282316208 0 -42560260.282316208 5838975.0247612 0 0 0 0 85369576.412322998 9453758.6405487061 0 9453758.6405487061 -15792845.788192749 0 0 0 0 55921415.203262329 3199738.5840263367 0 3199738.5840263367 -27942618.575886175 0 0 0 0 84548990.841156006 12733770.619412422 0 12733770.619412422 -27896073.87437439 0 0 0 0 -17867079.306884766 20901534.120346069 0 20901534.120346069 5334612.513671875 0 0 0 0 -926249.529565759 1560283.103785702 0 1560283.103785702 -403845.78075060621 0 0 0 0 33622646.507049561 -1927019.4105300903 0 -1927019.4105300903 -17518035.57717514 0 0 0 0 76931012.168014526 131842106.02521133 0 131842106.02521133 56453279.887626648 0 0 0 0 69158467.246208191 61351427.100967407 0 61351427.100967407 -1597122.8776397705 0 0 0 0 43920450.665611267 77641047.056298256 0 77641047.056298256 130034770.37467194 0 0 0 0 101695716.02046204 55016897.772548676 0 55016897.772548676 -85048488.834747314 0 0 0 0 36359.149472411722 93879.040671883151 0 93879.040671883151 -73153.625075964257 0 0 0 0 14906946.882469177 29325942.591129303 0 29325942.591129303 -166731540.66667747 0 0 0 0 147529.24329707772 25952.871441743802 0 25952.871441743802 -315936.85294501949 0 0 0 0 79902678.129096985 74439176.048233032 0 74439176.048233032 -140929764.30046844 0 0 0 0 111607757.06069946 117511841.39578629 0 117511841.39578629 -87348134.893861771 0 0 0 0 111072605.29260254 121952281.71295547 0 121952281.71295547 -3236922.4184150696 0 0 0 0 -122452132.5558548 118230278.23379135 0 118230278.23379135 -38605120.724401474 0 0 0 0 726242.57149386406 808449.08136064373 0 808449.08136064373 -519749.0657139495 0 0 0 0 163560886.0089798 21500222.725067139 0 21500222.725067139 -116434476.98602104 0 0 0 0 42227581.944236755 94748170.624409676 0 94748170.624409676 -84565514.785243988 0 0 0 0 902872.66572131217 1229824.0789077245 0 1229824.0789077245 -1560665.8535655551 0 0 0 0 491090.21139526367 813436.00860595703 0 813436.00860595703 -321654.93759918213 0 0 0 0 -121422362.2567482 152791442.44836712 0 152791442.44836712 -68841438.919330597 0 0 0 0 45198788.700939178 -107564381.68771553 0 -107564381.68771553 -95838024.827407837 0 0 0 0 24030351.352947235 -85802518.352577209 0 -85802518.352577209 -91561503.160617828 0 0 0 0 -149581495.98415756 -39251061.702583313 0 -39251061.702583313 -2141022.8841896057 0 0 0 0 602388.18665109319 1502317.3514303975 0 1502317.3514303975 -2540629.5266654268 0 0 0 0 1655167.4662284851 1347353.0386133194 0 1347353.0386133194 -798520.71995162964 0 0 0 0 -440812164.26943207 288883130.84375 0 288883130.84375 547469093.94459152 0 0 0 0 -103117094.95457458 -256126474.4100275 0 -256126474.4100275 -613991598.38584137 0 0 0 0 242956622.77285767 784024999.13677597 0 784024999.13677597 347934348.64237976 0 0 0 0 -8252420.5658035874 -4835416.8055325085 0 -4835416.8055325085 10047318.771724708 0 0 0 0 144484807.53233719 385467620.87729454 0 385467620.87729454 242275060.64715576 0 0 0 0 125115137.21206665 252922824.57710457 0 252922824.57710457 1177902427.5249786 0 0 0 0 37319518.159805298 453127625.35037994 0 453127625.35037994 207849686.39023209 0 0 0 0 30744882.332611084 490546536.7304306 0 490546536.7304306 711212089.03441858 0 0 0 0 434629446.38043213 456952533.78922081 0 456952533.78922081 48848877.481285095 0 0 0 0 53711775.799925089 27267065.617486954 0 27267065.617486954 -185403305.03639221 0 0 0 0 -110961489.6574173 526240232.84402657 0 526240232.84402657 -751545287.26158333 0 0 0 0 -1861265.8761821203 1152057.7717678295 0 1152057.7717678295 537113.27827121341 0 0 0 0 -169789304.56726074 30749087.987564087 0 30749087.987564087 350332178.18048096 0 0 0 0 361703876.83207703 18851637.769645691 0 18851637.769645691 -1454223719.426096 0 0 0 0 -175789308.67847061 -402391563.46024466 0 -402391563.46024466 -514707090.44568634 0 0 0 0 817802.46632394567 1207020.7305155769 0 1207020.7305155769 -99231.431590992957 0 0 0 0 -554387690.64454269 162901783.07451439 0 162901783.07451439 -3325703.0989608765 0 0 0 0 -29314200.124736786 -113084759.3448801 0 -113084759.3448801 75964103.247261047 0 0 0 0 -349801302.07054138 -233643964.61905432 0 -233643964.61905432 356454666.79029083 0 0 0 0 115730197.69836426 460791607.01391983 0 460791607.01391983 -55810093.374372482 0 0 0 0 279892496.29813385 -86389813.628080368 0 -86389813.628080368 -6438011.3668365479 0 0 0 0 -479726893.4670639 420766761.66790009 0 420766761.66790009 79656870.381507874 0 0 0 0 -166828295.90550613 -33892725.970598221 0 -33892725.970598221 -138044944.42623901 0 0 0 0 -3715854.0279998779 121447045.4527626 0 121447045.4527626 -28544185.185360432 0 0 0 0 -7582909.7273406982 136509038.36751556 0 136509038.36751556 -288579925.76387024 0 0 0 0 -140156700.8646698 235403199.99189377 0 235403199.99189377 -123050585.64360428 0 0 0 0 -97523473.404308319 270910190.18989277 0 270910190.18989277 -21006135.827785492 0 0 0 0 1224230.6150325369 1479403.165743446 0 1479403.165743446 -754352.51463936083 0 0 0 0 -139864241.54653168 131708720.22055244 0 131708720.22055244 -114110982.10820389 0 0 0 0 -320095531.40145874 131759906.12060165 0 131759906.12060165 -66983000.930030823 0 0 0 0 -138154743.98538589 150478514.49296045 0 150478514.49296045 -35114998.311000824 0 0 0 0 -260598051.24378967 387912146.32240486 0 387912146.32240486 -31064275.626143456 0 0 0 0 -357297429.50223351 225251206.98766518 0 225251206.98766518 155630891.22983551 0 0 0 0 -46023585.372379303 33995597.075483322 0 33995597.075483322 109780696.92435503 0 0 0 0 -53948320.604544163 881648.49041199684 0 881648.49041199684 159943216.47059631 0 0 0 0 -214705253.15024948 84317939.977079391 0 84317939.977079391 53936367.19143486 0 0 0 0 437036.61029427126 -454228.29493738152 0 -454228.29493738152 -691156.92076455429 0 0 0 0 20158263.09003067 -7421334.8622665405 0 -7421334.8622665405 152121601.65483665 0 0 0 0 -14386580.338939667 178965108.58025742 0 178965108.58025742 90699476.370502472 0 0 0 0 -208626933.9997139 -107982756.39929962 0 -107982756.39929962 -241075142.8539772 0 0 0 0 -187160451.24850464 189058579.27791882 0 189058579.27791882 241523649.12335968 0 0 0 0 -119536716.12102127 79741529.64712429 0 79741529.64712429 -2687130.9554767609 0 0 0 0 115767795.67853928 -102815749.8380146 0 -102815749.8380146 -342105932.70439529 0 0 0 0 860977.71626449004 -860936.50170816295 0 -860936.50170816295 -1375999.6281342395 0 0 0 0 -74803665.207214355 21389819.213920593 0 21389819.213920593 3498481.7769098282 0 0 0 0 -165676146.80245209 -160423266.52625704 0 -160423266.52625704 25072066.918182373 0 0 0 0 -200092123.02409363 169658484.19335747 0 169658484.19335747 -124844265.97433853 0 0 0 0 -107219515.00793839 152367058.2428441 0 152367058.2428441 -137774066.79628754 0 0 0 0 11652913.097698212 25717997.991739273 0 25717997.991739273 -265006901.96726608 0 0 0 0 165834944.35140705 24414253.575662136 0 24414253.575662136 -281521290.36043549 0 0 0 0 1159763.1895310618 -699827.61510131694 0 -699827.61510131694 -1402546.8269663397 0 0 0 0 222819427.45456982 139784663.73189163 0 139784663.73189163 -214299370.57901001 0 0 0 0 161326081.8351326 651641695.22434425 0 651641695.22434425 610463742.87064362 0 0 0 0 469509316.74026489 573380331.36543655 0 573380331.36543655 80990719.315288544 0 0 0 0 383058569.86862183 288197391.95932579 0 288197391.95932579 -275095543.08839035 0 0 0 0 556471709.33338165 550619992.83282852 0 550619992.83282852 -771798722.51087284 0 0 0 0 344333897.41313934 235794235.51796532 0 235794235.51796532 404919700.16065979 0 0 0 0 280091335.17455292 -78225033.595861435 0 -78225033.595861435 -341086402.46585011 0 0 0 0 -146797884.31615067 -370820621.20908928 0 -370820621.20908928 -500312092.06185913 0 0 0 0 -213101137.31919479 -589502062.85823822 0 -589502062.85823822 -317517021.07761765 0 0 0 0 17775717.424146175 2118033.8057714701 0 2118033.8057714701 -702674917.3197937 0 0 0 0 -597221565.55709839 165839974.1341629 0 165839974.1341629 -301439335.60061359 0 0 0 0 -2592211.8175047264 -612747.88233341277 0 -612747.88233341277 -2109820.2036492527 0 0 0 0 -354143506.00608063 339433464.21570015 0 339433464.21570015 -97561751.609985352 0 0 0 0 -277544234.19427872 464518253.63365555 0 464518253.63365555 -292195698.01060867 0 0 0 0 -973331552.45248413 242315894.69311523 0 242315894.69311523 -25542099.042114258 0 0 0 0 102379.68453197577 258474.271039268 0 258474.271039268 -178639.15584781766 0 0 0 0 696824083.31759918 802577256.95381355 0 802577256.95381355 1378934922.0901489 0 0 0 0 715012932.58415985 -19976726.524612427 0 -19976726.524612427 -498581915.52684021 0 0 0 0 491124006.25379181 154273575.28329277 0 154273575.28329277 -147027058.48468399 0 0 0 0 626388.82831377536 1636333.9446520172 0 1636333.9446520172 -178971.61500155181 0 0 0 0 2670438.5565741062 1415170.4388434887 0 1415170.4388434887 -1018620.6403961182 0 0 0 0 593183.70246368914 820476.23035447858 0 820476.23035447858 -468273.86579580605 0 0 0 0 -497943342.14172435 -30952496.191121161 0 -30952496.191121161 520545280.78252792 0 0 0 0 79335039.704147339 170384574.83298683 0 170384574.83298683 -134195362.40151024 0 0 0 0 -201913835.63511658 106871409.44444656 0 106871409.44444656 -58231625.908437729 0 0 0 0 -354012613.89355469 242922301.3807354 0 242922301.3807354 -145917111.53672791 0 0 0 0 -125406973.49787903 260182454.82880211 0 260182454.82880211 -159847308.88685989 0 0 0 0 -381048564.78223038 267834626.15623856 0 267834626.15623856 -87876692.159152985 0 0 0 0 738820.84318770096 -292178.1548610162 0 -292178.1548610162 -730071.66664537974 0 0 0 0 -18795676.791122437 159995959.61396599 0 159995959.61396599 -307187505.7007513 0 0 0 0 59666124.101959229 90785810.950298309 0 90785810.950298309 -277301573.83148956 0 0 0 0 12424455.799484253 229627705.05389404 0 229627705.05389404 -219181091.4946804 0 0 0 0 -87964501.223846436 362548757.17070198 0 362548757.17070198 170668364.70851898 0 0 0 0 -30090585.022521973 193463156.79296494 0 193463156.79296494 -23063672.387645721 0 0 0 0 77069824.916503906 354333344.39267921 0 354333344.39267921 -192022947.43754959 0 0 0 0 85268769.183441162 418450102.09905815 0 418450102.09905815 227068787.73918915 0 0 0 0 54048820.878005981 343718950.10180664 0 343718950.10180664 275928200.44902039 0 0 0 0 -84357617.733016968 320992463.30418396 0 320992463.30418396 526865214.81816864 0 0 0 0 -82351506.951538086 449685595.29953766 0 449685595.29953766 569554955.09517288 0 0 0 0 -180084215.04560852 236085282.44570541 0 236085282.44570541 316544404.81720352 0 0 0 0 295873999.73394775 780871460.82508469 0 780871460.82508469 547297845.02470398 0 0 0 0 -278804511.85417509 762531478.29777026 0 762531478.29777026 667439502.92369461 0 0 0 0 -820407132.26589537 370451447.74354541 0 370451447.74354541 -162064880.10385132 0 0 0 0 -263417585.31592941 88109923.960521698 0 88109923.960521698 -247581940.72065735 0 0 0 0 637357.17390948534 1211355.1846513562 0 1211355.1846513562 387383.6517599076 0 0 0 0 -895801534.7969017 436507692.24119949 0 436507692.24119949 507718765.97225571 0 0 0 0 964186309.69363403 875784793.69535065 0 875784793.69535065 494131652.11837387 0 0 0 0 1183138975.3448524 596559930.65147591 0 596559930.65147591 210471756.65911865 0 0 0 0 369205656.46047974 274860466.67041016 0 274860466.67041016 403477602.81473732 0 0 0 0 -139124644.83318329 -57552060.540976524 0 -57552060.540976524 7943739.8003082275 0 0 0 0 -566540.98963633971 3082728.5587262716 0 3082728.5587262716 7320134.1805199124 0 0 0 0 394485934.68103635 291863103.19929206 0 291863103.19929206 291861599.86816406 0 0 0 0 43831314.716064453 13154898.779790878 0 13154898.779790878 -51480674.473503113 0 0 0 0 54895115.563804626 22566533.270786285 0 22566533.270786285 -67380796.322353363 0 0 0 0 23346163.992446899 -10461881.92650795 0 -10461881.92650795 -52037313.069234848 0 0 0 0 46045619.593154907 1602338.6541366577 0 1602338.6541366577 -79403502.77407074 0 0 0 0 -146483009.16694641 389687161.67294502 0 389687161.67294502 143152343.9883728 0 0 0 0 -365431.32331466675 -11462162.835438728 0 -11462162.835438728 -8595210.2846450806 0 0 0 0 2077316133.6532326 918935996.25309181 0 918935996.25309181 -28508718.62122345 0 0 0 0 -11040.240615626157 635740.77621443011 0 635740.77621443011 2541931.956951227 0 0 0 0 50280744.473258972 32359112.842010498 0 32359112.842010498 -48738602.545386791 0 0 0 0 -79935057.204082489 -19373347.578933716 0 -19373347.578933716 101420140.55205727 0 0 0 0 -208204449.05177975 351526573.66754675 0 351526573.66754675 -152695471.64972687 0 0 0 0 -156976046.99632263 121943703.85971069 0 121943703.85971069 72434308.598503113 0 0 0 0 -341205513.79885101 -52125452.250274658 0 -52125452.250274658 -73936004.436103821 0 0 0 0 23523630.42881012 75644716.030994415 0 75644716.030994415 17539757.520404816 0 0 0 0 -125973670.89292145 -34546855.502567291 0 -34546855.502567291 -62634664.431346893 0 0 0 0 -88860209.299919128 94866604.7697258 0 94866604.7697258 -107997531.42474651 0 0 0 0 -188636579.42408371 357199889.65316963 0 357199889.65316963 -195087481.74875641 0 0 0 0 -74756880.145210266 42886125.839344025 0 42886125.839344025 -345098314.3962059 0 0 0 0 -114785926.67864609 374579535.59516907 0 374579535.59516907 -311513276.64004898 0 0 0 0 -167265473.98613811 -7765962.7582566738 0 -7765962.7582566738 3053895.2088470459 0 0 0 0 -211556644.80781555 314070157.20676041 0 314070157.20676041 -265504942.82633972 0 0 0 0 -72349466.216178894 241966079.25999451 0 241966079.25999451 -387900156.92865443 0 0 0 0 -35704561.58373642 -79760361.157960892 0 -79760361.157960892 18541745.582382202 0 0 0 0 217045782.32372284 223448407.38991165 0 223448407.38991165 267490026.9860611 0 0 0 0 -1174601.3300134838 1075802.4411487915 0 1075802.4411487915 486850.78895233106 0 0 0 0 -123063343.27228546 350269967.75758171 0 350269967.75758171 -349040329.20229912 0 0 0 0 422920381.70942688 351883931.86504745 0 351883931.86504745 132117124.17831421 0 0 0 0 -79773719.32050705 507569420.93365192 0 507569420.93365192 784479108.02989197 0 0 0 0 337907515.55108643 162702444.25985718 0 162702444.25985718 56106508.116943359 0 0 0 0 -624267.88897795603 1088566.4294751156 0 1088566.4294751156 1465953.4983341247 0 0 0 0 10709830.521427155 -126589847.20703506 0 -126589847.20703506 925949511.97424698 0 0 0 0 100770592.8769989 716119270.81751442 0 716119270.81751442 1120586038.4683456 0 0 0 0 1499879269.8346863 359399900.70966911 0 359399900.70966911 -5027827.3894958496 0 0 0 0 3789361.6569595337 324745037.86324787 0 324745037.86324787 12759788.042602539 0 0 0 0 32672713.766002655 751798187.35780716 0 751798187.35780716 550578722.60682869 0 0 0 0 270446354.57927704 304398332.80894279 0 304398332.80894279 26840232.480073452 0 0 0 0 475918415.07783508 510742053.70089722 0 510742053.70089722 229858587.73168945 0 0 0 0 249458508.65652466 151872434.53091049 0 151872434.53091049 27629428.599655151 0 0 0 0 169485214.36379242 151210671.54699516 0 151210671.54699516 220131998.39052963 0 0 0 0 -46755720.051010132 -34744001.520841599 0 -34744001.520841599 22687609.998844743 0 0 0 0 144143448.54692841 58525235.035133362 0 58525235.035133362 133651660.21976709 0 0 0 0 319860993.51786423 227557552.54399872 0 227557552.54399872 105873128.86189842 0 0 0 0 272089990.53362656 310696683.02360058 0 310696683.02360058 332831247.04524994 0 0 0 0 525109252.1293602 56677886.835205078 0 56677886.835205078 545052373.09809017 0 0 0 0 404134347.14774799 506970997.88605428 0 506970997.88605428 657730626.55128098 0 0 0 0 135290491.43711853 176929763.46621513 0 176929763.46621513 314516740.02135658 0 0 0 0 354248961.34989166 324837620.42996597 0 324837620.42996597 251728490.83431625 0 0 0 0 471715045.30572891 283244677.28821468 0 283244677.28821468 76819006.431404114 0 0 0 0 364248077.5246582 156752306.02379608 0 156752306.02379608 196420252.32244301 0 0 0 0 220087206.27233124 253024567.28132629 0 253024567.28132629 149835313.82615662 0 0 0 0 263360861.92786789 343130137.24692917 0 343130137.24692917 165582658.72433853 0 0 0 0 75557145.991695404 103263548.61007118 0 103263548.61007118 92717653.513870239 0 0 0 0 -9714868.9226531982 213548078.34760284 0 213548078.34760284 -18858951.430027008 0 0 0 0 479621039.2259903 246614289.13594055 0 246614289.13594055 71916966.274847507 0 0 0 0 369226219.59806442 169303778.04508781 0 169303778.04508781 123213473.93824005 0 0 0 0 750239068.57361603 58588385.787142754 0 58588385.787142754 154993142.02401733 0 0 0 0 -5639299.6743184812 8127688.5991343409 0 8127688.5991343409 -4028980.8802903811 0 0 0 0 87030406.445526123 207069146.72267151 0 207069146.72267151 411730178.51318359 0 0 0 0 8215791.04737854 13343665.091000557 0 13343665.091000557 -199812315.9331522 0 0 0 0 523348548.30071449 369933121.06226063 0 369933121.06226063 160328387.47046661 0 0 0 0 -152535.2254300788 203933.09431681409 0 203933.09431681409 -399365.90555458143 0 0 0 0 2301895.4279594421 46551963.555151939 0 46551963.555151939 -115861081.97560501 0 0 0 0 -1956637.9302133955 3744588.8736345265 0 3744588.8736345265 -1518597.366192312 0 0 0 0 -8171563.1123886108 26643674.981349945 0 26643674.981349945 -153459439.44611585 0 0 0 0 -777621.32518768311 3573224.9628372192 0 3573224.9628372192 -1754175.0497303009 0 0 0 0 152172659.18782616 129812523.49559116 0 129812523.49559116 -34000098.9181633 0 0 0 0 116872669.72477722 -43370751.748397827 0 -43370751.748397827 -95907865.591020584 0 0 0 0 -2158338.7920225263 3799941.5638695224 0 3799941.5638695224 -573344.54482159857 0 0 0 0 25844719.769714355 620362968.62885284 0 620362968.62885284 -1124842875.2070274 0 0 0 0 -599293.8031738922 2630337.6767045595 0 2630337.6767045595 892850.55904231872 0 0 0 0 95169375.199271202 347493546.57938766 0 347493546.57938766 -583442865.40424347 0 0 0 0 59500532.696329117 374195251.40939331 0 374195251.40939331 -96073057.726928711 0 0 0 0 -428264500.83360291 98078192.211210251 0 98078192.211210251 1121499496.9861622 0 0 0 0 -220091554.25925446 242006399.34465027 0 242006399.34465027 -270731414.92986846 0 0 0 0 73968650.401584625 23940927.211925507 0 23940927.211925507 -313773282.98689651 0 0 0 0 -1870736.5811786335 -231003.87987432908 0 -231003.87987432908 1309207.8704246469 0 0 0 0 -173766390.81320953 273675236.00966644 0 273675236.00966644 -250030573.09403992 0 0 0 0 38157434.102981567 505406999.83930588 0 505406999.83930588 -356559938.4609375 0 0 0 0 -145533396.24673462 97746786.109710217 0 97746786.109710217 -531697438.0304718 0 0 0 0 236642666.42448425 742803955.2036438 0 742803955.2036438 -1731060158.8896017 0 0 0 0 24999456.312484741 411990576.94391632 0 411990576.94391632 -1426077790.8984642 0 0 0 0 -356457416.23287201 1175781289.0275917 0 1175781289.0275917 -981477045.54058075 0 0 0 0 -235089267.2778511 467543672.78554153 0 467543672.78554153 -147222831.54286957 0 0 0 0 -317587456.22820282 522402471.32241821 0 522402471.32241821 -133906015.7333746 0 0 0 0 -91287269.262580872 178739148.43335342 0 178739148.43335342 1273228988.0426579 0 0 0 0 -8612644.3618745208 7211827.450109005 0 7211827.450109005 -2829459.1053607101 0 0 0 0 -432479734.18599033 840777999.2947197 0 840777999.2947197 96602505.082092285 0 0 0 0 392724031.52567482 135961417.78969193 0 135961417.78969193 160129404.52522278 0 0 0 0 -235425693.24943542 112116900.91850281 0 112116900.91850281 513302434.99861908 0 0 0 0 -163253220.1706543 302336916.50657272 0 302336916.50657272 231696529.34891844 0 0 0 0 -371195921.12055206 312389645.69326591 0 312389645.69326591 234284164.700634 0 0 0 0 -28055590.357891083 331309590.29304314 0 331309590.29304314 123172881.23329926 0 0 0 0 -49748220.173755646 111810394.00933075 0 111810394.00933075 218462506.47240162 0 0 0 0 63620160.398979187 158938712.16845131 0 158938712.16845131 202634661.22293472 0 0 0 0 95451282.241701126 239405508.96753597 0 239405508.96753597 330539234.83115768 0 0 0 0 -81610339.512123108 21856098.637807846 0 21856098.637807846 475645484.48088837 0 0 0 0 -147867788.9686203 251487245.56566048 0 251487245.56566048 144047504.7963562 0 0 0 0 -87551130.558517456 50676247.983249664 0 50676247.983249664 229896687.53957939 0 0 0 0 -180411187.04350853 130853181.47374344 0 130853181.47374344 254542059.09883881 0 0 0 0 -409449254.64627075 641238183.09198761 0 641238183.09198761 -181176430.88314056 0 0 0 0 -131087829.24844742 127533497.78609085 0 127533497.78609085 -66979774.866230011 0 0 0 0 -238505834.50966167 440141364.47872496 0 440141364.47872496 -217626726.56384277 0 0 0 0 -161985995.83072662 367179878.29862213 0 367179878.29862213 -198294688.09931183 0 0 0 0 -44351876.462848663 122952899.26335907 0 122952899.26335907 -563163968.92074585 0 0 0 0 51167879.718065262 550788084.53204036 0 550788084.53204036 -158379844.18785095 0 0 0 0 -14631004.142883301 155654562.7892952 0 155654562.7892952 28674715.185890198 0 0 0 0 -21577439.687980652 250548051.1670723 0 250548051.1670723 77154623.396749496 0 0 0 0 138309520.91176224 90326128.996034622 0 90326128.996034622 233676625.48699951 0 0 0 0 2136820.7110328674 3020661.5853633881 0 3020661.5853633881 1750877.5279331207 0 0 0 0 -21435142.967229843 177292451.46505737 0 177292451.46505737 303892451.22877502 0 0 0 0 2274703.981580928 3032199.0085266843 0 3032199.0085266843 -2126363.069728693 0 0 0 0 -1396662.7699396424 866556.48831247771 0 866556.48831247771 -275022.83376958594 0 0 0 0 23842444.672683716 139346314.80168343 0 139346314.80168343 253427897.62917876 0 0 0 0 1907043.8918457031 1979155.4720802307 0 1979155.4720802307 -585137.1015625 0 0 0 0 61967067.932533264 -20793896.143223763 0 -20793896.143223763 -59846347.338691711 0 0 0 0 -1868501.3808631897 1864826.7867393494 0 1864826.7867393494 725108.03783416748 0 0 0 0 -137517.06881713867 1129708.6572265625 0 1129708.6572265625 1011633.1807613373 0 0 0 0 -713336.7009906224 656605.84201983362 0 656605.84201983362 -651780.36882413924 0 0 0 0 15314949.318106651 -92115348.330260038 0 -92115348.330260038 273329439.27124405 0 0 0 0 -89146700.106269836 65334734.155984879 0 65334734.155984879 252842297.75436401 0 0 0 0 -43914024.444791794 46498944.687008858 0 46498944.687008858 260422048.09315872 0 0 0 0 323756.07048978284 3836664.4407445816 0 3836664.4407445816 -1324390.8233473701 0 0 0 0 -74991.337951660156 5016156.7104187012 0 5016156.7104187012 3819375.7958679199 0 0 0 0 1409310.1740989685 -7529273.0133228302 0 -7529273.0133228302 202176573.1305933 0 0 0 0 -30568.892440795898 6241842.0817394257 0 6241842.0817394257 2345381.9552764893 0 0 0 0 -3391751.6361923404 3000296.7525390275 0 3000296.7525390275 1430286.56871075 0 0 0 0 -81168761.961862564 -33725386.276482582 0 -33725386.276482582 -20186215.889167786 0 0 0 0 -1230263.3286437988 466787.41492652893 0 466787.41492652893 205810627.99835777 0 0 0 0 -1630104.9517904241 2983379.7134874668 0 2983379.7134874668 3310991.0690387748 0 0 0 0 -6435325.4845275879 46024538.242660522 0 46024538.242660522 -374080692.70308685 0 0 0 0 258541.71337964386 1334007.8715817053 0 1334007.8715817053 -849213.68502923846 0 0 0 0 -18100368.289657593 -41808905.33745575 0 -41808905.33745575 -132892874.40113831 0 0 0 0 -54105450.778167725 147382351.4585495 0 147382351.4585495 -227604302.38152122 0 0 0 0 5129076.5007476807 51672746.112609863 0 51672746.112609863 -257514233.00836945 0 0 0 0 310062.06286239624 4208601.1736068726 0 4208601.1736068726 -8306874.2855453491 0 0 0 0 -1230264.4796583727 4214256.7622035146 0 4214256.7622035146 1266641.8172302051 0 0 0 0 20547535.113954544 13823834.757696152 0 13823834.757696152 -164893091.6233139 0 0 0 0 -26862371.925132751 13129637.506248474 0 13129637.506248474 -4630406.8507385254 0 0 0 0 24670379.043979645 -52553462.518407345 0 -52553462.518407345 -67533610.250282288 0 0 0 0 -15501677.224674225 -11877785.600605011 0 -11877785.600605011 208942359.39532471 0 0 0 0 -1249373.3277602606 7767651.9591494799 0 7767651.9591494799 1702699.5385774565 0 0 0 0 -2437430.8730609287 1065847.0277457014 0 1065847.0277457014 1500270.7912869938 0 0 0 0 6336972.3874168396 64239154.010543823 0 64239154.010543823 -67524039.720100403 0 0 0 0 -55880432.244255066 83749962.562164307 0 83749962.562164307 -25363135.879669189 0 0 0 0 -32758173.245521545 99335300.275421143 0 99335300.275421143 -83780651.62172699 0 0 0 0 -89516602.182640076 113931504.6227932 0 113931504.6227932 -53153811.856586456 0 0 0 0 -57465605.018924713 134682024.45643425 0 134682024.45643425 -100936095.22579193 0 0 0 0 -193688882.44384384 199947686.38892937 0 199947686.38892937 55768015.702384949 0 0 0 0 -46238459.855667114 109124574.73040771 0 109124574.73040771 -83261751.24357605 0 0 0 0 -125623833.38640594 186729844.82429123 0 186729844.82429123 -109478792.10436058 0 0 0 0 -123937724.33659363 139143651.66292191 0 139143651.66292191 -59629035.379264832 0 0 0 0 -64935098.449249268 187513929.57372475 0 187513929.57372475 -110606350.98353577 0 0 0 0 186066.24988937378 2739793.231470108 0 2739793.231470108 -889306.40464782715 0 0 0 0 -2285410.3898773193 6811807.8482055664 0 6811807.8482055664 -11997290.783397675 0 0 0 0 -2722091.8515471295 3360280.4518371429 0 3360280.4518371429 1596229.5291459984 0 0 0 0 -6236091.1019859314 5703910.6888980865 0 5703910.6888980865 -287805.89988708496 0 0 0 0 -1221036.349822998 1974582.9839096069 0 1974582.9839096069 -8472794.2786083221 0 0 0 0 -20092120.599029541 3368776.2113499641 0 3368776.2113499641 6934922.0403060913 0 0 0 0 -3269885.0841903687 -713790.85966110229 0 -713790.85966110229 -2394272.4729204178 0 0 0 0 -1301215.6529132817 388596.23868994229 0 388596.23868994229 1001135.0619510449 0 0 0 0 -46849846.310211182 96493013.729454041 0 96493013.729454041 -65675922.447277069 0 0 0 0 -90551223.077415466 67433640.621994019 0 67433640.621994019 15989632.049663544 0 0 0 0 -10369239.938186646 -8078893.1114273071 0 -8078893.1114273071 -26879284.722927094 0 0 0 0 131325485.62826729 177955396.21663189 0 177955396.21663189 21089177.409740448 0 0 0 0 -37336648.715545654 10330621.781990051 0 10330621.781990051 35480158.152565002 0 0 0 0 76686.355024327524 -1491895.0489259106 0 -1491895.0489259106 -558885.81720355898 0 0 0 0 92377178.412519455 16949063.669484138 0 16949063.669484138 65679152.416603088 0 0 0 0 387137532.14419746 117390337.03625774 0 117390337.03625774 -158089811.00559425 0 0 0 0 397630.22923214501 -1101887.0461961245 0 -1101887.0461961245 -595203.05235816166 0 0 0 0 -126041902.81465721 123626251.80272055 0 123626251.80272055 -80805716.576732635 0 0 0 0 -200472720.2120018 39030957.391524315 0 39030957.391524315 -27572043.89353466 0 0 0 0 -28342516.106399536 98289369.427265167 0 98289369.427265167 -93848079.869354248 0 0 0 0 109840275.0800705 148371111.99581909 0 148371111.99581909 -76682117.870973587 0 0 0 0 12450283.486579895 53843347.602535248 0 53843347.602535248 -119937505.78193188 0 0 0 0 -22635246.980337143 37270027.215535164 0 37270027.215535164 39322488.261120796 0 0 0 0 -13386186.253979683 45351501.210976124 0 45351501.210976124 -31543867.057117462 0 0 0 0 -18392697.764491081 59121537.714562893 0 59121537.714562893 -27470731.837118149 0 0 0 0 12019853.024938583 80020656.478288174 0 80020656.478288174 -41841511.820323944 0 0 0 0 17651951.171934128 52274408.668587208 0 52274408.668587208 -50545579.55802536 0 0 0 0 -7207466.6468448639 141980508.41008615 0 141980508.41008615 51114909.985753059 0 0 0 0 -40740390.392678261 96953378.756484628 0 96953378.756484628 208036203.48095036 0 0 0 0 -23681038.664363861 104483739.8113451 0 104483739.8113451 83901265.396732807 0 0 0 0 12451121.611724854 -196812044.5023998 0 -196812044.5023998 251280393.08195877 0 0 0 0 -162054966.63456726 -130958416.82315254 0 -130958416.82315254 347922134.81278801 0 0 0 0 -32260242.488351822 -56852095.932954311 0 -56852095.932954311 15180940.338256836 0 0 0 0 -2709747.7512836903 9561671.3868285902 0 9561671.3868285902 6091216.8151946254 0 0 0 0 90183672.938774109 75351426.095273972 0 75351426.095273972 -14279282.645423889 0 0 0 0 -158090507.86319351 -167303495.22631407 0 -167303495.22631407 162137576.4716835 0 0 0 0 -1308539.3081126418 -1017533.7341333013 0 -1017533.7341333013 1753914.3264566101 0 0 0 0 -170028347.522686 -93765165.096376896 0 -93765165.096376896 244810698.69664383 0 0 0 0 11550020.828216553 81851223.016434193 0 81851223.016434193 -41583366.861456633 0 0 0 0 -80997295.45129776 23869858.294620514 0 23869858.294620514 -84098.70662021637 0 0 0 0 -2113634.5837696334 -1570227.0731771272 0 -1570227.0731771272 2865588.6211832743 0 0 0 0 -199332211.47115326 163380626.92068863 0 163380626.92068863 -8037654.1816234589 0 0 0 0 -63133634.800697327 -50140954.185426712 0 -50140954.185426712 150405103.01384354 0 0 0 0 157574605.57313919 49915269.989145279 0 49915269.989145279 -226859045.25645256 0 0 0 0 -134076647.42357063 86909891.742896557 0 86909891.742896557 -51947210.853235245 0 0 0 0 -83421551.065361023 112472304.95608139 0 112472304.95608139 -97483506.657933235 0 0 0 0 -79450257.081539154 71495771.601041794 0 71495771.601041794 -63087406.450766563 0 0 0 0 -80606376.456721306 115811659.52665472 0 115811659.52665472 -54996564.530567169 0 0 0 0 -73685786.92375946 92630811.246866226 0 92630811.246866226 -62469863.879459381 0 0 0 0 -152333779.73888397 85532213.93040657 0 85532213.93040657 -62367812.118429184 0 0 0 0 -195646860.33322906 119658053.56408691 0 119658053.56408691 5239829.9191207886 0 0 0 0 -89087853.555355072 132980322.26049137 0 132980322.26049137 9328194.7464485168 0 0 0 0 -1233129.5005831774 -942984.32942065969 0 -942984.32942065969 1538027.7441053484 0 0 0 0 -85978436.1801548 119159793.5517292 0 119159793.5517292 66895344.629745483 0 0 0 0 -70872224.931592941 34136213.913673878 0 34136213.913673878 77956872.865570068 0 0 0 0 7568964.5340194702 52698419.181674957 0 52698419.181674957 68445270.465240479 0 0 0 0 -81070695.322410583 106137765.87474251 0 106137765.87474251 34072502.276550293 0 0 0 0 -30839413.793518066 37501328.327111721 0 37501328.327111721 13918332.705875397 0 0 0 0 -18161054.139471054 -14073581.693992615 0 -14073581.693992615 135907099.71233368 0 0 0 0 72685150.888893127 -37339941.869537354 0 -37339941.869537354 41806446.58685112 0 0 0 0 -22885524.005805969 -38858459.670915604 0 -38858459.670915604 39667862.664009094 0 0 0 0 -128138188.6211071 -27652704.029278278 0 -27652704.029278278 -17614590.095050812 0 0 0 0 -49179808.634880066 74165047.086645126 0 74165047.086645126 -79328372.733064651 0 0 0 0 -49848472.221252441 55417282.063186646 0 55417282.063186646 62975838.123363495 0 0 0 0 144268320.32524109 -142500386.0205555 0 -142500386.0205555 -50055590.829101562 0 0 0 0 174002959.80875683 116786192.0949924 0 116786192.0949924 44970872.157234192 0 0 0 0 4044405.4773025513 27903515.014802933 0 27903515.014802933 256054632.21038437 0 0 0 0 131476032.70006943 1947740.0219535828 0 1947740.0219535828 -52849288.801109314 0 0 0 0 114470774.27109528 -112237536.78710556 0 -112237536.78710556 150306414.48500729 0 0 0 0 -180743.09118470363 2476476.8897128105 0 2476476.8897128105 -1440572.8626766764 0 0 0 0 -39810273.826767206 9630514.1685503721 0 9630514.1685503721 41495490.381286621 0 0 0 0 -191841811.95465469 37756922.16000843 0 37756922.16000843 101717137.59433365 0 0 0 0 -1745617.2281841347 11978369.792750157 0 11978369.792750157 11254896.484591201 0 0 0 0 -30700335.58392334 217212238.57284355 0 217212238.57284355 244424664.99115372 0 0 0 0 -3896249.9727643351 19855909.487049576 0 19855909.487049576 15121687.492423147 0 0 0 0 -14360223.746631622 19399728.436832428 0 19399728.436832428 1131041.3436698914 0 0 0 0 25940608.942245483 98740412.712875366 0 98740412.712875366 -85624088.524715424 0 0 0 0 -6550019.3861401603 12105313.242902111 0 12105313.242902111 20192143.542196013 0 0 0 0 17231467.649913788 28816685.93590641 0 28816685.93590641 -76161674.598875046 0 0 0 0 2675107.9764795192 11230296.585165929 0 11230296.585165929 -8161293.8236523774 0 0 0 0 -22926158.550678253 25699504.615335464 0 25699504.615335464 6527828.6902542114 0 0 0 0 -3251865.929430034 13412781.741268197 0 13412781.741268197 16976745.41465956 0 0 0 0 -1132283.2076644897 15558444.367507935 0 15558444.367507935 10457066.742401123 0 0 0 0 -6832738.4533014297 22912003.539016724 0 22912003.539016724 3258607.2846069336 0 0 0 0 -56062678.523875713 50850688.280839443 0 50850688.280839443 31341078.0105896 0 0 0 0 -9837122.3354492188 12979985.29857254 0 12979985.29857254 9919446.2159576416 0 0 0 0 -19155648.030937195 -22885908.148262024 0 -22885908.148262024 85087448.2943573 0 0 0 0 4180402.7545967102 -31684757.327602386 0 -31684757.327602386 11238414.984024048 0 0 0 0 -50207234.713226318 29274189.362499237 0 29274189.362499237 13542927.224758148 0 0 0 0 18472383.836624146 -17939893.426568985 0 -17939893.426568985 39087187.072921753 0 0 0 0 49990981.252220154 -38610318.735098839 0 -38610318.735098839 42038454.569968224 0 0 0 0 23857785.614318848 -35328015.343055725 0 -35328015.343055725 48902018.659704208 0 0 0 0 30438508.971359253 -17411768.081981659 0 -17411768.081981659 62610099.630622864 0 0 0 0 6036897.0606536865 -40490495.11343956 0 -40490495.11343956 41434135.167988777 0 0 0 0 10901128.212020874 -10208019.89182663 0 -10208019.89182663 60023469.511204243 0 0 0 0 1947084.2255757898 10312671.859664906 0 10312671.859664906 4812065.7166451029 0 0 0 0 -89357.979927062988 6463407.7229576111 0 6463407.7229576111 -2956385.8494911194 0 0 0 0 -1833309.9647347834 17007954.461025767 0 17007954.461025767 -2382085.8628812209 0 0 0 0 -1385043.2331033461 7524002.1078039305 0 7524002.1078039305 23287664.541832529 0 0 0 0 2501310.2948150635 91160405.244966507 0 91160405.244966507 60539250.069757462 0 0 0 0 -29271824.217506409 45426948.098991394 0 45426948.098991394 188827956.15969276 0 0 0 0 839888.87931438535 14803265.520067856 0 14803265.520067856 3463560.7897481453 0 0 0 0 -1610533.3981395178 822004.32584701828 0 822004.32584701828 10022030.987869767 0 0 0 0 19970842.963233948 6593977.4426116943 0 6593977.4426116943 86713652.185175061 0 0 0 0 5704072.696105957 26391455.215736389 0 26391455.215736389 18234307.979141235 0 0 0 0 -451683.0771058239 -14159.263205467956 0 -14159.263205467956 1609496.1404660977 0 0 0 0 -7557572.267826546 7788096.576060392 0 7788096.576060392 25188056.276463166 0 0 0 0 -12819820.269897461 8181315.816444397 0 8181315.816444397 11663423.250091553 0 0 0 0 -17918832.303039551 41640814.974990845 0 41640814.974990845 31691158.499048233 0 0 0 0 -2842503.8936309814 108989.01209259033 0 108989.01209259033 13223290.771881104 0 0 0 0 8480.9197965487838 12377398.270892695 0 12377398.270892695 24838024.896672357 0 0 0 0 -17624728.324035645 4379757.5975875854 0 4379757.5975875854 21970022.949981689 0 0 0 0 -8240120.6631047651 14644460.850740716 0 14644460.850740716 13194564.176033139 0 0 0 0 -5163270.2115631104 2660536.6856842041 0 2660536.6856842041 10979106.697784424 0 0 0 0 1975607.7348499298 15890105.490053177 0 15890105.490053177 34217011.495071411 0 0 0 0 -6413995.3516832516 20751917.153455228 0 20751917.153455228 -1226169.7035512179 0 0 0 0 -25341414.050891876 29993109.763095856 0 29993109.763095856 97219523.415588379 0 0 0 0 -3758890.4679832458 13447492.840881348 0 13447492.840881348 60571380.365768433 0 0 0 0 -16472442.455991745 16240027.03853035 0 16240027.03853035 13700032.995193481 0 0 0 0 -18810994.686477661 20386063.433849335 0 20386063.433849335 6865717.2342987061 0 0 0 0 -15587040.766309675 14377449.837731211 0 14377449.837731211 52802980.843092851 0 0 0 0 -10336986.125994738 19378186.913776021 0 19378186.913776021 19050994.141070329 0 0 0 0 -11888631.872142792 18202991.034431458 0 18202991.034431458 26139310.651176453 0 0 0 0 -6509074.3736837842 14956066.157380123 0 14956066.157380123 17995073.631141409 0 0 0 0 -96818766.71496582 1914974.5355491638 0 1914974.5355491638 43707136.403808594 0 0 0 0 -1841376.1851348877 13235767.099891663 0 13235767.099891663 9845027.3248243332 0 0 0 0 -3354674.9322421066 9800312.0183592662 0 9800312.0183592662 17103445.068704359 0 0 0 0 -2497058.8312311103 -816901.74338559806 0 -816901.74338559806 -5389.8824774622917 0 0 0 0 -1069577.1261444092 22193957.173240662 0 22193957.173240662 15622917.470046997 0 0 0 0 2435686.6866989136 19686017.649139404 0 19686017.649139404 33385541.48589325 0 0 0 0 -3443844.051876571 10828680.299797712 0 10828680.299797712 15764179.96841079 0 0 0 0 1177544.0229454041 16539639.437831879 0 16539639.437831879 35260277.250312805 0 0 0 0 -57121134.414150238 4282480.1153869629 0 4282480.1153869629 79748768.277206421 0 0 0 0 -53840538.462379456 180176384.42806244 0 180176384.42806244 -28134712.719268799 0 0 0 0 -3078112.8699060082 17477721.287785701 0 17477721.287785701 1381016.5803444311 0 0 0 0 4009787.8850631714 20218176.972366333 0 20218176.972366333 34656407.034362793 0 0 0 0 -804526.01517486572 103555894.52005005 0 103555894.52005005 80415324.919921875 0 0 0 0 2604212.3691253662 13138561.4609375 0 13138561.4609375 2512404.3287506104 0 0 0 0 -8517481.0112940092 15598347.129642989 0 15598347.129642989 9241144.6421996355 0 0 0 0 -6745889.7275704844 15550512.962336915 0 15550512.962336915 4608267.2792009786 0 0 0 0 -2621144.8519914672 16280492.724611882 0 16280492.724611882 2021321.0848919973 0 0 0 0 -87247879.415633619 9438621.9357691407 0 9438621.9357691407 -10626294.866271973 0 0 0 0 2290911.0809707642 13081822.82774353 0 13081822.82774353 3280467.9499511719 0 0 0 0 -7397786.20474099 10487907.786250994 0 10487907.786250994 22099307.820097458 0 0 0 0 115693105.34324837 81290639.356781006 0 81290639.356781006 -67657221.584472656 0 0 0 0 -247211.56211846782 15853938.388085142 0 15853938.388085142 -11830067.536890253 0 0 0 0 -1939419.3631786224 6700030.2804468544 0 6700030.2804468544 165765.51951113343 0 0 0 0 168925113.31926411 57710956.423223019 0 57710956.423223019 -86083980.621948242 0 0 0 0 44494693.15271759 -20236562.636489868 0 -20236562.636489868 44521439.35369873 0 0 0 0 77863700.219661713 68124141.591407776 0 68124141.591407776 -54819327.755279541 0 0 0 0 79705938.64825058 32935764.640403748 0 32935764.640403748 -111917160.19526291 0 0 0 0 84097090.111812592 118812846.20235443 0 118812846.20235443 -27875027.201156616 0 0 0 0 -57882178.054543495 170218270.91916847 0 170218270.91916847 -3004269.8410644531 0 0 0 0 -70644245.504391432 63597633.420952797 0 63597633.420952797 5521754.580657959 0 0 0 0 85967785.060035706 19340585.379364014 0 19340585.379364014 36777832.165626526 0 0 0 0 110730341.81708527 88832733.642616272 0 88832733.642616272 -44148404.898452759 0 0 0 0 -27046813.438835144 68096101.561065674 0 68096101.561065674 -30977726.764144897 0 0 0 0 -102398115.70116806 26644188.878921509 0 26644188.878921509 -16081941.322570801 0 0 0 0 -3751526.4484616239 12812019.95645592 0 12812019.95645592 6784455.3742678761 0 0 0 0 5752698.5814437317 10978670.732988939 0 10978670.732988939 -10205919.187483355 0 0 0 0 -38143831.091770172 15700203.446090698 0 15700203.446090698 -53480687.161743164 0 0 0 0 1193280.7374895979 30341513.20778713 0 30341513.20778713 -4420644.8178765923 0 0 0 0 -3903195.2105941772 19542746.945915222 0 19542746.945915222 4322987.8306274414 0 0 0 0 1074726.216052901 23821104.668980997 0 23821104.668980997 4950191.6077599078 0 0 0 0 20604089.207384109 -10822366.043060303 0 -10822366.043060303 42976612.070022583 0 0 0 0 -6572647.1999817044 11100298.760036647 0 11100298.760036647 35278395.958538316 0 0 0 0 -104782137.59049606 125616493.32502747 0 125616493.32502747 -40991926.692474365 0 0 0 0 -33494127.877738953 73062859.441604614 0 73062859.441604614 -79111446.261451721 0 0 0 0 -19699115.029632568 -2499087.8485488892 0 -2499087.8485488892 48920427.21472168 0 0 0 0 -858445.8086104244 -297615.56240916252 0 -297615.56240916252 9423467.2369438931 0 0 0 0 -324228211.82091904 45326944.325325012 0 45326944.325325012 53747957.390892982 0 0 0 0 -58775724.956119537 58665756.629264832 0 58665756.629264832 54245638.288696289 0 0 0 0 9705090.2082710266 55142727.254917145 0 55142727.254917145 -20880375.978027344 0 0 0 0 3904937.5561485291 -4404269.9464569092 0 -4404269.9464569092 1857941.1772994995 0 0 0 0 75165828.88640213 189570676.67349243 0 189570676.67349243 90892876.593261719 0 0 0 0 1224544.9074011808 2891845.4290457964 0 2891845.4290457964 -2498021.0482492149 0 0 0 0 145497433.20767784 132539879.17368317 0 132539879.17368317 36795677.206054688 0 0 0 0 -91049259.784973145 -27836145.800476074 0 -27836145.800476074 -1068012.7840118408 0 0 0 0 30809245.073051453 -9327504.2124633789 0 -9327504.2124633789 -52380894.262176514 0 0 0 0 15692032.773262024 467787.14517211914 0 467787.14517211914 -43526027.263824463 0 0 0 0 20178571.712429047 -14335474.355827332 0 -14335474.355827332 -79620465.052192688 0 0 0 0 5325337.1594467163 26403405.740301132 0 26403405.740301132 14854243.927154541 0 0 0 0 -53490256.496032715 7905309.0860671997 0 7905309.0860671997 -41339291.902679443 0 0 0 0 144090787.6946106 90819986.192276001 0 90819986.192276001 14974275.575675488 0 0 0 0 -111308055.1665802 4482763.3843231201 0 4482763.3843231201 13528656.174239635 0 0 0 0 62857282.778533936 178805911.21951294 0 178805911.21951294 65830944.312232971 0 0 0 0 44664414.075992584 160132399.59739685 0 160132399.59739685 50089556.962188721 0 0 0 0 302563425.22071075 158162014.60780334 0 158162014.60780334 42418707.057403564 0 0 0 0 180904017.99044418 57578217.077224731 0 57578217.077224731 135266434.64518738 0 0 0 0 222664643.15452194 153748416.69108582 0 153748416.69108582 67893610.498168945 0 0 0 0 376768446.01644897 -67195762.335189819 0 -67195762.335189819 245701403.07444763 0 0 0 0 403329540.02726746 9864467.6202697754 0 9864467.6202697754 -240173191.11199951 0 0 0 0 564587353.10032654 200755097.79212952 0 200755097.79212952 -67701565.218170166 0 0 0 0 500843853.16564941 463789716.7956543 0 463789716.7956543 -939777521.44733429 0 0 0 0 313017243.13116455 575150060.7535553 0 575150060.7535553 -242437621.14038086 0 0 0 0 193129612.23626709 488812478.08216858 0 488812478.08216858 190431345.14962769 0 0 0 0 191333281.91016388 382184982.43721008 0 382184982.43721008 22362642.100494385 0 0 0 0 291570951.57234955 319963473.2678833 0 319963473.2678833 -119324040.80072021 0 0 0 0 316485326.64417744 636410745.724051 0 636410745.724051 166047735.35461426 0 0 0 0 -161126356.23086929 -62326055.937347412 0 -62326055.937347412 -62939002.938079834 0 0 0 0 604403.79635723867 -1528062.1375727206 0 -1528062.1375727206 1586063.6123937964 0 0 0 0 -161188747.54444122 34685681.164001465 0 34685681.164001465 64683159.580352783 0 0 0 0 -118258121.32704926 44922752.301574707 0 44922752.301574707 39746092.764373779 0 0 0 0 -173553847.37435913 32995014.614074707 0 32995014.614074707 65496839.334899902 0 0 0 0 -240192962.11715698 -54410307.857162476 0 -54410307.857162476 61316471.586181641 0 0 0 0 -156470535.62651062 -37903977.908874512 0 -37903977.908874512 10576871.953929245 0 0 0 0 -261013195.91844368 26437042.311836243 0 26437042.311836243 119494105.17871094 0 0 0 0 -194424682.38412476 75064414.970214844 0 75064414.970214844 143504439.68621826 0 0 0 0 -290651299.72167778 -489706922.19330597 0 -489706922.19330597 -874203359.015625 0 0 0 0 -253861957.59809875 47745339.85736084 0 47745339.85736084 149399573.24511719 0 0 0 0 -438182808.97145844 52520601.391998291 0 52520601.391998291 278758558.5847168 0 0 0 0 98070648.03314209 561238333.1645813 0 561238333.1645813 647330839.168396 0 0 0 0 -101725817.65901184 273350930.11398315 0 273350930.11398315 905785763.23474121 0 0 0 0 157217817.01516342 296355588.78632355 0 296355588.78632355 149992012.71749878 0 0 0 0 25215515.006690979 172999819.27912903 0 172999819.27912903 79138295.695327759 0 0 0 0 16206650.835655212 302478407.46624756 0 302478407.46624756 465135218.58285522 0 0 0 0 121135188.27778625 456382332.45951843 0 456382332.45951843 177277691.08474731 0 0 0 0 -13345308.543422699 221965139.99430084 0 221965139.99430084 342114984.59835815 0 0 0 0 65924477.444450378 26046280.986750126 0 26046280.986750126 148411642.06654263 0 0 0 0 2519975.358921105 40020445.797479346 0 40020445.797479346 -6721368.6630581319 0 0 0 0 85131993.752290726 -98789386.289600372 0 -98789386.289600372 -135172388.31092834 0 0 0 0 -118846216.38843536 -177961766.93565369 0 -177961766.93565369 405555176.89657593 0 0 0 0 -11856997.346185684 81259276.946064949 0 81259276.946064949 190173528.91807318 0 0 0 0 176884104.52181435 157417102.91073799 0 157417102.91073799 -103990961.75247955 0 0 0 0 -149787037.37064362 -66554769.454223633 0 -66554769.454223633 673891076.7532959 0 0 0 0 -46654555.241184235 63856255.116404057 0 63856255.116404057 182398444.301651 0 0 0 0 -19177058.861787796 84093569.559946179 0 84093569.559946179 194512196.79628372 0 0 0 0 -27333941.763200045 40743232.648469925 0 40743232.648469925 220608495.98744774 0 0 0 0 42724202.667449951 120451435.25996494 0 120451435.25996494 136517132.92407131 0 0 0 0 -95965010.454124451 60684975.435377121 0 60684975.435377121 322348093.14576387 0 0 0 0 -221815621.72419739 38374442.493890762 0 38374442.493890762 50235588.984545708 0 0 0 0 -9603453.0492186286 18376.904563557357 0 18376.904563557357 39914932.250268839 0 0 0 0 -62718922.781677246 89720254.890879631 0 89720254.890879631 133244556.07932854 0 0 0 0 -106612110.80545807 -25076021.785301685 0 -25076021.785301685 73121315.332557678 0 0 0 0 -89993960.943668365 69692698.276350737 0 69692698.276350737 134838721.46256447 0 0 0 0 -53092295.963439941 64840784.241208792 0 64840784.241208792 116989399.15700483 0 0 0 0 -18743097.481321335 68545286.032499552 0 68545286.032499552 113801054.64369965 0 0 0 0 -3279684.0398941655 38168885.909199938 0 38168885.909199938 2589216.2085926775 0 0 0 0 98676541.666507721 488880807.0549736 0 488880807.0549736 437115302.17193604 0 0 0 0 223428716.55950165 392840290.94360352 0 392840290.94360352 124799883.87012529 0 0 0 0 628837934.05722046 334623356.35816002 0 334623356.35816002 -3705030.7614135742 0 0 0 0 281692306.16387939 508213584.81258392 0 508213584.81258392 352613566.72380066 0 0 0 0 262889933.53408051 508764203.42883682 0 508764203.42883682 352645171.91639543 0 0 0 0 781217914.70835495 1137939590.5628891 0 1137939590.5628891 1115308688.3162308 0 0 0 0 -111067179.05927658 272094934.1795578 0 272094934.1795578 410000673.28437996 0 0 0 0 60977326.86648941 599828716.48725891 0 599828716.48725891 1018581882.232872 0 0 0 0 -213712760.52897263 -185935872.95907974 0 -185935872.95907974 943595284.3379364 0 0 0 0 -154874039.11001396 -109466488.39831734 0 -109466488.39831734 354462767.89400482 0 0 0 0 161875538.11149216 189057332.55913544 0 189057332.55913544 586907176.95600605 0 0 0 0 -731387604.61722183 -229064861.40816116 0 -229064861.40816116 743100415.01680756 0 0 0 0 542873824.83093262 -502832647.61475754 0 -502832647.61475754 1838829129.9466476 0 0 0 0 72656634.345973969 537457417.70836449 0 537457417.70836449 2640786237.9297523 0 0 0 0 4022234.8194736503 -603127.43946064636 0 -603127.43946064636 -1490175.3044231301 0 0 0 0 1240544542.3122683 1067076231.5197163 0 1067076231.5197163 382056773.04604721 0 0 0 0 102098827.17160606 400108585.09300756 0 400108585.09300756 869413425.22502136 0 0 0 0 -43793500.629577637 130752210.86709213 0 130752210.86709213 82549965.881912231 0 0 0 0 438846235.42318726 -219589183.92741394 0 -219589183.92741394 -177357650.52107906 0 0 0 0 1204616930.9385395 365571051.67947674 0 365571051.67947674 -9681784.6361236572 0 0 0 0 305656322.26948547 8111237.512878418 0 8111237.512878418 -42070166.001681328 0 0 0 0 57502204.748634338 -49096772.55039978 0 -49096772.55039978 79006941.030067444 0 0 0 0 267086285.9548912 44329013.327514648 0 44329013.327514648 7032685.035774231 0 0 0 0 -8172976.6322479248 43401150.081645966 0 43401150.081645966 -7486738.9935455322 0 0 0 0 -27063559.371292114 36901933.34563446 0 36901933.34563446 50583955.047651291 0 0 0 0 7345995.6352081299 -15045536.300788879 0 -15045536.300788879 63630909.056367874 0 0 0 0 -11696298.618492126 26057373.791320801 0 26057373.791320801 20678347.038467407 0 0 0 0 -12447592.379272461 19200705.67162323 0 19200705.67162323 12552898.673225403 0 0 0 0 61968248.828399658 14263936.566871643 0 14263936.566871643 -23342853.419692993 0 0 0 0 520489.93543029949 8010009.4508133307 0 8010009.4508133307 -5482188.6869742982 0 0 0 0 -13462958.606079102 46920517.412897587 0 46920517.412897587 -8267321.8232192993 0 0 0 0 15689764.493951473 6293429.612772204 0 6293429.612772204 -9359947.0586152356 0 0 0 0 -21624033.127204895 55103942.565716743 0 55103942.565716743 -10093362.888870239 0 0 0 0 26549972.574752808 31590304.411857605 0 31590304.411857605 -64023928.362565994 0 0 0 0 36177566.939193726 104535770.79462051 0 104535770.79462051 -206963744.38120842 0 0 0 0 -34678406.485750198 30668361.474054337 0 30668361.474054337 -11060988.303291321 0 0 0 0 10746718.238007456 978831.50213366747 0 978831.50213366747 -4708923.8472674675 0 0 0 0 -90233437.577125549 230311301.20466995 0 230311301.20466995 1284359952.0655708 0 0 0 0 -3936875.0891075134 460279480.51343203 0 460279480.51343203 670635399.51747131 0 0 0 0 29339150.022621155 323749396.20650482 0 323749396.20650482 810325923.30745316 0 0 0 0 -84276200.956298828 377427527.02617264 0 377427527.02617264 807937902.77767944 0 0 0 0 -25457056.161682129 381453346.29546738 0 381453346.29546738 644054451.61302948 0 0 0 0 -53974472.117141724 403602422.49772644 0 403602422.49772644 663808889.67735291 0 0 0 0 97559122.121231079 194229274.69319153 0 194229274.69319153 311000832.34057617 0 0 0 0 -24840501.669448853 135316659.27803612 0 135316659.27803612 721261905.31414032 0 0 0 0 60555434.866409302 338349071.53363419 0 338349071.53363419 623199414.85558319 0 0 0 0 85734294.558853149 202141257.5314846 0 202141257.5314846 307167247.75096893 0 0 0 0 -82498973.153404236 -32180477.424304962 0 -32180477.424304962 180211569.92498398 0 0 0 0 687626.40758132935 20954502.411239624 0 20954502.411239624 -30504923.974334717 0 0 0 0 6147111.8239556514 17158635.390899926 0 17158635.390899926 -15670889.752608877 0 0 0 0 335687918.86641693 478242853.97933578 0 478242853.97933578 644818850.68252182 0 0 0 0 948446.84182313457 -73404.550283938646 0 -73404.550283938646 -1842696.8525533453 0 0 0 0 373039639.03733826 198822288.16255188 0 198822288.16255188 -161315867.8316803 0 0 0 0 179115383.39503479 436849420.95209885 0 436849420.95209885 586062921.72122955 0 0 0 0 507847080.66786957 674957246.1100769 0 674957246.1100769 436396598.76898956 0 0 0 0 363592924.18457794 460993960.538517 0 460993960.538517 567142824.29627228 0 0 0 0 -1635968.8434816655 2979381.7068054974 0 2979381.7068054974 2471880.9566376731 0 0 0 0 299591581.01177406 639649192.15343666 0 639649192.15343666 434088608.06587982 0 0 0 0 -74177984.991407394 583724222.76461601 0 583724222.76461601 578893001.79548645 0 0 0 0 276073847.82429504 31213658.129062653 0 31213658.129062653 -132762024.09448242 0 0 0 0 220335170.32385254 366309854.05088425 0 366309854.05088425 330218457.12650681 0 0 0 0 574080054.23730469 304596585.59029961 0 304596585.59029961 184860894.90142059 0 0 0 0 24175764.79863739 46663675.304988861 0 46663675.304988861 -16913036.821937561 0 0 0 0 -908859.7654876709 39500357.685958862 0 39500357.685958862 2899570.5418701172 0 0 0 0 -1671166.4074407034 13214379.984103683 0 13214379.984103683 12176845.728725318 0 0 0 0 -138040272.99851227 28157622.297540665 0 28157622.297540665 11233598.682395935 0 0 0 0 4399979.0341186523 41649469.81023407 0 41649469.81023407 -3107705.4966430664 0 0 0 0 -10678093.346420288 39620472.799880981 0 39620472.799880981 2981067.6734161377 0 0 0 0 -45063348.530410767 42091610.808319092 0 42091610.808319092 21281785.634338379 0 0 0 0 -10483044.036499023 57025505.614028931 0 57025505.614028931 9501541.7786407471 0 0 0 0 9419120.634185791 66496366.150131226 0 66496366.150131226 11642095.625015259 0 0 0 0 10098364.760009766 48178083.630737305 0 48178083.630737305 -5872299.3403015137 0 0 0 0 -237663.48358100653 901524.5288898088 0 901524.5288898088 -1536086.5548929172 0 0 0 0 3519521.3661193848 40962503.916503906 0 40962503.916503906 50164688.354988098 0 0 0 0 6839009.6458511353 29364891.742168427 0 29364891.742168427 11238933.406799316 0 0 0 0 4707960.0926437378 39865610.72190094 0 39865610.72190094 -32820891.025878906 0 0 0 0 -3265787.831965223 24966629.759466346 0 24966629.759466346 -9840168.4663223922 0 0 0 0 -7450421.4592132568 55616293.375167847 0 55616293.375167847 28872944.284942627 0 0 0 0 1658616.9261715747 -177957.38367660716 0 -177957.38367660716 -1782287.493403852 0 0 0 0 27996138.563934326 62662146.865493774 0 62662146.865493774 -1777149.9571838379 0 0 0 0 28083328.54510498 60942813.220291138 0 60942813.220291138 11838148.676361084 0 0 0 0 30278768.303924561 47621705.921646118 0 47621705.921646118 -30996968.976593018 0 0 0 0 29418776.982391357 65420417.334487915 0 65420417.334487915 4726709.352355957 0 0 0 0 31854108.702392578 83301346.917434692 0 83301346.917434692 -21395339.196594238 0 0 0 0 11840718.27040863 61190227.832771301 0 61190227.832771301 1907084.1150512695 0 0 0 0 26687512.01449585 72904126.229492188 0 72904126.229492188 10704316.911621094 0 0 0 0 25905865.20860672 81989939.138122559 0 81989939.138122559 35049975.523468018 0 0 0 0 85803389.263922215 85650916.15058279 0 85650916.15058279 18635415.367340088 0 0 0 0 -11267211.533927966 16846551.857244633 0 16846551.857244633 -2034884.3515347391 0 0 0 0 3199860.2508850098 67532498.82522583 0 67532498.82522583 26943102.819442749 0 0 0 0 37232662.160751343 75340738.090164185 0 75340738.090164185 16853458.912109375 0 0 0 0 41821841.375198364 62675896.966567993 0 62675896.966567993 22241968.290473938 0 0 0 0 87391680.593727112 63344217.815841675 0 63344217.815841675 5834299.3612365723 0 0 0 0 54890544.057434082 39293395.505828857 0 39293395.505828857 15085168.972015381 0 0 0 0 55106053.341934204 79709029.881713867 0 79709029.881713867 29776401.941619873 0 0 0 0 69205996.573413849 92576109.091884613 0 92576109.091884613 27249601.679595947 0 0 0 0 61665478.161254883 76617209.824760437 0 76617209.824760437 30385082.967132568 0 0 0 0 69874051.68850708 88836513.817962646 0 88836513.817962646 48162754.936706543 0 0 0 0 -15123760.386291504 80419508.108779907 0 80419508.108779907 78330857.197741568 0 0 0 0 24946850.183547974 69927715.401695251 0 69927715.401695251 38015684.80279541 0 0 0 0 33550746.0311203 88588076.942108154 0 88588076.942108154 61794776.860900879 0 0 0 0 -43439144.302124023 49111203.757766724 0 49111203.757766724 42635324.240188599 0 0 0 0 -15569207.158222198 69254356.187132359 0 69254356.187132359 51712568.023193359 0 0 0 0 -38687353.186302185 42547604.43006897 0 42547604.43006897 7092271.12940979 0 0 0 0 1195637.3731689453 59698198.701766968 0 59698198.701766968 16484166.992050171 0 0 0 0 -7742689.2650527954 67246582.386268616 0 67246582.386268616 26914886.554031372 0 0 0 0 -39921410.282226562 36260885.526229858 0 36260885.526229858 69290379.708679199 0 0 0 0 -102613675.22813416 9709051.8931732178 0 9709051.8931732178 95991679.715042114 0 0 0 0 -82597147.102890015 -4988673.3527984619 0 -4988673.3527984619 36176250.758117676 0 0 0 0 -79816328.566551417 -3280735.021157831 0 -3280735.021157831 21588994.483947754 0 0 0 0 -97779371.13269043 -2947503.0808105469 0 -2947503.0808105469 67828722.587234497 0 0 0 0 -68535667.914916992 23044015.198684692 0 23044015.198684692 50253321.153312683 0 0 0 0 -100412321.41706085 6127948.7357063293 0 6127948.7357063293 50116817.5105896 0 0 0 0 -75317551.95280838 34658828.126419067 0 34658828.126419067 87733105.173950195 0 0 0 0 -24825556.764480591 40781664.866958618 0 40781664.866958618 48941795.694869995 0 0 0 0 -27086441.386474609 50408637.710708618 0 50408637.710708618 78343133.30384618 0 0 0 0 738752.80053710938 67308109.484725952 0 67308109.484725952 82383400.996643066 0 0 0 0 771998.42016601562 64697234.351043701 0 64697234.351043701 176054617.0947113 0 0 0 0 75493655.226764679 107737668.28929901 0 107737668.28929901 11322669.233795166 0 0 0 0 60557451.690490723 121135072.31056213 0 121135072.31056213 80558456.533256531 0 0 0 0 74749279.480026245 109169389.31878662 0 109169389.31878662 31795882.974945068 0 0 0 0 41021399.366699219 41190865.583030701 0 41190865.583030701 61980416.133544922 0 0 0 0 59420027.070861816 1923123.1141815186 0 1923123.1141815186 98190283.541351318 0 0 0 0 -40739881.676757812 33402776.937393188 0 33402776.937393188 118524477.56407166 0 0 0 0 -17616216.2134552 101999323.30370331 0 101999323.30370331 107274953.07913208 0 0 0 0 -26929069.49230957 58162389.150375366 0 58162389.150375366 76182564.99697876 0 0 0 0 129109771.69995117 81442910.29434967 0 81442910.29434967 25288044.026092529 0 0 0 0 -153773609.4524765 -8121235.3573760986 0 -8121235.3573760986 75178886.534301758 0 0 0 0 -396409154.62397003 -268373457.51095581 0 -268373457.51095581 -44281689.12890625 0 0 0 0 -115359078.47343445 -80457718.808425903 0 -80457718.808425903 -17493150.181945801 0 0 0 0 -101757707.86437225 -29461797.309249878 0 -29461797.309249878 55046772.767272949 0 0 0 0 -75512602.629318237 -27522411.510955811 0 -27522411.510955811 -48014692.205200195 0 0 0 0 127417.48075695708 3893458.1268248558 0 3893458.1268248558 3037011.0057655461 0 0 0 0 18413216.197036516 9396433.7868395485 0 9396433.7868395485 24232322.227539062 0 0 0 0 -82657370.518798828 -83943458.995178223 0 -83943458.995178223 -57663843.639129639 0 0 0 0 1844500.319853723 1952975.3242296353 0 1952975.3242296353 2484414.0997889414 0 0 0 0 71717323.637832642 -74089709.997924805 0 -74089709.997924805 161151038.48135376 0 0 0 0 910423.15753936768 46726152.723480225 0 46726152.723480225 28048343.544949532 0 0 0 0 100272792.13996165 -79937825.364002019 0 -79937825.364002019 103795316.14801025 0 0 0 0 75803125.001091003 -138584331.17730713 0 -138584331.17730713 144083288.25198364 0 0 0 0 108568972.81515503 -98108481.000160217 0 -98108481.000160217 24646871.217498779 0 0 0 0 96293631.881484985 -222617373.68814087 0 -222617373.68814087 -35920405.756298065 0 0 0 0 -43788655.682548523 -409965060.18736267 0 -409965060.18736267 -805860709.57995605 0 0 0 0 -44188831.279594421 -163221704.20103455 0 -163221704.20103455 170822134.87270355 0 0 0 0 156026236.40244293 -70672374.384605408 0 -70672374.384605408 111952254.83444595 0 0 0 0 -697984942.50893402 -114164288.62425232 0 -114164288.62425232 -134072275.53785706 0 0 0 0 -643112.3591834195 745445.96985962242 0 745445.96985962242 1580533.3427502811 0 0 0 0 48577668.70022583 79412357.465919495 0 79412357.465919495 -198152584.65222168 0 0 0 0 -180217363.62137222 381587206.33764839 0 381587206.33764839 3023427.4320678711 0 0 0 0 870778013.99742126 636243727.30861664 0 636243727.30861664 21504714.139984131 0 0 0 0 -8253583.3446960449 -140868769.95613098 0 -140868769.95613098 -378681655.12573242 0 0 0 0 -284889046.60142517 -599502844.71464539 0 -599502844.71464539 -112988056.69887495 0 0 0 0 -3763080.3885050938 2800151.0902273171 0 2800151.0902273171 5590749.3188861609 0 0 0 0 169281899.8554039 557425484.61545753 0 557425484.61545753 731971743.55172729 0 0 0 0 -1031230633.1109734 -540564016.17150116 0 -540564016.17150116 1350454148.7348938 0 0 0 0 -744875.43808741868 -215961.96489913389 0 -215961.96489913389 1852017.6301129535 0 0 0 0 -397079651.42931175 265800494.88457108 0 265800494.88457108 992981932.70874023 0 0 0 0 -807284182.77320099 -511537960.90153503 0 -511537960.90153503 757458914.23187256 0 0 0 0 329423993.41379595 1217974347.6518135 0 1217974347.6518135 -250868.92984008789 0 0 0 0 -1358901935.328804 629509866.08674622 0 629509866.08674622 102767906.54252625 0 0 0 0 199069144.90429783 593478972.34861565 0 593478972.34861565 1143315927.5176086 0 0 0 0 828587023.77600861 105049412.63014221 0 105049412.63014221 178294250.27469635 0 0 0 0 -7713690.0653365068 11496613.549740264 0 11496613.549740264 -10140633.108892933 0 0 0 0 17275531.141571045 -111281711.00970459 0 -111281711.00970459 371516337.52709198 0 0 0 0 81670424.263422012 107122340.35823774 0 107122340.35823774 19417419.121047974 0 0 0 0 30129183.594305992 333885677.32621765 0 333885677.32621765 359710768.287323 0 0 0 0 381604619.63913727 -12056903.560462952 0 -12056903.560462952 138659364.84272766 0 0 0 0 1667275.8078753725 18098.847969960421 0 18098.847969960421 -952453.04294201732 0 0 0 0 71179411.728057861 -12222398.706604004 0 -12222398.706604004 -60888155.261993408 0 0 0 0 58944003.238167763 67639339.203222275 0 67639339.203222275 11528254.666748047 0 0 0 0 -11744259.999658965 15933681.25819532 0 15933681.25819532 -4276685.4289647117 0 0 0 0 -9297596.9981689453 -18423847.559989929 0 -18423847.559989929 26044617.08605957 0 0 0 0 -5599072.4438050464 5316912.877509214 0 5316912.877509214 1092242.7564128637 0 0 0 0 50111694.960998535 -20271763.190151215 0 -20271763.190151215 -59748562.359222412 0 0 0 0 -14769571.743086815 16157391.860452652 0 16157391.860452652 30948494.941497803 0 0 0 0 75685156.293863177 39529322.831623554 0 39529322.831623554 26895898.220901489 0 0 0 0 45234435.161712646 42421393.146385193 0 42421393.146385193 8049326.8090667725 0 0 0 0 97884686.571960449 24540646.060180664 0 24540646.060180664 12639635.728416443 0 0 0 0 77566121.579078674 -5643291.3849945068 0 -5643291.3849945068 25090677.350357056 0 0 0 0 203678389.53013992 93642296.975719452 0 93642296.975719452 -26777713.906509399 0 0 0 0 -31750744.207866669 132901942.41373825 0 132901942.41373825 48463550.565597534 0 0 0 0 42541401.742950439 119635769.73868179 0 119635769.73868179 -20599163.266460419 0 0 0 0 51625731.631616592 -117760467.19820738 0 -117760467.19820738 -76346633.019012451 0 0 0 0 14954591.530097961 15918061.867637634 0 15918061.867637634 -1420756.6342487335 0 0 0 0 -6031635.6527729481 3055556.5820923764 0 3055556.5820923764 3059087.5464461446 0 0 0 0 -85525859.761161804 88675923.138145447 0 88675923.138145447 108231036.05232239 0 0 0 0 -6763160.5935995039 8276484.9900818914 0 8276484.9900818914 -6636909.8404429853 0 0 0 0 241014860.56879425 319809243.16619873 0 319809243.16619873 -78839192.149162292 0 0 0 0 -1046739818.5162964 371614291.79733276 0 371614291.79733276 193577982.46392059 0 0 0 0 186233605.00738382 -2415337.8126173019 0 -2415337.8126173019 -416986417.4262085 0 0 0 0 -693349798.94870377 228310253.22409058 0 228310253.22409058 36321771.425216675 0 0 0 0 -3243307.584735509 1045969.6864641421 0 1045969.6864641421 2182030.8420404941 0 0 0 0 -133084615.19321537 -240805101.88460588 0 -240805101.88460588 -257032914.12164307 0 0 0 0 3979224.6802654266 521322131.89682388 0 521322131.89682388 -206340139.11798096 0 0 0 0 -1055575307.8650513 478723613.58407593 0 478723613.58407593 -273739352.97466278 0 0 0 0 -100690842.70191193 679483218.65939331 0 679483218.65939331 -408760399.79431152 0 0 0 0 480067475.53892899 713436371.35420227 0 713436371.35420227 -473243736.07461548 0 0 0 0 171428221.41973877 540932569.85113525 0 540932569.85113525 -220810445.03512001 0 0 0 0 212645458.37355804 431057316.93763733 0 431057316.93763733 -186207754.01599932 0 0 0 0 265441834.81561661 438612090.54300308 0 438612090.54300308 -186734307.54607391 0 0 0 0 209190886.6241684 309031729.64425659 0 309031729.64425659 -19290987.633102417 0 0 0 0 -204788692.24786758 408491168.20137978 0 408491168.20137978 -42717700.807022095 0 0 0 0 262028677.61334229 224679164.84573364 0 224679164.84573364 -35158472.206996918 0 0 0 0 82165796.686489105 250972282.21198273 0 250972282.21198273 -12910539.73399353 0 0 0 0 180300345.50892639 417651615.65988922 0 417651615.65988922 126941808.51297522 0 0 0 0 325915468.97100735 417559032.90111256 0 417559032.90111256 -37936314.196960449 0 0 0 0 185549044.14130402 434728488.42205048 0 434728488.42205048 -25728077.035987854 0 0 0 0 119840701.40420151 398010070.88509369 0 398010070.88509369 -38072718.310836792 0 0 0 0 1209659072.0552864 -492937590.24654388 0 -492937590.24654388 -122645300.6803894 0 0 0 0 726113404.60433197 -453000605.20558929 0 -453000605.20558929 100947659.84794617 0 0 0 0 192812572.32649231 42025005.773178101 0 42025005.773178101 -264785089.02307129 0 0 0 0 871716302.35678864 190584225.51381683 0 190584225.51381683 -293129045.60713196 0 0 0 0 323371297.04014969 301935497.49700165 0 301935497.49700165 -41379357.755371094 0 0 0 0 6497484.8044753149 1798584.2192306593 0 1798584.2192306593 -3091568.1176139675 0 0 0 0 91500011.391968966 550395351.91521263 0 550395351.91521263 -676095523.2305603 0 0 0 0 1477252904.1741619 -230298035.19298172 0 -230298035.19298172 -640570089.02073669 0 0 0 0 -13594688.029975891 -384792414.91161346 0 -384792414.91161346 196263345.45223999 0 0 0 0 511611870.20620728 -303311442.89305878 0 -303311442.89305878 718115213.39215851 0 0 0 0 3037859.2864779979 -587204.64284306765 0 -587204.64284306765 -1758535.5458937399 0 0 0 0 485940683.53226089 262053830.2261734 0 262053830.2261734 -142633935.05263901 0 0 0 0 1399768532.8073752 260651915.34777045 0 260651915.34777045 -493835472.68351746 0 0 0 0 302666823.89849472 849895991.23763847 0 849895991.23763847 -728292165.07870483 0 0 0 0 -697998980.21878815 1260925198.148407 0 1260925198.148407 -859514367.01821136 0 0 0 0 712463729.21501541 -190652240.54200172 0 -190652240.54200172 -1527790118.5933228 0 0 0 0 -428272928.25077057 1205620829.5097504 0 1205620829.5097504 -432795739.59013367 0 0 0 0 -1373122114.2441826 -901617495.14014053 0 -901617495.14014053 1284087276.4700241 0 0 0 0 -2978713.4570228644 3243910.560337143 0 3243910.560337143 -2507944.476549305 0 0 0 0 -1758545036.9177551 700404284.31449127 0 700404284.31449127 81436540.765285492 0 0 0 0 411993999.16358948 221644926.91103363 0 221644926.91103363 253007614.40831375 0 0 0 0 827548524.42715454 -74403244.936798096 0 -74403244.936798096 -1799458125.603302 0 0 0 0 554395434.3516407 85210963.392921448 0 85210963.392921448 -207068700.72587585 0 0 0 0 552171116.51605988 438050974.14903259 0 438050974.14903259 -1948766786.4575062 0 0 0 0 9581005.6302468814 6939477.2685295045 0 6939477.2685295045 -4423668.9465106502 0 0 0 0 -139523493.001297 241409558.31166077 0 241409558.31166077 909250852.53678894 0 0 0 0 -282854136.06697083 386498938.56983948 0 386498938.56983948 -55907056.765838623 0 0 0 0 333433843.08331299 330127246.69274902 0 330127246.69274902 -92489262.805034637 0 0 0 0 972742.59284142777 8475532.9411097076 0 8475532.9411097076 -5713352.2482966185 0 0 0 0 -309639389.55137634 303088657.59182835 0 303088657.59182835 -179658801.75959778 0 0 0 0 -648923924.34376526 216905104.08987427 0 216905104.08987427 -8042329.2271347046 0 0 0 0 357888836.50980377 847256686.16353989 0 847256686.16353989 116512949.5173645 0 0 0 0 6005633.7186971307 5568125.2828787714 0 5568125.2828787714 -3432192.0936245993 0 0 0 0 -176123059.36289978 -15339617.0362854 0 -15339617.0362854 878199371.2648468 0 0 0 0 -154905038.69245911 35564949.67666626 0 35564949.67666626 2116776389.4993362 0 0 0 0 2177070.7502895109 1398584.5747008398 0 1398584.5747008398 -1182827.7680214308 0 0 0 0 -252900020.77669907 339287001.0855484 0 339287001.0855484 -290948705.27545166 0 0 0 0 -184105154.4663353 98878853.638504028 0 98878853.638504028 -82116559.794059753 0 0 0 0 288837823.19489861 423281504.28695679 0 423281504.28695679 -222131663.72642517 0 0 0 0 1521544.0844692495 8277440.1170138018 0 8277440.1170138018 -8339929.3435317278 0 0 0 0 -254134563.17604828 217795380.51242828 0 217795380.51242828 -174847013.14572906 0 0 0 0 379119247.66037369 -520830453.90308762 0 -520830453.90308762 -1715379650.6344147 0 0 0 0 202689.70888530649 2849248.2369695604 0 2849248.2369695604 -3161751.0613509044 0 0 0 0 200643311.92598534 1029526666.5448303 0 1029526666.5448303 -2248691629.0706635 0 0 0 0 -896910674.65815067 -1070778539.9517479 0 -1070778539.9517479 -587789253.5239563 0 0 0 0 61505530.003189087 82509323.52141571 0 82509323.52141571 -2551981897.0705109 0 0 0 0 -1743487940.5638428 1128158035.0933838 0 1128158035.0933838 -674952822.13148499 0 0 0 0 -683182290.72917175 669793631.42537308 0 669793631.42537308 -315701724.18869019 0 0 0 0 -398839135.41923141 225768702.45069122 0 225768702.45069122 -101797736.41677856 0 0 0 0 -163560450.16540527 707359443.14722443 0 707359443.14722443 -771034915.47229767 0 0 0 0 154151184.54096222 11268539.996879578 0 11268539.996879578 -717501301.1708746 0 0 0 0 22376264.546031952 120523914.6911869 0 120523914.6911869 -735332100.69049072 0 0 0 0 125797943.41226959 112991546.27732468 0 112991546.27732468 -284699480.87701416 0 0 0 0 342582879.32757568 -33807006.830879211 0 -33807006.830879211 -301487103.07653809 0 0 0 0 -40146702.889486313 390004576.29926872 0 390004576.29926872 -97906255.856033325 0 0 0 0 -434951860.51546478 636270145.50970459 0 636270145.50970459 -248502782.23097992 0 0 0 0 -286022118.56206322 733286910.24611092 0 733286910.24611092 -187550352.63417053 0 0 0 0 -66556005.647590637 442654779.95124817 0 442654779.95124817 -233622288.26119995 0 0 0 0 143258877.81559467 851310189.30872202 0 851310189.30872202 -182550625.48577881 0 0 0 0 56099288.849906921 412024550.19107819 0 412024550.19107819 -422388397.94612885 0 0 0 0 -1931896302.116497 496827273.55685425 0 496827273.55685425 968410952.39962006 0 0 0 0 -179398422.00038338 -180306155.88832092 0 -180306155.88832092 -148997849.93515015 0 0 0 0 356878735.30849457 1046216880.4068966 0 1046216880.4068966 304602261.26394653 0 0 0 0 177059862.67514801 373464035.18962097 0 373464035.18962097 -335447622.12915039 0 0 0 0 -674885002.74127483 410474556.86463547 0 410474556.86463547 -224341286.49516296 0 0 0 0 -2474101489.5055122 -41577653.341018677 0 -41577653.341018677 163879520.03242493 0 0 0 0 -2418329130.5316162 12856011.110939026 0 12856011.110939026 -141941185.24753571 0 0 0 0 -682538391.39571571 452481547.92246437 0 452481547.92246437 -451429029.1698761 0 0 0 0 -2283259505.6067047 1137093904.7313232 0 1137093904.7313232 -1083527.5077362061 0 0 0 0 -3556983036.2192879 605474034.16530609 0 605474034.16530609 432162511.61619568 0 0 0 0 -470550837.40197468 1349173662.0812435 0 1349173662.0812435 1394884.8092498779 0 0 0 0 -933496427.35257721 299142703.8152771 0 299142703.8152771 -473899805.89897156 0 0 0 0 51942801.922271729 747167723.5605545 0 747167723.5605545 -548476475.76245308 0 0 0 0 636599358.00855255 -388620540.08716202 0 -388620540.08716202 163929517.5610199 0 0 0 0 -1007130.5287109651 2528435.6714398041 0 2528435.6714398041 1136992.1987461746 0 0 0 0 1132504999.8249168 324248332.60070801 0 324248332.60070801 -638709356.31369209 0 0 0 0 -4114236.8836898804 7028108.5270233154 0 7028108.5270233154 -6005.8371086680572 0 0 0 0 -852675.27555847168 4112504.6467056274 0 4112504.6467056274 -1418312.8518371582 0 0 0 0 165024650.09380341 36885111.843345642 0 36885111.843345642 -220000291.54838562 0 0 0 0 78467547.183692932 193873579.87132263 0 193873579.87132263 -133080288.90041733 0 0 0 0 38699044.289535522 172271884.37462616 0 172271884.37462616 46100683.229553223 0 0 0 0 312357095.9076004 454704695.87255096 0 454704695.87255096 -428993616.68832397 0 0 0 0 274110495.9752121 747517751.08625793 0 747517751.08625793 -253465016.5802002 0 0 0 0 133454297.31512833 289145443.96328545 0 289145443.96328545 58792370.070953369 0 0 0 0 -377844635.21634293 780412670.25401306 0 780412670.25401306 360840164.1758728 0 0 0 0 -819874664.87568092 125335090.24462128 0 125335090.24462128 49735689.647171021 0 0 0 0 789909.0736704208 789907.02682502195 0 789907.02682502195 -1184656.3449506611 0 0 0 0 1212544477.5839462 423286423.98745728 0 423286423.98745728 272121975.36693954 0 0 0 0 -379620258.97810364 314658026.07420349 0 314658026.07420349 -228967855.09277344 0 0 0 0 -409798275.91213799 429200409.26433372 0 429200409.26433372 175853689.68408203 0 0 0 0 87959298.700958252 250008447.54624939 0 250008447.54624939 -58141029.781494141 0 0 0 0 551244494.60090637 120847282.53752899 0 120847282.53752899 437460117.85552979 0 0 0 0 295762781.02854156 673997272.67250061 0 673997272.67250061 510656715.34918213 0 0 0 0 -876569171.93721008 -427834441.71989441 0 -427834441.71989441 -407330884.83546829 0 0 0 0 -775583130.00006104 313213978.31840515 0 313213978.31840515 675945228.70465088 0 0 0 0 -2161470289.5744858 476729527.045784 0 476729527.045784 1372255083.3802185 0 0 0 0 -667244308.15228271 -79701052.487197876 0 -79701052.487197876 291350523.58911133 0 0 0 0 -349079440.18345642 611443231.81417084 0 611443231.81417084 1073556881.4740601 0 0 0 0 423874250.83534241 -285124491.45962524 0 -285124491.45962524 583803675.14152527 0 0 0 0 -632001384.92634964 1227692769.0481033 0 1227692769.0481033 182412254.1340332 0 0 0 0 1430151991.2296486 689345976.9091568 0 689345976.9091568 203112687.26278687 0 0 0 0 -2391091916.7429886 -675141138.15926361 0 -675141138.15926361 838768903.48139954 0 0 0 0 1851037.5099610165 2879514.4032789394 0 2879514.4032789394 -2905232.3428654522 0 0 0 0 147578.41216900945 2560937.2811762858 0 2560937.2811762858 -1870842.1075552553 0 0 0 0 1086137285.5400314 753661851.96447754 0 753661851.96447754 246475570.05247498 0 0 0 0 -55611447.693443298 51261272.819568634 0 51261272.819568634 -20858501.345535278 0 0 0 0 113733783.83556557 -38692128.743864059 0 -38692128.743864059 11659291.172592163 0 0 0 0 883743.71933339164 4771068.5058833808 0 4771068.5058833808 1874728.6103143468 0 0 0 0 7017344.5627498627 8509648.6703910828 0 8509648.6703910828 -1912206.0565338135 0 0 0 0 4850209.5537109375 5973020.4657897949 0 5973020.4657897949 -1789283.6317596436 0 0 0 0 3944666.8954696655 7890774.4291534424 0 7890774.4291534424 3095.2948303222656 0 0 0 0 -474765132.027668 -994544224.39848995 0 -994544224.39848995 1157325918.1957092 0 0 0 0 5122646.9843503758 1249620.3463936131 0 1249620.3463936131 -1299462.7003684938 0 0 0 0 -413466508.4283905 -589374216.65929413 0 -589374216.65929413 377231904.14703369 0 0 0 0 -813670147.73983765 1007065564.000885 0 1007065564.000885 -623734808.14776611 0 0 0 0 2185252.4143886715 3537572.4892465323 0 3537572.4892465323 1440114.5840006843 0 0 0 0 -1002935160.2346649 -939055600.54934692 0 -939055600.54934692 145633981.39390373 0 0 0 0 -987674318.35443115 647472982.47328758 0 647472982.47328758 2059409926.3161316 0 0 0 0 4748817446.0142517 247448076.58605957 0 247448076.58605957 -1865229566.0580444 0 0 0 0 -240973340.6900177 318636250.12718964 0 318636250.12718964 412508492.71130371 0 0 0 0 2153757539.2224617 686182657.94365692 0 686182657.94365692 56706723.326644897 0 0 0 0 1031980706.0167847 329145487.9535675 0 329145487.9535675 -1803538.597989507 0 0 0 0 897374109.39357758 703738284.56016541 0 703738284.56016541 380176847.28900146 0 0 0 0 2202770.7018280029 98940292.038864136 0 98940292.038864136 253361589.16349792 0 0 0 0 162717761.02627563 168139184.31211853 0 168139184.31211853 134669858.37726593 0 0 0 0 392035919.64347839 785879350.26686096 0 785879350.26686096 651474835.99899292 0 0 0 0 -18882685.123703003 -48928137.448135376 0 -48928137.448135376 -88734652.569534302 0 0 0 0 55112916.889221191 77890281.093292236 0 77890281.093292236 -233099818.52471924 0 0 0 0 4679179398.8032379 -711450966.9095459 0 -711450966.9095459 -757333565.27349854 0 0 0 0 1946785.2974618487 3659011.8051490635 0 3659011.8051490635 3491302.0621093363 0 0 0 0 1721837.8118159547 1198306.5512077957 0 1198306.5512077957 199984.20062811673 0 0 0 0 397362298.73133087 -129400307.49592972 0 -129400307.49592972 1643320841.2666931 0 0 0 0 4180129795.5102234 842487417.77154541 0 842487417.77154541 -1658944524.3063507 0 0 0 0 1419579319.0293579 1084991206.5579224 0 1084991206.5579224 1311085692.8426895 0 0 0 0 2359545582.2839966 -299841770.00698853 0 -299841770.00698853 1628598697.5147095 0 0 0 0 2079805206.0011292 -1745773274.1057587 0 -1745773274.1057587 987397487.62106323 0 0 0 0 3406299581.5737915 1359522.5794296265 0 1359522.5794296265 48993024.520324707 0 0 0 0 1056211122.0027924 -42527529.792633057 0 -42527529.792633057 73154167.63980484 0 0 0 0 1299672084.8565216 137597035.75672913 0 137597035.75672913 -55497710.54586792 0 0 0 0 1669748169.7921753 -664031895.68296814 0 -664031895.68296814 3724259.3020019531 0 0 0 0 -46834292.131027222 140234884.42573547 0 140234884.42573547 -146270166.59741211 0 0 0 0 1332230394.0497284 -626653309.53375244 0 -626653309.53375244 297924964.40698242 0 0 0 0 4024254.4999449756 10690825.596572213 0 10690825.596572213 9718332.1616217196 0 0 0 0 -796107190.19402504 -572879669.18378735 0 -572879669.18378735 -181095824.68530273 0 0 0 0 -692278571.01592255 -479847565.54470825 0 -479847565.54470825 -296761059.30041504 0 0 0 0 453373.00319978688 -3127692.5661286209 0 -3127692.5661286209 6114881.6181129515 0 0 0 0 149111935.82268128 122068835.22593063 0 122068835.22593063 86299633.683135986 0 0 0 0 149173456.78538513 128290174.79081726 0 128290174.79081726 58769363.212219238 0 0 0 0 -678327168.62634277 -419264986.92321777 0 -419264986.92321777 -483972534.39434814 0 0 0 0 161094233.26585388 210671995.923172 0 210671995.923172 155323207.71386719 0 0 0 0 55601619.262069702 163984940.4485321 0 163984940.4485321 124936838.23443604 0 0 0 0 119171169.85998535 171439002.8241272 0 171439002.8241272 122806906.61652374 0 0 0 0 67025211.414096832 246402884.39953613 0 246402884.39953613 198828480.37615967 0 0 0 0 -14998326.755153656 196433456.00427246 0 196433456.00427246 172578387.42984009 0 0 0 0 -7067473.7417597771 256199440.44835663 0 256199440.44835663 189795137.74176025 0 0 0 0 -126321747.89196777 200820985.38589478 0 200820985.38589478 165844573.72106934 0 0 0 0 58591074.471992493 170811802.9077301 0 170811802.9077301 131853129.10583496 0 0 0 0 -27694378.86000061 157715933.91662598 0 157715933.91662598 135541710.2457962 0 0 0 0 -33250814.158565521 23450703.095542908 0 23450703.095542908 4335733.0991210938 0 0 0 0 -125640755.16572571 90759878.565002441 0 90759878.565002441 91740050.003112793 0 0 0 0 -213795086.67683411 5058273.1571655273 0 5058273.1571655273 86902709.515777588 0 0 0 0 -108255780.04514647 191192769.33970737 0 191192769.33970737 170498969.99923706 0 0 0 0 -258401741.98722839 103530596.41047668 0 103530596.41047668 132052847.27285004 0 0 0 0 -245742931.67176819 -113038915.12779808 0 -113038915.12779808 176572374.48571777 0 0 0 0 -474090691.11872101 -24203495.40802002 0 -24203495.40802002 388713150.33769226 0 0 0 0 -273253.06785268523 -4637974.677871692 0 -4637974.677871692 11350265.623022206 0 0 0 0 70915277.405700684 62062687.938766479 0 62062687.938766479 15260559.474060059 0 0 0 0 -834479154.92481995 -235936819.03689575 0 -235936819.03689575 -314769096.69744873 0 0 0 0 -204041088.91531372 -195689186.57937622 0 -195689186.57937622 -519151505.07076263 0 0 0 0 124507.83357416838 44605.785228226334 0 44605.785228226334 -59141.229781359434 0 0 0 0 -423488383.02876282 148891170.54606628 0 148891170.54606628 45284307.255859375 0 0 0 0 395263196.55947876 396270419.8180542 0 396270419.8180542 598180979.79812622 0 0 0 0 -95334586.327896118 148611474.73300171 0 148611474.73300171 488764217.78544617 0 0 0 0 74809537.450126648 -29905027.529632568 0 -29905027.529632568 264284076.64361572 0 0 0 0 -52745362.707504272 211496535.55474854 0 211496535.55474854 535894579.74756622 0 0 0 0 -1117104.2836587932 3163245.1568902992 0 3163245.1568902992 -476674.12824742496 0 0 0 0 75018730.507003784 63145413.364685059 0 63145413.364685059 160088577.49337769 0 0 0 0 -21760050.406303406 58064952.311325073 0 58064952.311325073 449006225.88641357 0 0 0 0 12974662.49646759 45665112.411010742 0 45665112.411010742 266366093.9888916 0 0 0 0 24353884.578643799 97399440.366821289 0 97399440.366821289 303341527.39640808 0 0 0 0 7400464.8547515869 48338216.111938477 0 48338216.111938477 321603205.44830322 0 0 0 0 27587518.325134277 60525140.4556427 0 60525140.4556427 146211617.07240295 0 0 0 0 48786483.911994934 107174378.98191833 0 107174378.98191833 137968322.20727539 0 0 0 0 24576356.7759552 87996543.494049072 0 87996543.494049072 251107089.70750427 0 0 0 0 17572788.886627197 268490066.86486053 0 268490066.86486053 413597580.13185883 0 0 0 0 22958582.04901123 17505304.000778198 0 17505304.000778198 462766258.93087769 0 0 0 0 -105121975.29153252 55117608.167629242 0 55117608.167629242 239884265.30911255 0 0 0 0 -15015145.809989929 163960297.11947632 0 163960297.11947632 273136782.95223999 0 0 0 0 72542742.824684143 72759474.90838623 0 72759474.90838623 -289671.76110839844 0 0 0 0 28850923.455986023 202337259.5715332 0 202337259.5715332 85587686.138793945 0 0 0 0 132892488.92737579 239240400.48564148 0 239240400.48564148 231035513.90490723 0 0 0 0 121788095.5205394 16720562.585275173 0 16720562.585275173 243021672.62033081 0 0 0 0 -10077224.462715149 -9348080.9399490356 0 -9348080.9399490356 10544689.631958008 0 0 0 0 1496262.8230323792 24508930.857749939 0 24508930.857749939 -6612218.5778808594 0 0 0 0 -14971180.829498291 -4336617.0943145752 0 -4336617.0943145752 23887122.863616943 0 0 0 0 -10646374.886806488 -2300778.1521606445 0 -2300778.1521606445 14357575.509124756 0 0 0 0 615726.77923216671 -3738813.6001927862 0 -3738813.6001927862 2311963.4034763873 0 0 0 0 -489447148.19543457 -931322931.21110535 0 -931322931.21110535 135257290.85516357 0 0 0 0 -1274072588.7276917 98581271.463844299 0 98581271.463844299 -459303566.5194931 0 0 0 0 230695.25218454376 -1025427.2446294129 0 -1025427.2446294129 1729691.651707828 0 0 0 0 -7559730.3915252686 -6963909.4864883423 0 -6963909.4864883423 -6477154.9488220215 0 0 0 0 -47303135.816001892 -10564506.672592163 0 -10564506.672592163 -6086743.410284996 0 0 0 0 -27964246.202041626 23091740.577423096 0 23091740.577423096 -5379089.3013000488 0 0 0 0 -50874799.765785217 29943839.186325073 0 29943839.186325073 -6346397.7623443604 0 0 0 0 -42540322.193630219 20479564.191741943 0 20479564.191741943 -618637.78405761719 0 0 0 0 -55315084.610509872 36959151.461952209 0 36959151.461952209 3922455.352722168 0 0 0 0 -67718133.341072083 36113784.196563721 0 36113784.196563721 15441289.608291626 0 0 0 0 -82919271.722335815 12703103.239837646 0 12703103.239837646 12088096.904632568 0 0 0 0 -72288697.714746475 16918005.397136688 0 16918005.397136688 1527096.7910766602 0 0 0 0 -94243038.071762085 -12223590.697906494 0 -12223590.697906494 10543908.934069544 0 0 0 0 -68054633.96459198 -3918120.7797660828 0 -3918120.7797660828 6494411.1218261719 0 0 0 0 -137521469.93888855 6645169.8000793457 0 6645169.8000793457 27142345.76171875 0 0 0 0 -82949864.923362732 16278836.557281494 0 16278836.557281494 28514344.479980469 0 0 0 0 -100038641.53392029 33049082.12387085 0 33049082.12387085 15307295.544685364 0 0 0 0 -121426736.19453049 41506322.584594727 0 41506322.584594727 37161267.216674805 0 0 0 0 -83087797.576820374 48973651.6015625 0 48973651.6015625 26650713.22833252 0 0 0 0 -67490184.956569672 -2271125.2866744995 0 -2271125.2866744995 3793550.5521850586 0 0 0 0 568000445.94010639 562290215.90626049 0 562290215.90626049 586131565.79330444 0 0 0 0 -1060080330.6295013 -527850430.68740845 0 -527850430.68740845 1201107645.6945801 0 0 0 0 1269315.757966903 -3772336.6141613191 0 -3772336.6141613191 2869383.0884490311 0 0 0 0 582898190.05735779 -1021562769.7558594 0 -1021562769.7558594 -1209130493.7259827 0 0 0 0 340033033.99761581 -631796256.60548401 0 -631796256.60548401 930513426.79086304 0 0 0 0 189263147.15268707 301055087.95974731 0 301055087.95974731 1243647735.9438477 0 0 0 0 185160818.59490967 153733225.98712158 0 153733225.98712158 473857030.28881836 0 0 0 0 159643290.15740204 86488966.639068604 0 86488966.639068604 347816526.9442749 0 0 0 0 117095063.49375916 181975069.95199585 0 181975069.95199585 217743396.72270203 0 0 0 0 83548225.467760086 193078331.19306207 0 193078331.19306207 458434526.78442383 0 0 0 0 230083928.82147217 236488336.75776672 0 236488336.75776672 361658589.05210876 0 0 0 0 276535660.08818054 381664940.44657898 0 381664940.44657898 681591617.68907166 0 0 0 0 224187278.20469475 162659180.51241493 0 162659180.51241493 441728286.50720215 0 0 0 0 590010583.44006252 345896145.51097107 0 345896145.51097107 191614789.18469238 0 0 0 0 392203284.15270996 330366810.09817505 0 330366810.09817505 259905204.63922119 0 0 0 0 148473983.83769989 245001214.19125366 0 245001214.19125366 386840379.76625061 0 0 0 0 178104038.31771851 199437636.23280334 0 199437636.23280334 160346401.93804932 0 0 0 0 194138875.71366119 230432224.79263306 0 230432224.79263306 219453883.48669434 0 0 0 0 477158749.0963974 198752190.18847656 0 198752190.18847656 95338670.732055664 0 0 0 0 223861374.65956879 99995209.365447998 0 99995209.365447998 71211773.55355835 0 0 0 0 427236143.60185242 154708434.5513916 0 154708434.5513916 60805642.341369629 0 0 0 0 -55006425.610042572 249759897.20645142 0 249759897.20645142 225519257.69680786 0 0 0 0 36611277.414211273 299409219.4703846 0 299409219.4703846 222405937.24560547 0 0 0 0 65175489.27180481 206927326.34391785 0 206927326.34391785 207808774.33067703 0 0 0 0 95634189.668504715 255092583.30787659 0 255092583.30787659 283730901.7411499 0 0 0 0 145674013.91873169 218247968.93109131 0 218247968.93109131 258561364.23977661 0 0 0 0 83392220.092178345 193665008.51376724 0 193665008.51376724 237769334.08843994 0 0 0 0 -61827510.973836899 45392300.321090698 0 45392300.321090698 235863441.65939331 0 0 0 0 66285417.799510956 175540552.34495544 0 175540552.34495544 359985449.58978271 0 0 0 0 82404750.598839521 160899462.53401017 0 160899462.53401017 335430271.05935669 0 0 0 0 49327568.337039948 152972588.57100677 0 152972588.57100677 340361578.03469849 0 0 0 0 109414706.93443489 121577370.97386169 0 121577370.97386169 141463585.48548889 0 0 0 0 570980.1107749939 222854794.30899811 0 222854794.30899811 62813938.562553406 0 0 0 0 -5188378.4282150269 239406556.40066528 0 239406556.40066528 312768732.25937653 0 0 0 0 -231982994.84867477 167354325.49907684 0 167354325.49907684 46984426.622550964 0 0 0 0 -722730.3039005436 3229635.5029758839 0 3229635.5029758839 1583557.166813463 0 0 0 0 21927551.016845703 185564771.24369049 0 185564771.24369049 97620475.311271667 0 0 0 0 -198342427.64388084 231134550.24993896 0 231134550.24993896 185031383.28713989 0 0 0 0 -85033001.405288696 132525215.48823166 0 132525215.48823166 72343454.278717041 0 0 0 0 -135039177.14001465 340052522.60277557 0 340052522.60277557 216579319.56784058 0 0 0 0 -52706123.619983077 296337460.23707819 0 296337460.23707819 201100944.61203003 0 0 0 0 280607651.48996162 50113896.177574158 0 50113896.177574158 -43421174.04776001 0 0 0 0 -77314.881109299546 11547028.343448978 0 11547028.343448978 -9302840.6683894545 0 0 0 0 134550772.15725327 120843166.03452301 0 120843166.03452301 24593698.006896973 0 0 0 0 28265924.394809723 214005015.09375763 0 214005015.09375763 -8327952.7403945923 0 0 0 0 32695568.038711548 57622214.708694458 0 57622214.708694458 32479438.123176575 0 0 0 0 289230766.01428223 73271054.02141571 0 73271054.02141571 26649468.743994713 0 0 0 0 317594735.73894501 166874253.03498077 0 166874253.03498077 70302956.827003479 0 0 0 0 -228296.87728598114 10335364.702863067 0 10335364.702863067 -5718269.1885886639 0 0 0 0 460448232.16062051 160240875.96875009 0 160240875.96875009 21518685.241897583 0 0 0 0 86417353.297674179 250722447.86972427 0 250722447.86972427 106302647.76435852 0 0 0 0 348957742.85635757 248027249.20312309 0 248027249.20312309 102420125.5493927 0 0 0 0 902777550.39958 252139699.93701172 0 252139699.93701172 -22951519.990699768 0 0 0 0 -483860.08466121549 8350572.996841358 0 8350572.996841358 -2151445.7798433751 0 0 0 0 -162667892.64794922 302124405.3682251 0 302124405.3682251 239288799.93856812 0 0 0 0 -98387347.28868103 301677562.18782043 0 301677562.18782043 217137650.85864258 0 0 0 0 -99664430.790669918 304477787.44044495 0 304477787.44044495 239137803.47982788 0 0 0 0 -65030345.965045929 309575645.80090332 0 309575645.80090332 231076476.23077393 0 0 0 0 -55805179.68952179 293371560.98603821 0 293371560.98603821 219521855.88630676 0 0 0 0 46534539.829574585 415086625.46286774 0 415086625.46286774 210149575.23323059 0 0 0 0 2810870.347782135 341875151.868927 0 341875151.868927 225985396.4387989 0 0 0 0 -296139647.35430908 286330187.82002258 0 286330187.82002258 245647418.55558014 0 0 0 0 -97201092.021858215 318398270.6878891 0 318398270.6878891 228471073.14845276 0 0 0 0 -206236491.04312611 231269003.22937393 0 231269003.22937393 231826786.08065796 0 0 0 0 -528027692.22077179 109267346.17320251 0 109267346.17320251 229302817.12158203 0 0 0 0 -36511014.468986511 399842618.87375641 0 399842618.87375641 203061569.29034424 0 0 0 0 -355201510.4784441 413810970.00584602 0 413810970.00584602 304987593.99243164 0 0 0 0 -580196968.90999603 236372617.23242188 0 236372617.23242188 268646610.95114136 0 0 0 0 -11633385.205869675 585831685.23912811 0 585831685.23912811 -33646394.926330566 0 0 0 0 -1284093221.3595505 200525876.09716797 0 200525876.09716797 145833347.4881134 0 0 0 0 -689886633.77928162 -122027576.96092415 0 -122027576.96092415 108556268.85166931 0 0 0 0 -1244043535.117718 -644780312.98314857 0 -644780312.98314857 -272621242.50912476 0 0 0 0 -521745521.3322525 236086221.45429993 0 236086221.45429993 105919511.14486694 0 0 0 0 660320007.68264198 205196666.88287354 0 205196666.88287354 181909167.740448 0 0 0 0 569690059.66139412 559231400.46102524 0 559231400.46102524 13165752.920028687 0 0 0 0 31138162.5990448 441767496.4196167 0 441767496.4196167 382177716.85099792 0 0 0 0 -549692.97071500926 5102892.7575522866 0 5102892.7575522866 -476799.03038072586 0 0 0 0 1806456314.900198 419638465.41129303 0 419638465.41129303 -177335642.81626892 0 0 0 0 1047018424.6105385 398051568.25494385 0 398051568.25494385 384940388.98779297 0 0 0 0 1034134000.210085 695334846.95753956 0 695334846.95753956 -226335288.86407471 0 0 0 0 43207522.542118073 766809150.65196228 0 766809150.65196228 228570871.20254517 0 0 0 0 526280611.71551704 133235581.95277405 0 133235581.95277405 -145492170.23678589 0 0 0 0 3097285113.8806591 338426653.5981369 0 338426653.5981369 -508518536.4793396 0 0 0 0 1381873153.6112862 975401292.38300705 0 975401292.38300705 992869.77708435059 0 0 0 0 -527493.79998845758 1960702.2756010126 0 1960702.2756010126 -109936.89398980141 0 0 0 0 -1427340499.6034508 -117604383.35173035 0 -117604383.35173035 103302852.69793701 0 0 0 0 -1941771613.9413624 -423602152.84042358 0 -423602152.84042358 -59526912.617462158 0 0 0 0 -3316998.9883257747 4955648.9228118248 0 4955648.9228118248 899252.28706532717 0 0 0 0 59690361.398830414 70083587.008743286 0 70083587.008743286 25343616.648769379 0 0 0 0 -1410929750.7632532 67869215.477498055 0 67869215.477498055 11095953.303710938 0 0 0 0 -239150.81393367425 402195.66747196019 0 402195.66747196019 660573.05890025944 0 0 0 0 -824281846.3122673 84012854.361442566 0 84012854.361442566 -256429247.45239258 0 0 0 0 -979789566.371521 584258790.05133057 0 584258790.05133057 294224157.39656067 0 0 0 0 -155405092.65946579 366965774.19515991 0 366965774.19515991 -4272695.7864837646 0 0 0 0 -634387057.93060875 883355166.37145615 0 883355166.37145615 -1314792.1711883545 0 0 0 0 -2501511022.3347893 347577460.34393311 0 347577460.34393311 212112139.3290925 0 0 0 0 -1292591061.4174614 804678706.9357605 0 804678706.9357605 193404459.13339233 0 0 0 0 -951815.60336560756 1593950.548437953 0 1593950.548437953 233647.54719950259 0 0 0 0 95896892.471360207 73452444.134140015 0 73452444.134140015 61567.470916748047 0 0 0 0 -3164978403.011982 -663949497.10837936 0 -663949497.10837936 215687002.76702881 0 0 0 0 31512756.686161041 52532690.066543579 0 52532690.066543579 33256041.489440918 0 0 0 0 27379390.788816452 35297394.728736877 0 35297394.728736877 19207452.615478516 0 0 0 0 -31798352.190979004 92641460.06729126 0 92641460.06729126 -131087.1861973117 0 0 0 0 -132638700.25746441 15980093.505371094 0 15980093.505371094 40666701.237457275 0 0 0 0 -7140360.115773201 51242163.738273621 0 51242163.738273621 40250162.914672852 0 0 0 0 -16109979.477251053 60007436.268028259 0 60007436.268028259 59569527.335273743 0 0 0 0 50069777.551399231 54410017.835006714 0 54410017.835006714 16931787.73692131 0 0 0 0 -81097457.434104919 50044046.699119568 0 50044046.699119568 36719345.994239807 0 0 0 0 -9350161.3690379113 14338544.252696969 0 14338544.252696969 -6165705.8794367909 0 0 0 0 -484469277.31168365 -154665749.05247879 0 -154665749.05247879 5801030.7131118774 0 0 0 0 -3952555.1727926722 -4117930.3037442854 0 -4117930.3037442854 17937613.864141062 0 0 0 0 -35102946.041127205 -45187605.377697945 0 -45187605.377697945 -4664682.017791748 0 0 0 0 11183220.895746708 29797930.986330986 0 29797930.986330986 -35926823.420333862 0 0 0 0 9149771.5062084198 35973617.608243942 0 35973617.608243942 41646816.327026367 0 0 0 0 -23247612.161315918 11870114.211624146 0 11870114.211624146 151201469.83977127 0 0 0 0 -287468866.01043129 13349392.142959595 0 13349392.142959595 43839702.769836426 0 0 0 0 -197501432.47879791 96047436.176742554 0 96047436.176742554 110440925.84986877 0 0 0 0 -18912091.214553833 19700317.171955109 0 19700317.171955109 17783799.879608154 0 0 0 0 -88022366.226060867 23688883.88974762 0 23688883.88974762 53855654.224700928 0 0 0 0 -1914154.0463972827 2764653.1694400534 0 2764653.1694400534 929262.51867870241 0 0 0 0 60332218.045822144 5182672.1483764648 0 5182672.1483764648 88025793.106185913 0 0 0 0 57444253.572784424 17653760.261245728 0 17653760.261245728 4534796.4584503174 0 0 0 0 -9139051.3175960183 15430429.093765195 0 15430429.093765195 -6841576.2011622861 0 0 0 0 44967147.471641541 67977431.273880005 0 67977431.273880005 25976181.879394531 0 0 0 0 81141046.511299133 34436088.049209595 0 34436088.049209595 41639871.144348145 0 0 0 0 -36451551.71572876 19432753.121032715 0 19432753.121032715 54860526.175003052 0 0 0 0 -6880380.687585989 2483653.5227572033 0 2483653.5227572033 13094703.713397458 0 0 0 0 -8203444.7886892557 7091098.4280719757 0 7091098.4280719757 3954679.9870452881 0 0 0 0 -2035193.0947856903 3089437.4329452515 0 3089437.4329452515 6524973.5977706909 0 0 0 0 -5072800.6158599854 6423250.2298240662 0 6423250.2298240662 11438161.254936218 0 0 0 0 -3399651.3847438558 -96341.325647323392 0 -96341.325647323392 8072155.6935236901 0 0 0 0 -51847300.630988121 -11170182.004577637 0 -11170182.004577637 23474167.887069702 0 0 0 0 -38047709.457258224 -10654648.188735962 0 -10654648.188735962 16722832.07673645 0 0 0 0 -92404653.021755219 -59248287.401630402 0 -59248287.401630402 -30874920.802398682 0 0 0 0 -1938484.1651438675 2594548.5843292084 0 2594548.5843292084 1000170.0023538768 0 0 0 0 1450424.1339389971 3677578.4299233556 0 3677578.4299233556 1204980.7516396828 0 0 0 0 937339.58754348755 4670806.2361450195 0 4670806.2361450195 4273.8466796875 0 0 0 0 -4077699.1976742744 3289730.2982711792 0 3289730.2982711792 16875226.871292114 0 0 0 0 -847477.98747911467 5648235.7652221769 0 5648235.7652221769 660765.4440389052 0 0 0 0 316248.53068116307 6345453.6494579315 0 6345453.6494579315 7421352.127456665 0 0 0 0 5836891.123061657 15799076.276473999 0 15799076.276473999 9354.6237182617188 0 0 0 0 -4458468.5853519775 6391179.2724429145 0 6391179.2724429145 -211742.7703483887 0 0 0 0 -22250648.22405386 -1342371.146736145 0 -1342371.146736145 15873386.896453857 0 0 0 0 6394172.4045829773 5790151.2832946777 0 5790151.2832946777 2489.7212445452155 0 0 0 0 2235658.9874503822 2617113.3611364216 0 2617113.3611364216 -2255297.599364087 0 0 0 0 -26812599.86759758 -2382983.6732788086 0 -2382983.6732788086 20096125.757568359 0 0 0 0 -5509650.7628107071 -2345506.2637786865 0 -2345506.2637786865 4538756.69190979 0 0 0 0 -10572618.938786507 6695115.8309249878 0 6695115.8309249878 32036172.51153183 0 0 0 0 653028.83292341232 6498360.2818984985 0 6498360.2818984985 8198360.2536773682 0 0 0 0 -5111076.3036851883 7403198.3863983154 0 7403198.3863983154 8139678.9490623474 0 0 0 0 -15392373.909963608 9696619.8300018311 0 9696619.8300018311 4326.3061065673828 0 0 0 0 -23565998.388053894 12727104.112693787 0 12727104.112693787 3816604.5107421875 0 0 0 0 4156582.7946090698 10518964.397399902 0 10518964.397399902 -9171830.3712768555 0 0 0 0 25522076.608410835 12766149.166820526 0 12766149.166820526 -18195291.179946899 0 0 0 0 1203258.6977766575 1424859.9647858217 0 1424859.9647858217 -1226994.8678976931 0 0 0 0 -15069953.466983795 7277492.0842285156 0 7277492.0842285156 5284416.1481227875 0 0 0 0 -363798.10586547852 1096276.4654541016 0 1096276.4654541016 4248202.9726409912 0 0 0 0 -1504256.4173388481 10076169.409111023 0 10076169.409111023 -3518078.2235412598 0 0 0 0 -8077642.7885616934 7175022.4565301836 0 7175022.4565301836 26961.663618152961 0 0 0 0 -20255396.96651268 25362354.698104858 0 25362354.698104858 27943473.141529083 0 0 0 0 -8666972.1986294985 17789339.825191498 0 17789339.825191498 4485024.5561523438 0 0 0 0 -34395727.350343704 8722332.7825317383 0 8722332.7825317383 2501810.9777297974 0 0 0 0 -11871150.664010547 7671118.3420231119 0 7671118.3420231119 1732377.3186834417 0 0 0 0 -3475287.1750028133 7542707.5736923218 0 7542707.5736923218 -3245811.9202575684 0 0 0 0 895303.88353919983 8209378.3127593994 0 8209378.3127593994 -5345413.5792007446 0 0 0 0 5002723.1550416946 11013070.995605469 0 11013070.995605469 -4976560.9432678223 0 0 0 0 -702946.17128000199 830139.80850471836 0 830139.80850471836 378819.28099417686 0 0 0 0 -8642970.7759189606 13226559.561813354 0 13226559.561813354 -2992761.3626022339 0 0 0 0 -2553528.9729924705 3295307.329136705 0 3295307.329136705 1530452.4204812497 0 0 0 0 -16126572.247720718 4430027.9498939514 0 4430027.9498939514 7129184.9664611816 0 0 0 0 -36528830.612499237 -6112823.6003074646 0 -6112823.6003074646 15799314.811950684 0 0 0 0 -9450074.8535832614 5108465.4405870363 0 5108465.4405870363 7955843.5374596119 0 0 0 0 -36289153.989997908 8095622.2177883387 0 8095622.2177883387 2559236.4768218994 0 0 0 0 -4932053.6329188347 4818445.7223739624 0 4818445.7223739624 1991250.9359436035 0 0 0 0 -10747919.715960503 17561762.748374939 0 17561762.748374939 -9499627.6900939941 0 0 0 0 -40578030.430413008 7319691.7018737793 0 7319691.7018737793 5227741.6269226074 0 0 0 0 -13352484.247255087 6927136.0657997131 0 6927136.0657997131 7750940.7095184326 0 0 0 0 -11785286.529457092 6163430.2425689697 0 6163430.2425689697 4447414.2865447998 0 0 0 0 -5351716.8419995308 11295478.972328186 0 11295478.972328186 -1552935.5716247559 0 0 0 0 -4747696.2603311539 9281526.0706787109 0 9281526.0706787109 4877685.0667419434 0 0 0 0 -8731597.2759760618 7856784.8841746897 0 7856784.8841746897 1308942.7384858727 0 0 0 0 66273437.419662476 46110335.750259399 0 46110335.750259399 21552048.746847153 0 0 0 0 -35550180.572230339 77878803.292036057 0 77878803.292036057 246849892.43927002 0 0 0 0 -191201.02286472544 3120579.1427024752 0 3120579.1427024752 -1389441.1704581045 0 0 0 0 -20975303.212459564 36399464.524333954 0 36399464.524333954 6425586.9993286133 0 0 0 0 116771976.56113815 152970249.41024017 0 152970249.41024017 205665603.83177185 0 0 0 0 -24384724.741054535 145063465.82041931 0 145063465.82041931 490236684.64244843 0 0 0 0 -74977068.070438385 132399128.04934692 0 132399128.04934692 447578648.02619171 0 0 0 0 -47536637.992935181 178486007.62495422 0 178486007.62495422 310351270.19821548 0 0 0 0 15362399.28351593 120363034.21433258 0 120363034.21433258 142494575.61785889 0 0 0 0 101185947.26749086 13319891.958668709 0 13319891.958668709 260245427.31246948 0 0 0 0 -49484329.199386597 93403949.046661377 0 93403949.046661377 319907609.70004272 0 0 0 0 -56556059.406387329 36727017.730102539 0 36727017.730102539 245904861.61138916 0 0 0 0 -7883792.4800643921 2415494.9418487549 0 2415494.9418487549 104894642.11138916 0 0 0 0 -27237533.181159973 45485584.378555298 0 45485584.378555298 63248324.350097656 0 0 0 0 -10201542.851171494 9744286.5299987793 0 9744286.5299987793 9254719.9239807129 0 0 0 0 22678501.940516472 -26785452.846652985 0 -26785452.846652985 96913518.660827637 0 0 0 0 -6630972.6585421059 7373141.9646242931 0 7373141.9646242931 265221.3077082634 0 0 0 0 6872379.8273849487 27362144.17791748 0 27362144.17791748 25106851.317901611 0 0 0 0 -520450.1867516553 202004.75865045562 0 202004.75865045562 2950.4628603607416 0 0 0 0 -7385071.041516304 3159630.4268188477 0 3159630.4268188477 6469568.9157485962 0 0 0 0 -3720568.2806110382 1574819.9613113403 0 1574819.9613113403 2248970.9532318115 0 0 0 0 -1442950.1803250313 2980232.1370201111 0 2980232.1370201111 5247517.0174407959 0 0 0 0 -5557866.0017859414 2970088.1892436072 0 2970088.1892436072 2142255.0679861158 0 0 0 0 -5400292.8928644229 -609537.16362880636 0 -609537.16362880636 6660478.7935286835 0 0 0 0 24582810.98059845 -17311514.922210693 0 -17311514.922210693 63037376.776306152 0 0 0 0 -5556182.6857406134 1997174.9557804093 0 1997174.9557804093 3487249.7796843126 0 0 0 0 -56787604.535203934 -3816713.7415924072 0 -3816713.7415924072 17374171.368499756 0 0 0 0 -54881860.234524846 9304557.0900373459 0 9304557.0900373459 -3894633.8059692383 0 0 0 0 -48060146.149095535 18123018.18069458 0 18123018.18069458 115935.30940246582 0 0 0 0 -74026351.845990181 29556214.97851181 0 29556214.97851181 -4608018.4481811523 0 0 0 0 -705133.07841917686 -523488.68996021152 0 -523488.68996021152 1236199.4224334694 0 0 0 0 -60256474.777691841 5087437.7174110413 0 5087437.7174110413 -6735347.4445800781 0 0 0 0 -1720368.589747217 -247137.47893111128 0 -247137.47893111128 1337127.6069592834 0 0 0 0 217268980.33476067 276538373.02570343 0 276538373.02570343 114057088.34313965 0 0 0 0 55726658.90504837 32847465.931488037 0 32847465.931488037 83196262.600921631 0 0 0 0 173022891.78580856 144947786.89743042 0 144947786.89743042 186609250.05688477 0 0 0 0 42077246.418510437 98062173.761734009 0 98062173.761734009 213338945.76757812 0 0 0 0 -59451928.468986511 219806796.40602112 0 219806796.40602112 196788634.0118866 0 0 0 0 572557150.45799541 273420489.27514267 0 273420489.27514267 -48059118.633026123 0 0 0 0 35919486.810569763 364478780.94179535 0 364478780.94179535 137124466.69436646 0 0 0 0 200792075.93226242 -180011169.70638275 0 -180011169.70638275 -151199951.80406189 0 0 0 0 -61731018.987260818 265453151.86111832 0 265453151.86111832 73738717.006195068 0 0 0 0 -164662.24482751032 -701468.76931748167 0 -701468.76931748167 -38326.401460707188 0 0 0 0 -179020080.75700569 3730682.24609375 0 3730682.24609375 24819028.682235718 0 0 0 0 -92611375.748502195 34980274.032891154 0 34980274.032891154 -9135964.4955444336 0 0 0 0 -92434552.887630463 5001541.4703674316 0 5001541.4703674316 -882348.20478820801 0 0 0 0 55129561.016262054 177428256.60167694 0 177428256.60167694 102296439.19459534 0 0 0 0 -135305875.99329948 56324759.849323273 0 56324759.849323273 32550852.891418457 0 0 0 0 -31435014.241230011 69794213.427886963 0 69794213.427886963 139411651.31628418 0 0 0 0 65739557.364265442 113395898.53868103 0 113395898.53868103 242156653.92488098 0 0 0 0 79144857.9316082 99208571.811302185 0 99208571.811302185 90360191.585372925 0 0 0 0 -49341976.661773682 89809707.674804688 0 89809707.674804688 108923284.95484924 0 0 0 0 -40100357.867123365 148877164.44871807 0 148877164.44871807 43163559.704864502 0 0 0 0 -41221134.76858139 120410542.82342529 0 120410542.82342529 5352188.1404876709 0 0 0 0 -48575376.864547729 150650487.00201416 0 150650487.00201416 -1191804.4210586548 0 0 0 0 -54170073.322166443 101453876.72567749 0 101453876.72567749 29332541.47277832 0 0 0 0 -46877114.110244751 119234666.06933594 0 119234666.06933594 51876218.982849121 0 0 0 0 -57547436.296821594 118027279.27861023 0 118027279.27861023 22555159.58531189 0 0 0 0 -77670443.959709167 89693025.683624268 0 89693025.683624268 49873358.312820435 0 0 0 0 -75952013.932235718 84345039.423538208 0 84345039.423538208 37095072.63180542 0 0 0 0 -90571639.775690079 68013858.557872772 0 68013858.557872772 23351921.674804688 0 0 0 0 -50839872.243751526 77280420.223388672 0 77280420.223388672 10696311.477645874 0 0 0 0 -51254768.42911005 62647476.084993362 0 62647476.084993362 -1782320.2917480469 0 0 0 0 -16857428.566246033 91964685.608016968 0 91964685.608016968 -12183049.095237732 0 0 0 0 -50341645.790905237 92938026.061521292 0 92938026.061521292 -10965573.33984375 0 0 0 0 -17381002.675430298 116494324.09814453 0 116494324.09814453 -104720420.71298218 0 0 0 0 -31942028.377388 70566949.917175293 0 70566949.917175293 -23390072.879486084 0 0 0 0 -23104729.80146122 46047328.715809822 0 46047328.715809822 -33697587.943023682 0 0 0 0 -14963376.749752045 23479793.688858032 0 23479793.688858032 -5008192.6950683594 0 0 0 0 -2372708.5603141785 32484821.089725494 0 32484821.089725494 -82983399.093063354 0 0 0 0 54748253.025447845 62194423.834197998 0 62194423.834197998 -334294406.77059174 0 0 0 0 184989.54809568822 1471215.3163086697 0 1471215.3163086697 -832134.91514397785 0 0 0 0 749687.40706634521 263436301.25138092 0 263436301.25138092 -174333975.07437134 0 0 0 0 9661098.8275817186 13365914.457565308 0 13365914.457565308 -5923050.2215194702 0 0 0 0 46507899.32508564 41962691.478977203 0 41962691.478977203 2037697.6358947754 0 0 0 0 43503671.546023518 48033336.744720459 0 48033336.744720459 -9236283.5466814041 0 0 0 0 65996709.884929419 60017696.014328003 0 60017696.014328003 -8545444.04799366 0 0 0 0 -7439438.9409400523 38591282.527047157 0 38591282.527047157 113572684.943573 0 0 0 0 -947265.76081227651 -2426332.2514984822 0 -2426332.2514984822 1455974.6735191047 0 0 0 0 -132204415.19871235 59392845.342819214 0 59392845.342819214 7539072.2854919434 0 0 0 0 -6907358.5296010971 32576784.512458801 0 32576784.512458801 -24755002.097389221 0 0 0 0 -20370384.761850357 28946055.328575134 0 28946055.328575134 -1800449.8425979614 0 0 0 0 -90325274.257030487 36818608.255722046 0 36818608.255722046 27194958.207443237 0 0 0 0 -66974123.451857418 22120343.962152958 0 22120343.962152958 -13638071.333724976 0 0 0 0 -65501056.933261871 41655569.901618958 0 41655569.901618958 -10854428.212738037 0 0 0 0 -936699.78648527223 -2429115.9630291006 0 -2429115.9630291006 1332035.460664317 0 0 0 0 -39790927.306930006 67147138.611016273 0 67147138.611016273 22540778.092407227 0 0 0 0 -84141525.065109253 17668073.946159363 0 17668073.946159363 -13349979.500281334 0 0 0 0 -122813671.0931406 33225330.368858337 0 33225330.368858337 168422.60765075684 0 0 0 0 -83069061.045043945 26205407.038337708 0 26205407.038337708 -1936943.4877929688 0 0 0 0 -79896223.334953308 14346828.221168518 0 14346828.221168518 -18935627.440826416 0 0 0 0 -80383843.121706963 17632209.56268692 0 17632209.56268692 14324211.029144287 0 0 0 0 -495484.36167455744 -1325131.788166224 0 -1325131.788166224 647084.60771922767 0 0 0 0 -151538509.44880819 29798043.141742706 0 29798043.141742706 29065051.81072998 0 0 0 0 121356104.14068651 70784682.716644287 0 70784682.716644287 -16817111.732429504 0 0 0 0 24140302.718374789 74223705.545280457 0 74223705.545280457 -8882892.1032447815 0 0 0 0 -4013846.5181234577 236668.61402756721 0 236668.61402756721 1465301.7040325627 0 0 0 0 40831556.670995951 41298410.502996445 0 41298410.502996445 6588420.2764892578 0 0 0 0 -76034878.243376255 3924335.2561397552 0 3924335.2561397552 -2991242.3505706787 0 0 0 0 12877004.02750349 10874462.573654175 0 10874462.573654175 -77238602.321781158 0 0 0 0 4513203.9991125511 276542.36932121217 0 276542.36932121217 -3562921.9243564829 0 0 0 0 -5169094.7261912823 125902974.8658905 0 125902974.8658905 8065214.6572113037 0 0 0 0 -4179580.2412712574 -20887610.079685211 0 -20887610.079685211 -26335674.713535309 0 0 0 0 -15611986.35785158 18944712.034910046 0 18944712.034910046 -3589820.6690969691 0 0 0 0 -76481080.34875679 13903417.854949951 0 13903417.854949951 35165401.645004272 0 0 0 0 -8592658.5306792259 60401317.275260925 0 60401317.275260925 -45302563.611927032 0 0 0 0 -65806524.130805016 16876335.818473816 0 16876335.818473816 22745748.168395996 0 0 0 0 -60552311.722477913 55079359.166938782 0 55079359.166938782 30547455.370262146 0 0 0 0 35299618.386990547 48816245.080425262 0 48816245.080425262 4265711.6483459473 0 0 0 0 -23318692.609846182 23363307.248239517 0 23363307.248239517 -2997110.463104248 0 0 0 0 -10458999.069978129 10001315.552859962 0 10001315.552859962 6306384.5952795297 0 0 0 0 -23674548.463498116 31844656.462738037 0 31844656.462738037 19604565.457044601 0 0 0 0 -16725531.51392746 12132182.378799438 0 12132182.378799438 -2348656.886932373 0 0 0 0 -11591021.163108826 17775952.327606201 0 17775952.327606201 -18697919.895874023 0 0 0 0 -15641179.785492782 17798388.32680013 0 17798388.32680013 -1463294.8403038159 0 0 0 0 -4073275.9980419921 2510982.0221806876 0 2510982.0221806876 -1185224.5305120647 0 0 0 0 -17790564.799755096 23314636.468971252 0 23314636.468971252 11316616.784042358 0 0 0 0 -12336872.663833618 23634899.710327148 0 23634899.710327148 -14603059.308921814 0 0 0 0 -17013038.179462433 10422124.142227173 0 10422124.142227173 2803619.034942627 0 0 0 0 -17181772.305976868 13271370.530899048 0 13271370.530899048 18817.315635912193 0 0 0 0 -20290209.977056503 14489812.266586304 0 14489812.266586304 -33767.485153198242 0 0 0 0 -13788096.057079315 21710199.52368927 0 21710199.52368927 -554186.29118347168 0 0 0 0 -13273335.917636871 21788283.081611633 0 21788283.081611633 -1820798.3405685425 0 0 0 0 -14307851.426994324 18982200.055057526 0 18982200.055057526 -8232058.2249145508 0 0 0 0 -18021027.224643707 27574395.298240662 0 27574395.298240662 -7624.7299499511719 0 0 0 0 -13626882.122600555 25621610.921104431 0 25621610.921104431 -513831.93647766113 0 0 0 0 -12295936.141667098 27380801.994836926 0 27380801.994836926 -4136735.0799560547 0 0 0 0 -12999223.155376434 25691233.45790863 0 25691233.45790863 -1329801.2187042236 0 0 0 0 -12462065.133916855 24774606.146928787 0 24774606.146928787 18726.400924682617 0 0 0 0 -11437293.059452057 25829434.337738037 0 25829434.337738037 1033173.8061294556 0 0 0 0 -13771787.927994728 22104622.635400772 0 22104622.635400772 3239415.0860443115 0 0 0 0 -16811537.789173126 18864317.168174744 0 18864317.168174744 13430.147552490234 0 0 0 0 40497406.412231445 29516735.788368225 0 29516735.788368225 -31054531.420913696 0 0 0 0 -901980.03445381857 4376547.9300435707 0 4376547.9300435707 -4931853.8661335558 0 0 0 0 -22449396.387039185 28571907.587028503 0 28571907.587028503 8195786.3353881836 0 0 0 0 -4950065.5284538269 39047860.348659515 0 39047860.348659515 11819254.115310669 0 0 0 0 -8863481.3833999634 13877178.443969727 0 13877178.443969727 -5081795.5013122559 0 0 0 0 17853599.516353607 32460021.224822998 0 32460021.224822998 -22953.475006103516 0 0 0 0 -41343336.2734375 17197641.022857666 0 17197641.022857666 -1509528.2704696655 0 0 0 0 -38199374.882606506 28160805.537185669 0 28160805.537185669 14262.372589111328 0 0 0 0 -41227177.895289853 45174617.463931412 0 45174617.463931412 -17264688.738494873 0 0 0 0 488156.52232546359 804596.45824118704 0 804596.45824118704 79576.616163145751 0 0 0 0 -12692895.515525818 -5509583.1794815063 0 -5509583.1794815063 1407391.8096313477 0 0 0 0 -33172709.707313538 58181612.815803528 0 58181612.815803528 -9315027.8517150879 0 0 0 0 -48610442.98236084 44194710.155258179 0 44194710.155258179 6053975.2962646484 0 0 0 0 -36960710.481246948 8550696.4935302734 0 8550696.4935302734 15136049.571472168 0 0 0 0 3019436.8765335083 58344483.65246582 0 58344483.65246582 -28110000.45287323 0 0 0 0 1740220.3809413128 21647680.332817405 0 21647680.332817405 -11303677.74871666 0 0 0 0 1847997.7302894592 22256391.06212616 0 22256391.06212616 -31064819.325714111 0 0 0 0 -1319925.8082580566 25543164.868911743 0 25543164.868911743 -19248088.041976929 0 0 0 0 -10578320.41267395 49454799.637390137 0 49454799.637390137 -8067320.7376213074 0 0 0 0 12325719.931045532 36277584.287261963 0 36277584.287261963 -12697179.76083374 0 0 0 0 -7340079.3814849854 15557889.319259644 0 15557889.319259644 3527134.2207984924 0 0 0 0 -23055.163932703435 254996.06389826536 0 254996.06389826536 516485.52788470313 0 0 0 0 -29030842.946289062 31771132.661529541 0 31771132.661529541 13892008.646026611 0 0 0 0 -1073656.2076263428 21765854.359542847 0 21765854.359542847 5889548.6826095581 0 0 0 0 -2798511.8803598359 8184393.6839504987 0 8184393.6839504987 -12531644.767853737 0 0 0 0 -51545256.825531006 30210378.710700989 0 30210378.710700989 139248782.02630615 0 0 0 0 25585549.722229004 -28048685.595329285 0 -28048685.595329285 130833070.19813538 0 0 0 0 12256137.483491898 66607727.619621277 0 66607727.619621277 41180487.836227417 0 0 0 0 34933861.097564697 12098653.12084198 0 12098653.12084198 -48912362.52563858 0 0 0 0 1778091.6827891283 2051921.7497117668 0 2051921.7497117668 -5997052.5616338179 0 0 0 0 13728243.940582275 -32810879.158782959 0 -32810879.158782959 112793917.90203857 0 0 0 0 -4831967.5133743286 7673532.7797927856 0 7673532.7797927856 26931978.153030396 0 0 0 0 -10105842.991661072 46316101.318557739 0 46316101.318557739 14473192.995111465 0 0 0 0 -4849807.9914016724 4248277.5725860596 0 4248277.5725860596 17969291.389692307 0 0 0 0 13602850.523613453 3577072.0130615234 0 3577072.0130615234 -14219673.435432434 0 0 0 0 -27521584.963962555 19454447.39125061 0 19454447.39125061 14097052.802780151 0 0 0 0 -5745870.9763001166 12648812.97492148 0 12648812.97492148 -181203.3757083565 0 0 0 0 5104016.2060089111 21117514.723960876 0 21117514.723960876 -32154293.303375244 0 0 0 0 -15201108.144155575 20958676.592153415 0 20958676.592153415 -4151052.2945009656 0 0 0 0 -7345997.7762491703 51649602.358764648 0 51649602.358764648 -4052996.3402404785 0 0 0 0 -2489111.2782176519 16894675.128447346 0 16894675.128447346 -5705265.1402127594 0 0 0 0 1975506.4069642052 23195999.842438675 0 23195999.842438675 -11256401.213453304 0 0 0 0 7086404.4624061584 35345708.386245728 0 35345708.386245728 -26178995.195632935 0 0 0 0 16858.802979506552 1881129.8522821367 0 1881129.8522821367 -189612.08755963109 0 0 0 0 90959116.890014648 75205618.187515259 0 75205618.187515259 42045781.913955688 0 0 0 0 -16631434.477005005 -2828594.8524017334 0 -2828594.8524017334 13040358.942625046 0 0 0 0 141515591.27682319 13501417.632214457 0 13501417.632214457 7794187.9495544434 0 0 0 0 -3962677.3700999692 1018334.1781906039 0 1018334.1781906039 3101384.6065129116 0 0 0 0 17429260.736751556 -25420708.165775299 0 -25420708.165775299 -4195804.3795318604 0 0 0 0 -13239084.782745361 39897471.725418091 0 39897471.725418091 -2501.0692153878622 0 0 0 0 -4535177.4538269043 -7113076.8259429932 0 -7113076.8259429932 -13462929.793243408 0 0 0 0 -4650226.1934967041 -6890920.3962097168 0 -6890920.3962097168 -11268971.16796875 0 0 0 0 -4690264.778377533 -7516683.4703674316 0 -7516683.4703674316 -13283091.637802124 0 0 0 0 -3266440.6992336549 1220434.8572644927 0 1220434.8572644927 1987750.4330916032 0 0 0 0 2052600.1885986328 -3858469.1759109497 0 -3858469.1759109497 -5145596.5221557617 0 0 0 0 3785406.7886123657 15663236.876411438 0 15663236.876411438 -15797452.406131744 0 0 0 0 -15697143.843654633 14739485.76259613 0 14739485.76259613 -33398.475219726562 0 0 0 0 -4107000.3607899249 973920.44902079552 0 973920.44902079552 2678632.8226889968 0 0 0 0 -22616204.809883118 24357122.807670593 0 24357122.807670593 -12834210.633895874 0 0 0 0 -22051078.216552734 26114335.130844116 0 26114335.130844116 -7505711.4513397217 0 0 0 0 -3701649.4514083862 9611393.5174865723 0 9611393.5174865723 -13341515.318607807 0 0 0 0 -9760941.737121582 26768667.36831665 0 26768667.36831665 -50151603.157333374 0 0 0 0 -3380209.1506053992 1218616.9849102646 0 1218616.9849102646 1567696.4965340644 0 0 0 0 2715753.7529376 4414483.0904241428 0 4414483.0904241428 -4340953.3395568877 0 0 0 0 -3617349.0964212567 5236590.4837197885 0 5236590.4837197885 -1186003.7812872753 0 0 0 0 -3990028.6115875244 -6091844.0756835938 0 -6091844.0756835938 -17656295.807846069 0 0 0 0 2224816.7042503357 2731370.815788269 0 2731370.815788269 -37401030.582489014 0 0 0 0 -4123321.9837875366 2153643.5837249756 0 2153643.5837249756 -24539251.406555176 0 0 0 0 347199.94452667236 4238358.8444900513 0 4238358.8444900513 -4956919.1669006348 0 0 0 0 -225050.30173841864 3260119.0573992878 0 3260119.0573992878 -4696431.7506668977 0 0 0 0 -4281.3646029122174 17138491.149770834 0 17138491.149770834 -5179660.382770177 0 0 0 0 2489948.3727264404 2816895.953742981 0 2816895.953742981 -58929929.691169739 0 0 0 0 1591183.8168297186 17774881.780649975 0 17774881.780649975 -6701632.4081928432 0 0 0 0 -5569193.86328125 55111977.047035217 0 55111977.047035217 114283806.67424393 0 0 0 0 -1397453.9582214355 5027338.5433654785 0 5027338.5433654785 -50761237.201782227 0 0 0 0 -1469720.2690734863 2682254.4205780029 0 2682254.4205780029 -54270913.561676025 0 0 0 0 2751030.5079040527 -3015855.7867126465 0 -3015855.7867126465 -38957181.262268066 0 0 0 0 -4060408.4104062915 9767385.9668745399 0 9767385.9668745399 -50182794.067047119 0 0 0 0 3245532.1150817871 -3587174.5819091797 0 -3587174.5819091797 -39162654.158004761 0 0 0 0 -667226.25011816621 15089.125368174165 0 15089.125368174165 836769.56401447207 0 0 0 0 1264647.7309570312 -8837529.321472168 0 -8837529.321472168 15779619.910400391 0 0 0 0 -743216.2021831274 7178890.0173744932 0 7178890.0173744932 -4810096.1912039034 0 0 0 0 -1571977.4423828125 14437690.218505859 0 14437690.218505859 4850972.4536132812 0 0 0 0 1229055.9381408691 -6329456.1884460449 0 -6329456.1884460449 -42971685.102661133 0 0 0 0 1934959.6742282957 2846044.2548465729 0 2846044.2548465729 -3682409.7944502383 0 0 0 0 1932091.8060455322 1547739.4455413818 0 1547739.4455413818 -8748360.4324798584 0 0 0 0 -2202061.4029846191 662403.71015930176 0 662403.71015930176 -53259670.039718628 0 0 0 0 -3960557.9713668823 3757921.5461425781 0 3757921.5461425781 -53821165.513504028 0 0 0 0 218760.28446839005 3405458.0424509868 0 3405458.0424509868 -1047938.0079062879 0 0 0 0 -3815800.8323669434 2701801.5787963867 0 2701801.5787963867 -54264825.659339905 0 0 0 0 -4448626.2789154053 3791906.0180892944 0 3791906.0180892944 -53769435.967346191 0 0 0 0 2976442.8086345047 17666304.623028912 0 17666304.623028912 -7168958.1900321059 0 0 0 0 -6997465.388420105 -3811032.2978019714 0 -3811032.2978019714 -70348497.946792603 0 0 0 0 2247187.5239753723 -64545.290474891663 0 -64545.290474891663 -3259535.2508850098 0 0 0 0 -1060481.3406791687 35276276.046831131 0 35276276.046831131 45068086.710952759 0 0 0 0 5014166.3330001831 26795960.48009491 0 26795960.48009491 16301654.405288696 0 0 0 0 -6828647.4287872314 44558958.300128937 0 44558958.300128937 38141743.283660889 0 0 0 0 3762274.516494751 60202641.672838211 0 60202641.672838211 60062117.049659729 0 0 0 0 21749461.877971649 51725328.68107605 0 51725328.68107605 12825460.870498657 0 0 0 0 7230984.4593772888 30279856.173671722 0 30279856.173671722 21493973.278900146 0 0 0 0 22112197.088615417 26035158.121101379 0 26035158.121101379 7415802.0333099365 0 0 0 0 14494973.71950531 3575115.2758712769 0 3575115.2758712769 -31054195.067819595 0 0 0 0 -1846244.1980018616 91116994.060558319 0 91116994.060558319 -11545762.584838867 0 0 0 0 -74603057.465900421 -5293305.9901123047 0 -5293305.9901123047 112313681.67601776 0 0 0 0 1869260.6042014137 1099227.840514034 0 1099227.840514034 -1328479.5151807666 0 0 0 0 -104812394.18897057 25141736.783718109 0 25141736.783718109 8909487.2847900391 0 0 0 0 -71161010.494371414 -32757971.05465889 0 -32757971.05465889 -18300942.361129761 0 0 0 0 -22411689.763538361 21053195.188957214 0 21053195.188957214 9106294.7112426758 0 0 0 0 -55745024.505680084 -3148310.3981704712 0 -3148310.3981704712 35691127.088500977 0 0 0 0 -7292561.7227315493 7923031.8125537187 0 7923031.8125537187 4522272.7869745009 0 0 0 0 -1921115.2986602783 8260284.9322662354 0 8260284.9322662354 6391939.5776405334 0 0 0 0 -4465408.7333946228 2589477.7360458374 0 2589477.7360458374 4031250.8193817139 0 0 0 0 -32269657.284374237 8996497.8716506958 0 8996497.8716506958 62631235.07749939 0 0 0 0 4921188.9279251099 3972045.4143829346 0 3972045.4143829346 36359796.250457764 0 0 0 0 -10110850.513346247 5726374.9756403863 0 5726374.9756403863 5755516.5993427988 0 0 0 0 -14359325.009524345 1099571.7846603394 0 1099571.7846603394 6379251.8438415527 0 0 0 0 -26299220.276435852 -16607866.651760101 0 -16607866.651760101 56601380.637054443 0 0 0 0 -8310401.6415557861 4737907.519241333 0 4737907.519241333 4680971.2996444702 0 0 0 0 10286075.499755859 -10067508.042236328 0 -10067508.042236328 41351514.388122559 0 0 0 0 -17625873.69467926 1778640.3501739502 0 1778640.3501739502 37789263.281917572 0 0 0 0 -8137771.7310409546 -648573.71486663818 0 -648573.71486663818 -7887832.5349731445 0 0 0 0 -877397.3533706665 19140893.969352722 0 19140893.969352722 21760515.911224365 0 0 0 0 602601.32025146484 -13332043.138900757 0 -13332043.138900757 14994147.903991699 0 0 0 0 4770887.6278457642 10971892.375175476 0 10971892.375175476 3000541.062456131 0 0 0 0 1344512.9129906073 2291684.6689894646 0 2291684.6689894646 777890.42675664276 0 0 0 0 -2584043.9470285773 14140565.220810488 0 14140565.220810488 4085342.8233750425 0 0 0 0 -9321625.9450383335 4084265.1784574911 0 4084265.1784574911 7192287.253082484 0 0 0 0 -5387387.3107423782 17548068.787414551 0 17548068.787414551 9077754.3544769287 0 0 0 0 -5177086.2204818726 2706021.9574661255 0 2706021.9574661255 43269312.176452637 0 0 0 0 11944437.247695923 7603662.48620224 0 7603662.48620224 -16443330.058441162 0 0 0 0 -393654.82977680955 699513.49918359146 0 699513.49918359146 179253.06366834044 0 0 0 0 242579.50768648833 462819.64269910753 0 462819.64269910753 -794529.55485682003 0 0 0 0 -948689.84448242188 7161935.9533691406 0 7161935.9533691406 13989439.122253418 0 0 0 0 1112493.3836364746 2977062.0704650879 0 2977062.0704650879 -10958101.269584656 0 0 0 0 119216.34713603556 3434400.487601079 0 3434400.487601079 3723819.8757148832 0 0 0 0 -12653141.214286804 18133342.704399109 0 18133342.704399109 28796477.760978699 0 0 0 0 -2815158.6493425742 9474700.758488562 0 9474700.758488562 1694438.3746996298 0 0 0 0 1590285.6387786865 19615820.884822845 0 19615820.884822845 17076657.831802368 0 0 0 0 3816532.6120910645 -32242801.675598145 0 -32242801.675598145 28198178.238067627 0 0 0 0 -27560669.04246521 -6637594.7013778687 0 -6637594.7013778687 19913780.813293457 0 0 0 0 -47275103.957778931 -2954072.2049713135 0 -2954072.2049713135 31789812.497817993 0 0 0 0 -13610454.606585026 3759036.7569961548 0 3759036.7569961548 18452482.575040817 0 0 0 0 20932137.950996399 -14850965.786621094 0 -14850965.786621094 14682817.146255493 0 0 0 0 -5247711.9503936768 4186683.8499984741 0 4186683.8499984741 4815561.9784622192 0 0 0 0 -4957751.7116881404 7241700.8302904107 0 7241700.8302904107 -1879058.1392765194 0 0 0 0 27833876.507835388 -29503883.066802979 0 -29503883.066802979 29314747.75668335 0 0 0 0 6668320.5689945221 -20770120.181049347 0 -20770120.181049347 45231580.637359619 0 0 0 0 647204.57504272461 27644555.11289978 0 27644555.11289978 17951660.101055145 0 0 0 0 83152094.477558136 23825663.429222107 0 23825663.429222107 17450860.182907104 0 0 0 0 24343909.186234474 20682261.058114052 0 20682261.058114052 4377906.8718261719 0 0 0 0 -27163370.590324402 16671671.878753662 0 16671671.878753662 125734117.56197262 0 0 0 0 -26536118.705741882 -32618092.841365814 0 -32618092.841365814 -6482660.0376739502 0 0 0 0 18271520.825424194 47331600.083114624 0 47331600.083114624 -100059625.69889832 0 0 0 0 -50993783.674194336 82415754.08392334 0 82415754.08392334 -47312439.524772644 0 0 0 0 19688360.558119059 20525853.835700035 0 20525853.835700035 -12013112.368255615 0 0 0 0 8959690.233833313 12491424.111457825 0 12491424.111457825 9768394.967010498 0 0 0 0 -10767369.304138184 29185388.207763672 0 29185388.207763672 5133245.6419258118 0 0 0 0 11406823.503547668 44363100.997299194 0 44363100.997299194 -52924200.789245605 0 0 0 0 15776280.409973145 61331382.937820435 0 61331382.937820435 -54754231.185232162 0 0 0 0 -548953.38679504395 80261385.168258667 0 80261385.168258667 -70936548.596588135 0 0 0 0 -76405814.217926025 60397969.850158691 0 60397969.850158691 -9092893.4174575806 0 0 0 0 -8375.9257165454328 -70104.265084959567 0 -70104.265084959567 -722223.19580402225 0 0 0 0 32414449.622592926 15825115.792459488 0 15825115.792459488 -18346238.39553833 0 0 0 0 26766098.716667175 44232780.537892342 0 44232780.537892342 -71138094.776855469 0 0 0 0 51267799.852676392 -208822136.80300903 0 -208822136.80300903 141246342.68084717 0 0 0 0 -9141085.5925750732 41784024.93572998 0 41784024.93572998 -12655728.529777527 0 0 0 0 7303464.5402526855 37711924.162750244 0 37711924.162750244 -15478371.022857666 0 0 0 0 6374608.5188827515 57600478.967300415 0 57600478.967300415 -52272278.427703857 0 0 0 0 -1646814.2001419067 18819102.899833679 0 18819102.899833679 42543475.130065918 0 0 0 0 -36979020.100769043 22813451.089408875 0 22813451.089408875 34538855.933776855 0 0 0 0 1632210.1267089844 19107329.985549927 0 19107329.985549927 34627564.014034271 0 0 0 0 -3273246.3392366059 -639916.97640688717 0 -639916.97640688717 947164.0918187499 0 0 0 0 -6560739.939666748 42270629.062545776 0 42270629.062545776 43978252.440060616 0 0 0 0 -1012645.4838829041 -18937851.461864471 0 -18937851.461864471 12428249.097106934 0 0 0 0 -12079780.40379148 14451376.175763436 0 14451376.175763436 4247391.5528187342 0 0 0 0 -1915963.5067749023 8562107.9336090088 0 8562107.9336090088 13383018.572395325 0 0 0 0 -2929240.5573353963 4846898.5327857137 0 4846898.5327857137 491891.3031956628 0 0 0 0 3009812.0884017944 9050545.0089263916 0 9050545.0089263916 9988747.2788543701 0 0 0 0 -7545429.6288579591 -421923.59029410779 0 -421923.59029410779 944552.37595124543 0 0 0 0 10366501.640159607 26377317.428756714 0 26377317.428756714 4735144.6235351562 0 0 0 0 5580442.7867879868 21091612.482337952 0 21091612.482337952 -26099871.570167542 0 0 0 0 -7950819.8218317218 7360267.2801703736 0 7360267.2801703736 -3150843.2042240798 0 0 0 0 -38656818.23298645 49278489.196243286 0 49278489.196243286 -38160854.807250977 0 0 0 0 15055265.379924297 21565353.834293365 0 21565353.834293365 -8854957.7591552734 0 0 0 0 14619011.448112488 9050068.8686523438 0 9050068.8686523438 13065316.607910156 0 0 0 0 1480533.0634365827 1076581.6066940874 0 1076581.6066940874 -1019755.3059431911 0 0 0 0 3443933.3803423047 14536523.177029021 0 14536523.177029021 115284.12241083011 0 0 0 0 -9728255.3310689926 25563010.506362915 0 25563010.506362915 3361605.6101837158 0 0 0 0 2541597.937333107 33397360.070243835 0 33397360.070243835 -14988754.948005676 0 0 0 0 -2229069.1060603717 7388089.3495544419 0 7388089.3495544419 1919160.1396294199 0 0 0 0 -3085144.1092391014 16619266.150100708 0 16619266.150100708 11761139.130020142 0 0 0 0 -4316453.5082893372 21108559.361793518 0 21108559.361793518 13060602.529830933 0 0 0 0 -85960681.240158081 155546503.67318726 0 155546503.67318726 -176726206.94824219 0 0 0 0 -6419277.7934490293 7097742.6662158743 0 7097742.6662158743 -3224636.7021595016 0 0 0 0 68033.546261787415 31700398.272575378 0 31700398.272575378 29167008.710361481 0 0 0 0 62423236.894007921 28802418.764167786 0 28802418.764167786 -50362214.772758484 0 0 0 0 1198793.2029943466 13073796.97341156 0 13073796.97341156 -13272579.876033783 0 0 0 0 -9060126.2378588915 33235708.267684937 0 33235708.267684937 230679215.42121887 0 0 0 0 -689964.6032254817 2382737.2267524227 0 2382737.2267524227 670106.86714519747 0 0 0 0 15090290.098193109 50436484.669313431 0 50436484.669313431 137634966.41589355 0 0 0 0 21439065.133194447 63902916.881921768 0 63902916.881921768 110063598.37252808 0 0 0 0 -6513832.7101707458 52142498.586158752 0 52142498.586158752 137313213.30575562 0 0 0 0 4178953.3422546387 64833425.640365601 0 64833425.640365601 96992888.50107193 0 0 0 0 -9734954.7994213104 39608277.431789398 0 39608277.431789398 92786236.461608887 0 0 0 0 -7285005.474199295 7522636.493270874 0 7522636.493270874 118854115.34601593 0 0 0 0 -956743.43314266205 20907765.021110535 0 20907765.021110535 75511036.882369995 0 0 0 0 -10652515.601865768 20973001.224098206 0 20973001.224098206 86016631.329345703 0 0 0 0 -12060478.786520004 13049266.138366699 0 13049266.138366699 50654511.95690918 0 0 0 0 -7818105.4093551636 41035615.070281982 0 41035615.070281982 88873861.538013458 0 0 0 0 1987548.5025558472 12793348.120101929 0 12793348.120101929 11383139.356277466 0 0 0 0 -4944213.5007005855 4169609.6084677801 0 4169609.6084677801 1399585.4034177065 0 0 0 0 -1540672.4942297349 -504230.77032026649 0 -504230.77032026649 321145.83005440235 0 0 0 0 989367.94048690796 8996286.4446563721 0 8996286.4446563721 21865048.69909668 0 0 0 0 7518214.8775787354 29931631.8334198 0 29931631.8334198 44729853.626358032 0 0 0 0 -12333979.378055573 24711794.132278442 0 24711794.132278442 74497300.991333008 0 0 0 0 -6766495.5402793884 36030935.304321289 0 36030935.304321289 76808623.70362854 0 0 0 0 -6102952.8047561646 36573633.922744751 0 36573633.922744751 67663316.120178223 0 0 0 0 -8653886.2673530579 38871296.964828491 0 38871296.964828491 65960041.147277832 0 0 0 0 7001169.0701823235 41704482.621776104 0 41704482.621776104 64599370.690704346 0 0 0 0 -9124967.1179046631 43952123.678833008 0 43952123.678833008 72055549.400787354 0 0 0 0 -5507049.5146121979 37852834.992263794 0 37852834.992263794 62363645.668518066 0 0 0 0 -6940691.9798126221 45665411.398681641 0 45665411.398681641 80313057.003753662 0 0 0 0 -7521667.8330497742 43303983.983924866 0 43303983.983924866 72212945.597564697 0 0 0 0 -4303259.8025913239 51807975.487312317 0 51807975.487312317 72807665.29196167 0 0 0 0 -5758995.7066268921 51351200.083129883 0 51351200.083129883 75658476.683311462 0 0 0 0 -9124214.7653923035 45342664.609130859 0 45342664.609130859 86406594.151802063 0 0 0 0 -9952408.5179862976 36838516.210388184 0 36838516.210388184 77059033.423431396 0 0 0 0 -10871268.198925018 39109248.64630127 0 39109248.64630127 88204947.861724854 0 0 0 0 -7087935.8408317566 55927221.282974243 0 55927221.282974243 88084841.924316406 0 0 0 0 -10592196.77960968 44580775.867706299 0 44580775.867706299 86479384.402526855 0 0 0 0 -10042727.378173828 46322346.375823975 0 46322346.375823975 102208954.58633423 0 0 0 0 -3297957.8904304504 58768510.646270752 0 58768510.646270752 79294293.918334961 0 0 0 0 -3199054.9350256324 60192218.897316933 0 60192218.897316933 94247907.770446777 0 0 0 0 -4161846.9807014465 57954998.898162842 0 57954998.898162842 78587459.046905518 0 0 0 0 -6203692.2022676468 56316286.295337677 0 56316286.295337677 70683692.201141357 0 0 0 0 -8009309.7190742493 52490696.891201019 0 52490696.891201019 75360839.573944092 0 0 0 0 -6150231.6735534668 55500005.115432739 0 55500005.115432739 77633122.871078491 0 0 0 0 -4207849.3135185242 58498167.380264282 0 58498167.380264282 73956555.680984497 0 0 0 0 3335325.6523551941 58302323.234657288 0 58302323.234657288 54840141.029449463 0 0 0 0 -7529322.7242946625 52715878.597862244 0 52715878.597862244 69243722.960945129 0 0 0 0 7167487.858934164 67301000.61507988 0 67301000.61507988 64742572.377807617 0 0 0 0 7128701.0154857635 66933327.8956604 0 66933327.8956604 69794271.565002441 0 0 0 0 -9300124.4899935126 47655758.873800278 0 47655758.873800278 78207092.414352417 0 0 0 0 44495073.729597092 89430669.87071228 0 89430669.87071228 50930326.906524658 0 0 0 0 -3217884.8787239511 12924493.725752149 0 12924493.725752149 5745361.4246635139 0 0 0 0 5057100.129529953 68974172.670108795 0 68974172.670108795 99277382.510696411 0 0 0 0 13401537.526697159 74180493.647506714 0 74180493.647506714 93447031.720954895 0 0 0 0 19888542.049194768 62589410.615663528 0 62589410.615663528 101115636.03587341 0 0 0 0 18087031.858868837 74370267.389671326 0 74370267.389671326 95706744.554031372 0 0 0 0 9790022.4868755341 72776308.493858337 0 72776308.493858337 96347142.531463623 0 0 0 0 9438626.1176929474 76074879.973236084 0 76074879.973236084 78334993.4190979 0 0 0 0 3373058.6790142059 64048426.772369385 0 64048426.772369385 111190415.39337921 0 0 0 0 -6757084.0886306763 10087619.573867798 0 10087619.573867798 10368725.181480408 0 0 0 0 -8974546.6067180634 15140271.300151825 0 15140271.300151825 14326363.82699585 0 0 0 0 -8344655.6610717773 28509750.05859375 0 28509750.05859375 41532539.542510986 0 0 0 0 12441774.649398804 7507528.7379226685 0 7507528.7379226685 27083918.580490112 0 0 0 0 272566.49463176727 19933259.03576088 0 19933259.03576088 14604848.583114624 0 0 0 0 2014993.4485492706 10112206.565706253 0 10112206.565706253 8542327.3770446777 0 0 0 0 3198716.7839508057 6982895.0991020203 0 6982895.0991020203 -6383183.0834655762 0 0 0 0 -1939904.8180999756 13565766.054367065 0 13565766.054367065 23104664.722839355 0 0 0 0 2816603.2195739746 36440441.195465088 0 36440441.195465088 25024217.483459473 0 0 0 0 10976389.102180481 31315761.805213928 0 31315761.805213928 5375336.4588012695 0 0 0 0 -7737823.3340749741 2591651.2323150635 0 2591651.2323150635 4887021.8844909668 0 0 0 0 -17557304.464736938 2476266.4107208252 0 2476266.4107208252 10954817.613014221 0 0 0 0 -11164588.206022948 1976390.2055033818 0 1976390.2055033818 5796646.9647195786 0 0 0 0 -7810614.1565093994 12303916.87827301 0 12303916.87827301 12205786.244567871 0 0 0 0 -20252088.582969666 -17954613.353652954 0 -17954613.353652954 6097837.1093940735 0 0 0 0 23998822.26209259 49320248.24331665 0 49320248.24331665 30174799.485977173 0 0 0 0 13935121.256233215 25777676.223922729 0 25777676.223922729 21047034.556724548 0 0 0 0 -44013560.302978516 897902.2702331543 0 897902.2702331543 9911981.8585968018 0 0 0 0 18409175.151329041 36583811.782642365 0 36583811.782642365 44089735.731292725 0 0 0 0 -1163535.620223932 -771225.21282573044 0 -771225.21282573044 -323164.83939827979 0 0 0 0 -2288665.7161051817 6634659.8083097711 0 6634659.8083097711 4366872.7739762887 0 0 0 0 -4357578.2166442871 3602729.3721237183 0 3602729.3721237183 1892064.6609039307 0 0 0 0 -5319940.2516908646 7166434.9778928757 0 7166434.9778928757 8453090.8242492676 0 0 0 0 -1255185.7365055755 4437989.9521011934 0 4437989.9521011934 1830234.6548989192 0 0 0 0 -5625577.0444622338 687562.91855762154 0 687562.91855762154 862218.87568113208 0 0 0 0 -33470113.835540771 2976017.402130127 0 2976017.402130127 33958397.836791992 0 0 0 0 609062.7315826416 5596113.8952331543 0 5596113.8952331543 15363105.64654541 0 0 0 0 11222729.243743896 17317249.412567139 0 17317249.412567139 10956629.939880371 0 0 0 0 -4528526.2800036538 1002954.6838325188 0 1002954.6838325188 472907.0896666497 0 0 0 0 1644912.7148666382 19667092.242523193 0 19667092.242523193 39155606.470916748 0 0 0 0 -22549855.230293274 30962433.956832886 0 30962433.956832886 65588423.164398193 0 0 0 0 -2500478.3794822693 39626239.426361084 0 39626239.426361084 63041814.386566162 0 0 0 0 11425981.411354065 33662945.382888794 0 33662945.382888794 43489691.088470459 0 0 0 0 7026461.3550949097 36074366.538635254 0 36074366.538635254 47842986.279647827 0 0 0 0 10756300.65304184 32583051.723403931 0 32583051.723403931 49558206.344238281 0 0 0 0 11103616.32144928 38963927.758987427 0 38963927.758987427 47160175.582275391 0 0 0 0 12577143.318283081 46560491.672714233 0 46560491.672714233 44169281.26537323 0 0 0 0 2036874.7274131775 47394409.519714355 0 47394409.519714355 59155095.733016968 0 0 0 0 10749533.979026794 58279305.400939941 0 58279305.400939941 60942149.650541306 0 0 0 0 7716953.9614219666 51971726.035614014 0 51971726.035614014 61780489.058197021 0 0 0 0 10640885.459814072 57128617.978752136 0 57128617.978752136 55871902.824951172 0 0 0 0 822664.76795959473 62039998.59929657 0 62039998.59929657 74778087.460449219 0 0 0 0 2584517.737569809 70027133.877754211 0 70027133.877754211 86178555.458480835 0 0 0 0 -9432659.3073945045 57926680.799934387 0 57926680.799934387 75572110.397583008 0 0 0 0 138306311.19280624 59399411.108810425 0 59399411.108810425 45074387.396408081 0 0 0 0 35621554.97964859 48082276.093048096 0 48082276.093048096 45740359.002410889 0 0 0 0 40585044.430240631 51963720.212211609 0 51963720.212211609 45891389.805297852 0 0 0 0 31235645.777606964 52231575.899139404 0 52231575.899139404 49734563.924697876 0 0 0 0 36154846.661312103 72171286.686172485 0 72171286.686172485 62568227.338470459 0 0 0 0 23400052.453773499 56121545.325775146 0 56121545.325775146 52353573.036010742 0 0 0 0 22221348.543217897 42662352.984489441 0 42662352.984489441 41073292.429473877 0 0 0 0 52390343.182102203 35396912.804550171 0 35396912.804550171 29289930.057922363 0 0 0 0 -6151293.0551594896 -6328497.9971616045 0 -6328497.9971616045 3944295.3616998494 0 0 0 0 -35528423.067334652 -3925827.6274757385 0 -3925827.6274757385 17413022.374389648 0 0 0 0 -11386824.567189321 9544391.0212347209 0 9544391.0212347209 11239792.149443932 0 0 0 0 29822690.717123985 46394193.920232773 0 46394193.920232773 48198235.169281006 0 0 0 0 -1475207.2542276322 -2903224.1959964931 0 -2903224.1959964931 1127840.5781706274 0 0 0 0 -25874347.915534973 -27296742.88243103 0 -27296742.88243103 3671019.3139745593 0 0 0 0 -29547018.900648117 -20380476.802936554 0 -20380476.802936554 48135454.616943359 0 0 0 0 -13905700.102508545 -1907199.9397201538 0 -1907199.9397201538 3565985.2695718408 0 0 0 0 -18043758.708776474 15782621.255961418 0 15782621.255961418 33441273.4115448 0 0 0 0 2794841.2244415283 9574919.3452224731 0 9574919.3452224731 -16061127.664360046 0 0 0 0 -683852.47569656372 -200497.40697669983 0 -200497.40697669983 -49616997.160629272 0 0 0 0 7982635.4516145065 24964424.783468336 0 24964424.783468336 11869409.744510006 0 0 0 0 5889820.1053619385 1848158.4247088432 0 1848158.4247088432 -90659685.740436554 0 0 0 0 7961039.5838652328 3572149.6086450601 0 3572149.6086450601 -18144197.658696294 0 0 0 0 20150770.575348869 16920599.303918362 0 16920599.303918362 -31490394.378690064 0 0 0 0 -201555348.28772175 -13204181.877092481 0 -13204181.877092481 500213442.103302 0 0 0 0 -202797755.21035004 136134913.59913635 0 136134913.59913635 57703613.783111572 0 0 0 0 5427208.286557585 28920740.445185229 0 28920740.445185229 7689813.5142254978 0 0 0 0 -4017006.8050117493 23635841.765211105 0 23635841.765211105 -15279386.40297699 0 0 0 0 252158739.43888474 196561493.52851486 0 196561493.52851486 79383064.752258301 0 0 0 0 67873.087936401367 -50068800.303482056 0 -50068800.303482056 19592944.054290771 0 0 0 0 -103215467.15087128 -212683622.06112671 0 -212683622.06112671 813677408.12664795 0 0 0 0 -10144711.425483704 29617075.876064301 0 29617075.876064301 -16796808.737866402 0 0 0 0 -13301551.763568878 26047737.938213348 0 26047737.938213348 5121391.5963592529 0 0 0 0 -366098.06858117878 4405006.1464084052 0 4405006.1464084052 -4858865.0720687313 0 0 0 0 9451937.0672375672 23928864.148562729 0 23928864.148562729 4632404.9704105128 0 0 0 0 413634753.74893951 690584755.55123901 0 690584755.55123901 -984970441.39385986 0 0 0 0 2844086.9950408936 8522235.7099990845 0 8522235.7099990845 -23121766.94821167 0 0 0 0 9677632.4460393749 28343310.560123406 0 28343310.560123406 877505.11872464372 0 0 0 0 -3504172.0276863948 16570661.254235957 0 16570661.254235957 12571489.551858308 0 0 0 0 110900192.22850037 13785855.846824646 0 13785855.846824646 -123490812.74010468 0 0 0 0 -25597479.756454468 3913295.8327026367 0 3913295.8327026367 -79628152.627400398 0 0 0 0 6907781.2941960096 30692460.53760704 0 30692460.53760704 6348425.0141191408 0 0 0 0 -108080.39909302071 1251903.6750807017 0 1251903.6750807017 -1520173.952009171 0 0 0 0 -12780813.576885223 23509128.104846954 0 23509128.104846954 47669556.745620728 0 0 0 0 -6088166.7639465332 25151279.586753845 0 25151279.586753845 -939829.52443695068 0 0 0 0 -1662827.145980835 15330575.881881714 0 15330575.881881714 12112229.343744278 0 0 0 0 8314230.8824253082 109675573.54740524 0 109675573.54740524 132333918.47143555 0 0 0 0 89461223.854679108 -64631603.58612442 0 -64631603.58612442 -80206796.468307495 0 0 0 0 -53903281.123447418 40891388.994087219 0 40891388.994087219 6343301.5123558044 0 0 0 0 2087989.8540821075 40566945.384651184 0 40566945.384651184 37996953.569946289 0 0 0 0 -31104480.472042084 39173932.17224884 0 39173932.17224884 76661084.413696289 0 0 0 0 9019456.9448090252 27032936.958135169 0 27032936.958135169 -3950305.218713278 0 0 0 0 -10240326.726341248 37549027.944213867 0 37549027.944213867 17336253.074661255 0 0 0 0 -8020187.8855676651 42083354.655175209 0 42083354.655175209 1020352.4898071289 0 0 0 0 -1807639.1712574959 31082322.617806911 0 31082322.617806911 102285.11164093018 0 0 0 0 -1051038.2833175659 25432456.790596008 0 25432456.790596008 7332094.8566970825 0 0 0 0 -1483727.151248455 33119646.479393005 0 33119646.479393005 -978414.82901000977 0 0 0 0 -1002694.0383478478 14278829.018919935 0 14278829.018919935 5739626.7706323396 0 0 0 0 -905976.69658660889 31783890.019805908 0 31783890.019805908 -7616178.3263549805 0 0 0 0 -3050630.5380325317 29993308.490123749 0 29993308.490123749 -4177710.9489135742 0 0 0 0 4012526.9676135369 20339866.382301971 0 20339866.382301971 12918086.998166736 0 0 0 0 -451931547.85598755 234267515.21384048 0 234267515.21384048 5418260.9389343262 0 0 0 0 -387711612.50082397 96538908.908279419 0 96538908.908279419 -186726718.44109344 0 0 0 0 -167330438.49536133 195681676.02318764 0 195681676.02318764 -166572633.9403429 0 0 0 0 -1271530.8786193207 2493192.9285140294 0 2493192.9285140294 2059649.1690012342 0 0 0 0 -5058324.6322383881 36254382.745326042 0 36254382.745326042 -7010172.2183685303 0 0 0 0 -4242794.5527954102 24779132.950939178 0 24779132.950939178 -6156685.6028823853 0 0 0 0 -3013717.5138168335 31735998.776473999 0 31735998.776473999 7817359.4827899933 0 0 0 0 303328332.52601624 368035357.57919884 0 368035357.57919884 -338990261.81759644 0 0 0 0 384403444.21086121 274364630.69870138 0 274364630.69870138 19256805.298713684 0 0 0 0 465803083.2779541 -115428110.07453156 0 -115428110.07453156 -40135560.95124054 0 0 0 0 -527809773.02029419 -104498488.16810799 0 -104498488.16810799 407114761.18212891 0 0 0 0 -528796643.98040771 146327187.47576141 0 146327187.47576141 244677385.04431152 0 0 0 0 -198213497.05648804 -536013350.26171112 0 -536013350.26171112 550515329.90494537 0 0 0 0 17201827.92590332 -7947699.3004760742 0 -7947699.3004760742 -19391249.845169067 0 0 0 0 190928.01496887207 128395978.586483 0 128395978.586483 -112057568.58176422 0 0 0 0 -126543071.16314697 76076027.152008057 0 76076027.152008057 -21122305.430404663 0 0 0 0 -122100384.06420898 133580767.03992462 0 133580767.03992462 -119202629.64208221 0 0 0 0 -261108316.87536621 203261005.66321945 0 203261005.66321945 -146345672.66487885 0 0 0 0 -85648690.369827271 91383940.413440704 0 91383940.413440704 -51182099.046981812 0 0 0 0 -106722210.3842926 31060241.381126404 0 31060241.381126404 -209464900.08809853 0 0 0 0 61910542.370300293 121595839.14978409 0 121595839.14978409 -64935890.538452148 0 0 0 0 19569788.142944336 41861739.642456055 0 41861739.642456055 -127381584.20197916 0 0 0 0 120719206.34535217 163380159.75307512 0 163380159.75307512 -44003134.160751343 0 0 0 0 140711906.199646 72699335.566188812 0 72699335.566188812 -109803434.40223694 0 0 0 0 20672613.08646965 43033773.275193453 0 43033773.275193453 -37825723.366210938 0 0 0 0 134172204.93984985 151795299.01052856 0 151795299.01052856 -36291648.26600647 0 0 0 0 146407555.00054932 214051692.62116241 0 214051692.62116241 29614597.557979584 0 0 0 0 151531167.71434021 158592218.06651688 0 158592218.06651688 -81655451.579040527 0 0 0 0 97442719.466949463 156448499.13032722 0 156448499.13032722 -15404596.819477081 0 0 0 0 113739532.56980133 139219756.16691589 0 139219756.16691589 -54060862.157341003 0 0 0 0 83906444.626022339 111206645.17654419 0 111206645.17654419 -77310117.524917603 0 0 0 0 126441889.42362976 116240020.98676109 0 116240020.98676109 -35885646.675496995 0 0 0 0 73176978.463676453 123495747.79963303 0 123495747.79963303 -35944673.938465118 0 0 0 0 58455777.396736145 97753804.169698715 0 97753804.169698715 24987391.194347382 0 0 0 0 -17756675.983439445 33281766.115821362 0 33281766.115821362 -27466414.229026794 0 0 0 0 17916918.346672058 53041578.764724731 0 53041578.764724731 -80697320.419139862 0 0 0 0 -30587454.389343262 111414691.44228172 0 111414691.44228172 95318329.894908905 0 0 0 0 48726141.451377869 201018506.67941666 0 201018506.67941666 156705390.17917633 0 0 0 0 1879426.2472345829 1414361.4731604401 0 1414361.4731604401 -4941453.5349890413 0 0 0 0 -50104019.688010693 77335591.903455734 0 77335591.903455734 69934728.715444565 0 0 0 0 51526164.54916358 98522411.911844254 0 98522411.911844254 46058512.524774551 0 0 0 0 1298970.835591597 32977469.011811055 0 32977469.011811055 -9350710.1651560292 0 0 0 0 -15171505.220672607 65822434.572185516 0 65822434.572185516 38410201.964412689 0 0 0 0 -1999543.276449474 28392601.280572116 0 28392601.280572116 -5974630.6891061179 0 0 0 0 12533824.096185144 27622655.397684611 0 27622655.397684611 -12559055.622007983 0 0 0 0 25334186.243537903 58535469.8048172 0 58535469.8048172 13819996.752037048 0 0 0 0 20502057.77898407 28682202.850608826 0 28682202.850608826 19598399.079354286 0 0 0 0 4735501.3638038635 48172138.387283325 0 48172138.387283325 55248259.809796333 0 0 0 0 23747146.688488007 26369540.590387344 0 26369540.590387344 -3388721.2918167114 0 0 0 0 15227994.180427551 38381490.423202515 0 38381490.423202515 -8374513.4710159302 0 0 0 0 4281482.6118469238 32159258.248672485 0 32159258.248672485 1942285.1293029785 0 0 0 0 18392895.690494537 19597742.663276672 0 19597742.663276672 6488292.5586700439 0 0 0 0 21424010.877872467 33121009.947265625 0 33121009.947265625 1476171.4321374893 0 0 0 0 18938987.812898636 28490259.915332794 0 28490259.915332794 -7139019.6689949036 0 0 0 0 1388389.5067942236 17922590.742560014 0 17922590.742560014 -14229144.516119733 0 0 0 0 3718667.0811357498 21919290.771857262 0 21919290.771857262 -9886892.9020767212 0 0 0 0 8254844.4357070923 32506280.266002655 0 32506280.266002655 -6593330.8845596313 0 0 0 0 6654352.3663787842 36094692.814598083 0 36094692.814598083 2879304.9041900635 0 0 0 0 -4707683.1265029907 25043157.563537598 0 25043157.563537598 -10020852.683013916 0 0 0 0 5159427.6892757416 25750273.888311386 0 25750273.888311386 -21457523.684089661 0 0 0 0 3383292.8711563274 17443312.383935619 0 17443312.383935619 -17605526.244000137 0 0 0 0 464849652.99385977 63753190.3647089 0 63753190.3647089 -275335783.30786133 0 0 0 0 1373473.1757049561 26006674.308914185 0 26006674.308914185 -12192360.905927658 0 0 0 0 116705413.91087723 51282698.521841049 0 51282698.521841049 80139713.654510498 0 0 0 0 -38295879.782412052 370938118.74440098 0 370938118.74440098 -442117359.21681976 0 0 0 0 291941298.2061348 237990675.34222889 0 237990675.34222889 -75233583.466056824 0 0 0 0 -24188568.880628109 57348531.179012299 0 57348531.179012299 22630825.468479156 0 0 0 0 -413595079.33979559 -2578905.6195039749 0 -2578905.6195039749 61432550.795597076 0 0 0 0 -154104.24046861427 2605091.1388516743 0 2605091.1388516743 546453.23339052871 0 0 0 0 168996015.94975901 -229188569.69381332 0 -229188569.69381332 -582686337.32254791 0 0 0 0 225860054.31426001 54045096.909020424 0 54045096.909020424 -233621462.93012428 0 0 0 0 113637278.80265903 73524868.712276459 0 73524868.712276459 -273647649.45604706 0 0 0 0 17623121.205867767 236358310.22845078 0 236358310.22845078 -227836402.7229805 0 0 0 0 221861895.82502311 195787187.1455853 0 195787187.1455853 -270766639.50788879 0 0 0 0 -31871644.53619194 196418875.46282387 0 196418875.46282387 -100589002.40633488 0 0 0 0 59215320.45377636 160727237.39290619 0 160727237.39290619 -93065720.801998138 0 0 0 0 201269776.7814858 92502410.192748904 0 92502410.192748904 -135509778.31188202 0 0 0 0 -374229.91838401323 8849854.3211782016 0 8849854.3211782016 3103781.0698579941 0 0 0 0 -63919075.560302734 34430506.486216545 0 34430506.486216545 51027962.415870667 0 0 0 0 161491716.63572884 116771119.52122688 0 116771119.52122688 -137748666.55193925 0 0 0 0 140017716.90041971 77430643.329163551 0 77430643.329163551 -12130448.322494507 0 0 0 0 7884781.341709137 106122877.91703224 0 106122877.91703224 77790218.700263977 0 0 0 0 58689921.27088213 130262759.35595894 0 130262759.35595894 69726799.678785324 0 0 0 0 -6529246.0071684886 20985228.134759411 0 20985228.134759411 16638775.818285603 0 0 0 0 -1318761.0295391083 43262321.412543297 0 43262321.412543297 69390819.588741302 0 0 0 0 10600981.686670303 40999903.822883606 0 40999903.822883606 48530840.029014587 0 0 0 0 16753646.02024889 55702243.367069244 0 55702243.367069244 78460147.74279213 0 0 0 0 -41916453.855680943 38204588.000109673 0 38204588.000109673 73319759.779014587 0 0 0 0 -11230151.082343578 79148662.450769424 0 79148662.450769424 75830038.724777222 0 0 0 0 14758604.608377934 67014451.91224575 0 67014451.91224575 81139750.835372925 0 0 0 0 -72352216.63509655 55030926.50111866 0 55030926.50111866 66370830.122898102 0 0 0 0 4357957.7934885025 122207440.16998386 0 122207440.16998386 34579649.504646301 0 0 0 0 -49988169.784025192 100948780.82941055 0 100948780.82941055 29302216.192529678 0 0 0 0 -71523305.849912643 69740367.906143188 0 69740367.906143188 47732464.132175446 0 0 0 0 5913759.1321725845 38772744.855516434 0 38772744.855516434 42753513.658537865 0 0 0 0 -13593638.87989521 26832576.502075195 0 26832576.502075195 39205106.640317917 0 0 0 0 -55620496.782189369 -4541948.209148407 0 -4541948.209148407 25590823.370582581 0 0 0 0 43425943.532125473 -20608418.682678223 0 -20608418.682678223 -35112858.778572083 0 0 0 0 21874812.600722075 12906418.119584084 0 12906418.119584084 -766044.07207298279 0 0 0 0 -44906257.842135429 2064586.7403182983 0 2064586.7403182983 22231685.762268066 0 0 0 0 -49403681.217096329 -85476720.735321045 0 -85476720.735321045 -21545179.848487854 0 0 0 0 -164352103.50195599 -48522513.803695679 0 -48522513.803695679 32535931.941139221 0 0 0 0 -175001278.93609768 65730513.388152838 0 65730513.388152838 10638632.661476135 0 0 0 0 -343357073.9455409 -65769477.732046127 0 -65769477.732046127 -21473244.082758777 0 0 0 0 -131459990.1154747 171489034.94006348 0 171489034.94006348 -31335236.913894653 0 0 0 0 -163484798.15850449 42181292.447702408 0 42181292.447702408 44235055.076459885 0 0 0 0 -455474044.21129465 83478437.411334991 0 83478437.411334991 20772193.03670454 0 0 0 0 -30056650.626049042 160712895.8033905 0 160712895.8033905 -71777273.716024399 0 0 0 0 33132044.103933334 245444090.05123901 0 245444090.05123901 -483118606.19636917 0 0 0 0 -351721867.16443682 374418558.0357914 0 374418558.0357914 -203955813.37388992 0 0 0 0 -370423106.94769001 323220781.07336426 0 323220781.07336426 -348714696.37243652 0 0 0 0 -238064711.36902332 80442631.624286652 0 80442631.624286652 -348868632.71369743 0 0 0 0 -393334780.85308647 344869391.35736847 0 344869391.35736847 -262717967.16942596 0 0 0 0 66594814.739982247 -14487583.134170532 0 -14487583.134170532 -161261032.47064972 0 0 0 0 618966.06199792481 427206.03648397233 0 427206.03648397233 -830766.4674245324 0 0 0 0 442519.95467369677 585504.4584890157 0 585504.4584890157 -343920.93778152764 0 0 0 0 208925246.58670616 243425797.21243668 0 243425797.21243668 -446193529.70660782 0 0 0 0 567941783.86379564 55086045.223260343 0 55086045.223260343 149977722.04170227 0 0 0 0 554322699.36340821 194333710.61826897 0 194333710.61826897 -183969737.32284927 0 0 0 0 259330060.39263201 121704292.50779343 0 121704292.50779343 -152918837.17362595 0 0 0 0 105376286.86183837 161427822.29149818 0 161427822.29149818 98139328.984359741 0 0 0 0 672495919.43243897 235434121.8903923 0 235434121.8903923 -94583739.670761108 0 0 0 0 933202038.45237446 -240231399.15659523 0 -240231399.15659523 121457091.45367122 0 0 0 0 -302075.20407053072 -642162.99545189366 0 -642162.99545189366 796375.91025897488 0 0 0 0 -1207505131.3128951 622845088.13852262 0 622845088.13852262 75057188.117404938 0 0 0 0 1850232794.5304637 -28251921.089526176 0 -28251921.089526176 -211483102.69914055 0 0 0 0 13416398.881653666 14597728.993019104 0 14597728.993019104 15725896.040689468 0 0 0 0 522943.40967506001 2347859.2951931506 0 2347859.2951931506 -1158202.4741260521 0 0 0 0 432336972.85697603 -71210393.008554459 0 -71210393.008554459 205746985.65991688 0 0 0 0 1579114.9595892222 1810387.7838878054 0 1810387.7838878054 -905354.14075803012 0 0 0 0 25677328.029875517 21813705.583780766 0 21813705.583780766 593686.24911499023 0 0 0 0 612328028.27963924 228208611.56380081 0 228208611.56380081 -17654879.901519775 0 0 0 0 -162093165.7845974 -47198709.616547585 0 -47198709.616547585 -151835212.29053879 0 0 0 0 -12909946.859512329 157471552.92253494 0 157471552.92253494 -92539848.511901855 0 0 0 0 34004891.654431343 -37906980.668898106 0 -37906980.668898106 -142943151.09559631 0 0 0 0 -558994458.42370415 212832527.6761837 0 212832527.6761837 -191077986.89174414 0 0 0 0 -364810761.74602127 -18923113.085775375 0 -18923113.085775375 -187141988.16201672 0 0 0 0 -895424249.35521317 97471871.607696533 0 97471871.607696533 -27953010.31234169 0 0 0 0 -245101011.96530151 116934493.8731842 0 116934493.8731842 -117918956.74900818 0 0 0 0 -37690358.666091919 5676931.5373344421 0 5676931.5373344421 -152442931.94059801 0 0 0 0 -34536001.051864624 90656443.523332596 0 90656443.523332596 9102385.1729688644 0 0 0 0 -158473822.99283743 165311738.30162716 0 165311738.30162716 -111150385.31729126 0 0 0 0 -238712795.63194847 57650412.048921585 0 57650412.048921585 4069834.4588394165 0 0 0 0 -367978524.02616596 184128196.45240784 0 184128196.45240784 87765227.782503128 0 0 0 0 -73180535.906727314 282321871.16273272 0 282321871.16273272 120470655.00868607 0 0 0 0 350829346.23455811 67961499.41682148 0 67961499.41682148 197790147.79476547 0 0 0 0 -48752468.192310572 21634435.280797482 0 21634435.280797482 130545352.24094009 0 0 0 0 -39731022.736270666 110668536.06783885 0 110668536.06783885 194119724.65647125 0 0 0 0 -62827666.611171722 125272584.76636028 0 125272584.76636028 261045034.17738724 0 0 0 0 -29779787.844348907 59853238.225106239 0 59853238.225106239 114431862.33055019 0 0 0 0 -84403558.610628128 36451115.820011139 0 36451115.820011139 125187253.8572979 0 0 0 0 -2815971.248650237 -601851.48687617574 0 -601851.48687617574 427271.27507044002 0 0 0 0 14351906.608820915 18577475.272319794 0 18577475.272319794 25935374.906797409 0 0 0 0 -3976963.5201358795 4510407.4649200439 0 4510407.4649200439 16653900.351661682 0 0 0 0 847617670.99731755 656389101.68070078 0 656389101.68070078 172122417.99510956 0 0 0 0 297276377.68596649 453785870.2552309 0 453785870.2552309 68366574.200627327 0 0 0 0 482901144.04471016 240644171.08377647 0 240644171.08377647 230899473.97320962 0 0 0 0 -590126.45973396301 689862117.2702713 0 689862117.2702713 -112528925.90773201 0 0 0 0 4000216.7264968674 10792016.175158579 0 10792016.175158579 349708.50023916923 0 0 0 0 -26932513.070707321 -5095449.5856819153 0 -5095449.5856819153 -14677219.631591797 0 0 0 0 -32532461.724503517 -38410398.664405823 0 -38410398.664405823 17821982.418899536 0 0 0 0 74402199.595950127 78582074.759336472 0 78582074.759336472 87955803.241043091 0 0 0 0 18025311.697594643 26064566.007772446 0 26064566.007772446 41121982.823402405 0 0 0 0 1135786.490041256 42011690.785572052 0 42011690.785572052 101006520.28364563 0 0 0 0 42930517.5841465 38749134.992790222 0 38749134.992790222 37559544.608192444 0 0 0 0 13590511.710044384 52749824.077238083 0 52749824.077238083 108070235.46112061 0 0 0 0 11077177.731713139 33637065.098872498 0 33637065.098872498 -13654368.423191736 0 0 0 0 22512063.067680359 49958609.506664276 0 49958609.506664276 101391262.07071972 0 0 0 0 70609439.768046021 110629008.50073051 0 110629008.50073051 107349273.98548889 0 0 0 0 -757390.19418720319 -230102.53260975704 0 -230102.53260975704 64209.986665608361 0 0 0 0 9683950.8873653412 93788072.622062683 0 93788072.622062683 155950593.66604233 0 0 0 0 12131013.969410896 53196038.829246521 0 53196038.829246521 151917313.7308197 0 0 0 0 29456583.792539597 56483518.841194153 0 56483518.841194153 121678689.09622192 0 0 0 0 15522469.998106003 60542186.352600098 0 60542186.352600098 132505142.67003632 0 0 0 0 31640372.553287506 88032770.719378471 0 88032770.719378471 180045055.80304766 0 0 0 0 75101558.423988342 173819473.36856127 0 173819473.36856127 191026700.17090869 0 0 0 0 -4778211.0588529333 21877779.52605471 0 21877779.52605471 18057064.297686145 0 0 0 0 20237653.002048492 253257856.34446764 0 253257856.34446764 294774127.30351686 0 0 0 0 28105447.71548748 36954378.325931549 0 36954378.325931549 83191130.643846512 0 0 0 0 -33576711.051092193 32895896.382543847 0 32895896.382543847 100582188.94110489 0 0 0 0 15212350.676334951 34468663.086627245 0 34468663.086627245 -16295835.891772863 0 0 0 0 38329605.436374664 63135678.47290802 0 63135678.47290802 143084952.47962952 0 0 0 0 21170699.598022461 50663484.689880371 0 50663484.689880371 134056692.07859421 0 0 0 0 7284910.5836982001 42361287.740511745 0 42361287.740511745 -11354317.811319003 0 0 0 0 -5774388.7301171832 9011024.830490239 0 9011024.830490239 18238334.590973213 0 0 0 0 -798073755.06537437 -73909867.184684753 0 -73909867.184684753 910076728.20584106 0 0 0 0 -14640958.880226135 241456198.14291382 0 241456198.14291382 275226275.41186523 0 0 0 0 69025135.914478302 148410404.52991867 0 148410404.52991867 186747744.42507935 0 0 0 0 -45716574.310993195 102427346.07621002 0 102427346.07621002 138322867.92666626 0 0 0 0 -140617818.15958786 166465888.40547943 0 166465888.40547943 238107021.64141846 0 0 0 0 -260091685.89616394 150729317.64489746 0 150729317.64489746 331490004.19450378 0 0 0 0 -62280240.221353531 75946377.830539703 0 75946377.830539703 150404331.51501465 0 0 0 0 -552615.78897476196 72689898.378608704 0 72689898.378608704 152285111.30734253 0 0 0 0 -4558539.5334396362 75777152.778144836 0 75777152.778144836 82420825.590484619 0 0 0 0 -39346688.766830444 95196976.382225037 0 95196976.382225037 108966339.1831665 0 0 0 0 -53774924.178806305 76792927.18800354 0 76792927.18800354 86399934.129043579 0 0 0 0 -20207416.16910553 48055562.94103241 0 48055562.94103241 121475918.71174622 0 0 0 0 -61180785.672550201 69240414.530052185 0 69240414.530052185 88751407.55859375 0 0 0 0 -43677663.0157547 94960297.130554199 0 94960297.130554199 126121567.27220154 0 0 0 0 -94070374.690223694 90529165.865188599 0 90529165.865188599 94660764.854858398 0 0 0 0 -55489464.988679409 98204490.242116928 0 98204490.242116928 53137013.961608887 0 0 0 0 -121508078.36575699 68318828.273042679 0 68318828.273042679 56562634.455718994 0 0 0 0 -98796242.140724182 74017556.284332275 0 74017556.284332275 57089848.231414795 0 0 0 0 -155843289.57551765 73764245.920440674 0 73764245.920440674 101883069.80877686 0 0 0 0 -157066251.79880142 54831811.529327393 0 54831811.529327393 95507797.899353027 0 0 0 0 -121416643.65589142 104899540.93588257 0 104899540.93588257 138458688.90470123 0 0 0 0 21953735.625044823 119765343.31603241 0 119765343.31603241 198707167.62202454 0 0 0 0 3858305.5243453979 37398127.646995544 0 37398127.646995544 185597718.55152893 0 0 0 0 3715080.4433057308 55952969.248044014 0 55952969.248044014 156990751.29336548 0 0 0 0 50466458.268484116 59265371.701850891 0 59265371.701850891 123755233.20056152 0 0 0 0 -9243301.3437738419 72570467.919956207 0 72570467.919956207 150148239.61581421 0 0 0 0 37210679.411128759 103573025.74955177 0 103573025.74955177 134547033.64373779 0 0 0 0 137653995.64122009 108622156.29273224 0 108622156.29273224 127550700.75028992 0 0 0 0 -509216.40940444369 -1329314.0167790595 0 -1329314.0167790595 773449.50087417662 0 0 0 0 123283675.04904652 175992851.77219391 0 175992851.77219391 121980858.16040802 0 0 0 0 16884781.525350809 124836149.4284687 0 124836149.4284687 291203997.08508301 0 0 0 0 107758442.46278572 53791448.764480591 0 53791448.764480591 227030170.6396637 0 0 0 0 93584190.686573684 153061289.72921181 0 153061289.72921181 241667713.73614502 0 0 0 0 19050945.617704153 85827492.181789398 0 85827492.181789398 215512350.26260376 0 0 0 0 63207580.040446281 214223028.9920578 0 214223028.9920578 297682237.39257812 0 0 0 0 -81234983.89657402 109933323.27232361 0 109933323.27232361 275404443.78651428 0 0 0 0 -79104319.624596342 -4221930.1325148344 0 -4221930.1325148344 206066924.15264893 0 0 0 0 -213795738.06128764 13267049.120853424 0 13267049.120853424 206255497.28839111 0 0 0 0 -91466937.792214632 -60919438.254447937 0 -60919438.254447937 64078273.749359131 0 0 0 0 -16149887.303978443 -9951659.1398620605 0 -9951659.1398620605 123024022.27294159 0 0 0 0 -16693551.091728687 27927166.680290222 0 27927166.680290222 135385543.24610901 0 0 0 0 48836158.6647861 79549579.416244507 0 79549579.416244507 154093945.06328583 0 0 0 0 44655639.547668517 28067830.599947929 0 28067830.599947929 146537724.92349243 0 0 0 0 -8403040.3339262009 46652862.689857483 0 46652862.689857483 140823173.03002548 0 0 0 0 -12284887.013066292 81019391.134597778 0 81019391.134597778 230179133.13103867 0 0 0 0 21405783.817777157 78936331.196128845 0 78936331.196128845 94243619.202804565 0 0 0 0 20733901.790671825 73030536.03401947 0 73030536.03401947 116719340.23932648 0 0 0 0 21119685.073648691 44237077.737335205 0 44237077.737335205 126137899.00434113 0 0 0 0 8626543.9790612832 30375554.765411783 0 30375554.765411783 -12343001.618140738 0 0 0 0 24475611.486665368 48863947.744409561 0 48863947.744409561 48292355.113586426 0 0 0 0 -5805236.3777041435 71073120.569704056 0 71073120.569704056 92290205.542325974 0 0 0 0 -18363235.512013435 49631343.691497803 0 49631343.691497803 107728551.35666656 0 0 0 0 7661356.1772095989 34745056.577064045 0 34745056.577064045 -13193976.697594197 0 0 0 0 -5799252.1397430664 15208729.868579846 0 15208729.868579846 23150128.012296647 0 0 0 0 19332621.277243614 69555323.582252502 0 69555323.582252502 110541341.13015747 0 0 0 0 -1745407.2190713882 22279216.313468933 0 22279216.313468933 61269903.792510986 0 0 0 0 -66050984.887672901 -36526362.719854355 0 -36526362.719854355 89868773.314697266 0 0 0 0 -54202567.250152588 8675682.1723022461 0 8675682.1723022461 139414579.20947266 0 0 0 0 57612398.471198559 97060233.862716675 0 97060233.862716675 130606545.72227478 0 0 0 0 372941.50900304317 3724759.0500903018 0 3724759.0500903018 4891654.7018010765 0 0 0 0 16546979.981376171 61803613.438522339 0 61803613.438522339 104732889.7076416 0 0 0 0 2262896336.1681976 2295278771.4992981 0 2295278771.4992981 1721665163.4783936 0 0 0 0 2534120004.0129395 136849200.7613678 0 136849200.7613678 473912379.05825806 0 0 0 0 -1061003.9647240862 1993653.5601405501 0 1993653.5601405501 1846400.8752346784 0 0 0 0 1404152447.7648773 896582464.04315186 0 896582464.04315186 157922539.32200623 0 0 0 0 1607175475.3635864 1081842640.6973953 0 1081842640.6973953 924834713.51917839 0 0 0 0 891188.25326538086 931524035.23962021 0 931524035.23962021 1362632284.3074265 0 0 0 0 719988890.21012878 1681598370.2418594 0 1681598370.2418594 2141017021.2557068 0 0 0 0 583133152.46405029 552313553.78988647 0 552313553.78988647 793441288.77744675 0 0 0 0 -2040208.6086339802 3653442.8783595189 0 3653442.8783595189 3150572.5828987211 0 0 0 0 580883637.70879364 531670111.68985939 0 531670111.68985939 617541686.0904541 0 0 0 0 658595264.61837769 620221706.58005524 0 620221706.58005524 627639554.74243164 0 0 0 0 657936205.2074585 606842785.35613251 0 606842785.35613251 459285096.72991943 0 0 0 0 965730271.40857315 503647928.84814453 0 503647928.84814453 -84917278.780883789 0 0 0 0 990058926.6646843 709477572.23313618 0 709477572.23313618 162957729.93045044 0 0 0 0 524739838.68600464 389132829.08192444 0 389132829.08192444 91424386.035308838 0 0 0 0 872083518.26972961 407957888.30630493 0 407957888.30630493 -131710050.08218384 0 0 0 0 715586455.84780884 563962127.93656158 0 563962127.93656158 222872069.56173706 0 0 0 0 157988001.60887146 328468071.96640015 0 328468071.96640015 190833921.99472046 0 0 0 0 550281610.02908325 264744623.69895935 0 264744623.69895935 17730300.711273193 0 0 0 0 -3829988.9541625977 202154738.80066681 0 202154738.80066681 177551097.53491211 0 0 0 0 71182289.415985107 194441023.97733307 0 194441023.97733307 83850155.74741745 0 0 0 0 61128536.699249268 260285163.47666168 0 260285163.47666168 103375460.76649094 0 0 0 0 -20139597.306213379 62186204.729095459 0 62186204.729095459 -97122218.302947998 0 0 0 0 66006725.707778931 199193362.18171692 0 199193362.18171692 -99311183.194198608 0 0 0 0 -102341282.23129272 -107699124.55817413 0 -107699124.55817413 -290717430.03627849 0 0 0 0 233488419.36056519 -425620610.56340027 0 -425620610.56340027 -893789075.63319016 0 0 0 0 275123700.36505127 328724092.69807434 0 328724092.69807434 65554723.338699341 0 0 0 0 861859441.49612427 124968818.25151062 0 124968818.25151062 -671506047.39639282 0 0 0 0 211914583.48847961 177180586.99371338 0 177180586.99371338 -292167601.35549927 0 0 0 0 1112652634.052063 2943348093.0284729 0 2943348093.0284729 2780168721.7602997 0 0 0 0 1316823.4173184037 326141.78557533771 0 326141.78557533771 1297323.8437862694 0 0 0 0 1702875471.9702759 1925473553.149559 0 1925473553.149559 2987224217.9591064 0 0 0 0 -18092601.973434448 -96516118.269264221 0 -96516118.269264221 -233906731.01638794 0 0 0 0 -55162449.563892365 97409279.706565857 0 97409279.706565857 -131086978.45977783 0 0 0 0 44937144.362197876 64837554.673469543 0 64837554.673469543 -159918386.5316925 0 0 0 0 4863040.0014953613 99525888.174324036 0 99525888.174324036 -189780921.71455383 0 0 0 0 2150811962.7106514 2679499710.7408047 0 2679499710.7408047 2872737203.5277863 0 0 0 0 6673614.7450408041 482481.65031459928 0 482481.65031459928 1593417.3827408329 0 0 0 0 1694478663.5756378 1889814510.3555069 0 1889814510.3555069 2929758664.750824 0 0 0 0 1573408449.2282104 2089953207.9042664 0 2089953207.9042664 2452214477.3838577 0 0 0 0 1683429782.0375824 1626722794.2314377 0 1626722794.2314377 2042907633.9850273 0 0 0 0 2396875739.8254852 2015907020.6271286 0 2015907020.6271286 2329532246.1815796 0 0 0 0 1597859599.1621704 2217565209.4902496 0 2217565209.4902496 2290056218.6426849 0 0 0 0 894996339.82941437 1709576850.3976517 0 1709576850.3976517 2499975667.2107849 0 0 0 0 432032.43742370605 1423939286.4132156 0 1423939286.4132156 2315432143.6604328 0 0 0 0 791260705.5018425 1957400848.7647552 0 1957400848.7647552 2110238831.3916016 0 0 0 0 833194066.73048401 1530246947.0591125 0 1530246947.0591125 2012346760.2818737 0 0 0 0 639646.11839294434 2388406808.2855949 0 2388406808.2855949 1146698370.2446747 0 0 0 0 921696164.8545742 2174158723.852067 0 2174158723.852067 1649481289.1464386 0 0 0 0 1186916209.7142487 1182805530.9193192 0 1182805530.9193192 1329873821.5400696 0 0 0 0 1554559.4074742347 3016731.0871752501 0 3016731.0871752501 844189.8730969727 0 0 0 0 1341836671.2092133 1146375410.4117508 0 1146375410.4117508 -465951832.05950165 0 0 0 0 1751003857.8070488 2778158906.5736732 0 2778158906.5736732 -2218473.3973083496 0 0 0 0 2749006.1520446739 3182374439.4459667 0 3182374439.4459667 2692221871.9007263 0 0 0 0 4521921259.7187386 1240592108.3924122 0 1240592108.3924122 -2009862011.7215881 0 0 0 0 3001505.5632595643 3313047.9443488196 0 3313047.9443488196 532976.25490701199 0 0 0 0 4216526774.8487244 2919046785.2312469 0 2919046785.2312469 -2666754107.3886719 0 0 0 0 792478.87914219499 2024434.7965484858 0 2024434.7965484858 -96247.527375541627 0 0 0 0 2723154229.5635376 3379111715.6991501 0 3379111715.6991501 2153028619.9695816 0 0 0 0 -950681158.25105286 235941645.68479919 0 235941645.68479919 745283505.12207794 0 0 0 0 3352335347.3770027 1182935426.0332355 0 1182935426.0332355 -1748519322.2399445 0 0 0 0 1878437532.4894562 1227378002.8666382 0 1227378002.8666382 1065427555.0114441 0 0 0 0 2064736297.465271 1531058373.5956688 0 1531058373.5956688 1241738878.500946 0 0 0 0 34446836.627227783 1336564547.5926208 0 1336564547.5926208 1670302730.1016693 0 0 0 0 1557677736.0015869 1536340701.3265686 0 1536340701.3265686 1594798990.1285782 0 0 0 0 1874296638.396637 1636290945.6292953 0 1636290945.6292953 1263646177.4740257 0 0 0 0 1833826707.9437103 1425536644.3934021 0 1425536644.3934021 936821029.59727478 0 0 0 0 2080328474.9654388 2051942819.2867203 0 2051942819.2867203 1825807886.0647888 0 0 0 0 1624019058.5458984 1415455484.6231384 0 1415455484.6231384 1841994996.6966248 0 0 0 0 2173802164.0853882 1831869743.1642456 0 1831869743.1642456 2127912563.6775208 0 0 0 0 1782593942.9993172 2078216476.8524246 0 2078216476.8524246 1972877316.2192993 0 0 0 0 14530928.265135154 -451207.0530769676 0 -451207.0530769676 1398765.4687479213 0 0 0 0 1779424902.6808472 2888762298.8996353 0 2888762298.8996353 2013466265.2648096 0 0 0 0 2575906381.7271118 2634489742.1377106 0 2634489742.1377106 1985581404.0790081 0 0 0 0 11897307.587234497 -55900497.27702713 0 -55900497.27702713 -45723451.161590576 0 0 0 0 90411172.027252197 33178676.183135986 0 33178676.183135986 -34377789.123928547 0 0 0 0 2186499199.7777252 1293133690.4019699 0 1293133690.4019699 1233012663.5974579 0 0 0 0 24840942.024865322 -557209.52467830479 0 -557209.52467830479 -127714.45329657197 0 0 0 0 70547571.143127441 -1832694.8248596191 0 -1832694.8248596191 -33406673.43311429 0 0 0 0 1717681591.6619415 1919358246.5207443 0 1919358246.5207443 4145811126.842865 0 0 0 0 3909252320.1103516 2932787569.5210571 0 2932787569.5210571 1014801214.8128357 0 0 0 0 2940997242.4757128 2161720314.0898309 0 2161720314.0898309 997118376.97146606 0 0 0 0 3934134028.3897095 2087351412.3711548 0 2087351412.3711548 -466603855.2208252 0 0 0 0 -1710370373.772644 2834603464.7723618 0 2834603464.7723618 1857113005.0217056 0 0 0 0 1983924.9922682494 2595912.4482915159 0 2595912.4482915159 1805113.8337288648 0 0 0 0 943114517.23623657 3262642881.6517944 0 3262642881.6517944 1843621171.6776886 0 0 0 0 1844495679.4634399 465024437.92146301 0 465024437.92146301 -1159867283.2403259 0 0 0 0 3844314932.8809509 1781847832.5012207 0 1781847832.5012207 -868821481.39408875 0 0 0 0 2966173844.6779175 1882847338.1328888 0 1882847338.1328888 -114989343.12162781 0 0 0 0 3590904452.0401344 1454621841.9191837 0 1454621841.9191837 196585905.87445068 0 0 0 0 3552205796.6941261 1628788217.342556 0 1628788217.342556 -584078770.85684204 0 0 0 0 3583939141.4044495 1700443883.6579285 0 1700443883.6579285 836753.5302734375 0 0 0 0 924938194.61799622 319562734.34098816 0 319562734.34098816 -167229733.54368591 0 0 0 0 -2097502686.5585175 1200755448.8656464 0 1200755448.8656464 354822280.52966309 0 0 0 0 499271234.78323364 1601670726.264679 0 1601670726.264679 -1881675.1381602893 0 0 0 0 -16120621.885299683 253836605.06665039 0 253836605.06665039 806512.5231628418 0 0 0 0 59698914.963279724 70844414.196048737 0 70844414.196048737 -491188676.21350098 0 0 0 0 12427561.106699824 2818271.098619476 0 2818271.098619476 1517567.2594107091 0 0 0 0 6006728065.8757324 1182359696.820137 0 1182359696.820137 -684673601.01203918 0 0 0 0 -137669922.41441345 149944249.59690094 0 149944249.59690094 -83993085.999969482 0 0 0 0 13908653.281364139 5720117.1210759431 0 5720117.1210759431 5093134.9661396593 0 0 0 0 3023029897.5885315 1631625467.1575241 0 1631625467.1575241 144809452.10033417 0 0 0 0 9846154.7688903809 40916593.417503357 0 40916593.417503357 -12578405.809455872 0 0 0 0 6864287.8100084364 6874718.6264671013 0 6874718.6264671013 -721468.0269106254 0 0 0 0 39150188.406478882 41385612.720794678 0 41385612.720794678 -20660434.283828735 0 0 0 0 73145555.11038208 -188192673.85803223 0 -188192673.85803223 -70244500.748378754 0 0 0 0 2226745.6356477216 2151911.3290027753 0 2151911.3290027753 -378255.94596117735 0 0 0 0 83983899.997070312 65443527.383911133 0 65443527.383911133 42731645.749603271 0 0 0 0 -729129.92626953125 113698900.22061157 0 113698900.22061157 56998306.016357422 0 0 0 0 -1426722.924911499 49518304.253059387 0 49518304.253059387 67572463.425506592 0 0 0 0 -62381197.270095825 92077221.803359985 0 92077221.803359985 91580779.117980957 0 0 0 0 -88035437.269647598 -27043157.411229134 0 -27043157.411229134 7325569.0173950195 0 0 0 0 32751754.612121582 46358245.895446777 0 46358245.895446777 7703848.8818359375 0 0 0 0 31558614.579287529 63279382.373446465 0 63279382.373446465 17908864.658843994 0 0 0 0 103530869.0880127 116003930.1212616 0 116003930.1212616 34371018.312652588 0 0 0 0 56437448.834869385 7429366.5423965454 0 7429366.5423965454 -16727570.254150391 0 0 0 0 -50307130.204849243 17360787.689147949 0 17360787.689147949 39570340.700622559 0 0 0 0 5595452.4896383183 16718599.561220907 0 16718599.561220907 8887030.5387599468 0 0 0 0 -9110566.5831604004 49415080.492584229 0 49415080.492584229 42594110.482002258 0 0 0 0 20433340.291473389 4992852.604309082 0 4992852.604309082 4253558.3760070801 0 0 0 0 45204998.140319824 67944451.419158936 0 67944451.419158936 17167072.097679138 0 0 0 0 77012277.253448486 43020700.948059082 0 43020700.948059082 8911335.81275177 0 0 0 0 52951283.649665833 78013581.088935852 0 78013581.088935852 24549706.538360596 0 0 0 0 46651952.921295166 50885439.479446411 0 50885439.479446411 9056751.1794586182 0 0 0 0 42874607.66973877 58390253.260391235 0 58390253.260391235 -4387079.6638793945 0 0 0 0 -17663798.405914307 76474596.623580933 0 76474596.623580933 113303413.56567383 0 0 0 0 3902494.112760325 3908969.4114777446 0 3908969.4114777446 -1034865.7758131921 0 0 0 0 51244866.396453857 102807543.80574036 0 102807543.80574036 698573.29211425781 0 0 0 0 58309919.11895752 82362563.141067505 0 82362563.141067505 20214319.284942627 0 0 0 0 45727378.480926514 91315566.805450439 0 91315566.805450439 64137532.213439941 0 0 0 0 2693698.2321590558 -27922.731233235449 0 -27922.731233235449 -3135187.2380219698 0 0 0 0 21906539.219360352 -20092001.044525146 0 -20092001.044525146 -45281108.809234619 0 0 0 0 29650517.114257812 60884744.631835938 0 60884744.631835938 66025243.141002655 0 0 0 0 10414972.858566284 -15565341.089832306 0 -15565341.089832306 -25175392.738647461 0 0 0 0 13722187.435877785 20576126.781301759 0 20576126.781301759 3930806.681300506 0 0 0 0 103530741.28075409 35817657.431201935 0 35817657.431201935 -15548635.189697266 0 0 0 0 49482309.501586914 35502403.513978958 0 35502403.513978958 -19910242.01550293 0 0 0 0 6535632.1168333255 22462673.569994345 0 22462673.569994345 4601221.7504297048 0 0 0 0 3650590.4739074707 12700711.65246582 0 12700711.65246582 -63835.749053955078 0 0 0 0 5420055.4505615234 12710174.000640869 0 12710174.000640869 -2093941.3012161255 0 0 0 0 5814163.2174835205 11745488.89692688 0 11745488.89692688 261439.86306762695 0 0 0 0 5119560.21027885 9525856.4994378239 0 9525856.4994378239 2223451.8160253167 0 0 0 0 6483578.3793888092 12330007.767214775 0 12330007.767214775 -311228.6325378418 0 0 0 0 6095646.3004455566 9657613.1156921387 0 9657613.1156921387 2438274.5303649902 0 0 0 0 47681892.254638672 47742099.126251221 0 47742099.126251221 1021586.8916015625 0 0 0 0 8038692.5010375977 11016969.624832153 0 11016969.624832153 3931478.2124633789 0 0 0 0 475496.56207275391 51934929.959510803 0 51934929.959510803 22544560.918655396 0 0 0 0 -588797.42172922939 20377841.670121156 0 20377841.670121156 4307607.0254833847 0 0 0 0 -2742855.5052490234 16331112.492477417 0 16331112.492477417 -2187792.2733154297 0 0 0 0 84076.463509097695 176492.29722557962 0 176492.29722557962 -112435.56288736686 0 0 0 0 10303064.346130371 14456547.275390625 0 14456547.275390625 7905850.0213623047 0 0 0 0 48806126.515487671 132791236.16178894 0 132791236.16178894 33707129.202056885 0 0 0 0 88362770.381439209 22588175.740737915 0 22588175.740737915 -21577477.911407471 0 0 0 0 40288051.143356323 82235340.724647522 0 82235340.724647522 -77034104.154327393 0 0 0 0 3593877.850247941 3565121.6698811576 0 3565121.6698811576 325707.67091484368 0 0 0 0 4032674.51739485 17156941.825067144 0 17156941.825067144 12112073.048633456 0 0 0 0 356220.91945266724 34628937.959083557 0 34628937.959083557 24206421.889099121 0 0 0 0 41270315.032377243 47738886.826131821 0 47738886.826131821 25932946.795684814 0 0 0 0 50883371.884384155 25299659.082351685 0 25299659.082351685 6862249.0077514648 0 0 0 0 39478361.137696646 14934641.211826298 0 14934641.211826298 -8830361.8697147202 0 0 0 0 49496070.751098633 11744542.089355469 0 11744542.089355469 -9417025.3874511719 0 0 0 0 185088887.27618408 6977712.2173728943 0 6977712.2173728943 -66025843.189056396 0 0 0 0 32275281.952194214 86094519.808883667 0 86094519.808883667 95107513.394378662 0 0 0 0 19984823.059978485 45972450.381117821 0 45972450.381117821 -43748212.615356445 0 0 0 0 2720787.6033187062 7357629.641723454 0 7357629.641723454 991192.44139693677 0 0 0 0 -29538811.300964355 22517898.457527161 0 22517898.457527161 1988336.5860824585 0 0 0 0 171319839.00540161 76432161.235855103 0 76432161.235855103 -107994702.05741882 0 0 0 0 46033821.011077881 122144871.73274994 0 122144871.73274994 -24948553.485389709 0 0 0 0 179916100.75547791 50155825.046405792 0 50155825.046405792 -45740173.753295898 0 0 0 0 186796901.91574097 46597472.949401855 0 46597472.949401855 -86221719.766418457 0 0 0 0 167958939.27124023 5001659.4506378174 0 5001659.4506378174 -58301281.656806946 0 0 0 0 162635914.79779053 12430386.058273315 0 12430386.058273315 -4900967.4711532593 0 0 0 0 129801792.9928894 144579088.05000305 0 144579088.05000305 102578849.96827698 0 0 0 0 124652393.54216766 103685371.30245352 0 103685371.30245352 -32584264.071395874 0 0 0 0 30300875.710906982 183614927.00988007 0 183614927.00988007 38338139.54914856 0 0 0 0 11623829.850463867 83164191.205665588 0 83164191.205665588 59107763.899635315 0 0 0 0 -8041706.5483093262 172661289.89559174 0 172661289.89559174 99098380.415401459 0 0 0 0 24145596.317718506 188899924.47843933 0 188899924.47843933 101380719.52749634 0 0 0 0 262918780.58172607 177754382.09571075 0 177754382.09571075 13229197.441299438 0 0 0 0 170157397.15878296 106134117.03791428 0 106134117.03791428 53363095.176383972 0 0 0 0 -1673178.829567492 1770159.0295897424 0 1770159.0295897424 1118349.1589757353 0 0 0 0 -35159017.495849609 2002615.2389450073 0 2002615.2389450073 -1816658.7053127289 0 0 0 0 -86221721.517860413 6109993.8860454559 0 6109993.8860454559 38879869.975067139 0 0 0 0 -500920.34459501691 13435423.199942429 0 13435423.199942429 2627335.5411504954 0 0 0 0 8030140.2109094337 18283983.052429199 0 18283983.052429199 3798593.8591955751 0 0 0 0 23229835.482910156 18289863.732803345 0 18289863.732803345 1300995.4940681458 0 0 0 0 -20854002.716384888 21358330.366950989 0 21358330.366950989 22751148.018463135 0 0 0 0 5850879.1247425079 16441746.501436234 0 16441746.501436234 -12397752.143127441 0 0 0 0 9184683.7166137695 5950718.4043426514 0 5950718.4043426514 -1630365.9826431274 0 0 0 0 18341827.294992886 15007309.962566786 0 15007309.962566786 587732.63545292616 0 0 0 0 -36263849.260009766 65752324.000610352 0 65752324.000610352 109989732.39341736 0 0 0 0 -19086675.824401855 34114586.604202271 0 34114586.604202271 7434159.6726455688 0 0 0 0 -4040182.0101165771 52444189.802444458 0 52444189.802444458 2436856.6874694824 0 0 0 0 -11201975.958938599 39742061.482795715 0 39742061.482795715 -16484884.817443848 0 0 0 0 -816251.41758728027 24284241.357269287 0 24284241.357269287 -15465724.716052532 0 0 0 0 -30345176.601165771 33875820.038513184 0 33875820.038513184 1113653.2709503174 0 0 0 0 -2673923.8357013762 3303820.9740665443 0 3303820.9740665443 -559597.49364027381 0 0 0 0 32490328.42061615 16529421.54769516 0 16529421.54769516 -20135040.704345703 0 0 0 0 -27823150.760894775 23489750.809539795 0 23489750.809539795 4387781.3691482544 0 0 0 0 -1027972.0812683105 21580395.376464844 0 21580395.376464844 11385156.56652832 0 0 0 0 19694162.087554932 32858173.34349823 0 32858173.34349823 -17233866.936882019 0 0 0 0 65561306.356170654 -1349898.8286437988 0 -1349898.8286437988 3297567.3543395996 0 0 0 0 124668889.94192505 27426011.922180176 0 27426011.922180176 -30448902.072143555 0 0 0 0 -960782.72667544428 284440.84147012606 0 284440.84147012606 -5516.9683334231377 0 0 0 0 -78140369.235946655 21843255.712364197 0 21843255.712364197 26506488.435005188 0 0 0 0 22823397.370071411 15709236.691253662 0 15709236.691253662 -592281.38809204102 0 0 0 0 6933962.128112793 46801910.788337708 0 46801910.788337708 -60531242.337745667 0 0 0 0 24307558.251663208 55797123.511138916 0 55797123.511138916 -16073949.056365967 0 0 0 0 -19722518.951904297 43732954.581283569 0 43732954.581283569 11701748.367248535 0 0 0 0 -20883235.454826355 48631195.755926132 0 48631195.755926132 17711617.532012939 0 0 0 0 -68293693.370758057 81909397.990066528 0 81909397.990066528 -4999454.1946411133 0 0 0 0 -116373438.26615143 21745496.831371307 0 21745496.831371307 57752694.294555664 0 0 0 0 -1326164.6308980957 1364212.3938646466 0 1364212.3938646466 1251605.657736171 0 0 0 0 -392048252.14717102 921705076.37461853 0 921705076.37461853 -116206835.07748795 0 0 0 0 241204550.85266113 110464942.56587219 0 110464942.56587219 -627602196.52240753 0 0 0 0 -448552793.91413975 -678278518.07972479 0 -678278518.07972479 621200017.76080322 0 0 0 0 -390322247.33158875 453538182.58872986 0 453538182.58872986 -178604004.88632202 0 0 0 0 -132271608.37077332 146929422.8476944 0 146929422.8476944 94403757.709014893 0 0 0 0 516379188.13844299 292313946.67703247 0 292313946.67703247 83466866.471191406 0 0 0 0 -102183783.9528656 323174078.70613861 0 323174078.70613861 520278051.28675842 0 0 0 0 -37443715.2290802 -11983151.148651123 0 -11983151.148651123 53393011.28542614 0 0 0 0 -28742265.821304321 38442829.5677948 0 38442829.5677948 8555088.2378387451 0 0 0 0 -68995647.78241539 515024762.55235577 0 515024762.55235577 14236230.827926636 0 0 0 0 -736917.41158293933 972610.73570577987 0 972610.73570577987 -720480.94519415498 0 0 0 0 -212327641.51754761 12746534.418869019 0 12746534.418869019 -74597386.70136261 0 0 0 0 -187785237.68980408 -181393555.40960693 0 -181393555.40960693 -110053556.58480835 0 0 0 0 3078707.2139075026 17400680.207858533 0 17400680.207858533 -1328168.2551829293 0 0 0 0 -230828063.19419861 -220327704.85327148 0 -220327704.85327148 368409284.71162033 0 0 0 0 535667560.58589935 -34644570.780246735 0 -34644570.780246735 -432034451.4237442 0 0 0 0 4797584.3418057412 16682564.400517628 0 16682564.400517628 -4668715.7491176948 0 0 0 0 -21915221.986343384 48144473.853179932 0 48144473.853179932 61363629.158996582 0 0 0 0 -8205675.7043609619 12747564.844352722 0 12747564.844352722 49943098.057662964 0 0 0 0 5843513.3990821838 31536399.829078674 0 31536399.829078674 53007827.006668091 0 0 0 0 1092479.9875259399 11931965.444030762 0 11931965.444030762 35521441.125823975 0 0 0 0 4048629.4374389648 17698924.414031982 0 17698924.414031982 43496728.461578369 0 0 0 0 -1911052.8645367008 9548553.4182540216 0 9548553.4182540216 12764790.552170172 0 0 0 0 660932.41858492792 2231650.2553054765 0 2231650.2553054765 3314216.7392444424 0 0 0 0 -212535298.27194977 -11131654.677112579 0 -11131654.677112579 -18620052.626502991 0 0 0 0 -4296378.8679351807 19368098.281051636 0 19368098.281051636 53120097.82408905 0 0 0 0 -80782.988942428958 3281481.5918655507 0 3281481.5918655507 -488782.6618912071 0 0 0 0 -553232.57077266276 2834544.9599785656 0 2834544.9599785656 -4503897.2379784584 0 0 0 0 -3689046.7164611816 7440370.0049667358 0 7440370.0049667358 -713075.9907951355 0 0 0 0 -2300515.7812311659 6396072.3769414052 0 6396072.3769414052 682190.77736730874 0 0 0 0 6149427.4345245361 8833660.9608764648 0 8833660.9608764648 1972869.0315628052 0 0 0 0 -338051.69044473022 12729933.813221939 0 12729933.813221939 3277030.2160757668 0 0 0 0 -5312077.9531097412 11082541.850440979 0 11082541.850440979 6750396.1467590332 0 0 0 0 -2153491.8340858147 11028926.719441622 0 11028926.719441622 5975686.8694954738 0 0 0 0 -4201717.0576594174 7017075.258309694 0 7017075.258309694 -936316.99180022627 0 0 0 0 -5054624.1943817139 10757033.413482666 0 10757033.413482666 -1479268.7526855469 0 0 0 0 -6915062.807800293 8665738.4509887695 0 8665738.4509887695 -1148699.7473144531 0 0 0 0 1696874.6970547065 8580571.6461462658 0 8580571.6461462658 -6178569.6435722411 0 0 0 0 -1351175.8386230469 9018590.0300292969 0 9018590.0300292969 -4079284.0925292969 0 0 0 0 5359178.1841051886 10702496.217727009 0 10702496.217727009 -3436944.3095100224 0 0 0 0 -4468953.3685302734 10888583.880996704 0 10888583.880996704 -2972831.8525085449 0 0 0 0 -290429.82101915032 7245103.4702997059 0 7245103.4702997059 9753989.2635822278 0 0 0 0 -5510895.4241790771 9736820.9734344482 0 9736820.9734344482 1481088.1492919922 0 0 0 0 3966130.2579804808 12097856.143865153 0 12097856.143865153 9931717.9945220314 0 0 0 0 -1057778.6278076172 8658781.3760986328 0 8658781.3760986328 -4395474.5777587891 0 0 0 0 5046907.5756616145 10658425.749808125 0 10658425.749808125 -3055381.3071907014 0 0 0 0 -1568236.2126464844 7876012.9591674805 0 7876012.9591674805 -1387822.2047729492 0 0 0 0 88529175.426315308 49745038.416595459 0 49745038.416595459 20862130.719543457 0 0 0 0 1201197.2327190936 2750580.3317356259 0 2750580.3317356259 -613222.10205473006 0 0 0 0 24304920.043439865 38016056.184736252 0 38016056.184736252 21003205.394836426 0 0 0 0 -998901.56351329479 4715765.9664938785 0 4715765.9664938785 8200725.6676212698 0 0 0 0 1642257.9344482422 5032557.6168060303 0 5032557.6168060303 3008229.0050697327 0 0 0 0 4388589.04213164 4879511.5257308334 0 4879511.5257308334 -38220.157595306635 0 0 0 0 5055434.2969970703 8306761.9198532104 0 8306761.9198532104 17842954.001647949 0 0 0 0 186330.42688751221 5109128.1131477356 0 5109128.1131477356 22059384.892822266 0 0 0 0 388312.1515045166 9287203.9942321777 0 9287203.9942321777 25912493.069061279 0 0 0 0 4275440.8358535767 4114794.4219818115 0 4114794.4219818115 10985173.190460205 0 0 0 0 6860075.9610900879 -1293265.1585388184 0 -1293265.1585388184 12185375.891677856 0 0 0 0 -148725.07177734375 -981206.44398498535 0 -981206.44398498535 20815929.129516602 0 0 0 0 2565422.3741082158 602509.89263861254 0 602509.89263861254 2041259.5336541682 0 0 0 0 -108773.81503295898 7606591.7651824951 0 7606591.7651824951 23373759.059448242 0 0 0 0 284543097.60160828 110178877.76651001 0 110178877.76651001 15880426.491470337 0 0 0 0 118213981.41952515 24482067.168136597 0 24482067.168136597 8241353.2803192139 0 0 0 0 177726.93028777465 1083079.3010294363 0 1083079.3010294363 793754.17738930881 0 0 0 0 120003983.40821075 161820788.6634407 0 161820788.6634407 241469839.13668823 0 0 0 0 147755.14694213867 -314615.2018661499 0 -314615.2018661499 -1962260.9615783691 0 0 0 0 68952685.108413696 -210276087.68312073 0 -210276087.68312073 275073156.42120075 0 0 0 0 15275912.197311401 1390595.6296157837 0 1390595.6296157837 -6654342.4976654053 0 0 0 0 3085236.5262756348 9737170.5640716553 0 9737170.5640716553 16150470.120262146 0 0 0 0 915451.51866912842 3152896.1073379517 0 3152896.1073379517 -866644.16146850586 0 0 0 0 -2435368.7399253845 6055003.1056900024 0 6055003.1056900024 -1107143.3393859863 0 0 0 0 5839806.052444458 15545515.605722427 0 15545515.605722427 -7323526.4263153076 0 0 0 0 1330658.9718666077 -1127947.50050354 0 -1127947.50050354 -4297264.971282959 0 0 0 0 847306.39568911493 2829195.455877617 0 2829195.455877617 971873.97017173097 0 0 0 0 -1971022.9730834961 2894641.1411132812 0 2894641.1411132812 -85734.377833614912 0 0 0 0 872632463.79386139 139252059.36804581 0 139252059.36804581 -1011729334.6561279 0 0 0 0 1784230.0682396796 -1496987.2049569488 0 -1496987.2049569488 50026.661362588406 0 0 0 0 589325010.0670166 -226727714.76596069 0 -226727714.76596069 381920147.60296631 0 0 0 0 -1496660.1029695496 -2552408.6810559705 0 -2552408.6810559705 691003.7168046236 0 0 0 0 -4976482.6050720215 614640098.62417603 0 614640098.62417603 -130033039.9158783 0 0 0 0 -7941343.5384258069 655857.76636949554 0 655857.76636949554 3057501.5562614799 0 0 0 0 -16290126.021850586 10216374.898696899 0 10216374.898696899 768185.06550598145 0 0 0 0 -156868032.34963608 65364708.773540497 0 65364708.773540497 3408114.4600524902 0 0 0 0 -167302154.25229645 39239982.58896637 0 39239982.58896637 -15739041.454656601 0 0 0 0 58304429.788622171 -19626577.370732106 0 -19626577.370732106 -7206101.3963038456 0 0 0 0 111390.79995417595 -21094.274090893567 0 -21094.274090893567 2521491.4860421121 0 0 0 0 -6229045.3731384277 2132215.8951873779 0 2132215.8951873779 -4394380.0086269379 0 0 0 0 6250565.8029613495 -7610947.4207191467 0 -7610947.4207191467 -279843081.05311584 0 0 0 0 -7787796.2748184204 3117752.9381027222 0 3117752.9381027222 15383226.712661743 0 0 0 0 -7400561.2678985596 3167615.141708374 0 3167615.141708374 -919767.48637580872 0 0 0 0 -24636819.143629074 13664834.75522995 0 13664834.75522995 11891382.293579102 0 0 0 0 -19817059.483558655 -579866.7820110321 0 -579866.7820110321 16870458.377990723 0 0 0 0 -1713709.0458545685 4814891.8763523102 0 4814891.8763523102 15226689.507507324 0 0 0 0 -2335670.5751342773 1814782.7459564209 0 1814782.7459564209 18311770.402709961 0 0 0 0 -4965022.559967041 9767205.7542648315 0 9767205.7542648315 23067641.118331909 0 0 0 0 -19826324.585601807 394941.95971679688 0 394941.95971679688 57673803.754333496 0 0 0 0 -18507286.687988281 -2399957.123550415 0 -2399957.123550415 16429005.074371338 0 0 0 0 -2131685.8333572224 -556708.79253157414 0 -556708.79253157414 1647313.1579778343 0 0 0 0 -21321071.659591675 -29681200.617530823 0 -29681200.617530823 119703593.45204544 0 0 0 0 -34490742.907501221 57085022.209609985 0 57085022.209609985 97632956.910331726 0 0 0 0 23240192.000419617 136610902.77954102 0 136610902.77954102 27142653.479553223 0 0 0 0 51331126.132350922 128072609.47002792 0 128072609.47002792 -26657364.771728516 0 0 0 0 -68112907.866836548 53247016.311225891 0 53247016.311225891 -34928339.426633835 0 0 0 0 -5039315.3447167426 -485367.31233469956 0 -485367.31233469956 3082574.8451988995 0 0 0 0 -105730461.76774597 47591836.730941772 0 47591836.730941772 -28535966.353631973 0 0 0 0 -112489293.1000824 109954340.48902893 0 109954340.48902893 -21577644.245285034 0 0 0 0 8403688.0430831909 113115456.92543793 0 113115456.92543793 -16807717.345336914 0 0 0 0 23021916.067710876 90088007.091316223 0 90088007.091316223 -19336.945945831067 0 0 0 0 -60820184.659485817 45772011.507246017 0 45772011.507246017 7461352.0776367188 0 0 0 0 -65424104.136262894 71226371.320158005 0 71226371.320158005 -28112086.252563477 0 0 0 0 -117566719.78431702 79530565.570983887 0 79530565.570983887 -1197.4775619359216 0 0 0 0 141047587.03960678 80383510.991834909 0 80383510.991834909 -11390560.788024902 0 0 0 0 108844391.36302185 89069195.151535034 0 89069195.151535034 -18272.504272460938 0 0 0 0 54085982.683601379 53980445.474952698 0 53980445.474952698 1294536.2142181396 0 0 0 0 119829113.42595673 64262343.552894592 0 64262343.552894592 -10626946.810882568 0 0 0 0 16392847.134313583 83923908.23346138 0 83923908.23346138 50731664.561080933 0 0 0 0 119229529.03816223 91145230.583900452 0 91145230.583900452 -1968043.980255127 0 0 0 0 77717949.569473267 15841996.947868347 0 15841996.947868347 -7765524.0359649658 0 0 0 0 47748235.313766479 137629483.88335419 0 137629483.88335419 -19980371.254150391 0 0 0 0 6770707.0061264038 101895696.44358826 0 101895696.44358826 -46023994.921295166 0 0 0 0 -29883505.261398315 37282857.768814087 0 37282857.768814087 -23215240.578578949 0 0 0 0 1178122.1779115796 1555388.698311016 0 1555388.698311016 -1684204.208598651 0 0 0 0 -31011069.735084534 33477892.558410645 0 33477892.558410645 -13689894.156936646 0 0 0 0 39736968.124191284 -4578255.9894104004 0 -4578255.9894104004 -146119275.13729095 0 0 0 0 -8567077.7908716202 52303339.109604836 0 52303339.109604836 75107014.201782227 0 0 0 0 -44995261.712265015 22219011.390151978 0 22219011.390151978 53604587.118690491 0 0 0 0 -31422064.876068115 -25646562.45199585 0 -25646562.45199585 221898081.00351906 0 0 0 0 -26429025.637199402 202250028.33708191 0 202250028.33708191 163353218.38607788 0 0 0 0 4366098.3265259489 17308731.726560019 0 17308731.726560019 -7053524.3924524579 0 0 0 0 12335164.441123962 117026440.55606842 0 117026440.55606842 -97507211.079360962 0 0 0 0 142174110.86196899 -4766552.418800354 0 -4766552.418800354 5900902.3299179077 0 0 0 0 176310393.80502319 -157185682.3790741 0 -157185682.3790741 -195503274.34545135 0 0 0 0 5251642.006856367 16862074.09925542 0 16862074.09925542 -6332536.8200521022 0 0 0 0 -44708743.704193115 62428788.432525635 0 62428788.432525635 135819260.12531471 0 0 0 0 -173842463.60147858 59095184.684131622 0 59095184.684131622 427592437.71897125 0 0 0 0 -1269350.3812146634 -128088.00170340389 0 -128088.00170340389 1555711.7588851452 0 0 0 0 54511669.465637207 283339828.73947906 0 283339828.73947906 140675890.1386795 0 0 0 0 9251679.605255127 -16167431.329086304 0 -16167431.329086304 21443133.657821655 0 0 0 0 -13667733.821495056 8308894.654753685 0 8308894.654753685 14629191.315139771 0 0 0 0 -10531635.957079202 7467541.3130738959 0 7467541.3130738959 2037282.4809493441 0 0 0 0 219762809.5151062 -151914483.13095665 0 -151914483.13095665 81948988.914260864 0 0 0 0 -8423673.3563168719 8409527.3865798265 0 8409527.3865798265 -3084040.4209692478 0 0 0 0 297005.20315162092 4109300.1588254832 0 4109300.1588254832 108320.68073628843 0 0 0 0 448758543.23123169 -124226741.31295776 0 -124226741.31295776 28442434.435401917 0 0 0 0 -38445404.345687866 -29771239.565338135 0 -29771239.565338135 49062693.866983891 0 0 0 0 -9212239.5789337158 24067835.462799072 0 24067835.462799072 45836698.59161377 0 0 0 0 -9733341.255355835 2151474.0506210327 0 2151474.0506210327 21800510.448353291 0 0 0 0 -7451141.6856536865 -2494562.2822189331 0 -2494562.2822189331 21818830.06987083 0 0 0 0 -7857115.535369873 -651596.06763458252 0 -651596.06763458252 18047770.998940706 0 0 0 0 -6346970.4273071289 1146100.0353088379 0 1146100.0353088379 12256805.718261719 0 0 0 0 -10773667.267562866 4329829.4110870361 0 4329829.4110870361 18177680.723671675 0 0 0 0 -1103864.8342208862 4045532.0537185669 0 4045532.0537185669 13852760.909439087 0 0 0 0 -6354243.2840819582 7650821.626076974 0 7650821.626076974 1794127.2959921043 0 0 0 0 -13780080.519846916 12232005.061348438 0 12232005.061348438 51473371.993652344 0 0 0 0 -8092909.1277236938 6492501.8594055176 0 6492501.8594055176 13758846.648986816 0 0 0 0 -1513437.3520622253 19718486.47032547 0 19718486.47032547 -12882999.694763184 0 0 0 0 -4990684.2909202576 21197811.719303131 0 21197811.719303131 11854855.232192993 0 0 0 0 186353.95735168457 27683840.772018433 0 27683840.772018433 13541857.002914429 0 0 0 0 1851223.3836212158 23692743.166015625 0 23692743.166015625 18673800.84375 0 0 0 0 14073578.411170959 30387081.485351562 0 30387081.485351562 4075946.3134918213 0 0 0 0 348843.72832747921 328898.68139052391 0 328898.68139052391 180914.63419415057 0 0 0 0 10428519.238807678 19374952.923057556 0 19374952.923057556 101951.22366333008 0 0 0 0 -687183.90186806023 1739870.2689187005 0 1739870.2689187005 638931.81884077564 0 0 0 0 -6538181.5482711792 4476257.5988922119 0 4476257.5988922119 6028706.1555328369 0 0 0 0 -217670.98010205477 632485.92343161255 0 632485.92343161255 114551.09975299053 0 0 0 0 -9552278.5411949158 -18571158.066955566 0 -18571158.066955566 -12968734.215003967 0 0 0 0 3738576.6400146484 6473531.5391120911 0 6473531.5391120911 -32202566.170547485 0 0 0 0 -3596261.1690063477 33804982.018325806 0 33804982.018325806 -82285930.145702362 0 0 0 0 -52967469.17565155 69319624.404747009 0 69319624.404747009 -46632509.142501831 0 0 0 0 -146302578.14470673 18326335.583984375 0 18326335.583984375 11173296.277923584 0 0 0 0 -25548096.38822937 3256559.9484710693 0 3256559.9484710693 6696945.757522583 0 0 0 0 -61418382.497844696 48702589.03544426 0 48702589.03544426 -4076637.6773376465 0 0 0 0 -26370346.004302979 25795648.375839233 0 25795648.375839233 13591884.188194275 0 0 0 0 -34356856.490386963 25729616.190750122 0 25729616.190750122 13811159.166290283 0 0 0 0 -26373357.682678223 4364832.4129333496 0 4364832.4129333496 20787589.350418091 0 0 0 0 -48686095.098430634 6170032.9182815552 0 6170032.9182815552 13922908.339508057 0 0 0 0 -20231460.689605713 9339560.4789733887 0 9339560.4789733887 13225309.001617432 0 0 0 0 -19410699.801208496 12109257.015548706 0 12109257.015548706 20177207.023986816 0 0 0 0 -8248355.435333252 34188687.559143066 0 34188687.559143066 -29022718.957527161 0 0 0 0 -20631994.270324707 33634038.184295654 0 33634038.184295654 -30200395.630844116 0 0 0 0 -18698329.392295837 26726047.552993774 0 26726047.552993774 -12081208.946868896 0 0 0 0 -31251744.270227432 39874554.322437286 0 39874554.322437286 -2694128.3922119141 0 0 0 0 -21075085.388809204 27154598.42489624 0 27154598.42489624 8889224.8606719971 0 0 0 0 -22640110.773223877 33145748.485626221 0 33145748.485626221 17527586.394866943 0 0 0 0 -10786136.462097168 29410375.85471344 0 29410375.85471344 18474189.278198242 0 0 0 0 -15608000.277618408 25163734.236732483 0 25163734.236732483 23668839.728607178 0 0 0 0 -32502377.58744812 29607257.797134399 0 29607257.797134399 22658587.292602539 0 0 0 0 -5325437.4855880737 30131459.229942322 0 30131459.229942322 27276807.621124268 0 0 0 0 -21780916.829414368 29848142.732303619 0 29848142.732303619 27300896.749923706 0 0 0 0 -2415762.5053405762 14990600.834976196 0 14990600.834976196 36141804.967163086 0 0 0 0 -6318131.0874023438 8841624.9152526855 0 8841624.9152526855 26474512.870666504 0 0 0 0 -25665881.217956543 6894004.2993621826 0 6894004.2993621826 27636986.651016235 0 0 0 0 -15811065.584320068 4225119.7045593262 0 4225119.7045593262 37193448.276550293 0 0 0 0 -19474712.823028564 18429295.660598755 0 18429295.660598755 28261063.915924072 0 0 0 0 -35977972.77563858 23663943.647613525 0 23663943.647613525 29292895.224182129 0 0 0 0 -1699596.7751464844 12635970.872573853 0 12635970.872573853 28936473.931529999 0 0 0 0 -27243186.733917236 18858635.595420837 0 18858635.595420837 30996355.407653809 0 0 0 0 -12137311.039306641 8625139.5590515137 0 8625139.5590515137 42295263.86819458 0 0 0 0 -7038957.2106132507 632090.86026954651 0 632090.86026954651 35815846.464004517 0 0 0 0 5977709.9226303101 39543622.730930328 0 39543622.730930328 10084092.722160339 0 0 0 0 -29728775.516822815 9503673.8932380676 0 9503673.8932380676 32329442.986156464 0 0 0 0 -39916930.794054031 59148242.457570076 0 59148242.457570076 3094458.0051727295 0 0 0 0 -3045670.678648293 20158566.577105936 0 20158566.577105936 7933854.506814748 0 0 0 0 -15912751.101043701 22344238.447151184 0 22344238.447151184 23153604.727005005 0 0 0 0 -5161039.0417633057 22862443.35395813 0 22862443.35395813 22995186.441417694 0 0 0 0 -4242328.4499502629 20015424.695920702 0 20015424.695920702 9027707.236439731 0 0 0 0 -2249505.2097987682 17736024.639506504 0 17736024.639506504 9609624.7270260938 0 0 0 0 -5453877.8634262085 24317289.168354034 0 24317289.168354034 16920006.308898926 0 0 0 0 -4791410.9975509644 20167214.602661133 0 20167214.602661133 11576153.008049011 0 0 0 0 2033184.2935829163 26564304.867145538 0 26564304.867145538 7414496.324508667 0 0 0 0 453518.49041748047 18071221.976295471 0 18071221.976295471 -930556.46046447754 0 0 0 0 -1068482.6142684668 18199535.127910905 0 18199535.127910905 7817644.3941938803 0 0 0 0 2296228.4437103271 28744087.890701294 0 28744087.890701294 18940652.356742859 0 0 0 0 28811618.981842041 42459764.024795532 0 42459764.024795532 13341177.096252441 0 0 0 0 24519620.29119873 20453990.208526611 0 20453990.208526611 11125677.931739807 0 0 0 0 -10285399.826267242 33786849.923226357 0 33786849.923226357 34941117.798034668 0 0 0 0 -10089671.618896484 6292548.7732162476 0 6292548.7732162476 12494682.093257904 0 0 0 0 -8943030.1648247391 6997319.6921948791 0 6997319.6921948791 14985821.512135863 0 0 0 0 17476859.346050262 44926350.586965561 0 44926350.586965561 29428327.875366211 0 0 0 0 -15359021.889022827 19065680.69568634 0 19065680.69568634 48403244.647438049 0 0 0 0 -1303893.0205278248 759507.49859285355 0 759507.49859285355 -366828.12813157588 0 0 0 0 -6029732.6500891149 20317975.911768168 0 20317975.911768168 17453344.861087516 0 0 0 0 -5095877.885307312 22896169.655986786 0 22896169.655986786 -4912435.6412200928 0 0 0 0 -45508960.411502838 3315082.4508285522 0 3315082.4508285522 29113346.72845459 0 0 0 0 -515097.84888458252 17202377.43359375 0 17202377.43359375 -5216233.9502956867 0 0 0 0 -13582411.116882324 20192636.286705017 0 20192636.286705017 23167140.837844849 0 0 0 0 -108518.88368988037 19380739.966667175 0 19380739.966667175 -12207943.567779541 0 0 0 0 1295297.1610031128 13413645.680953979 0 13413645.680953979 -4610091.1203384399 0 0 0 0 3372940.2253564149 12755948.162059549 0 12755948.162059549 -6887252.3404198438 0 0 0 0 20543954.412715912 13846108.25106144 0 13846108.25106144 -55911337.038459778 0 0 0 0 -124488.41231198609 3187041.0744118653 0 3187041.0744118653 272340.00343619776 0 0 0 0 17213515.326339722 35963910.621185303 0 35963910.621185303 -51575381.167246342 0 0 0 0 -5151165.7663650513 10730582.900924683 0 10730582.900924683 -18649608.187953949 0 0 0 0 540913.96672764421 18010396.579820126 0 18010396.579820126 4250991.0868183784 0 0 0 0 479433.74056168646 12775930.126808167 0 12775930.126808167 6824798.849906059 0 0 0 0 4698726.4630889893 10876504.266494751 0 10876504.266494751 -16887885.32434845 0 0 0 0 5065015.3851003498 7379873.2095105639 0 7379873.2095105639 -22423500.210960619 0 0 0 0 4647850.6374015808 21104404.677446842 0 21104404.677446842 -35157725.89673996 0 0 0 0 65097286.236625671 15600274.447977066 0 15600274.447977066 -36009522.995390892 0 0 0 0 -6118246.3614044189 11469220.655653954 0 11469220.655653954 -23729317.270275116 0 0 0 0 -1237293.132873375 3566131.2946553715 0 3566131.2946553715 -1243862.5306521058 0 0 0 0 22365988.414573669 9658345.3292560577 0 9658345.3292560577 -24743324.207069874 0 0 0 0 19649580.197105408 16473668.610412598 0 16473668.610412598 -7615044.4963207245 0 0 0 0 23895291.116241455 20446901.679731369 0 20446901.679731369 -49525750.836581707 0 0 0 0 -502145.36598587036 7235408.2253704071 0 7235408.2253704071 -42494821.403203964 0 0 0 0 3164537.6391208135 7148491.9704267364 0 7148491.9704267364 -10696313.690102359 0 0 0 0 -3093966.1931610107 43621101.545160294 0 43621101.545160294 -57298021.471820831 0 0 0 0 -29303303.428779602 57008567.075138092 0 57008567.075138092 -231370.97431564331 0 0 0 0 -13573335.61781311 22882054.048698425 0 22882054.048698425 39004781.237327576 0 0 0 0 -479822.68097177148 17361218.501160234 0 17361218.501160234 306262.29718254227 0 0 0 0 12236377.539020538 14281824.019454479 0 14281824.019454479 -47155510.804031372 0 0 0 0 17306403.524681091 35244457.52281189 0 35244457.52281189 -19287061.907279968 0 0 0 0 4226707.5277793333 13169224.123423886 0 13169224.123423886 -7245644.3180661909 0 0 0 0 227058.18376630545 1403709.9419334196 0 1403709.9419334196 3783307.9546742663 0 0 0 0 11516918.87802124 83257375.224197388 0 83257375.224197388 3188486.9746208191 0 0 0 0 65288831.136756897 57406565.767065048 0 57406565.767065048 -28452746.618942261 0 0 0 0 40393147.672925949 49080895.93550539 0 49080895.93550539 -4508705.6920013428 0 0 0 0 1737440.8920523711 15846645.743252307 0 15846645.743252307 -8136369.1813532189 0 0 0 0 10967926.067016602 -22081507.710597992 0 -22081507.710597992 41774118.424442291 0 0 0 0 12623522.223257065 50761985.320097923 0 50761985.320097923 14746935.115943909 0 0 0 0 5589013.7985229492 38666543.810214996 0 38666543.810214996 -5467623.4061126709 0 0 0 0 -5866225.2694358826 -24998292.835821152 0 -24998292.835821152 49628435.878303528 0 0 0 0 2605323.8991647698 2307468.5194885116 0 2307468.5194885116 -6890911.1328579709 0 0 0 0 35693840.812484741 10459225.926429749 0 10459225.926429749 -39618015.951568604 0 0 0 0 10457237.866775513 24841478.453179359 0 24841478.453179359 -48195197.714056492 0 0 0 0 2728935.9030006081 18931093.25641235 0 18931093.25641235 -8676304.5917202625 0 0 0 0 -1590138.1875839233 20922694.134435177 0 20922694.134435177 -38688808.688137054 0 0 0 0 -18709708.66217041 49502065.065250397 0 49502065.065250397 21051143.835784912 0 0 0 0 -46098930.333587646 52604675.867044449 0 52604675.867044449 25534945.326547623 0 0 0 0 -771320.00205931813 13827579.10282129 0 13827579.10282129 -13691615.374372039 0 0 0 0 -43128068.786651611 1644557.1673240662 0 1644557.1673240662 -5377561.5850391388 0 0 0 0 -14122727.23197937 25297482.346927643 0 25297482.346927643 9766449.6566066742 0 0 0 0 4778091.3770638034 22480010.160530053 0 22480010.160530053 -13181418.668629296 0 0 0 0 9650083.3851013184 29866128.232154846 0 29866128.232154846 -11684927.280540466 0 0 0 0 2395238.5336418152 20788665.784070015 0 20788665.784070015 -54718804.95715332 0 0 0 0 16772743.366264343 12419252.822132111 0 12419252.822132111 17626379.364753723 0 0 0 0 -2514000.9341622293 24324321.973519191 0 24324321.973519191 -13551814.496459439 0 0 0 0 1121201.8295593262 9277992.1055450439 0 9277992.1055450439 -4837817.2715072632 0 0 0 0 639844.68354947865 22484016.916508559 0 22484016.916508559 -14603786.411877789 0 0 0 0 34728033.091629028 50452575.261413574 0 50452575.261413574 -30787697.365783691 0 0 0 0 8288665.2379608154 10827692.782974243 0 10827692.782974243 -8769560.7221221924 0 0 0 0 11461665.467083849 13482234.771864474 0 13482234.771864474 -725371.33851664513 0 0 0 0 -28177934.847221375 39272574.449133873 0 39272574.449133873 26436075.62436676 0 0 0 0 -7012750.4151000977 66945089.420595169 0 66945089.420595169 40339358.770179749 0 0 0 0 881766.36483883113 22429427.863298759 0 22429427.863298759 -23120694.811001085 0 0 0 0 -4345337.7184453234 1832636.132181894 0 1832636.132181894 5684766.3400126789 0 0 0 0 -14654397.358581543 45363988.750518799 0 45363988.750518799 10892435.490600586 0 0 0 0 -9855779.7092285156 90520228.681655884 0 90520228.681655884 -59167436.712768555 0 0 0 0 -5366592.1172640175 23138385.40172248 0 23138385.40172248 -65163.475967615843 0 0 0 0 161921211.66775513 5756433.1021957397 0 5756433.1021957397 -20739303.644622803 0 0 0 0 -5022134.0727388784 980624.38409855589 0 980624.38409855589 1188485.4029574916 0 0 0 0 5521822.1949492842 15401454.963827785 0 15401454.963827785 -1721468.3478443399 0 0 0 0 6027336.4830169678 36740317.461524963 0 36740317.461524963 1986401.6470031738 0 0 0 0 1186593.1890106201 34359994.726463318 0 34359994.726463318 14422466.549568176 0 0 0 0 23130251.462760925 39229314.836410522 0 39229314.836410522 9919327.4636383057 0 0 0 0 37913643.078323364 31034644.881752014 0 31034644.881752014 1752113.7126312256 0 0 0 0 -2183024.8482351191 31182575.438173436 0 31182575.438173436 3885656.3287979215 0 0 0 0 -11587506.749763489 44327369.162273407 0 44327369.162273407 15620800.855957031 0 0 0 0 69393001.777374268 65043308.964004517 0 65043308.964004517 -6257741.2071685791 0 0 0 0 10485130.268943787 43538328.234745026 0 43538328.234745026 -6538594.9611358643 0 0 0 0 -67236847.233810425 57294233.241947174 0 57294233.241947174 16913211.150978088 0 0 0 0 -54884.244263619184 25952302.161914557 0 25952302.161914557 9662224.6216169894 0 0 0 0 -874487.59329223633 75929739.416448593 0 75929739.416448593 3205324.1630706787 0 0 0 0 -69019153.112564087 12018056.699108124 0 12018056.699108124 9537983.9884796143 0 0 0 0 57448691.599945068 42411356.636039734 0 42411356.636039734 -20537317.120758057 0 0 0 0 78227769.259140015 53600640.995697021 0 53600640.995697021 -15942892.17880249 0 0 0 0 74042501.665008545 137416451.17211151 0 137416451.17211151 100148908.13891602 0 0 0 0 140453099.06329346 57725007.938522339 0 57725007.938522339 -40709217.149383545 0 0 0 0 33716619.648071289 77826672.943222046 0 77826672.943222046 18594949.021461487 0 0 0 0 2092443.2012634277 84911377.836296082 0 84911377.836296082 20889896.111303329 0 0 0 0 37141811.92300415 46230561.328300476 0 46230561.328300476 -20893411.579818726 0 0 0 0 10664826.275848389 42321963.346611023 0 42321963.346611023 1318350.7727661133 0 0 0 0 25391495.514175415 17167192.850765228 0 17167192.850765228 -15646893.343963623 0 0 0 0 42676855.732177734 35822658.433860779 0 35822658.433860779 -3732556.1879477501 0 0 0 0 -363157.23067979515 19812263.41398387 0 19812263.41398387 -10113041.302583184 0 0 0 0 6152329.7910690308 40200896.518783569 0 40200896.518783569 -27139354.069801807 0 0 0 0 14288301.434776306 -7259248.4255447388 0 -7259248.4255447388 35690221.314041138 0 0 0 0 17132398.039016724 -4396130.3882446289 0 -4396130.3882446289 7077655.3787689209 0 0 0 0 19073989.238037109 -11174851.803466797 0 -11174851.803466797 38780842.365562439 0 0 0 0 -310552.58458348364 440162.60322313011 0 440162.60322313011 906265.50854289532 0 0 0 0 18248658.791908264 -7217133.2981643677 0 -7217133.2981643677 14638126.665466309 0 0 0 0 7456265.9444297627 10351510.418877723 0 10351510.418877723 -8648893.2840846479 0 0 0 0 32734449.546783447 21941183.39515686 0 21941183.39515686 -16514177.072052956 0 0 0 0 44505060.457878113 -39912088.989952087 0 -39912088.989952087 -44640342.355102539 0 0 0 0 63620497.518882751 18001847.299926758 0 18001847.299926758 5308329.9268832207 0 0 0 0 310099769.04532242 2150844.8036584854 0 2150844.8036584854 -5939976.7270507812 0 0 0 0 169340882.93237114 294879013.78525162 0 294879013.78525162 258422892.55267334 0 0 0 0 -7755625.4891994521 7110891.9913618565 0 7110891.9913618565 2294425.6260567904 0 0 0 0 1131067.1623764932 -63117.272191390395 0 -63117.272191390395 -882707.57034239173 0 0 0 0 -391456.44651691616 407234.59083797038 0 407234.59083797038 56894.301418885589 0 0 0 0 293248682.96017456 126416092.7627182 0 126416092.7627182 118762275.12921143 0 0 0 0 175969763.17723083 174893655.35411072 0 174893655.35411072 370481062.38304138 0 0 0 0 39699260.292617798 -42771297.743522644 0 -42771297.743522644 -24975745.510604858 0 0 0 0 -8471929.4735908508 -13504145.666957855 0 -13504145.666957855 16706747.685119629 0 0 0 0 -34430210.016647339 -5218753.0138702393 0 -5218753.0138702393 14365542.833053589 0 0 0 0 1538093.9033555984 151419977.0973959 0 151419977.0973959 -23638852.506988525 0 0 0 0 -28858340.619430542 -54758854.193824768 0 -54758854.193824768 -7331720.6686248779 0 0 0 0 465355318.49052429 108170723.97239685 0 108170723.97239685 -83759404.055931091 0 0 0 0 -8291726.2003482506 8055345.4836354256 0 8055345.4836354256 -1750846.9181856066 0 0 0 0 146564257.28926086 109702491.68328094 0 109702491.68328094 92158570.027770996 0 0 0 0 31507329.679733276 65097029.228790283 0 65097029.228790283 145736160.91030884 0 0 0 0 -58882014.02746582 235370936.70553589 0 235370936.70553589 365205593.72151184 0 0 0 0 -124581124.17379761 88572077.744995117 0 88572077.744995117 338044575.85876465 0 0 0 0 -179368687.89876556 -96203472.771875381 0 -96203472.771875381 158241196.71209717 0 0 0 0 58757198.185951233 -129277682.09765625 0 -129277682.09765625 -190293668.22827148 0 0 0 0 -3868412.9067793861 5561046.6461428851 0 5561046.6461428851 3779826.3573063128 0 0 0 0 109195284.46386719 -9524553.2046051025 0 -9524553.2046051025 -15192576.534683228 0 0 0 0 -12789755.50012207 55627971.242279053 0 55627971.242279053 -45474690.91570282 0 0 0 0 -26281683.281768799 14057602.021392822 0 14057602.021392822 37928514.994792938 0 0 0 0 -126049469.25488281 -18842248.058532715 0 -18842248.058532715 34853732.632040024 0 0 0 0 -3631654.1314611211 15947469.794427112 0 15947469.794427112 5214394.6299688853 0 0 0 0 17035296.881210327 22522323.067703247 0 22522323.067703247 13294029.083465576 0 0 0 0 -68335479.784194946 -58703986.06993103 0 -58703986.06993103 -46449295.3334198 0 0 0 0 9870260.9015350342 32250604.212661743 0 32250604.212661743 3951685.9616088867 0 0 0 0 44869247.43460083 73952524.281890869 0 73952524.281890869 37985567.432922363 0 0 0 0 -64234253.811309814 -47373156.517684937 0 -47373156.517684937 13000515.740829468 0 0 0 0 -111795171.93091202 -68597576.629875183 0 -68597576.629875183 21734313.942565918 0 0 0 0 -82081895.8590765 16201327.417303443 0 16201327.417303443 91534639.198547363 0 0 0 0 -114936321.17580414 19294998.880905151 0 19294998.880905151 52031580.85206604 0 0 0 0 -82371705.471362352 842533.64678132534 0 842533.64678132534 -24308321.978652954 0 0 0 0 -30849178.171813965 77065489.956436157 0 77065489.956436157 105288741.48077393 0 0 0 0 -37107242.22215271 20955717.928131104 0 20955717.928131104 65909477.729705811 0 0 0 0 -27707637.167648315 71253437.30632019 0 71253437.30632019 200688968.47335815 0 0 0 0 60519136.565948486 87410501.015136719 0 87410501.015136719 92344898.754272461 0 0 0 0 319655408.22421455 207765936.17322969 0 207765936.17322969 72882792.609436035 0 0 0 0 86214170.533874512 167736278.20066833 0 167736278.20066833 321729028.22290039 0 0 0 0 68152692.546630859 43742549.749359131 0 43742549.749359131 105769805.61172485 0 0 0 0 88379081.80279541 -13384657.955169678 0 -13384657.955169678 264890264.96463776 0 0 0 0 -36255172.830871582 2210838.6308135986 0 2210838.6308135986 120959154.35742188 0 0 0 0 4491768.1862374544 8501077.6560279578 0 8501077.6560279578 143990.31898949295 0 0 0 0 27954053.942596436 30001877.949184418 0 30001877.949184418 13319469.476696014 0 0 0 0 63051.166107855737 26223538.293927968 0 26223538.293927968 14004591.752737515 0 0 0 0 4851623.5375061035 12063412.805595398 0 12063412.805595398 6642713.8702430725 0 0 0 0 20222591.26599884 18117482.288619995 0 18117482.288619995 -1784570.3296966553 0 0 0 0 21748888.993830383 17658760.808719397 0 17658760.808719397 -2223199.2853506021 0 0 0 0 1540693.504209362 15930453.631210737 0 15930453.631210737 6622452.2624226958 0 0 0 0 -17604283.994171143 13262296.486930847 0 13262296.486930847 -3757534.5803289413 0 0 0 0 681025.36644475162 17226949.5625709 0 17226949.5625709 3902748.3519389629 0 0 0 0 44392789.046691895 68259238.038368225 0 68259238.038368225 65882905.238193512 0 0 0 0 -27592779.144470215 9500859.6615066528 0 9500859.6615066528 4726684.3619232178 0 0 0 0 -4622274.3067837134 2956408.8733594269 0 2956408.8733594269 2404383.8192121387 0 0 0 0 -91191386.411567688 -23499834.771396637 0 -23499834.771396637 23928439.549102783 0 0 0 0 -1251474.7205790281 287136.75173185021 0 287136.75173185021 1146316.7491279598 0 0 0 0 18226620.418243408 19254895.007698059 0 19254895.007698059 8619590.9065132141 0 0 0 0 1027779.3357068747 11175633.108021244 0 11175633.108021244 2660350.3291615061 0 0 0 0 29566782.095108032 25868648.994192123 0 25868648.994192123 6930488.007232666 0 0 0 0 -556452.52953391522 4650674.0573228002 0 4650674.0573228002 283035.34345978498 0 0 0 0 10031083.246170044 8669212.1597976685 0 8669212.1597976685 23160552.271026611 0 0 0 0 -65389329.231651306 131326676.12859631 0 131326676.12859631 -232907819.12234497 0 0 0 0 -282100240.30451965 265109608.4875145 0 265109608.4875145 -25386858.992202759 0 0 0 0 -774532572.15915298 259084144.06223106 0 259084144.06223106 90774667.962005615 0 0 0 0 -308275.43993175775 1652723.6235669255 0 1652723.6235669255 76849.440660633147 0 0 0 0 -88691554.028076172 525527127.58286285 0 525527127.58286285 -101211776.62281036 0 0 0 0 110810994.42289734 87719553.711448669 0 87719553.711448669 15539615.094638824 0 0 0 0 86129541.419631958 56155724.953285217 0 56155724.953285217 -43011091.06149292 0 0 0 0 2309825.4334194623 3960239.5732944012 0 3960239.5732944012 -895681.38488286734 0 0 0 0 44878957.279418945 43533030.161308289 0 43533030.161308289 63406671.125770569 0 0 0 0 49057494.93838501 26702064.60975647 0 26702064.60975647 -17393566.670120239 0 0 0 0 7276654.2851867676 55705092.210548401 0 55705092.210548401 35036382.992988586 0 0 0 0 42296299.822860718 40435138.001821518 0 40435138.001821518 22837431.159194946 0 0 0 0 74832798.101638794 33869585.958515167 0 33869585.958515167 12859203.777938843 0 0 0 0 38261522.827583313 31177869.460905075 0 31177869.460905075 8404498.4166412354 0 0 0 0 12404406.562576294 19840982.233570099 0 19840982.233570099 25024468.11390686 0 0 0 0 8455889.7479858398 13479828.008903503 0 13479828.008903503 16692096.30338192 0 0 0 0 74689343.193622589 22907211.851605892 0 22907211.851605892 -72757923.923034668 0 0 0 0 -41958865.362243652 21768772.364654541 0 21768772.364654541 18718095.678085327 0 0 0 0 6333106.2676391602 30102225.095001221 0 30102225.095001221 -20094871.710494995 0 0 0 0 -158062241.54902649 52490203.689800262 0 52490203.689800262 -18360899.882080078 0 0 0 0 -13076582.996398926 -47116378.900863647 0 -47116378.900863647 -114555375.09051514 0 0 0 0 -3409402.9094238281 82751447.447662354 0 82751447.447662354 -70554177.541366577 0 0 0 0 128745109.57608032 46887799.854408264 0 46887799.854408264 -92761491.020530701 0 0 0 0 19581335.841751099 141094885.03667831 0 141094885.03667831 -159058734.2166748 0 0 0 0 127010513.02345276 29890579.126663208 0 29890579.126663208 -244756504.83877563 0 0 0 0 65911652.339202881 122009306.4917984 0 122009306.4917984 -114476765.59089661 0 0 0 0 34941308.374389648 160210768.78510284 0 160210768.78510284 -161587339.22073364 0 0 0 0 63401580.997070312 113177413.13475037 0 113177413.13475037 -8457981.0391845703 0 0 0 0 270241579.2947998 145797452.11463928 0 145797452.11463928 -162570171.95512009 0 0 0 0 224813462.93017578 -32810122.515625 0 -32810122.515625 110144432.26116943 0 0 0 0 -2145940.3232421875 203482826.66822815 0 203482826.66822815 49864568.735916138 0 0 0 0 355168124.90475464 82108479.78200531 0 82108479.78200531 -119663253.14277649 0 0 0 0 -414757551.89239502 31640740.761032104 0 31640740.761032104 82448866.440368652 0 0 0 0 -4767535.1690536588 3516810.0141640157 0 3516810.0141640157 2030589.8337109908 0 0 0 0 -214569737.89697266 239781221.67726135 0 239781221.67726135 -26456347.583515167 0 0 0 0 69518428.23449707 138130739.48442078 0 138130739.48442078 -44647329.29486084 0 0 0 0 -184095427.85076904 -7247275.9265136719 0 -7247275.9265136719 9665730.4260225296 0 0 0 0 -211013169.97092056 168466679.61907196 0 168466679.61907196 -17524414.063262939 0 0 0 0 -13090255.550048828 81522716.114013672 0 81522716.114013672 -5192679.1622314453 0 0 0 0 -28696437.426322982 34546500.850128576 0 34546500.850128576 -2787923.1780142034 0 0 0 0 -69680534.484130859 53217899.156890869 0 53217899.156890869 26671172.289596558 0 0 0 0 -71859835.875854492 52320807.133453369 0 52320807.133453369 26564314.819581985 0 0 0 0 -25850613.965263367 57180206.921974182 0 57180206.921974182 53726361.976948738 0 0 0 0 -86751639.977233887 90183585.463287354 0 90183585.463287354 -2713761.308216095 0 0 0 0 -74912958.492538452 51849316.779022217 0 51849316.779022217 28077443.201965332 0 0 0 0 -78902482.074951172 18673583.409332275 0 18673583.409332275 10937205.281229019 0 0 0 0 -73671526.097717285 53281525.388717651 0 53281525.388717651 29570043.935943604 0 0 0 0 -151260325.67907715 54374681.938995361 0 54374681.938995361 29571516.072296143 0 0 0 0 -46713605.289855957 41652119.195842743 0 41652119.195842743 9007783.0638122559 0 0 0 0 -27567352.800140381 317534058.82237244 0 317534058.82237244 -230965884.48556519 0 0 0 0 -153685933.37115479 210913225.31608582 0 210913225.31608582 263780171.93127441 0 0 0 0 -17092749.564270485 14044672.803946823 0 14044672.803946823 8700759.5775908977 0 0 0 0 9734912.4282226562 265799322.55227661 0 265799322.55227661 -40085005.832244873 0 0 0 0 22405137.89944458 244708599.81776428 0 244708599.81776428 -18707485.339935303 0 0 0 0 48584431.25680542 233013466.2417984 0 233013466.2417984 -35172509.131256104 0 0 0 0 40707711.047180176 242072581.21116638 0 242072581.21116638 -34698159.511386871 0 0 0 0 9247694.5241088867 -54954482.733951092 0 -54954482.733951092 82885902.226837158 0 0 0 0 -10165236.369020432 730179.93310543895 0 730179.93310543895 10551759.088847041 0 0 0 0 49966399.251022339 116276682.30139303 0 116276682.30139303 20850425.707057953 0 0 0 0 -114805661.59692383 70719957.016387939 0 70719957.016387939 48988768.777667999 0 0 0 0 -15953305.736520013 14966670.77277134 0 14966670.77277134 10508399.384427544 0 0 0 0 -26130581.972735263 30918230.172532834 0 30918230.172532834 -15760877.621656729 0 0 0 0 21921241.916931152 -1244778.194726944 0 -1244778.194726944 47291996.83782196 0 0 0 0 -8396833.2203521729 60374590.393709183 0 60374590.393709183 29514896.148685455 0 0 0 0 -43337417.364433289 71347793.481650591 0 71347793.481650591 52918798.97672081 0 0 0 0 -8157050.9220955819 9660069.1924044192 0 9660069.1924044192 -3003901.4295887966 0 0 0 0 -78659736.401885986 -18008504.039333344 0 -18008504.039333344 188398545.2285614 0 0 0 0 -2728917.7027435303 8593219.102935791 0 8593219.102935791 -185976.08831787109 0 0 0 0 -1812131.4816661775 12897490.567168653 0 12897490.567168653 -13621706.259334162 0 0 0 0 -8122228.6745612919 14387659.67406933 0 14387659.67406933 -8855183.1565768067 0 0 0 0 -2634946.9052124023 8015419.9647521973 0 8015419.9647521973 3363202.4895572662 0 0 0 0 -10737343.774144687 17956359.324033674 0 17956359.324033674 -14952981.321201187 0 0 0 0 -25896938.942993164 148809826.9257009 0 148809826.9257009 38965183.123497009 0 0 0 0 -113591982.34399414 103384244.41583252 0 103384244.41583252 250799553.86324692 0 0 0 0 40950063.618254662 73783852.494134903 0 73783852.494134903 108373473.00802612 0 0 0 0 -233778460.48352051 203651552.19846344 0 203651552.19846344 49393081.337104797 0 0 0 0 -214524170.97293091 -3071177.450378418 0 -3071177.450378418 118371806.28837585 0 0 0 0 16805472.839691162 1355300.8873977661 0 1355300.8873977661 111670929.98019409 0 0 0 0 -24108990.865570068 -97063297.485733032 0 -97063297.485733032 -49762348.334213257 0 0 0 0 -79099961.657241821 -60645867.050483704 0 -60645867.050483704 -45817778.180740356 0 0 0 0 -252736378.59130859 -256711966.42009735 0 -256711966.42009735 -203243106.93397522 0 0 0 0 -5863936.5278167725 231505260.31817436 0 231505260.31817436 -158467963.67407227 0 0 0 0 -123369493.85054016 33042781.668556213 0 33042781.668556213 52713402.53163147 0 0 0 0 -654035553.86050415 111771102.15795135 0 111771102.15795135 46450434.197998047 0 0 0 0 -164168984.18464661 393712086.87616348 0 393712086.87616348 -406348012.02705383 0 0 0 0 8155574.3813781738 135811306.35186768 0 135811306.35186768 -106407145.79446411 0 0 0 0 140928690.30392456 45915025.20275116 0 45915025.20275116 -260168119.66586304 0 0 0 0 -731894586.21333313 223434080.94713211 0 223434080.94713211 5695143.2161865234 0 0 0 0 603200.92998145148 1260681.1212494299 0 1260681.1212494299 -398241.33310192823 0 0 0 0 102886839.22927856 -24750135.027114868 0 -24750135.027114868 -69516979.364868164 0 0 0 0 -276704089.54966736 -174018036.05215454 0 -174018036.05215454 247592157.32389832 0 0 0 0 -651000045.15219116 295774594.60309601 0 295774594.60309601 -232614023.47992706 0 0 0 0 271294845.35501099 82254960.921337128 0 82254960.921337128 -154840631.99394989 0 0 0 0 992408.60714530945 -1282558.1510386877 0 -1282558.1510386877 433151.76127547026 0 0 0 0 62429917.934020996 74269625.905708313 0 74269625.905708313 86216160.723243713 0 0 0 0 -40873187.59866333 25007539.187637329 0 25007539.187637329 326402374.50409079 0 0 0 0 9605261.2794036865 2384576.8241958618 0 2384576.8241958618 2536306.9150543213 0 0 0 0 68657663.818191528 -7902626.49036026 0 -7902626.49036026 3740328.5269165039 0 0 0 0 88313308.476150513 -33117561.471546173 0 -33117561.471546173 -50326773.561225891 0 0 0 0 -1530220.8118286133 -116759720.60570526 0 -116759720.60570526 -126336500.01491165 0 0 0 0 -30808455.388717651 -86514849.227077484 0 -86514849.227077484 49255850.835983276 0 0 0 0 33100666.793884277 -55714552.17741394 0 -55714552.17741394 53700799.153330803 0 0 0 0 -707349.48424366862 8098003.1404277384 0 8098003.1404277384 -4667497.4034057371 0 0 0 0 -447040.00539344549 4083322.9037871063 0 4083322.9037871063 -2622523.2209666967 0 0 0 0 -13832709.707901001 18071760.484233856 0 18071760.484233856 -9408923.4309005737 0 0 0 0 -20872572.502002716 32059335.153084755 0 32059335.153084755 -28446947.850143433 0 0 0 0 898918.33899381757 2636590.2795152962 0 2636590.2795152962 -2272434.080082899 0 0 0 0 10727392.19619751 18835497.288650513 0 18835497.288650513 -74839048.213020325 0 0 0 0 -2032467.6416473389 22921951.935009003 0 22921951.935009003 -32463068.492805481 0 0 0 0 -56461.898880004883 23586120.751441956 0 23586120.751441956 -35479259.078079224 0 0 0 0 -2182546.0051116943 28218667.829181671 0 28218667.829181671 -48901928.291893005 0 0 0 0 -12258083.027694702 23912062.275062561 0 23912062.275062561 -25433626.396194458 0 0 0 0 -6011928.9130401611 23927646.827445984 0 23927646.827445984 -33970510.017307281 0 0 0 0 9412.5197601318359 19170500.431880951 0 19170500.431880951 -30520124.103919983 0 0 0 0 -9806109.5381469727 20695676.423381805 0 20695676.423381805 -25984829.485717773 0 0 0 0 -5175181.0737304688 16383848.994285583 0 16383848.994285583 -25825391.690574884 0 0 0 0 111298.96399949491 1208130.5115284678 0 1208130.5115284678 -3076481.1795262545 0 0 0 0 3002184.2596835792 -3605264.703752026 0 -3605264.703752026 1297800.7100424008 0 0 0 0 7339105.5335693359 -30591959.694747925 0 -30591959.694747925 277146697.9365778 0 0 0 0 16629156.471405029 -4273805.9920043945 0 -4273805.9920043945 2942665.7771759033 0 0 0 0 -354644.68218377233 -3357486.2129323147 0 -3357486.2129323147 1467760.0621403507 0 0 0 0 -5188045.8465118408 14635579.935874939 0 14635579.935874939 -33258306.565841675 0 0 0 0 6904522.8715209961 -91357350.145706177 0 -91357350.145706177 841076161.1554718 0 0 0 0 -2101.1966857910156 4345285.3877487183 0 4345285.3877487183 532363.23682785034 0 0 0 0 3561817.0958579853 326504.1350877285 0 326504.1350877285 -3247771.1479168087 0 0 0 0 64025872.429336548 308201471.44621658 0 308201471.44621658 181184577.89083862 0 0 0 0 -800166.18644714355 492812415.08340454 0 492812415.08340454 705238015.44854736 0 0 0 0 305635732.21992493 444230489.19555664 0 444230489.19555664 240437322.75657654 0 0 0 0 3112168.881362915 651398709.81446838 0 651398709.81446838 103748458.68854523 0 0 0 0 203261093.35652924 261864179.62297058 0 261864179.62297058 -14040228.811889648 0 0 0 0 276227901.77975464 333808683.21653748 0 333808683.21653748 30447842.130630493 0 0 0 0 94748203.643829346 160752893.76301575 0 160752893.76301575 457164955.91223145 0 0 0 0 21723884.277061462 1398905.6797790527 0 1398905.6797790527 126350316.08400726 0 0 0 0 100373018.18765259 -33948020.645046234 0 -33948020.645046234 17838351.775726318 0 0 0 0 -337220142.12915039 192025140.72263336 0 192025140.72263336 37536260.083714962 0 0 0 0 -50289785.090927124 -18364964.520683289 0 -18364964.520683289 -69196081.992355347 0 0 0 0 151173620.08584595 199848224.83343506 0 199848224.83343506 167139749.7424469 0 0 0 0 276563445.76300049 262115297.07275391 0 262115297.07275391 50237910.871513367 0 0 0 0 -125830008.18466187 418765012.47233582 0 418765012.47233582 -9124676.0548782349 0 0 0 0 273420474.21704102 180886275.1081543 0 180886275.1081543 -238880081.13334274 0 0 0 0 -300662406.345047 134553316.44900131 0 134553316.44900131 192615395.75505066 0 0 0 0 -104709105.715271 140763245.46744537 0 140763245.46744537 150184179.08143616 0 0 0 0 268372859.34594727 245312827.60643005 0 245312827.60643005 153756969.50235367 0 0 0 0 -10288385.70980835 348215163.3284111 0 348215163.3284111 168418928.8946228 0 0 0 0 877720740.70870972 225342076.20404816 0 225342076.20404816 186674396.52942657 0 0 0 0 464183457.24557495 427061183.22735214 0 427061183.22735214 185666893.46055603 0 0 0 0 605663970.58505249 327905798.9495697 0 327905798.9495697 175096830.88070488 0 0 0 0 274294776.7763443 239224527.1472702 0 239224527.1472702 189402235.27098083 0 0 0 0 647275969.56719589 479045970.38456917 0 479045970.38456917 506165973.62023926 0 0 0 0 1198085260.4729767 681854977.83595276 0 681854977.83595276 -29699206.368011475 0 0 0 0 593832.71440124512 130486538.80383301 0 130486538.80383301 130098998.71142578 0 0 0 0 -1931997.6865215674 3559721.8055563048 0 3559721.8055563048 3263071.3500153422 0 0 0 0 612213885.89501953 721539819.33914948 0 721539819.33914948 15007540.838851929 0 0 0 0 524553148.90997314 281261874.86248779 0 281261874.86248779 -3950563.469329834 0 0 0 0 608424693.01023865 440173533.44885254 0 440173533.44885254 65010820.373580933 0 0 0 0 -6320710.3623657227 59229627.439460754 0 59229627.439460754 -108875081.2610321 0 0 0 0 1654191.9755554199 73007026.172317505 0 73007026.172317505 -135144155.06137466 0 0 0 0 -917263.96118164062 60046686.476739883 0 60046686.476739883 -165888054.48760986 0 0 0 0 -16784400.695007324 95271790.399028778 0 95271790.399028778 -146708384.19407463 0 0 0 0 -11598638.956726074 79549747.109481812 0 79549747.109481812 -124939895.85690308 0 0 0 0 -9289988.5662994385 66606933.554591179 0 66606933.554591179 -93035972.496543884 0 0 0 0 17972.525390625 76564172.381389618 0 76564172.381389618 -126388686.55041504 0 0 0 0 -3299658.8387451172 40905948.380592346 0 40905948.380592346 -81717098.754197121 0 0 0 0 19670642.27935791 60989096.572982788 0 60989096.572982788 -69348528.835002899 0 0 0 0 12164730.461746216 57298540.395936966 0 57298540.395936966 -113628423.86595917 0 0 0 0 -26221339.680480957 73682798.074172974 0 73682798.074172974 -50771210.227737427 0 0 0 0 5749482.1178283691 60495790.881111145 0 60495790.881111145 -47600822.70797348 0 0 0 0 -16667899.895111084 72108656.982036591 0 72108656.982036591 -55265414.712905884 0 0 0 0 -47748642.162597656 105094508.34393692 0 105094508.34393692 -75178955.05824852 0 0 0 0 -47228860.134246826 38214059.647415161 0 38214059.647415161 -97665450.942939758 0 0 0 0 11731744.801513672 43070081.972911835 0 43070081.972911835 -88385361.910637856 0 0 0 0 -20506277.733566284 82624212.559482574 0 82624212.559482574 -1046753.9937973022 0 0 0 0 15659592.766766384 5112501.9107674547 0 5112501.9107674547 -3440965.3211618345 0 0 0 0 12865328.997001648 64641252.524271011 0 64641252.524271011 -97809867.56401825 0 0 0 0 3576120.2942047119 6309540.8123817444 0 6309540.8123817444 -1883824.1278114319 0 0 0 0 8137166.7879943848 9512924.0259647369 0 9512924.0259647369 -9342938.5721359253 0 0 0 0 11988284.646703377 7896428.6631200612 0 7896428.6631200612 -7046707.883592885 0 0 0 0 2448417.0600706488 1079373.3240291998 0 1079373.3240291998 -1268412.8438892365 0 0 0 0 15720029.656066895 52009782.148319244 0 52009782.148319244 -206268939.57417297 0 0 0 0 -78431688.508758545 79696181.195953369 0 79696181.195953369 -46033028.804908752 0 0 0 0 13196069.315643311 18291332.84903717 0 18291332.84903717 6804248.8783721924 0 0 0 0 9125333.197750017 9690745.5013273917 0 9690745.5013273917 588503.74995541945 0 0 0 0 2368956.6700134277 19367485.371658325 0 19367485.371658325 32504774.995452881 0 0 0 0 -16434047.255386353 -53504607.755292892 0 -53504607.755292892 2027261.2717895508 0 0 0 0 41427.316610455513 2768695.6301331259 0 2768695.6301331259 586540.06172518188 0 0 0 0 3345028.9713439941 10907601.718315125 0 10907601.718315125 22587564.384181976 0 0 0 0 17657156.099029541 22781949.315330505 0 22781949.315330505 11257448.188720703 0 0 0 0 13580640.307281494 14261451.265773773 0 14261451.265773773 6069259.5554733276 0 0 0 0 16276963.387542725 6324430.3919639587 0 6324430.3919639587 -23244348.68756485 0 0 0 0 39509170.944763184 33164965.050445557 0 33164965.050445557 7579670.8692846298 0 0 0 0 13508811.497915633 4306977.0898122266 0 4306977.0898122266 -6706405.4407726564 0 0 0 0 -71105982.092055678 -14344812.000667781 0 -14344812.000667781 -8275175.5061950684 0 0 0 0 -320723.64897686243 -948667.34443211928 0 -948667.34443211928 -1068948.9948250465 0 0 0 0 -35916979.577468872 168258372.85837936 0 168258372.85837936 -553218878.23654938 0 0 0 0 -74045595.125289917 -207954216.90462494 0 -207954216.90462494 -300714928.62280655 0 0 0 0 143811057.9508667 -34454252.216426849 0 -34454252.216426849 -405743614.19726348 0 0 0 0 121808576.40213013 -242315747.16342163 0 -242315747.16342163 -590890342.9285965 0 0 0 0 156286437.69799805 -158082043.9957962 0 -158082043.9957962 -408150208.61007452 0 0 0 0 56371418.10269165 -85451850.712985992 0 -85451850.712985992 -351293953.08779907 0 0 0 0 -60259092.155807495 -202857229.02053452 0 -202857229.02053452 -410028934.25105858 0 0 0 0 136606164.5932312 -79664550.575454712 0 -79664550.575454712 -501161281.20293617 0 0 0 0 360957.14400631189 5053880.803099798 0 5053880.803099798 1796560.1456367611 0 0 0 0 -1135600.8419036865 1609058.8616580963 0 1609058.8616580963 2853348.8288040161 0 0 0 0 69186890.959381104 263359251.46446228 0 263359251.46446228 169047634.22737122 0 0 0 0 -1899270.9107971191 73777699.253269196 0 73777699.253269196 -121944534.45931244 0 0 0 0 3670913.7872815281 5087029.9678267352 0 5087029.9678267352 -226323.71381256543 0 0 0 0 -2616210.462310791 1916060.5324859619 0 1916060.5324859619 9071244.1994018555 0 0 0 0 -8347677.8782081604 51502371.180142403 0 51502371.180142403 -166916723.73400116 0 0 0 0 -767425.74007421732 3134794.4565374963 0 3134794.4565374963 -854376.83020474017 0 0 0 0 -50116.00341796875 14565625.491958618 0 14565625.491958618 1796229.8330903053 0 0 0 0 -99754.28652112186 2410565.7828503363 0 2410565.7828503363 2282347.4318610909 0 0 0 0 -3918741109.4734192 -1401430553.4747086 0 -1401430553.4747086 2019605288.4820557 0 0 0 0 1560476.8770599365 1072773768.119173 0 1072773768.119173 -1048105721.4297924 0 0 0 0 130736223.90394592 -705720384.1257019 0 -705720384.1257019 -1203953509.7866783 0 0 0 0 -1854630.3863094747 2991299.4946553186 0 2991299.4946553186 -3638803.8988333717 0 0 0 0 955262857.56480408 352926983.33362961 0 352926983.33362961 -1437586625.995636 0 0 0 0 -459655523.01961136 77063572.610596657 0 77063572.610596657 47572151.846664429 0 0 0 0 -8883679.0488586426 44798222.089897156 0 44798222.089897156 -18432999.741407394 0 0 0 0 -6327148.287826173 9106685.1654410437 0 9106685.1654410437 -9495472.3826236092 0 0 0 0 -10172536.223339081 39835441.796576023 0 39835441.796576023 14926102.882736206 0 0 0 0 -766931.6484375 31676380.091991425 0 31676380.091991425 -3962183.8976593018 0 0 0 0 -9115155.1364593506 21082827.027889252 0 21082827.027889252 -9639368.597076416 0 0 0 0 -5879160.5384368896 24454791.556495667 0 24454791.556495667 -11014880.694648743 0 0 0 0 -8230196.2800788879 28525719.612830162 0 28525719.612830162 2694249.8894348145 0 0 0 0 -21615888.729598999 12183778.517238617 0 12183778.517238617 -30377731.720157623 0 0 0 0 -5188221.0992851257 27086807.743252754 0 27086807.743252754 -20340920.551574707 0 0 0 0 203654.3553314209 24730228.716846466 0 24730228.716846466 -31779866.840263367 0 0 0 0 9808660.2213134766 38539554.168639183 0 38539554.168639183 -17780174.829917908 0 0 0 0 3273145.8136138916 21520726.862949371 0 21520726.862949371 -16405426.739109039 0 0 0 0 4398070.5963058472 18818465.841078758 0 18818465.841078758 -19603424.94984436 0 0 0 0 -5604565.8299865723 42832967.448345184 0 42832967.448345184 -36177172.271202087 0 0 0 0 -1583495.1703796387 14839325.829055786 0 14839325.829055786 -8789132.5810241699 0 0 0 0 -7167552.9462242126 35952615.741120338 0 35952615.741120338 11442671.67943573 0 0 0 0 12271355.970977783 47967226.172519684 0 47967226.172519684 7899063.1780948639 0 0 0 0 153979451.31663465 -6401907.8369405866 0 -6401907.8369405866 -94351848.697814941 0 0 0 0 134766419.26126146 407870711.11857539 0 407870711.11857539 224936242.84149933 0 0 0 0 -11381457.574504353 14996946.141382128 0 14996946.141382128 -13152862.699375786 0 0 0 0 10335967.574371338 19954683.720371246 0 19954683.720371246 6263160.4531669617 0 0 0 0 272119771.14631653 289660792.27499771 0 289660792.27499771 -276901151.94767761 0 0 0 0 331208427.04628372 153064584.32962799 0 153064584.32962799 -756078738.14614868 0 0 0 0 47448405.862518311 -195174536.83235264 0 -195174536.83235264 -818472324.56918335 0 0 0 0 -268753911.97128296 4349794.5113220215 0 4349794.5113220215 195361371.83852935 0 0 0 0 102391767.09169769 -109549430.62242126 0 -109549430.62242126 -564016369.39028168 0 0 0 0 43968981.769119263 -75205866.984952927 0 -75205866.984952927 -315534735.91343117 0 0 0 0 97963869.226638794 -134732824.75078583 0 -134732824.75078583 -684184821.27944183 0 0 0 0 32245286.673171997 -287478256.18495941 0 -287478256.18495941 -973908684.25683212 0 0 0 0 1788083.4609009326 1422722.902807042 0 1422722.902807042 -2398839.2203359827 0 0 0 0 20948610.976715088 -214603623.99057007 0 -214603623.99057007 -546517059.41418457 0 0 0 0 660194.92079544067 82534849.356277943 0 82534849.356277943 -342432785.940979 0 0 0 0 6281188.1769542694 76735283.500005007 0 76735283.500005007 -868372816.39982605 0 0 0 0 -167827135.03239441 94627426.537336349 0 94627426.537336349 23379398.194480896 0 0 0 0 -181023009.96508789 231174727.94739056 0 231174727.94739056 -402314707.74819183 0 0 0 0 113088330.24862671 111131611.49599457 0 111131611.49599457 -239024139.88490486 0 0 0 0 11754083.214416504 94881856.360467911 0 94881856.360467911 -349447660.83936119 0 0 0 0 -9062900.4202728271 103310669.18528557 0 103310669.18528557 -29045887.410415649 0 0 0 0 -16929287.56738764 20819624.695090201 0 20819624.695090201 -13945772.495114105 0 0 0 0 95357539.32901001 241708625.46091652 0 241708625.46091652 200794661.07984924 0 0 0 0 28047126.572158813 -15732020.027845383 0 -15732020.027845383 80524329.034500122 0 0 0 0 21353297.728225708 225544759.22541046 0 225544759.22541046 220957434.34293938 0 0 0 0 -70829698.683273315 31725506.047411442 0 31725506.047411442 115569789.32605743 0 0 0 0 175894428.53482056 143797815.30361557 0 143797815.30361557 138962868.58954048 0 0 0 0 -87022295.486633301 74476403.4427948 0 74476403.4427948 26756798.82580328 0 0 0 0 -259971026.90690613 90021512.74984169 0 90021512.74984169 188352530.08753395 0 0 0 0 -53394328.794769287 109926104.45214891 0 109926104.45214891 81411382.664787292 0 0 0 0 231530577.62487793 189334519.42533875 0 189334519.42533875 94965142.448287964 0 0 0 0 -349245787.32193375 -98579251.928747177 0 -98579251.928747177 108248561.26179504 0 0 0 0 -142724667.29640198 -44221005.177411079 0 -44221005.177411079 200181094.42926025 0 0 0 0 -26223739.519645691 90131028.384796143 0 90131028.384796143 -8179405.9331626892 0 0 0 0 94300956.434698582 171268674.02087706 0 171268674.02087706 355773593.99163818 0 0 0 0 -302170.94649878144 1306516.055858206 0 1306516.055858206 -2113707.4581258148 0 0 0 0 -81553598.923126221 76897667.686281204 0 76897667.686281204 35387086.730840683 0 0 0 0 -34988766.81798172 69077323.241765499 0 69077323.241765499 -9993478.0205192566 0 0 0 0 -46941032.149539948 93537409.942163944 0 93537409.942163944 38506080.297218323 0 0 0 0 -2905847.9955892451 1575776.4319888987 0 1575776.4319888987 1364471.872491071 0 0 0 0 8823687.7216033936 140986731.88531303 0 140986731.88531303 -70225558.49612999 0 0 0 0 194285528.23031616 67060433.442102432 0 67060433.442102432 -64655502.163105011 0 0 0 0 -171407901.60888672 -2525765.8281002045 0 -2525765.8281002045 -1529465.403087616 0 0 0 0 176203216.69810486 -308237787.44677448 0 -308237787.44677448 -192917994.022892 0 0 0 0 -70355694.709121704 -48563367.22469902 0 -48563367.22469902 -57201208.215254188 0 0 0 0 -358846217.08282471 -223647571.819664 0 -223647571.819664 -152319400.02901649 0 0 0 0 55757551.94833374 -8149715.9082927704 0 -8149715.9082927704 -676932113.60051155 0 0 0 0 35204303.065900803 28897533.726238728 0 28897533.726238728 10813599.985404968 0 0 0 0 -1069434.3129863739 184487936.86982155 0 184487936.86982155 -143352646.99243164 0 0 0 0 -1971477.4994096756 191468402.00409794 0 191468402.00409794 -153876638.91992188 0 0 0 0 43870015.99621582 65620118.383224487 0 65620118.383224487 -74973788.884419918 0 0 0 0 -121665493.36357117 149923177.46102524 0 149923177.46102524 -67175339.406240225 0 0 0 0 -332149199.59425354 198138008.67622948 0 198138008.67622948 -9042514.1666488647 0 0 0 0 -191980049.42744446 388516686.39979935 0 388516686.39979935 -345216571.79527473 0 0 0 0 -47882163.228210449 66058764.821090698 0 66058764.821090698 -46949239.040863037 0 0 0 0 -233273330.95419312 33062996.541347504 0 33062996.541347504 29509392.31137085 0 0 0 0 69093605.075408459 23261671.098340914 0 23261671.098340914 -35815672.738845825 0 0 0 0 22920952.706680298 -187316608.29392242 0 -187316608.29392242 -470723620.2798233 0 0 0 0 -44490250.785186768 118496553.5194664 0 118496553.5194664 -289061650.63998413 0 0 0 0 4773196.2207715064 4091140.2482301816 0 4091140.2482301816 -5915027.4842596725 0 0 0 0 68954520.237775624 8209180.3259495646 0 8209180.3259495646 -4621415.4152145386 0 0 0 0 5572376.0497589111 6321028.009262085 0 6321028.009262085 -2331173.803565979 0 0 0 0 5410265.6061859131 4799324.5657577515 0 4799324.5657577515 -2125513.4337005615 0 0 0 0 3067852.8540075645 4241838.6289000735 0 4241838.6289000735 542763.71900161356 0 0 0 0 22186797.854385376 5253787.4481620789 0 5253787.4481620789 -2209192.4028091431 0 0 0 0 2277622.2766635893 -946714.0562720038 0 -946714.0562720038 261674.93531711772 0 0 0 0 59976383.182479858 -137076.26243972778 0 -137076.26243972778 -43476094.022781372 0 0 0 0 -89870335.694519043 8308018.8047904968 0 8308018.8047904968 25964007.843574524 0 0 0 0 4137765.5512542725 4972241.0911598206 0 4972241.0911598206 -1742034.84674263 0 0 0 0 11711558.074437261 12391307.027063876 0 12391307.027063876 2530807.9066038691 0 0 0 0 180713.94987487793 9731934.7085666656 0 9731934.7085666656 -4783132.4278278351 0 0 0 0 -7791095.021484375 73890857.35055542 0 73890857.35055542 -39180065.529499054 0 0 0 0 -30489592.414577484 -9769264.9110774994 0 -9769264.9110774994 31930155.794197083 0 0 0 0 -4452576.8412421346 -31809.017525771633 0 -31809.017525771633 2794235.2553326152 0 0 0 0 13631482.66616687 6271169.3191714175 0 6271169.3191714175 1301151.0079868846 0 0 0 0 107820124.29498291 -26965391.194732666 0 -26965391.194732666 -3218976.8475723267 0 0 0 0 64174210.123397827 37608708.179790497 0 37608708.179790497 19030988.336783409 0 0 0 0 18382951.784500122 44055540.740386963 0 44055540.740386963 30491724.656837463 0 0 0 0 92655840.395568848 41630980.038545609 0 41630980.038545609 -69311968.129779816 0 0 0 0 39067535.212509155 102789071.25501633 0 102789071.25501633 -187485604.64315414 0 0 0 0 7788160.4254989624 90882843.06913662 0 90882843.06913662 -40128811.161911011 0 0 0 0 -9645760.5690460205 29157093.758583069 0 29157093.758583069 9253604.8775787354 0 0 0 0 14741287.563209534 27049145.105564117 0 27049145.105564117 -103417338.25824833 0 0 0 0 27696388.418281555 132558799.96160698 0 132558799.96160698 -297507257.15649033 0 0 0 0 -12418832.279846191 91548221.4302845 0 91548221.4302845 -58925873.287485123 0 0 0 0 33209578.963943481 53940916.680618286 0 53940916.680618286 -73446294.291830063 0 0 0 0 7059716.4050598145 66740790.979549408 0 66740790.979549408 -90425686.807608604 0 0 0 0 10915041.495407104 78604407.538124084 0 78604407.538124084 -53914025.366275787 0 0 0 0 48405501.75163269 15857956.529613495 0 15857956.529613495 -111603115.65416336 0 0 0 0 42448572.860881805 20442369.160894394 0 20442369.160894394 -38317009.440223694 0 0 0 0 16416229.847541809 94348544.980056763 0 94348544.980056763 -204696418.54398727 0 0 0 0 288849408.39144516 -68354736.25922966 0 -68354736.25922966 -168457292.7626667 0 0 0 0 162958595.20497131 -11146117.886510849 0 -11146117.886510849 -432601670.71124649 0 0 0 0 160611939.1102066 32016226.175437927 0 32016226.175437927 -225182625.38152122 0 0 0 0 67132205.952337265 224876712.21439457 0 224876712.21439457 -63213978.4856987 0 0 0 0 10260728.783294678 130212899.19600296 0 130212899.19600296 -78911461.425388336 0 0 0 0 -194402565.93949127 295050426.36434364 0 295050426.36434364 -240890994.79243088 0 0 0 0 -1419391.4662357941 -814740.08224721812 0 -814740.08224721812 1169251.4752407372 0 0 0 0 -36188547.731399536 135006412.37014389 0 135006412.37014389 -170658966.67759323 0 0 0 0 801878.45309448242 184497514.65586472 0 184497514.65586472 -144248360.95764351 0 0 0 0 91630007.18031311 193021682.67619038 0 193021682.67619038 -256534811.76910019 0 0 0 0 127412666.5430069 79661163.384735107 0 79661163.384735107 -159385256.30662537 0 0 0 0 -2367242.0849385448 -1432032.0582898352 0 -1432032.0582898352 1777522.7748024799 0 0 0 0 28316800.070388794 129943424.1366663 0 129943424.1366663 -88642207.95482254 0 0 0 0 51822306.076377869 66562460.93904686 0 66562460.93904686 -114066175.35975647 0 0 0 0 -32737507.704536438 71717867.857995033 0 71717867.857995033 -114258328.96839786 0 0 0 0 -11860950.455940247 107699418.84524727 0 107699418.84524727 -134993191.3235054 0 0 0 0 -1489219.5958083235 -908585.85089565068 0 -908585.85089565068 1143689.9613359254 0 0 0 0 -102856802.74858093 185703247.37915659 0 185703247.37915659 -280500528.81822014 0 0 0 0 -58367167.4480896 -63937636.750177383 0 -63937636.750177383 -236851056.63462377 0 0 0 0 -48475007.844825745 36087481.14010191 0 36087481.14010191 -25798200.282899857 0 0 0 0 -39316751.53326416 39473961.297555447 0 39473961.297555447 -104404145.14964676 0 0 0 0 -89909986.783889771 11766790.129119873 0 11766790.129119873 -4600478.2492313385 0 0 0 0 6041779.6286430359 22049793.636024475 0 22049793.636024475 -20967256.33473587 0 0 0 0 -22856054.731678009 11935808.211987019 0 11935808.211987019 -77279277.49398613 0 0 0 0 -4665493.626726795 5592092.2642407604 0 5592092.2642407604 -1925933.5865507312 0 0 0 0 21511988.036361694 13453479.031414986 0 13453479.031414986 -36986432.101664543 0 0 0 0 -46999557.293487549 121381661.80539227 0 121381661.80539227 -131113061.9841423 0 0 0 0 -31346041.247756958 94182447.654006958 0 94182447.654006958 -144324092.17932987 0 0 0 0 62745903.543170929 10314195.325255871 0 10314195.325255871 -19759032.399873734 0 0 0 0 -3823392.4548791759 2120724.9889850635 0 2120724.9889850635 1153912.9442469291 0 0 0 0 -21846818.025917053 109900511.56932449 0 109900511.56932449 -128283070.11287594 0 0 0 0 -28383646.474281311 100526820.24896431 0 100526820.24896431 -103896964.308918 0 0 0 0 -161154511.03973389 207280323.71670246 0 207280323.71670246 -51062275.685218811 0 0 0 0 -110134900.63349152 100922279.8092308 0 100922279.8092308 62761117.198839188 0 0 0 0 126656294.83432007 189739838.09403515 0 189739838.09403515 4845470.6762237549 0 0 0 0 299276904.76171875 33919413.297249794 0 33919413.297249794 -3989253.5373153687 0 0 0 0 -1712979.1048571952 433305.92848296463 0 433305.92848296463 1039730.8761800397 0 0 0 0 18634841.032844543 28807050.380713463 0 28807050.380713463 -3665696.4273685813 0 0 0 0 71800852.431034088 135973711.8847084 0 135973711.8847084 78707804.581678391 0 0 0 0 -31960604.619838715 91408432.35471487 0 91408432.35471487 -34138793.145988464 0 0 0 0 -54475219.189918518 29325177.989114761 0 29325177.989114761 3205272.4520015717 0 0 0 0 155293726.0708003 -17868246.016610682 0 -17868246.016610682 -19143280.805583954 0 0 0 0 316527928.85251617 -8278589.504858017 0 -8278589.504858017 -20007347.43328476 0 0 0 0 -941240.44597394764 1106433.6196476631 0 1106433.6196476631 462677.22269202583 0 0 0 0 -69662553.233142853 92752511.449755192 0 92752511.449755192 218989303.02601624 0 0 0 0 191810088.66408539 285354214.62836838 0 285354214.62836838 153273023.45151949 0 0 0 0 1614142.8671569824 83997624.550347328 0 83997624.550347328 -168912263.53300285 0 0 0 0 680432.66079958528 1040366.7525383905 0 1040366.7525383905 -675226.75205629412 0 0 0 0 -14965753.424940348 145241434.47525144 0 145241434.47525144 67984437.711339951 0 0 0 0 -18122149.212135315 186566603.8894825 0 186566603.8894825 54328488.920260429 0 0 0 0 16070476.751609802 41389345.291343689 0 41389345.291343689 -232593547.54564476 0 0 0 0 19663240.148384094 -32658506.441457748 0 -32658506.441457748 -337563190.66497803 0 0 0 0 -27809464.96254158 44814732.798988342 0 44814732.798988342 -230974368.07977295 0 0 0 0 -312657904.33309174 367956534.86101723 0 367956534.86101723 -416810159.32796121 0 0 0 0 30638648.87474823 -33173360.375605583 0 -33173360.375605583 -448782300.73792839 0 0 0 0 -120400589.21832275 -73309669.721755981 0 -73309669.721755981 -126190723.67422485 0 0 0 0 56212053.841709137 334896681.12775612 0 334896681.12775612 -334012182.83165359 0 0 0 0 -242635.48274943605 -947043.22180201113 0 -947043.22180201113 -285662.87928808108 0 0 0 0 137507155.89065552 -141888093.62043381 0 -141888093.62043381 -138318829.74190521 0 0 0 0 56706106.293365479 34508712.648662567 0 34508712.648662567 -33109227.194566727 0 0 0 0 57106876.033538818 41992439.717124939 0 41992439.717124939 -55019070.435688019 0 0 0 0 79632925.267570496 36826334.313381195 0 36826334.313381195 -40493126.260910034 0 0 0 0 95246771.071978569 16707852.532250881 0 16707852.532250881 -28177612.365226746 0 0 0 0 90147115.651435852 -13824828.584262848 0 -13824828.584262848 -18708713.310134888 0 0 0 0 5320651.8507770747 664590.99846574292 0 664590.99846574292 -6074721.0644168481 0 0 0 0 -134404503.29453278 275871065.02068138 0 275871065.02068138 -400372917.37726212 0 0 0 0 -113723278.95965576 186098568.86497688 0 186098568.86497688 -213755614.84720659 0 0 0 0 -320174461.53436279 211606450.15457916 0 211606450.15457916 -109850095.81155396 0 0 0 0 -122811761.6856308 93776899.203722 0 93776899.203722 -389024655.58787537 0 0 0 0 -140876610.90112305 89641219.786197662 0 89641219.786197662 -64082040.093006134 0 0 0 0 -165563724.62702942 195218294.02620125 0 195218294.02620125 -214035202.41077042 0 0 0 0 -31281330.520233154 -7903473.8179397583 0 -7903473.8179397583 -5478224.9347000122 0 0 0 0 -36041184.970062256 -7086928.6415700912 0 -7086928.6415700912 7007496.8141479492 0 0 0 0 -16816378.395963669 -1358741.5295124054 0 -1358741.5295124054 -8878147.3868026733 0 0 0 0 -36786781.495079041 -3505707.4967556 0 -3505707.4967556 11740971.618839264 0 0 0 0 -37316834.411071777 -12078019.806106567 0 -12078019.806106567 -11194320.952728271 0 0 0 0 1025436.009731099 1714239.5061979443 0 1714239.5061979443 47477.832617538981 0 0 0 0 -34765828.460662842 -17363068.702033997 0 -17363068.702033997 -20810634.917022705 0 0 0 0 -34979912.584968567 -3683384.2973155975 0 -3683384.2973155975 9789512.4017562866 0 0 0 0 -9263202.4385974444 -1309526.50094123 0 -1309526.50094123 6704503.2533327304 0 0 0 0 -66186013.632408142 12466259.346597672 0 12466259.346597672 -41097396.521631241 0 0 0 0 -347714376.8469162 108618958.16856384 0 108618958.16856384 25960188.695053101 0 0 0 0 -324823865.39966583 371156047.20531368 0 371156047.20531368 -215735360.48990631 0 0 0 0 -119641110.06694794 269094936.76058578 0 269094936.76058578 -166529501.71083069 0 0 0 0 -464347045.11663437 167170452.81322002 0 167170452.81322002 695027.72157287598 0 0 0 0 2267085.2360794283 1556082.2816296406 0 1556082.2816296406 118623.72506699339 0 0 0 0 12158146.27305603 -14173509.525066376 0 -14173509.525066376 -9868509.3042984009 0 0 0 0 -33825558.706665039 28086701.153793335 0 28086701.153793335 22648511.218566895 0 0 0 0 19934237.43555589 20343196.978923757 0 20343196.978923757 10991116.909694713 0 0 0 0 54851168.118240356 29480389.060165405 0 29480389.060165405 -19402328.395618439 0 0 0 0 56774881.110145569 24532824.949361801 0 24532824.949361801 -27219530.321182251 0 0 0 0 46608387.025421143 38350129.707130432 0 38350129.707130432 -19741470.521543503 0 0 0 0 58011341.924179077 35559531.418064117 0 35559531.418064117 -19080591.247024536 0 0 0 0 41105821.235149384 34786788.33486557 0 34786788.33486557 15059994.096122742 0 0 0 0 -31362851.904289246 -19479037.947505951 0 -19479037.947505951 8416061.6206893921 0 0 0 0 85693930.299789429 70821546.631501198 0 70821546.631501198 34264398.979119778 0 0 0 0 37011632.261301696 19296780.186215028 0 19296780.186215028 -9446167.0207413007 0 0 0 0 -12689160.062017083 11423418.520215612 0 11423418.520215612 27098300.415586494 0 0 0 0 -27572790.547775269 -8277259.9647865295 0 -8277259.9647865295 3428355.3688850403 0 0 0 0 -40696080.319213867 -397232.80350875854 0 -397232.80350875854 36268186.161560059 0 0 0 0 -40176061.460037231 2136236.9820976257 0 2136236.9820976257 33867837.675064087 0 0 0 0 92202134.255187988 100755726.24604607 0 100755726.24604607 85536685.733064294 0 0 0 0 -11722060.552722149 10146912.684071597 0 10146912.684071597 26656294.741245251 0 0 0 0 903590.46971130371 37516084.587546825 0 37516084.587546825 91600658.642537117 0 0 0 0 113608561.51483154 114241595.61432362 0 114241595.61432362 68482402.803245544 0 0 0 0 92383396.402099609 103080667.93111801 0 103080667.93111801 116354809.26596069 0 0 0 0 -39140601.609073639 -2580502.11972332 0 -2580502.11972332 32729402.103034973 0 0 0 0 -38220385.072486877 6692942.8615760803 0 6692942.8615760803 40023944.292739868 0 0 0 0 -35918203.893791199 8431004.0386371613 0 8431004.0386371613 25189648.196846008 0 0 0 0 -412229.93746279832 -740685.90537430346 0 -740685.90537430346 105072.95253755897 0 0 0 0 -39492803.975296021 -5960704.3378868103 0 -5960704.3378868103 51574288.843582153 0 0 0 0 -37662539.604217529 -251919.37545013428 0 -251919.37545013428 34726489.77350235 0 0 0 0 -38939745.549880981 -2975752.6923675537 0 -2975752.6923675537 39515102.151229858 0 0 0 0 -42659497.429077148 10506228.766830444 0 10506228.766830444 44970238.663459778 0 0 0 0 -38067510.96276474 7615181.0166282654 0 7615181.0166282654 45314354.163574219 0 0 0 0 -42345450.594970703 12820409.098552704 0 12820409.098552704 61938237.451068878 0 0 0 0 -34704525.619720459 -362026.78778076172 0 -362026.78778076172 42898636.010228157 0 0 0 0 -20415441.03894043 -22644648.366287231 0 -22644648.366287231 69925289.208114624 0 0 0 0 -30424355.037185669 -16420204.835617065 0 -16420204.835617065 38245418.90524292 0 0 0 0 -12320829.979701996 -6618171.2236270905 0 -6618171.2236270905 11842749.610912323 0 0 0 0 -3696866.1444260068 -250183.61783329584 0 -250183.61783329584 3075807.8025994264 0 0 0 0 -5655252.5197525024 -23112142.479017258 0 -23112142.479017258 45653279.674049377 0 0 0 0 -15839892.237281799 -6982032.4196474552 0 -6982032.4196474552 57945343.079624176 0 0 0 0 2971337.5405845642 -40325592.613891602 0 -40325592.613891602 83280259.419322968 0 0 0 0 -70360451.678207397 -373212.31980705261 0 -373212.31980705261 232404682.97129059 0 0 0 0 -80216253.262298584 36592358.509513855 0 36592358.509513855 93784993.912940979 0 0 0 0 -54908451.659515381 49755827.926649094 0 49755827.926649094 64631180.4320755 0 0 0 0 -56792897.337526321 8732732.519536972 0 8732732.519536972 111706313.78359222 0 0 0 0 -13111855.607727051 133658723.29609299 0 133658723.29609299 -76105356.569877625 0 0 0 0 -13453345.382526636 85416970.833699942 0 85416970.833699942 33424779.539047241 0 0 0 0 -156609696.4230423 160501818.27213669 0 160501818.27213669 125866081.54165077 0 0 0 0 -93476171.88151741 -14672451.235072136 0 -14672451.235072136 180366639.22116089 0 0 0 0 -96066432.026802063 165456098.76979828 0 165456098.76979828 -198906411.75830078 0 0 0 0 -565149.29031583667 1988955.5039442629 0 1988955.5039442629 4925569.9149928335 0 0 0 0 47722918.55859375 38721354.54857254 0 38721354.54857254 -42356220.46880722 0 0 0 0 -1917613.6556665562 4787713.0308107063 0 4787713.0308107063 3607684.0012576357 0 0 0 0 10498005.222961426 56097694.082759857 0 56097694.082759857 -2899528.2507019043 0 0 0 0 -2062957.0999984741 40969171.440307617 0 40969171.440307617 37878794.646507263 0 0 0 0 -161088951.61113739 11401024.665052414 0 11401024.665052414 98847017.127727509 0 0 0 0 -7534666.6046028659 23575512.470752951 0 23575512.470752951 6361925.9592484049 0 0 0 0 321536236.972435 228839508.57453871 0 228839508.57453871 774569518.66230011 0 0 0 0 -312479595.23361969 123961191.41701186 0 123961191.41701186 22623249.834126711 0 0 0 0 -4444008.1921221577 -8227385.409090247 0 -8227385.409090247 33871523.312680416 0 0 0 0 786408182.11656952 611171613.5990715 0 611171613.5990715 375606342.63517761 0 0 0 0 1511974123.7502136 688973560.18960571 0 688973560.18960571 634208682.0816803 0 0 0 0 439336707.82254028 957400743.49191666 0 957400743.49191666 857156272.43106079 0 0 0 0 33296171.461990356 52832579.446108818 0 52832579.446108818 1292661.7440571785 0 0 0 0 1338263.4053245336 33630871.819482565 0 33630871.819482565 3684803.6475238302 0 0 0 0 47260673.991626501 72170585.113003179 0 72170585.113003179 -82559351.161174774 0 0 0 0 47124593.388847351 76140430.781423569 0 76140430.781423569 -100410630.3224144 0 0 0 0 -2192355.896270752 32591053.923282623 0 32591053.923282623 52455755.315923691 0 0 0 0 14480748.530094147 40562926.195724487 0 40562926.195724487 37071988.177467346 0 0 0 0 -1300550.5581130981 36315629.948080063 0 36315629.948080063 40266950.248226166 0 0 0 0 -7183397.1644690018 20906451.301086523 0 20906451.301086523 32591311.9856911 0 0 0 0 -9455897.2529144287 32181932.49892807 0 32181932.49892807 38849705.928310394 0 0 0 0 -36453307.935623169 24789621.645027161 0 24789621.645027161 45194790.952924728 0 0 0 0 -22677717.884712219 55836475.079624176 0 55836475.079624176 31184642.773424149 0 0 0 0 -19001047.928878784 70070597.407888412 0 70070597.407888412 69631082.003456116 0 0 0 0 -36090877.838371277 36523164.045097351 0 36523164.045097351 71637736.026641846 0 0 0 0 -36536350.278179646 26731354.938893437 0 26731354.938893437 48609280.273757935 0 0 0 0 -39856446.098648071 20188583.738140106 0 20188583.738140106 56200687.238380432 0 0 0 0 -54303078.928735733 18719778.427643776 0 18719778.427643776 60143703.335174561 0 0 0 0 -8673687.3708756901 14646570.682605401 0 14646570.682605401 33208748.439262781 0 0 0 0 -33336354.902108192 22592930.443065166 0 22592930.443065166 42780364.349105835 0 0 0 0 -36534946.900604248 19675811.857070923 0 19675811.857070923 39120715.370312691 0 0 0 0 -37671137.142623901 16538283.101219177 0 16538283.101219177 34325868.933158875 0 0 0 0 -3806760.3341674805 28470995.57320261 0 28470995.57320261 47665747.8608284 0 0 0 0 5049968.0968784466 7640842.7353171036 0 7640842.7353171036 6018352.1706256792 0 0 0 0 51363965.072509766 173465986.64386559 0 173465986.64386559 45716116.461019993 0 0 0 0 94839936.324981689 104801483.88344193 0 104801483.88344193 78587181.147070408 0 0 0 0 10414974.948303223 158219713.49752617 0 158219713.49752617 128655215.20825338 0 0 0 0 -194637876.5541687 114520009.922472 0 114520009.922472 167448287.03689671 0 0 0 0 -13685171.391452789 258786288.63614011 0 258786288.63614011 81268007.96509552 0 0 0 0 -72594010.085975647 337377485.47680736 0 337377485.47680736 210704772.06788063 0 0 0 0 40222540.887771606 109621635.05653334 0 109621635.05653334 -43439064.121283531 0 0 0 0 1882234.8891192675 2312960.2352521904 0 2312960.2352521904 1370835.765413803 0 0 0 0 -112187220.38311768 283803669.33467054 0 283803669.33467054 -41324633.413146973 0 0 0 0 -81712375.574047089 4489019.6344349086 0 4489019.6344349086 47755677.94836998 0 0 0 0 37687403.166412354 31285604.61293745 0 31285604.61293745 7796904.5283842087 0 0 0 0 -130736936.83488464 67577793.972084999 0 67577793.972084999 11017581.904643565 0 0 0 0 -69992004.582956314 15105018.800051689 0 15105018.800051689 50945382.611754417 0 0 0 0 -368889024.50631714 -16970710.491351962 0 -16970710.491351962 190790766.50501734 0 0 0 0 -114779053.02678299 160604812.703255 0 160604812.703255 218626657.9848423 0 0 0 0 113316037.09182739 -310840152.34649277 0 -310840152.34649277 -192008075.47160012 0 0 0 0 -178267018.87690353 718125879.77473664 0 718125879.77473664 152801158.60697699 0 0 0 0 -197765596.04879761 183617859.1496768 0 183617859.1496768 -81046130.899219096 0 0 0 0 1441994.2045412064 12946471.08369269 0 12946471.08369269 1919487.3296542803 0 0 0 0 -160569978.52742767 -85679614.768539727 0 -85679614.768539727 -60348406.414420485 0 0 0 0 388230440.85861206 78880735.276605606 0 78880735.276605606 48990914.158465385 0 0 0 0 133037432.44454956 -83256983.773553371 0 -83256983.773553371 -33521534.228977203 0 0 0 0 -1103244.0989778787 331378.94576605037 0 331378.94576605037 1107231.4357918021 0 0 0 0 1665517160.0219269 483856363.21809059 0 483856363.21809059 -437561057.77370965 0 0 0 0 -6755.3150612208992 -1104123.0084728301 0 -1104123.0084728301 1509266.5190888115 0 0 0 0 -331352690.10243225 164957780.86505324 0 164957780.86505324 283890019.61745363 0 0 0 0 505487470.11416626 331798163.46870136 0 331798163.46870136 84719402.049226761 0 0 0 0 582184031.3374939 -31709099.898002148 0 -31709099.898002148 309757603.96326685 0 0 0 0 21795506.4009552 -5907716.5720005035 0 -5907716.5720005035 -83184309.926955223 0 0 0 0 -23258088.995620728 26355322.179915428 0 26355322.179915428 741790.62482643127 0 0 0 0 14192663.247962952 5716751.970864296 0 5716751.970864296 -29223013.894416809 0 0 0 0 6131308.63155137 4807920.3645457719 0 4807920.3645457719 -6267008.6145718452 0 0 0 0 14005645.732818604 4804667.8135623932 0 4804667.8135623932 -23027092.416282177 0 0 0 0 -635282.14858701965 243888.27882388234 0 243888.27882388234 5196245.9558184817 0 0 0 0 792397675.87825012 154776660.17502499 0 154776660.17502499 -161404861.45845985 0 0 0 0 660861.0208351016 365949.92738834955 0 365949.92738834955 -321041.94087939011 0 0 0 0 551255182.0486145 103253299.7064271 0 103253299.7064271 -189067619.4052453 0 0 0 0 608574795.01449585 278568769.46605587 0 278568769.46605587 280469639.11460114 0 0 0 0 225857329.03312683 66994944.007462025 0 66994944.007462025 4667919.4358348846 0 0 0 0 -46689691.93214035 -40363300.218056023 0 -40363300.218056023 4073520.8325557709 0 0 0 0 2347611.7111250656 320966.40266298503 0 320966.40266298503 -1781244.4721456617 0 0 0 0 566365275.51165771 -127388969.67116165 0 -127388969.67116165 -99665519.673039436 0 0 0 0 310526381.06500244 369557403.51157475 0 369557403.51157475 117410476.05195236 0 0 0 0 58085854.700927734 -120315378.57553482 0 -120315378.57553482 31988113.409049988 0 0 0 0 188630711.83917236 210355693.82820797 0 210355693.82820797 52583032.263830185 0 0 0 0 236710879.61331177 66411350.384315491 0 66411350.384315491 -7978409.7232513428 0 0 0 0 18311254.634963989 11932921.206169367 0 11932921.206169367 -40946193.545764923 0 0 0 0 14311772.046020508 8672668.8221956491 0 8672668.8221956491 -26150824.88090992 0 0 0 0 13475384.758666992 -3667140.5517501831 0 -3667140.5517501831 -28165489.178598881 0 0 0 0 25294016.440734863 2494217.5365581512 0 2494217.5365581512 -40094440.154900551 0 0 0 0 34260238.226837158 9097823.7211971283 0 9097823.7211971283 -50794555.403225899 0 0 0 0 52879174.905029297 -383896.98829650879 0 -383896.98829650879 -48324986.698542595 0 0 0 0 17230174.527816772 29703483.170864582 0 29703483.170864582 -52459457.361305177 0 0 0 0 59748100.596614838 -100566618.8049978 0 -100566618.8049978 -70579278.949362755 0 0 0 0 64745301.508235931 78194693.628541112 0 78194693.628541112 13853873.136101723 0 0 0 0 5230628.0889632702 313122.42334550247 0 313122.42334550247 -8919054.1767015923 0 0 0 0 50963634.69102478 17425042.896179199 0 17425042.896179199 12079260.971048355 0 0 0 0 28982997.451159343 22998538.237597916 0 22998538.237597916 -7688403.4841802511 0 0 0 0 40777288.273880005 14095668.217830658 0 14095668.217830658 11052336.956802368 0 0 0 0 -177010849.27581787 -234621718.16316056 0 -234621718.16316056 -24031385.503310204 0 0 0 0 15263991.980285645 38964921.38331604 0 38964921.38331604 64012072.50227356 0 0 0 0 38077247.539154053 24934133.06615448 0 24934133.06615448 38053591.076255798 0 0 0 0 -128891540.13638306 -119004928.18305492 0 -119004928.18305492 -92898801.842071533 0 0 0 0 87043010.534164429 81832426.255903721 0 81832426.255903721 -230218512.46309471 0 0 0 0 -37687845.816843987 115362523.59886783 0 115362523.59886783 -39978221.38666153 0 0 0 0 733473.4754180694 -113898.31147930026 0 -113898.31147930026 -564797.98415482603 0 0 0 0 139230182.6655426 71633916.886657715 0 71633916.886657715 -495188117.03326035 0 0 0 0 99303245.425201416 68932229.032747746 0 68932229.032747746 -49932003.606345177 0 0 0 0 95116016.420562744 37850750.278244972 0 37850750.278244972 -7268646.973531425 0 0 0 0 93059052.644485474 70784878.987752676 0 70784878.987752676 4347249.0567588806 0 0 0 0 65634717.832977295 59115024.440066338 0 59115024.440066338 6419659.4328981265 0 0 0 0 62158646.178222656 166258901.11399317 0 166258901.11399317 5187356.7170162201 0 0 0 0 164353743.49888039 115408771.75264215 0 115408771.75264215 102634741.01389027 0 0 0 0 107275611.00679016 151722200.51410294 0 151722200.51410294 101794118.71831608 0 0 0 0 131336956.74144363 65041900.975799561 0 65041900.975799561 39896702.651996613 0 0 0 0 69582290.33291626 71305663.439314842 0 71305663.439314842 114437067.10989618 0 0 0 0 92561393.020141602 54967499.428166866 0 54967499.428166866 142171.95125389099 0 0 0 0 91110025.541381836 7325690.8143265247 0 7325690.8143265247 -25093669.913644791 0 0 0 0 57097039.134986877 44702614.745925903 0 44702614.745925903 49901671.738023758 0 0 0 0 29107154.536662996 18081866.308591016 0 18081866.308591016 -8815025.5239299703 0 0 0 0 24145892.686172485 2610401.5790185928 0 2610401.5790185928 -6920027.7894859314 0 0 0 0 -9006424.4912414551 -6478883.3333616257 0 -6478883.3333616257 64104692.971004009 0 0 0 0 2152336.5497360229 24360257.894821167 0 24360257.894821167 60258418.512512207 0 0 0 0 56244069.539466858 35469049.292612076 0 35469049.292612076 19529633.56741333 0 0 0 0 32046720.682289094 16911811.376168542 0 16911811.376168542 -9270655.6694345251 0 0 0 0 23821802.633956909 56277107.297119141 0 56277107.297119141 38826381.254322052 0 0 0 0 36427088.761672974 58393962.593074799 0 58393962.593074799 -19390894.622657776 0 0 0 0 35570177.246216297 40245874.122744918 0 40245874.122744918 -15520598.521377563 0 0 0 0 -9677071.1711158752 47262008.504928589 0 47262008.504928589 -3467765.4468765259 0 0 0 0 4940502.4709320068 53255128.464744568 0 53255128.464744568 15056205.954343796 0 0 0 0 26447688.271179199 37379869.03799057 0 37379869.03799057 -3132915.2195053101 0 0 0 0 18250347.807952881 12192512.28729248 0 12192512.28729248 21536380.070598602 0 0 0 0 -21153403.959777832 53629525.34034729 0 53629525.34034729 32788419.388664246 0 0 0 0 17608400.28188324 17811734.56662941 0 17811734.56662941 40336564.545326233 0 0 0 0 60478828.414886475 -5609012.2446899414 0 -5609012.2446899414 21966020.200111389 0 0 0 0 27648937.203201294 -162365.98624992371 0 -162365.98624992371 46732024.771728516 0 0 0 0 25208427.234954834 22778418.333595276 0 22778418.333595276 38961244.970416069 0 0 0 0 10358867.461845398 16855447.941452026 0 16855447.941452026 40289862.682937622 0 0 0 0 -8703134.1172561646 29091860.085830688 0 29091860.085830688 38085374.784355164 0 0 0 0 25147919.47883606 69180164.704940796 0 69180164.704940796 78787630.247825623 0 0 0 0 116225540.6539917 48152250.663970947 0 48152250.663970947 -7093383.3480415344 0 0 0 0 -9774806.6739959717 16076387.674266815 0 16076387.674266815 991280.98638916016 0 0 0 0 14493796.653060913 79111834.500164032 0 79111834.500164032 -30994877.511238098 0 0 0 0 11749920.673171997 28821563.752090454 0 28821563.752090454 4195500.0912742615 0 0 0 0 114922789.7306366 -23337770.437637329 0 -23337770.437637329 16252773.996934891 0 0 0 0 51041932.208679199 16153750.041091919 0 16153750.041091919 -5038150.3801078796 0 0 0 0 29271651.850749969 -19091772.091257095 0 -19091772.091257095 120646763.51979828 0 0 0 0 103548962.60765076 77306256.314243317 0 77306256.314243317 41611678.55305481 0 0 0 0 118089348.2177124 -20204928.403987885 0 -20204928.403987885 32983791.274113655 0 0 0 0 -6621273.6552691907 5206449.863403555 0 5206449.863403555 6385544.2968302555 0 0 0 0 117635919.88310242 -22676070.249973297 0 -22676070.249973297 28633819.140500069 0 0 0 0 -25267886.026275635 36159438.311401367 0 36159438.311401367 83802507.194099426 0 0 0 0 -35523619.366790771 24345916.494787216 0 24345916.494787216 71352358.293243408 0 0 0 0 -45640123.592651367 31436016.949264526 0 31436016.949264526 58577132.525384903 0 0 0 0 17638140.87850669 18856642.303472266 0 18856642.303472266 10594330.763367258 0 0 0 0 30870662.781829834 47824761.668798447 0 47824761.668798447 -33029677.757369995 0 0 0 0 34089768.198287964 64867921.403467178 0 64867921.403467178 -49251940.729125977 0 0 0 0 4339422.2548675537 103042005.92531395 0 103042005.92531395 6732565.9850692749 0 0 0 0 -7658314.2451602817 3093986.6105545014 0 3093986.6105545014 5588171.5507337283 0 0 0 0 -22167822.221847534 11811714.142430305 0 11811714.142430305 -26906605.300170898 0 0 0 0 -127722.982421875 84468521.075187683 0 84468521.075187683 -42140998.347566605 0 0 0 0 2378747.0414758381 1633849.4493543804 0 1633849.4493543804 -317023.74069960974 0 0 0 0 -33852225.538543701 5059609.0408840179 0 5059609.0408840179 -111325352.3740406 0 0 0 0 39087102.239467621 65678889.396381378 0 65678889.396381378 -165192255.47724152 0 0 0 0 1511648.2976537347 -1143671.3193811793 0 -1143671.3193811793 -1246241.3892201874 0 0 0 0 42225568.284881592 86674007.695165634 0 86674007.695165634 -164098645.98922598 0 0 0 0 31271551.061889648 53966949.428608894 0 53966949.428608894 -112202994.48191452 0 0 0 0 -74398431.012237549 60781687.505968094 0 60781687.505968094 -49400274.771736383 0 0 0 0 15505249.473510742 -76327449.085577011 0 -76327449.085577011 -14755056.535762787 0 0 0 0 34499287.722290039 2247635.5960674286 0 2247635.5960674286 -129062910.06637192 0 0 0 0 -20305804.414672852 35457051.56886673 0 35457051.56886673 118778762.75011444 0 0 0 0 -53617913.229736328 15681999.739196777 0 15681999.739196777 123572871.05706787 0 0 0 0 -4082751.1073608398 99372304.420706749 0 99372304.420706749 148486620.62140656 0 0 0 0 199553344.30078125 117255133.61789322 0 117255133.61789322 143379384.43009567 0 0 0 0 115996987.13330078 54855675.289398193 0 54855675.289398193 102530407.37225723 0 0 0 0 30022883.77734375 138171992.3359375 0 138171992.3359375 202961172.98453522 0 0 0 0 -35247086.246623993 33593652.565837681 0 33593652.565837681 332364779.27786255 0 0 0 0 95308921.577301025 208370244.03369713 0 208370244.03369713 353157412.6466217 0 0 0 0 68564650.211456299 141893634.86208725 0 141893634.86208725 201772732.51275635 0 0 0 0 -36338190.789438248 74710540.190840125 0 74710540.190840125 470961953.33309937 0 0 0 0 10360.81441847235 434424.34139687195 0 434424.34139687195 -567289.71553451475 0 0 0 0 174261503.324646 209351454.93888855 0 209351454.93888855 236914878.55761337 0 0 0 0 275701809.59100342 150257594.03887177 0 150257594.03887177 55834832.131752014 0 0 0 0 671999.31816838682 889746.26146061718 0 889746.26146061718 -1131113.9238236239 0 0 0 0 56218065.378723145 -672646.54943847656 0 -672646.54943847656 274295185.90991974 0 0 0 0 57980910.490142822 16018199.877857208 0 16018199.877857208 110338714.7250061 0 0 0 0 81119553.34161377 88505177.037002563 0 88505177.037002563 86118177.099182129 0 0 0 0 -17295630.795593262 81519027.462841034 0 81519027.462841034 211078592.10384369 0 0 0 0 4251384.4870758057 63091292.59533596 0 63091292.59533596 145255444.61726761 0 0 0 0 5485496.3368225098 124953490.82624054 0 124953490.82624054 144010469.52275467 0 0 0 0 1888885.2533874512 9918803.8106665611 0 9918803.8106665611 -17127316.933440208 0 0 0 0 -7894320.7137598991 12607359.293943718 0 12607359.293943718 2569862.6065618703 0 0 0 0 -6705267.3819885254 109264415.78478432 0 109264415.78478432 170079946.84783936 0 0 0 0 -45162098.791320801 148174089.56491852 0 148174089.56491852 165914489.28440475 0 0 0 0 20811593.535949707 113963131.17083359 0 113963131.17083359 151051640.10363579 0 0 0 0 3768710.71144104 16975022.621282101 0 16975022.621282101 -17726857.328605175 0 0 0 0 30934953.603107452 -25890676.738789558 0 -25890676.738789558 33300568.165998459 0 0 0 0 -8283588.9473757744 21012221.872407459 0 21012221.872407459 1769231.0834166035 0 0 0 0 5548111.1060180664 15027874.84951973 0 15027874.84951973 -19849724.100434303 0 0 0 0 -24437006.880737305 118240076.49776411 0 118240076.49776411 13581373.909605026 0 0 0 0 27130003.546890259 90744551.843679428 0 90744551.843679428 -122245710.66280365 0 0 0 0 23912255.291651092 24140596.292488795 0 24140596.292488795 2616259.9085989185 0 0 0 0 34121629.771240234 60341138.117460251 0 60341138.117460251 -109003468.99561691 0 0 0 0 31606097.69128418 46224945.56186676 0 46224945.56186676 -19554200.669589996 0 0 0 0 70368191.042877197 15364903.692218781 0 15364903.692218781 -12697999.877388 0 0 0 0 31404747.127605602 27347355.000298109 0 27347355.000298109 -3721093.2807606198 0 0 0 0 4369748.1692352295 17594784.909975529 0 17594784.909975529 -20768823.195043087 0 0 0 0 5121063.9760742188 25187919.894011021 0 25187919.894011021 -36355740.205166817 0 0 0 0 5703845.733581543 16528192.850547791 0 16528192.850547791 -24630326.340261459 0 0 0 0 10359605.745025635 9112993.9441862106 0 9112993.9441862106 -27378820.693553627 0 0 0 0 5957885.2405395508 6138860.0527719855 0 6138860.0527719855 -11935480.0877738 0 0 0 0 874895.42181396484 11404100.459779978 0 11404100.459779978 -17952903.452741623 0 0 0 0 3116590.5588378906 10556503.76255846 0 10556503.76255846 -18269878.718312263 0 0 0 0 8751063.8855773732 5654474.9669942558 0 5654474.9669942558 -7686139.1198041476 0 0 0 0 10625906.488899946 2982717.5425294768 0 2982717.5425294768 -12807215.153092384 0 0 0 0 9794307.5128936768 4503614.2485202551 0 4503614.2485202551 -13304530.582774162 0 0 0 0 10492666.282043457 9096024.0411296785 0 9096024.0411296785 -9223115.8744148314 0 0 0 0 10683262.972879872 4957099.4030688386 0 4957099.4030688386 -8993793.5174047276 0 0 0 0 19434904.537384033 -4051171.7108650208 0 -4051171.7108650208 -17564552.651431084 0 0 0 0 753823.04954234511 646008.84149137139 0 646008.84149137139 -2410158.1953040715 0 0 0 0 -1031427.4654300064 6300354.5033405349 0 6300354.5033405349 -4034662.3305443674 0 0 0 0 21901964.24256897 26101597.910689831 0 26101597.910689831 -7298012.6259846687 0 0 0 0 -33174009.429718018 126943173.8561821 0 126943173.8561821 -650395248.67024863 0 0 0 0 471815623.84178925 -605497161.61772931 0 -605497161.61772931 -1380681934.6928153 0 0 0 0 -76631098.843288422 1236095024.0050135 0 1236095024.0050135 -887529690.57030344 0 0 0 0 -901821305.67282104 -13970581.266375713 0 -13970581.266375713 -600756310.89481497 0 0 0 0 -1148373.6818904281 1087597.2807797268 0 1087597.2807797268 -439773.63270360697 0 0 0 0 -196947638.42346191 -5120030.2425017357 0 -5120030.2425017357 77139018.76025629 0 0 0 0 -55885792.681289673 -975731405.5039016 0 -975731405.5039016 -1374599796.0243645 0 0 0 0 28951289.808837891 8243459.1170277596 0 8243459.1170277596 -83041862.403749466 0 0 0 0 -332346256.6098938 193666785.48567927 0 193666785.48567927 -55297105.259585381 0 0 0 0 -49788381.151313782 41796449.182677746 0 41796449.182677746 -57402212.08067131 0 0 0 0 -44009243.814758301 62293100.756070137 0 62293100.756070137 -28231708.876869202 0 0 0 0 -63294757.705402374 26636342.600294352 0 26636342.600294352 -14526878.623456001 0 0 0 0 3409723.8298339844 -13331045.631509781 0 -13331045.631509781 -2076753.5629849434 0 0 0 0 3052198.8367919922 9241414.8747272491 0 9241414.8747272491 -17654353.958468437 0 0 0 0 24723451.391967773 -8836969.0663928986 0 -8836969.0663928986 -2527382.7152099609 0 0 0 0 7408236.5229628906 1523747.0500598513 0 1523747.0500598513 -11346135.113562234 0 0 0 0 -43470207.514892578 69311917.295101166 0 69311917.295101166 29788737.397464752 0 0 0 0 -4902044.9121627808 84184392.118587494 0 84184392.118587494 -18429518.768882751 0 0 0 0 -29490736.006332397 19197810.574551582 0 19197810.574551582 204213.67707824707 0 0 0 0 83242074.225372314 32591549.50553894 0 32591549.50553894 -240108.37314224243 0 0 0 0 23156671.262413025 -21388633.43431139 0 -21388633.43431139 4030208.5215759277 0 0 0 0 34077588.57019043 106578267.76854324 0 106578267.76854324 88540071.334724426 0 0 0 0 30492309.759887695 90589103.754127502 0 90589103.754127502 34982889.350498199 0 0 0 0 -47586337.426818848 83361573.640239716 0 83361573.640239716 120703743.87823105 0 0 0 0 -44866906.969848633 87341141.378623962 0 87341141.378623962 45614314.935516357 0 0 0 0 -68745581.742767334 90076654.100301743 0 90076654.100301743 55013532.04958725 0 0 0 0 -27244743.479492188 99740763.894098282 0 99740763.894098282 -5932211.8929405212 0 0 0 0 -60353452.963867188 89246604.297790527 0 89246604.297790527 13724088.242391586 0 0 0 0 -61226036.147338867 111219228.10842752 0 111219228.10842752 -27781269.160812378 0 0 0 0 -62990729.151947021 170939886.38063908 0 170939886.38063908 -95219423.51663208 0 0 0 0 -88350812.336883545 134551827.76024342 0 134551827.76024342 -27804839.150088903 0 0 0 0 -117164761.20657349 187585084.43503094 0 187585084.43503094 -94668696.439087868 0 0 0 0 -105048906.31161499 112181799.56603527 0 112181799.56603527 2319312.1404147148 0 0 0 0 -69213773.191802979 137918596.34780979 0 137918596.34780979 -74986238.126083374 0 0 0 0 -153452144.14819336 93319830.672371864 0 93319830.672371864 -33427657.992761493 0 0 0 0 -93925098.300201416 150401783.05060601 0 150401783.05060601 -142322196.28128219 0 0 0 0 -186123506.0009079 338324930.77748632 0 338324930.77748632 -340550660.80175734 0 0 0 0 -67872754.044784546 223627671.10442209 0 223627671.10442209 -220760692.35115194 0 0 0 0 -41628959.213348389 114239436.31066042 0 114239436.31066042 -235277670.59410214 0 0 0 0 7845974.0783233643 107259701.44917774 0 107259701.44917774 -283655434.99061394 0 0 0 0 -60783219.650146484 14660816.53256762 0 14660816.53256762 -751044107.1629945 0 0 0 0 27973433.932044983 128039249.87981951 0 128039249.87981951 -264202560.71429825 0 0 0 0 28828371.801864624 101218219.52522349 0 101218219.52522349 -189989070.91397628 0 0 0 0 9955.4704360961914 106103478.04722834 0 106103478.04722834 -118491059.43128538 0 0 0 0 -11021699.812164307 159455141.48763943 0 159455141.48763943 -196890275.39937061 0 0 0 0 -97.427139282226562 121517857.52440548 0 121517857.52440548 -124710204.50050735 0 0 0 0 -12245542.931442261 143530099.83363819 0 143530099.83363819 -137336329.50873661 0 0 0 0 -33815983.908439636 110226619.68108606 0 110226619.68108606 -50674729.070386887 0 0 0 0 -43090963.859863281 124281812.66791725 0 124281812.66791725 -71892248.94053936 0 0 0 0 -21298157.047576904 133824846.82774448 0 133824846.82774448 -117187846.90430927 0 0 0 0 -31622.10125764276 108380290.31110901 0 108380290.31110901 -87888035.605361938 0 0 0 0 3895116.9874572754 78935789.379552841 0 78935789.379552841 -137078240.0208168 0 0 0 0 626194.63749694824 67913952.00138092 0 67913952.00138092 59925305.304264069 0 0 0 0 -1251959.611839503 -3054668.2987136822 0 -3054668.2987136822 1184988.6104783597 0 0 0 0 23091659.167373657 31959827.219016075 0 31959827.219016075 -26306180.210605621 0 0 0 0 -8455129.1880187988 75827927.661928177 0 75827927.661928177 -65178281.679351807 0 0 0 0 -43047587.969238281 45859397.432378769 0 45859397.432378769 20219633.601985931 0 0 0 0 -53397576.110839844 62722729.254245758 0 62722729.254245758 6383249.4503068924 0 0 0 0 -60192182.260192871 38051782.711286545 0 38051782.711286545 19296635.094047546 0 0 0 0 -39905231.968536377 45518473.329413414 0 45518473.329413414 12284801.87417984 0 0 0 0 -40239781.816467285 42853932.545906067 0 42853932.545906067 12160595.186089277 0 0 0 0 -57294119.576293945 52126806.257806778 0 52126806.257806778 117106458.13422394 0 0 0 0 -22800832.735275269 55712921.454509258 0 55712921.454509258 92782404.869941711 0 0 0 0 -61727551.79598999 40106490.170066833 0 40106490.170066833 84880177.415596008 0 0 0 0 -65132789.238052368 55165114.928360939 0 55165114.928360939 35147899.710704803 0 0 0 0 -56775469.401916504 27379196.651256561 0 27379196.651256561 52633931.317241669 0 0 0 0 -34455076.639556885 32027453.082242012 0 32027453.082242012 -2228528.9409408569 0 0 0 0 -26238213.164028168 -9447944.1815280914 0 -9447944.1815280914 56981632.499946594 0 0 0 0 -29721973.193725586 19590940.825031281 0 19590940.825031281 23479793.158332825 0 0 0 0 -1720338.454284668 93516022.755047798 0 93516022.755047798 -98042886.28332901 0 0 0 0 2547226.734553948 -1930420.2421488017 0 -1930420.2421488017 -2117727.2037267201 0 0 0 0 18116175.150390625 52982285.595443726 0 52982285.595443726 -123181741.40663385 0 0 0 0 -12513938.972427368 7274914.2291278839 0 7274914.2291278839 -20123316.111938477 0 0 0 0 -5753740.9231872559 -6845382.1616020203 0 -6845382.1616020203 6683382.2578048706 0 0 0 0 -36240163.849182129 60552451.138824463 0 60552451.138824463 -66458017.76676178 0 0 0 0 -32318494.513336182 47842357.815736771 0 47842357.815736771 -41918220.858703613 0 0 0 0 -38563813.779785156 54243181.812805176 0 54243181.812805176 -70404953.738887787 0 0 0 0 -21211208.393249512 73159242.886871338 0 73159242.886871338 -84488766.368751526 0 0 0 0 -52714484.944763184 24777124.829227448 0 24777124.829227448 -120859955.51556396 0 0 0 0 -31886523.880615234 18555435.734891891 0 18555435.734891891 44370415.970745087 0 0 0 0 -706353.08148789406 -1660410.2383379452 0 -1660410.2383379452 645055.5726932534 0 0 0 0 1508540.5064697266 74919270.572589874 0 74919270.572589874 -144658918.45267296 0 0 0 0 -49981518.357727051 52620669.587192535 0 52620669.587192535 58872492.336051941 0 0 0 0 -45274761.155990601 38788170.507167816 0 38788170.507167816 19730505.715080261 0 0 0 0 -42926737.215209961 32938198.326644897 0 32938198.326644897 18463964.454078674 0 0 0 0 -76836577.92175293 53317469.364814758 0 53317469.364814758 -150371991.52693176 0 0 0 0 -38443245.122924805 75363895.570457458 0 75363895.570457458 -11029633.089641571 0 0 0 0 -608714.97738647461 68631785.028896332 0 68631785.028896332 -152199363.22259212 0 0 0 0 1437481.7654833794 -1192911.7964391159 0 -1192911.7964391159 -1270046.6601188285 0 0 0 0 -52500409.472724915 41902345.102180481 0 41902345.102180481 153469884.23957825 0 0 0 0 -36850122.14050293 86787242.760658264 0 86787242.760658264 70283991.440847397 0 0 0 0 4847794.3007202148 63083552.573165894 0 63083552.573165894 -88136831.128181458 0 0 0 0 -37019630.699279785 30892002.27604866 0 30892002.27604866 67562580.421943665 0 0 0 0 -36679352.629440308 42614005.994261742 0 42614005.994261742 -18691743.522766113 0 0 0 0 -38643961.974914551 49245976.361312866 0 49245976.361312866 87183655.709998131 0 0 0 0 -37877481.528518677 66128833.549221992 0 66128833.549221992 8430320.1200332642 0 0 0 0 -12610715.258468628 120544786.44789124 0 120544786.44789124 109006560.7206192 0 0 0 0 -21194639.409759521 71540601.832925797 0 71540601.832925797 28204165.085021973 0 0 0 0 -35925338.055389404 88266054.814716339 0 88266054.814716339 64646005.69038415 0 0 0 0 -24924855.272064209 100085164.60308456 0 100085164.60308456 16776326.301296234 0 0 0 0 -18574299.383956909 69641313.625894547 0 69641313.625894547 17046916.945541382 0 0 0 0 54099656.835968018 69574601.89144516 0 69574601.89144516 16369394.973209858 0 0 0 0 -18104.168334670918 71178898.576256528 0 71178898.576256528 3116231.9692115784 0 0 0 0 908439.37042236328 50767878.699655533 0 50767878.699655533 20064445.093820572 0 0 0 0 16998.176009643917 70590389.150094211 0 70590389.150094211 53538302.994537354 0 0 0 0 17742390.234802246 77053462.928516388 0 77053462.928516388 -154663602.13207245 0 0 0 0 15964300.533782959 74296685.094228745 0 74296685.094228745 51625978.493621826 0 0 0 0 -2777097.8676528931 60109330.540916443 0 60109330.540916443 66355476.167816162 0 0 0 0 726004318.15375924 507606263.25830889 0 507606263.25830889 -163323656.11349487 0 0 0 0 464475443.32912159 193415416.21159554 0 193415416.21159554 -101069264.7088356 0 0 0 0 2074443.0573277457 -945768.41295680404 0 -945768.41295680404 -3182767.1540597789 0 0 0 0 555077312.87893677 -53317441.915655136 0 -53317441.915655136 -730114246.27532196 0 0 0 0 -156392862.78888798 509898856.48337936 0 509898856.48337936 -23378714.552807808 0 0 0 0 -113402328.44268751 156948367.91762304 0 156948367.91762304 539691457.75931549 0 0 0 0 -87751377.468884885 108078659.44237232 0 108078659.44237232 304741104.76352692 0 0 0 0 74061829.854673624 458582789.42364311 0 458582789.42364311 376440951.57391644 0 0 0 0 9171345.2057876587 319013192.80192566 0 319013192.80192566 283153396.42900658 0 0 0 0 422738925.56648922 243390946.97313881 0 243390946.97313881 -71703241.261306763 0 0 0 0 435089307.95604897 296019499.42358398 0 296019499.42358398 -212858322.68756104 0 0 0 0 15149002.911410332 325062995.94988823 0 325062995.94988823 -82487682.701313972 0 0 0 0 180362166.60459328 20735508.777540207 0 20735508.777540207 -12244319.808700562 0 0 0 0 -43593.325684428215 -52355210.271726757 0 -52355210.271726757 -29208809.783588409 0 0 0 0 394650136.98450851 54887192.469165802 0 54887192.469165802 60324959.449893951 0 0 0 0 143031474.64243317 -10361875.428564072 0 -10361875.428564072 48365759.039428711 0 0 0 0 261122114.8342495 237369026.84104538 0 237369026.84104538 -56341065.653491974 0 0 0 0 434932547.60139179 113965084.95798683 0 113965084.95798683 25338943.184345245 0 0 0 0 417825433.6529994 213134333.0855422 0 213134333.0855422 107464167.42758942 0 0 0 0 370114173.40224361 55297413.881666183 0 55297413.881666183 71354874.532365799 0 0 0 0 2371638.2933551092 -1327304.0841479758 0 -1327304.0841479758 -2993412.6451531127 0 0 0 0 361056596.52962577 -75838062.383925676 0 -75838062.383925676 83970973.959960938 0 0 0 0 379515130.61912882 86512540.740033865 0 86512540.740033865 132544959.61631775 0 0 0 0 504656084.26148367 -172071692.74943256 0 -172071692.74943256 245476647.8470993 0 0 0 0 555327475.49503517 102030559.42993116 0 102030559.42993116 120188916.37700653 0 0 0 0 493794300.76389885 135380860.34860611 0 135380860.34860611 49876072.734550476 0 0 0 0 489916936.10628796 51332392.04022789 0 51332392.04022789 572252092.81768036 0 0 0 0 450773499.44322014 -66416297.796260834 0 -66416297.796260834 79885896.077331543 0 0 0 0 570498985.03348255 64246345.129304886 0 64246345.129304886 97901701.986930847 0 0 0 0 289485101.07619381 199083131.52724075 0 199083131.52724075 46351007.51109314 0 0 0 0 -20414163.662302256 245785884.87957573 0 245785884.87957573 59811172.451538086 0 0 0 0 243339304.0628891 113193966.13125992 0 113193966.13125992 -112604583.32074261 0 0 0 0 205479348.40451384 88127258.360530853 0 88127258.360530853 216339106.38285065 0 0 0 0 254799200.09345958 197264834.77439785 0 197264834.77439785 55598962.785568237 0 0 0 0 681798981.015028 189627396.50001907 0 189627396.50001907 232140255.19394684 0 0 0 0 99355923.331395864 369423954.78700638 0 369423954.78700638 894111651.01796722 0 0 0 0 -12317342.690235734 108678764.09155846 0 108678764.09155846 331829558.07479858 0 0 0 0 -138860072.15953553 44640024.043561578 0 44640024.043561578 276436044.82380676 0 0 0 0 -138697941.54719067 37618517.001522064 0 37618517.001522064 561016188.01904297 0 0 0 0 -92129228.270637989 211625526.36830902 0 211625526.36830902 416898899.63869286 0 0 0 0 -170205176.47456169 150885122.66069794 0 150885122.66069794 310914860.60373306 0 0 0 0 -135853930.80216503 55474211.493675232 0 55474211.493675232 296596581.94328022 0 0 0 0 -90422780.106554031 91144855.034708023 0 91144855.034708023 227637482.43486786 0 0 0 0 -127416459.12648773 108172296.12956238 0 108172296.12956238 249448079.2295723 0 0 0 0 -141128515.50025845 73967490.520913124 0 73967490.520913124 266225085.88175964 0 0 0 0 -121562521.40833521 174623562.04303551 0 174623562.04303551 61239513.012428284 0 0 0 0 -116426887.59185648 262251545.84435272 0 262251545.84435272 -136555950.36761093 0 0 0 0 -227451329.08093119 185354046.34338951 0 185354046.34338951 65642741.454617977 0 0 0 0 47567918.186721087 148600073.42684841 0 148600073.42684841 -527570387.13312531 0 0 0 0 -195170689.14311218 64221911.534219742 0 64221911.534219742 -22145407.154874802 0 0 0 0 -84448985.047539234 214335951.02714014 0 214335951.02714014 59027641.664665222 0 0 0 0 -21070672.463996887 192532981.29335403 0 192532981.29335403 254576844.4824295 0 0 0 0 22560924.12827301 116483269.91852188 0 116483269.91852188 189250713.58657074 0 0 0 0 88246623.508457184 171924302.99613953 0 171924302.99613953 -3543173.3283538818 0 0 0 0 77442303.376951814 103907031.27988088 0 103907031.27988088 92567138.190307617 0 0 0 0 32353613.51789856 218707874.76359177 0 218707874.76359177 146729983.34358215 0 0 0 0 28374195.410398483 191033098.12454224 0 191033098.12454224 97007932.990546227 0 0 0 0 27844591.37638855 232535680.77384186 0 232535680.77384186 110124452.17948627 0 0 0 0 -1003648.2094688416 241685465.69291878 0 241685465.69291878 180616720.08955383 0 0 0 0 -77487687.169128418 127454941.50879669 0 127454941.50879669 75429511.807577133 0 0 0 0 -30843973.33618927 151608991.33734131 0 151608991.33734131 -11676824.794603348 0 0 0 0 -184463562.70915222 126506221.18296814 0 126506221.18296814 -80606011.971557617 0 0 0 0 -79144006.713760376 26872181.528060913 0 26872181.528060913 10843205.535253525 0 0 0 0 -80252000.166572571 83217453.151817322 0 83217453.151817322 143346304.62054443 0 0 0 0 -16713209.29970932 209162060.25510406 0 209162060.25510406 106388229.53840446 0 0 0 0 -50272368.834839821 234411404.84164619 0 234411404.84164619 90708935.403808594 0 0 0 0 29613719.383628845 375106476.02338409 0 375106476.02338409 229378558.58917236 0 0 0 0 -1128374.3725310862 6594565.8490697769 0 6594565.8490697769 2119423.5452958648 0 0 0 0 -66739382.319789886 100055323.47915268 0 100055323.47915268 424062419.28757191 0 0 0 0 -40011861.93170929 277004720.16178894 0 277004720.16178894 381424322.27210426 0 0 0 0 35285202.505714417 271787585.49629974 0 271787585.49629974 146671121.00399017 0 0 0 0 1464796.0421600342 215747130.50340652 0 215747130.50340652 139705838.70276642 0 0 0 0 -15565150.838764191 208023555.67555046 0 208023555.67555046 175571006.68785095 0 0 0 0 68542637.702209473 -2482598.5914916992 0 -2482598.5914916992 60383072.281768799 0 0 0 0 -40290311.836212158 47969010.956169128 0 47969010.956169128 172451787.24790955 0 0 0 0 74788309.493354797 294129011.20083618 0 294129011.20083618 8797775.992287159 0 0 0 0 -231884590.3552494 336236481.53678513 0 336236481.53678513 -161008420.43929672 0 0 0 0 -143701445.64906693 306469059.14054871 0 306469059.14054871 -179380255.42649841 0 0 0 0 -16585081.89710331 18328094.220169067 0 18328094.220169067 32063472.359580994 0 0 0 0 12779397.90142069 26145178.598787308 0 26145178.598787308 17230251.987148285 0 0 0 0 5373778.6566286087 144826879.19586658 0 144826879.19586658 -328447207.59037209 0 0 0 0 -801841.28306543315 2477448.5246714829 0 2477448.5246714829 2442540.6767540462 0 0 0 0 345315453.30914307 89631928.151275635 0 89631928.151275635 -403840370.09265137 0 0 0 0 -33022.88909434597 78701.204909576103 0 78701.204909576103 -41683.322344191372 0 0 0 0 -72280188.000617981 -150390595.90702057 0 -150390595.90702057 -246869641.94720459 0 0 0 0 9206695.7611968517 -1428256.5746860504 0 -1428256.5746860504 22736000.184173584 0 0 0 0 -787197103.96923447 -606107864.05636215 0 -606107864.05636215 232850487.23737335 0 0 0 0 -683512468.97940063 -680501461.93618774 0 -680501461.93618774 -12285327.554290771 0 0 0 0 479656520.06580353 347876552.69303131 0 347876552.69303131 -91278614.495855331 0 0 0 0 428733.82858109288 -359829.19966451311 0 -359829.19966451311 -344522.32095574215 0 0 0 0 -778178745.44203186 417190904.39213657 0 417190904.39213657 -219776658.53321457 0 0 0 0 -1259216031.1317291 64598734.222938538 0 64598734.222938538 149655946.953125 0 0 0 0 -478551836.21417999 292090958.61222839 0 292090958.61222839 -130620147.07938385 0 0 0 0 -15867542.684671879 99271877.547786713 0 99271877.547786713 272572637.43220329 0 0 0 0 145832938.97832084 545103917.88591194 0 545103917.88591194 -795296092.08224869 0 0 0 0 -2187230.9594559055 1610547.90627148 0 1610547.90627148 844482.94259508559 0 0 0 0 -6799809.8929564599 3787857.811684344 0 3787857.811684344 2508598.6029074849 0 0 0 0 49116725.611584544 23290433.771911621 0 23290433.771911621 11421344.854772568 0 0 0 0 108091287.77356595 179467312.54466057 0 179467312.54466057 107683467.57917294 0 0 0 0 1934812.0846152902 61292354.58932972 0 61292354.58932972 105829978.85494232 0 0 0 0 123732940.87799668 51231131.613723755 0 51231131.613723755 715681.25187778473 0 0 0 0 176969709.77181506 229034739.40651798 0 229034739.40651798 -215627102.2462616 0 0 0 0 88657972.149634957 287325913.25819111 0 287325913.25819111 172081472.98826599 0 0 0 0 184732747.08685088 187383537.13739395 0 187383537.13739395 -19374282.321724415 0 0 0 0 78976092.147686034 244050187.98440552 0 244050187.98440552 -9196052.5398635864 0 0 0 0 90603524.122864485 133154028.30801773 0 133154028.30801773 2428668.0160064697 0 0 0 0 222573843.47491086 127639428.81905746 0 127639428.81905746 2657587.4274089336 0 0 0 0 272559948.94356519 28066851.74454689 0 28066851.74454689 19004558.057751656 0 0 0 0 165934182.04239988 77035985.367312431 0 77035985.367312431 986323.57203292847 0 0 0 0 317412627.36411536 137052478.44974899 0 137052478.44974899 -64960604.543194771 0 0 0 0 147706383.55639642 190326393.47721291 0 190326393.47721291 -1316346.7140159607 0 0 0 0 187966627.58054227 180386887.79799175 0 180386887.79799175 -47126313.278781891 0 0 0 0 -34188246.699642181 24445891.460300446 0 24445891.460300446 -73161138.882762909 0 0 0 0 -898655061.19413757 -110038181.43982315 0 -110038181.43982315 59164388.752346039 0 0 0 0 6633.635514870286 1367565.8306849021 0 1367565.8306849021 -822378.26967240125 0 0 0 0 -98169.371741057083 2598332.9660642161 0 2598332.9660642161 1538221.0898227245 0 0 0 0 -1027072363.2367115 794536952.51017952 0 794536952.51017952 -155869172.04230022 0 0 0 0 -642267845.34435177 372707556.57751942 0 372707556.57751942 -10499134.141349792 0 0 0 0 172787165.50690413 71622448.397033691 0 71622448.397033691 -3124624.5252914429 0 0 0 0 -494965421.50948906 283587062.37324524 0 283587062.37324524 -207307289.57261467 0 0 0 0 -292417790.00706863 -13360280.121940613 0 -13360280.121940613 31080603.840145111 0 0 0 0 -230729143.09186745 11264383.875574112 0 11264383.875574112 37591340.214595795 0 0 0 0 -35085.047838460654 1789628.8100739382 0 1789628.8100739382 409134.52939039376 0 0 0 0 -223442503.40908623 19991535.851413727 0 19991535.851413727 -72714298.783168793 0 0 0 0 -25092.439257358463 1814074.8115127524 0 1814074.8115127524 1944977.1693251617 0 0 0 0 -982119885.50766754 391017052.64790535 0 391017052.64790535 238216588.08355713 0 0 0 0 -497656855.87956715 -155020790.50363636 0 -155020790.50363636 -52577557.746273041 0 0 0 0 -1165129280.3985281 151017453.74945831 0 151017453.74945831 116988834.40467072 0 0 0 0 -82614221.697719574 232346700.05466366 0 232346700.05466366 -68428981.088569641 0 0 0 0 -33030702.329851151 106251570.25298119 0 106251570.25298119 240160363.02632904 0 0 0 0 149149924.47827938 194431482.72891331 0 194431482.72891331 5218469.9004211426 0 0 0 0 402946695.88852429 168649728.04397774 0 168649728.04397774 -54030374.999038696 0 0 0 0 376024230.21638477 110935281.43978596 0 110935281.43978596 31872657.722900391 0 0 0 0 542343411.21958303 48856407.588354111 0 48856407.588354111 -68329460.266714096 0 0 0 0 -259581.321129321 231333.81415574253 0 231333.81415574253 1685214.3072751518 0 0 0 0 992758761.09131575 -80044990.573967457 0 -80044990.573967457 -88321807.222019196 0 0 0 0 498961936.11722553 96615140.36349678 0 96615140.36349678 -35229868.07818985 0 0 0 0 136177758.06200099 295605737.42319107 0 295605737.42319107 -3718265.4781608582 0 0 0 0 231222341.68627024 398002067.74308395 0 398002067.74308395 -295194571.69303894 0 0 0 0 128770852.93798202 266449157.92374635 0 266449157.92374635 -5051911.6213493347 0 0 0 0 -52890291.935449123 234029679.97167397 0 234029679.97167397 11078404.778095245 0 0 0 0 -338407225.82668853 16192703.135005474 0 16192703.135005474 -192518246.45852661 0 0 0 0 -467522412.1590476 560149199.31196785 0 560149199.31196785 -217626191.92478943 0 0 0 0 -65525306.319375038 90755909.514907837 0 90755909.514907837 64967751.467453003 0 0 0 0 73643806.455343127 256262971.00670624 0 256262971.00670624 -256089352.53813171 0 0 0 0 -334996387.0483675 108979888.80006409 0 108979888.80006409 101671657.86283684 0 0 0 0 -113214692.59880543 232510891.06973267 0 232510891.06973267 64040546.965414047 0 0 0 0 -152317254.80229592 104060481.6310463 0 104060481.6310463 142421368.22715759 0 0 0 0 -5531618.225938797 107489665.23774338 0 107489665.23774338 -46050134.532588959 0 0 0 0 12778477.564730167 241506684.39777565 0 241506684.39777565 -196780850.10340881 0 0 0 0 127978702.16169024 83457271.063514709 0 83457271.063514709 -8858335.7454891205 0 0 0 0 144447784.06214094 -102431282.62390769 0 -102431282.62390769 8565056.4145851135 0 0 0 0 622720426.94622135 66413001.615978718 0 66413001.615978718 -354862820.63336563 0 0 0 0 477400718.62891531 -193647722.57639456 0 -193647722.57639456 -192552254.53969574 0 0 0 0 881273.5213581447 -370145.45173879247 0 -370145.45173879247 -1444153.9237208348 0 0 0 0 369629883.57425982 25227782.411016226 0 25227782.411016226 454265686.34138489 0 0 0 0 63919964.300683737 372553265.89865494 0 372553265.89865494 114490845.79205704 0 0 0 0 111952304.24178958 343851752.89142418 0 343851752.89142418 -117698329.97384644 0 0 0 0 -21235973.864380598 286354928.37698603 0 286354928.37698603 -224004067.51623726 0 0 0 0 99998638.677913666 14528066.189199448 0 14528066.189199448 -226777202.67918301 0 0 0 0 -235616.2233365858 1073426.6217553122 0 1073426.6217553122 1163319.6269606352 0 0 0 0 321444025.38950157 -168115817.41521835 0 -168115817.41521835 -194473166.31982517 0 0 0 0 -175378.96605006978 1974317.7323988387 0 1974317.7323988387 2008304.9557792805 0 0 0 0 43784463.318332672 124308608.57045937 0 124308608.57045937 -248710028.43834496 0 0 0 0 589195687.87851429 106020783.42004919 0 106020783.42004919 -205460924.75864601 0 0 0 0 -106110133.5828588 91328182.188087463 0 91328182.188087463 450458253.80110931 0 0 0 0 115030168.40884972 -272136254.44501877 0 -272136254.44501877 251720705.32553101 0 0 0 0 402964401.23374891 344682864.79067326 0 344682864.79067326 -20763703.958868027 0 0 0 0 545032011.99875736 -17622541.075062275 0 -17622541.075062275 -225346274.08053589 0 0 0 0 91167015.229065418 -53013572.941551208 0 -53013572.941551208 519407612.15799713 0 0 0 0 1251127.9322569929 1938807.2478458546 0 1938807.2478458546 -1280506.8942807443 0 0 0 0 -92454507.15573597 468439446.04398727 0 468439446.04398727 -123943335.7805624 0 0 0 0 -214449159.36740494 -19733194.8216362 0 -19733194.8216362 407725379.4972682 0 0 0 0 -112244504.47313118 274215247.32282829 0 274215247.32282829 -14760413.983613968 0 0 0 0 -399288.54224442691 1165884.447514656 0 1165884.447514656 1321343.5855047554 0 0 0 0 -44231154.450700998 -261445415.17847252 0 -261445415.17847252 348526897.4885788 0 0 0 0 123763710.11711884 190066004.50981712 0 190066004.50981712 14425200.241527557 0 0 0 0 -226237738.60732555 -672712470.52157974 0 -672712470.52157974 -377140408.94830382 0 0 0 0 4174203.4056995101 8169489.1422100617 0 8169489.1422100617 -4827840.2700364161 0 0 0 0 11368542.514190674 11151140.903867722 0 11151140.903867722 -4045970.8211097717 0 0 0 0 -795029.87770080566 9097080.7327041626 0 9097080.7327041626 3113133.9393253326 0 0 0 0 -25521.155021846294 14005567.130402615 0 14005567.130402615 218146.58886789903 0 0 0 0 -3870620.0444889069 5931596.5234680176 0 5931596.5234680176 890380.57402038574 0 0 0 0 -203572254.54827309 -161773236.00624847 0 -161773236.00624847 319301419.51931 0 0 0 0 345090808.72745132 169496321.43260193 0 169496321.43260193 -162414823.7738533 0 0 0 0 3669459.1420490071 9157278.4127344713 0 9157278.4127344713 -4219946.210913036 0 0 0 0 41570240.939423561 67861121.29929924 0 67861121.29929924 -59369939.225193024 0 0 0 0 166562384.03300285 -30595738.633135796 0 -30595738.633135796 -2526352.6428003311 0 0 0 0 5093208.2221848369 6822899.3250188511 0 6822899.3250188511 -2967969.9563961402 0 0 0 0 -1859838.6393318176 13592733.009628296 0 13592733.009628296 -2767478.3897848129 0 0 0 0 -1233377.4965143986 8551782.9546716958 0 8551782.9546716958 4396581.9785217736 0 0 0 0 23365233.733177185 -11734985.450853348 0 -11734985.450853348 -32615610.052936554 0 0 0 0 7087974.3635480599 9727403.1742764637 0 9727403.1742764637 -87573.697996575385 0 0 0 0 -4766870.8565750122 27096240.793827057 0 27096240.793827057 39573520.905313492 0 0 0 0 75786533.918914795 43530892.406805038 0 43530892.406805038 -17071860.018132687 0 0 0 0 -7263226.3037247797 2389537.5629693917 0 2389537.5629693917 4009970.6537250523 0 0 0 0 167455353.32818317 -37980406.514871597 0 -37980406.514871597 -93104352.848659515 0 0 0 0 119969185.30529022 -85752370.121080399 0 -85752370.121080399 -98359612.606841087 0 0 0 0 -14940522.413734436 55246231.771455765 0 55246231.771455765 -126744130.52327204 0 0 0 0 264327737.5219593 -69616078.627725601 0 -69616078.627725601 -78654989.825271606 0 0 0 0 74892773.452052116 -68050328.634199142 0 -68050328.634199142 -72243962.404247284 0 0 0 0 19766611.895545959 -43325873.891181946 0 -43325873.891181946 34017892.099060059 0 0 0 0 -36248396.591247559 -87920022.720495224 0 -87920022.720495224 419378690.1109066 0 0 0 0 264446738.97622013 215381289.91984034 0 215381289.91984034 108697055.57909012 0 0 0 0 88248694.379440308 103684527.88232422 0 103684527.88232422 38189015.864574432 0 0 0 0 174587883.24594784 141648626.75802433 0 141648626.75802433 -30597151.507095337 0 0 0 0 65506428.378921509 103699040.91018677 0 103699040.91018677 -3905565.3000869751 0 0 0 0 83015270.754707336 86104511.866524696 0 86104511.866524696 -16681914.012840271 0 0 0 0 44207174.528884888 116676490.28729725 0 116676490.28729725 24088536.064987183 0 0 0 0 -27520180.602371216 78392140.142887115 0 78392140.142887115 3678969.3617858887 0 0 0 0 60946504.394786835 81974494.555788517 0 81974494.555788517 -79519576.880561829 0 0 0 0 -46439685.846817017 35473618.465656281 0 35473618.465656281 -64112831.254788876 0 0 0 0 -136364675.00569916 121714684.1093092 0 121714684.1093092 18437484.019191742 0 0 0 0 -27810329.940609694 63565316.199174881 0 63565316.199174881 7761610.3311882019 0 0 0 0 -29692629.701515198 746922.0468711853 0 746922.0468711853 150739443.05282402 0 0 0 0 -197455712.10613251 7378539.589597702 0 7378539.589597702 164791981.48782349 0 0 0 0 -88546579.379188538 99938495.058740616 0 99938495.058740616 8342012.4767990112 0 0 0 0 344218.96451669931 888686.14725457691 0 888686.14725457691 -535561.56032231264 0 0 0 0 -134829616.27276611 114577373.83475876 0 114577373.83475876 25600247.071212769 0 0 0 0 8804667.138738215 11100204.922338217 0 11100204.922338217 579424.27986854687 0 0 0 0 -129255763.06237793 68418629.411298752 0 68418629.411298752 49362656.764980316 0 0 0 0 -141874050.31749916 123317592.86316156 0 123317592.86316156 -1502157.7139167786 0 0 0 0 -257284136.28658295 61107477.052276611 0 61107477.052276611 -7670998.9331092834 0 0 0 0 -129720716.60655212 129715324.92184639 0 129715324.92184639 1751277.5168457031 0 0 0 0 -142751782.35636711 129057997.12887335 0 129057997.12887335 20079507.85092926 0 0 0 0 -11281670.506263733 16025602.206497192 0 16025602.206497192 -3592291.0800037384 0 0 0 0 1602518.090719223 9632339.2429456711 0 9632339.2429456711 -6592980.7788391113 0 0 0 0 3766508.4999346808 9150097.8057157211 0 9150097.8057157211 3313165.7214148343 0 0 0 0 -83297285.9503479 -35449722.750925064 0 -35449722.750925064 -58699331.510704041 0 0 0 0 -12815500.441690445 19916424.246907234 0 19916424.246907234 -3744932.5929107666 0 0 0 0 -121470771.9503479 115302256.96772385 0 115302256.96772385 10433023.361469269 0 0 0 0 -123418547.71444702 42605777.554691315 0 42605777.554691315 48313313.107955933 0 0 0 0 -160334557.23036957 -23061965.601349831 0 -23061965.601349831 72434675.167915344 0 0 0 0 -33843988.786941528 35520001.708763123 0 35520001.708763123 38408831.802995682 0 0 0 0 -79956923.84967041 -34136630.983584404 0 -34136630.983584404 59014992.598373413 0 0 0 0 -244480018.19173431 -112361257.25620461 0 -112361257.25620461 24123718.056819916 0 0 0 0 115483604.6523819 -120825306.02008009 0 -120825306.02008009 -148611578.44455719 0 0 0 0 -411750271.80960846 -327711870.7665863 0 -327711870.7665863 -74732472.361930847 0 0 0 0 -176621114.97315979 53770264.93422699 0 53770264.93422699 -97375474.208217755 0 0 0 0 -623895590.31507874 228418646.63589859 0 228418646.63589859 -98519648.090516776 0 0 0 0 60434599.874949455 230184634.74604464 0 230184634.74604464 -664970634.77679825 0 0 0 0 -80586651.329639435 -70266630.996072769 0 -70266630.996072769 53581542.451179504 0 0 0 0 43619394.475650787 132038470.36853075 0 132038470.36853075 -146175663.43981934 0 0 0 0 82177020.279136658 54080567.842617035 0 54080567.842617035 -458404764.64065552 0 0 0 0 -8432990.8498077393 -61632981.452732086 0 -61632981.452732086 -257911519.4589138 0 0 0 0 2081704.4114379883 109606277.69480133 0 109606277.69480133 -255620276.39077568 0 0 0 0 87766875.013000488 -22196555.589002609 0 -22196555.589002609 -151729357.64053917 0 0 0 0 810607.60803540051 1613163.4976933394 0 1613163.4976933394 -998717.65650198702 0 0 0 0 -77471608.264774323 133055454.94238663 0 133055454.94238663 118477940.26596832 0 0 0 0 88133339.668067932 -171993964.35659027 0 -171993964.35659027 -176264548.58086777 0 0 0 0 -100452430.56589127 115204704.88407993 0 115204704.88407993 -80622090.829612732 0 0 0 0 -119842.17174763884 -1086516.5743626021 0 -1086516.5743626021 -332218.94691349566 0 0 0 0 67931341.394493103 121182975.14275169 0 121182975.14275169 -422376641.67007637 0 0 0 0 42818573.638153076 -25071755.755235672 0 -25071755.755235672 -555641.36110973358 0 0 0 0 53895647.701095581 4631727.5498256683 0 4631727.5498256683 -22380525.329078674 0 0 0 0 46340372.331787109 15993725.282529831 0 15993725.282529831 57393153.538711548 0 0 0 0 200219590.35628128 -95444675.819437027 0 -95444675.819437027 -139427374.49874878 0 0 0 0 143773519.81663513 68739469.289958 0 68739469.289958 -579719545.33236694 0 0 0 0 -90469639.835441589 736219626.19517899 0 736219626.19517899 -457640247.82752609 0 0 0 0 23524057.532203674 662531820.52806664 0 662531820.52806664 -720214866.52198792 0 0 0 0 -5974815.1556968689 165032217.02451628 0 165032217.02451628 -196605312.39045715 0 0 0 0 -734003558.4310379 359707665.16094875 0 359707665.16094875 -220584221.51895142 0 0 0 0 -346566.76761942077 -1027727.5155696012 0 -1027727.5155696012 -1650265.6984602101 0 0 0 0 -210332721.29414749 957025859.77442074 0 957025859.77442074 -449976473.02367401 0 0 0 0 -776038485.64105988 1087910458.9004326 0 1087910458.9004326 -192446515.22108841 0 0 0 0 290192461.10800171 -678568046.61402988 0 -678568046.61402988 -442053255.01224136 0 0 0 0 128659766.76900673 20382119.760998249 0 20382119.760998249 -1405856.1062889099 0 0 0 0 -887245.00412142556 -2563685.4902284425 0 -2563685.4902284425 -2694646.6377774552 0 0 0 0 73460933.941871643 -21210603.170862198 0 -21210603.170862198 -32693393.685855865 0 0 0 0 86117271.967781067 3807637.4649848938 0 3807637.4649848938 17955275.780403137 0 0 0 0 -177006.84304713691 -1727608.3530696183 0 -1727608.3530696183 -702551.61928805336 0 0 0 0 68879756.678848267 14323381.304336548 0 14323381.304336548 11546913.510490417 0 0 0 0 -147277039.79623413 107102103.11222649 0 107102103.11222649 42949225.394723892 0 0 0 0 245544320.77926636 11544676.816898346 0 11544676.816898346 -154089863.55776215 0 0 0 0 -24710689.801113605 -10330351.128814936 0 -10330351.128814936 -8628496.7183761597 0 0 0 0 163782162.01446342 -130558419.35118103 0 -130558419.35118103 45733779.551528692 0 0 0 0 -3563006.2538791429 703779.50945766736 0 703779.50945766736 2677139.6768014096 0 0 0 0 137295579.62032032 -84807509.81959343 0 -84807509.81959343 83661204.721370697 0 0 0 0 109616698.31183481 -77214806.332377434 0 -77214806.332377434 85100422.092884064 0 0 0 0 88817726.154665947 -62041415.495053291 0 -62041415.495053291 40109470.661651611 0 0 0 0 -17594389.987411499 11640112.428424835 0 11640112.428424835 2792911.1669158936 0 0 0 0 -3809828.8900999539 1363961.9080141783 0 1363961.9080141783 2988907.5155879762 0 0 0 0 -1453601099.3606644 620310674.19214058 0 620310674.19214058 20757870.430278778 0 0 0 0 2206978.5081167938 1512347.1930450685 0 1512347.1930450685 -1582166.2173160445 0 0 0 0 15755859.758935928 23912515.136641026 0 23912515.136641026 -564190858.47529602 0 0 0 0 -33639148.037094116 23090973.008085251 0 23090973.008085251 358090.09838342667 0 0 0 0 6312330.1321377549 10150961.955396868 0 10150961.955396868 6172481.0231940169 0 0 0 0 -235719470.85342407 437376445.31567383 0 437376445.31567383 -469341385.8156395 0 0 0 0 -93602920.178909302 384185835.13349724 0 384185835.13349724 -560168412.84241986 0 0 0 0 -287452808.85186005 386934363.36426973 0 386934363.36426973 -256218434.95306396 0 0 0 0 -179608985.57017517 32568035.724273682 0 32568035.724273682 167701626.85609818 0 0 0 0 -57154665.441940308 216367172.41223526 0 216367172.41223526 -620370273.6378479 0 0 0 0 -108991646.17355347 107200933.003438 0 107200933.003438 -276155376.42247009 0 0 0 0 31919435.955253601 176970363.91182709 0 176970363.91182709 -980254160.88109517 0 0 0 0 6394467.0084547903 9214359.1671561077 0 9214359.1671561077 7234461.2740381286 0 0 0 0 -48317102.69480896 126311259.51868629 0 126311259.51868629 25073538.938690186 0 0 0 0 -187368223.00009155 666179222.76768017 0 666179222.76768017 -953060788.41261673 0 0 0 0 -1565973.9501201678 -79179.436141330283 0 -79179.436141330283 1407341.9060226865 0 0 0 0 350013960.02532768 -35785650.824555397 0 -35785650.824555397 131432814.96551323 0 0 0 0 4367672.1603471264 7782758.9641044699 0 7782758.9641044699 8015200.1015908755 0 0 0 0 97783104.836940765 333546337.36874771 0 333546337.36874771 196230918.88308334 0 0 0 0 -49635716.772809982 -93926759.710792542 0 -93926759.710792542 -154085802.57645607 0 0 0 0 -481795365.52571869 1188500917.6399937 0 1188500917.6399937 -634267358.07522583 0 0 0 0 -85420535.247116089 1443613081.5366669 0 1443613081.5366669 -1682087196.9848938 0 0 0 0 -193232875.81830215 -79174112.339463234 0 -79174112.339463234 -302275503.92706299 0 0 0 0 145303254.03702164 1269879100.688467 0 1269879100.688467 940246607.40324402 0 0 0 0 -941988163.87093735 889272468.57994461 0 889272468.57994461 3381508152.8112984 0 0 0 0 1242058029.4667511 1321554346.9860954 0 1321554346.9860954 968533676.63664627 0 0 0 0 115357783.3095541 -36543705.104058266 0 -36543705.104058266 1649197998.4592781 0 0 0 0 1093734274.8033066 -421069535.25323486 0 -421069535.25323486 216204526.04481697 0 0 0 0 -246239832.39177418 3694173.7283337116 0 3694173.7283337116 -392462986.40516663 0 0 0 0 15733341.989234924 265500981.56472206 0 265500981.56472206 -130878918.83452988 0 0 0 0 -61074570.223056793 -275359393.00660896 0 -275359393.00660896 238626862.33509064 0 0 0 0 273261712.32298279 -154270935.20947647 0 -154270935.20947647 -312145503.40750551 0 0 0 0 -32310996.061222076 -248330890.91966057 0 -248330890.91966057 83657060.037018299 0 0 0 0 160834834.79883575 -63568998.162723541 0 -63568998.162723541 77711646.866685867 0 0 0 0 251532651.88014984 404021854.12565613 0 404021854.12565613 217973106.31185913 0 0 0 0 -6984693.2130432129 427243007.27125359 0 427243007.27125359 506208709.62594604 0 0 0 0 -684721.83584364224 -1363735.5355210621 0 -1363735.5355210621 245337.62572959065 0 0 0 0 358423637.40589142 561839323.80636978 0 561839323.80636978 145284622.55751991 0 0 0 0 466164981.56562805 416395640.21700859 0 416395640.21700859 9102018.0662002563 0 0 0 0 553304041.86664581 479077587.44456863 0 479077587.44456863 47607428.949676514 0 0 0 0 941098156.66371155 637695643.68060303 0 637695643.68060303 45806017.482897043 0 0 0 0 481008167.01892853 392947717.76129913 0 392947717.76129913 10508694.030792236 0 0 0 0 661759628.05583191 357504319.96577454 0 357504319.96577454 -157489068.97690582 0 0 0 0 509044313.09612274 252906243.78440094 0 252906243.78440094 -140513094.07603359 0 0 0 0 2049245.4468898363 3912647.1170234103 0 3912647.1170234103 1624786.7314156704 0 0 0 0 -253060328.2562027 49155631.463729858 0 49155631.463729858 60797701.94758606 0 0 0 0 208661165.92436981 -10360771.514606476 0 -10360771.514606476 -79542394.525531769 0 0 0 0 -382421516.13777161 74835519.666213989 0 74835519.666213989 -146455593.54587936 0 0 0 0 222007760.23877525 -279586661.43843365 0 -279586661.43843365 65299609.381057739 0 0 0 0 5055780.0813127235 4278318.929386951 0 4278318.929386951 -2924062.1813346958 0 0 0 0 1172647394.000267 -146013058.91910934 0 -146013058.91910934 -403720563.13364029 0 0 0 0 719468631.22099304 1162419394.8374252 0 1162419394.8374252 1143413885.2013493 0 0 0 0 342333909.24930573 630482644.62977791 0 630482644.62977791 666472382.75124359 0 0 0 0 680516756.3391037 301010501.51411819 0 301010501.51411819 -4643704.8622512817 0 0 0 0 1610008328.2568741 830374543.1768074 0 830374543.1768074 119735716.7845459 0 0 0 0 -56976590.981735229 88383509.432247162 0 88383509.432247162 -222071026.88762236 0 0 0 0 -144747293.29597664 121631565.62578487 0 121631565.62578487 -26460512.264125824 0 0 0 0 -73837019.886047363 266304876.52919579 0 266304876.52919579 -221604526.48305702 0 0 0 0 -105168554.63583755 262520142.63084888 0 262520142.63084888 -202058716.97155762 0 0 0 0 -111494.30698848376 -943073.24876785651 0 -943073.24876785651 -323440.64438002557 0 0 0 0 102441768.69338799 -38058396.070111036 0 -38058396.070111036 -74865620.53868103 0 0 0 0 -145314323.50666809 195727587.49130058 0 195727587.49130058 -141908236.97088242 0 0 0 0 106314997.37316895 49011726.727401733 0 49011726.727401733 -262584058.29090881 0 0 0 0 81250904.270500183 30399541.547908783 0 30399541.547908783 -50722141.154098511 0 0 0 0 -1149638.9609971363 -2704775.1426083278 0 -2704775.1426083278 -894949.34859194979 0 0 0 0 25652015.11464119 89357779.798062801 0 89357779.798062801 -105293983.41753387 0 0 0 0 -227095359.31387901 171506131.6087532 0 171506131.6087532 100832905.6276207 0 0 0 0 143210668.30459595 330343911.9256897 0 330343911.9256897 156956451.08036995 0 0 0 0 59274225.508407593 164910847.09640503 0 164910847.09640503 -82075582.752806664 0 0 0 0 -3370202.1064739227 286161749.13548088 0 286161749.13548088 259177068.31912994 0 0 0 0 67306078.771954775 81128744.509106517 0 81128744.509106517 -81954688.899909973 0 0 0 0 -103579347.79290771 113982199.12846756 0 113982199.12846756 -809762.82870960236 0 0 0 0 141147535.50898743 90659185.967960358 0 90659185.967960358 -4521387.0307579041 0 0 0 0 -27670540.943389893 43970647.579818726 0 43970647.579818726 -33708713.487751007 0 0 0 0 368239874.24062347 106954849.79710579 0 106954849.79710579 165072825.46715546 0 0 0 0 106292332.04460144 196072858.06452751 0 196072858.06452751 387287062.91522217 0 0 0 0 49788115.48028183 -146312456.91762352 0 -146312456.91762352 319019113.23180008 0 0 0 0 -1310105.344765909 -229290.92231422849 0 -229290.92231422849 1296590.3197303154 0 0 0 0 129480271.22784805 280872497.33854485 0 280872497.33854485 168334053.5308075 0 0 0 0 428019281.4933548 259425239.38709259 0 259425239.38709259 428630261.28593445 0 0 0 0 134790599.0118866 119705885.76990891 0 119705885.76990891 362058605.90826035 0 0 0 0 195873419.15353584 348486760.41640139 0 348486760.41640139 384121629.00183868 0 0 0 0 165973587.07206726 256042421.2122879 0 256042421.2122879 499128435.48097229 0 0 0 0 219879730.43231201 277594324.06117249 0 277594324.06117249 259494699.69163704 0 0 0 0 104662953.21525955 300774470.52214718 0 300774470.52214718 414070563.60488892 0 0 0 0 122541164.52044678 249171486.33585358 0 249171486.33585358 619303695.82540131 0 0 0 0 219994130.74084473 341847247.35675812 0 341847247.35675812 427892454.90621567 0 0 0 0 10187291.516242061 -4481256.2765376531 0 -4481256.2765376531 -10158487.901562994 0 0 0 0 155549942.21162796 394694283.9486618 0 394694283.9486618 715131690.26448822 0 0 0 0 342634971.73429871 -233246030.3854866 0 -233246030.3854866 -305291676.87318993 0 0 0 0 405004275.94672203 116363873.9998703 0 116363873.9998703 -42965523.173843384 0 0 0 0 607949258.65402985 -403060427.33894444 0 -403060427.33894444 37400726.653320312 0 0 0 0 -445829691.13685608 -47732754.863788605 0 -47732754.863788605 848877606.12007904 0 0 0 0 -41178396.400085449 -9232378.6333122253 0 -9232378.6333122253 -198602447.6056366 0 0 0 0 -259499018.1840477 -3333698.0229892731 0 -3333698.0229892731 -261410415.98812866 0 0 0 0 -168335904.20852661 -196023524.37129974 0 -196023524.37129974 124521641.79880333 0 0 0 0 -559362102.13664246 370390840.29691696 0 370390840.29691696 -72660213.980314255 0 0 0 0 221226907.15093613 235829802.13134766 0 235829802.13134766 590412215.421875 0 0 0 0 295455766.6827774 329574197.24372864 0 329574197.24372864 530484191.57144356 0 0 0 0 442410630.33010864 683772529.3633194 0 683772529.3633194 927366098.00443268 0 0 0 0 5167395.2637857497 -1907740.4632979259 0 -1907740.4632979259 -3934314.5414038468 0 0 0 0 -24579426.60786438 5866102.9295272827 0 5866102.9295272827 -263610042.20048904 0 0 0 0 135046185.77511597 -115885068.30393219 0 -115885068.30393219 -848805285.37893677 0 0 0 0 1117115.6359349936 -595029.36854705215 0 -595029.36854705215 -747947.3070844654 0 0 0 0 -334974365.65083313 410445771.4779129 0 410445771.4779129 1755970083.6001225 0 0 0 0 294657977.06108093 1386299333.147007 0 1386299333.147007 1921241420.3698282 0 0 0 0 622221024.37736511 331318126.35026646 0 331318126.35026646 265333621.27999878 0 0 0 0 199388829.765625 331440179.5827179 0 331440179.5827179 -107097653.44104958 0 0 0 0 193337987.49782562 324689874.54897308 0 324689874.54897308 434945231.91610336 0 0 0 0 -20353513.994262695 194146655.30445719 0 194146655.30445719 126277414.64012146 0 0 0 0 -11424484.228108406 -49986864.661483049 0 -49986864.661483049 184110296.32473755 0 0 0 0 157803915.51760864 80783012.793769836 0 80783012.793769836 124991177.28408813 0 0 0 0 18286459.407800674 45103251.196792603 0 45103251.196792603 -253364.81622433662 0 0 0 0 9981752.0223409086 26318224.899591908 0 26318224.899591908 21821820.344711185 0 0 0 0 2325953.5974676884 57297867.218987197 0 57297867.218987197 14686587.242455315 0 0 0 0 44104414.713619307 17667976.435585625 0 17667976.435585625 -57506293.460294411 0 0 0 0 197468077.69900513 80188061.950027466 0 80188061.950027466 -8760533.5658340454 0 0 0 0 213984974.56884766 119430838.82580566 0 119430838.82580566 -33754093.269958496 0 0 0 0 122585135.9241333 136105417.88624573 0 136105417.88624573 333111328.91954041 0 0 0 0 -979282.43911343068 -1837492.2773170583 0 -1837492.2773170583 -2929863.3369499668 0 0 0 0 18676669.470033646 46379005.961170197 0 46379005.961170197 -13395670.911253929 0 0 0 0 22851117.874200821 47202496.257314444 0 47202496.257314444 -29992926.50910759 0 0 0 0 5756616.1961503029 58778807.033548594 0 58778807.033548594 11674581.170611858 0 0 0 0 7230162.5140037537 62294331.395297527 0 62294331.395297527 3402287.6322741508 0 0 0 0 9440284.4873580933 57512978.788984776 0 57512978.788984776 10105376.171860695 0 0 0 0 6791301.6338653564 103831366.20661545 0 103831366.20661545 169586248.12935638 0 0 0 0 5554465.2022935897 29098403.896949671 0 29098403.896949671 -8352204.1350494009 0 0 0 0 8945496.9448699951 58304128.476113662 0 58304128.476113662 9792613.1126852445 0 0 0 0 10539597.282231331 54942786.859657466 0 54942786.859657466 11230176.979110241 0 0 0 0 189073296.9562912 218838057.74267197 0 218838057.74267197 151298575.43588257 0 0 0 0 2415485.4709407091 18210421.721570499 0 18210421.721570499 10849658.872379281 0 0 0 0 7868395.2692499217 8211394.4310393091 0 8211394.4310393091 -8483297.2865211032 0 0 0 0 545957258.55168915 278382210.46516037 0 278382210.46516037 68321555.217056274 0 0 0 0 456327215.53366089 333164948.43233109 0 333164948.43233109 117235604.23229218 0 0 0 0 239629804.07778931 408553506.95276642 0 408553506.95276642 281009960.20227051 0 0 0 0 282401179.58190918 394738145.32096863 0 394738145.32096863 171423038.40592194 0 0 0 0 262928852.95733643 382233983.49348068 0 382233983.49348068 210846491.03726196 0 0 0 0 33665750.429351807 312869834.58594894 0 312869834.58594894 280488655.0386467 0 0 0 0 41838006.184020996 495606846.00164032 0 495606846.00164032 243102465.02420807 0 0 0 0 157133058.02312851 373897607.98014164 0 373897607.98014164 310273483.32949066 0 0 0 0 94716352.4584198 356750376.12388229 0 356750376.12388229 408059008.01428986 0 0 0 0 130827698.26358795 389534750.6568737 0 389534750.6568737 284402303.97532654 0 0 0 0 178317102.58802795 274935471.90374756 0 274935471.90374756 402998117.85394764 0 0 0 0 151337204.12330627 312411171.72980499 0 312411171.72980499 352693594.19941711 0 0 0 0 15113002.845725417 -7886822.5271999221 0 -7886822.5271999221 -24100103.764427233 0 0 0 0 200183766.21216583 317452015.87657547 0 317452015.87657547 352808447.92636108 0 0 0 0 229366920.48257446 274909671.38796234 0 274909671.38796234 245900468.47906113 0 0 0 0 -70451428.939346313 176712874.81058502 0 176712874.81058502 237878741.57116318 0 0 0 0 3414397.2927286997 7701125.7758453451 0 7701125.7758453451 6355139.7034728229 0 0 0 0 16542881.774300672 28557289.288031515 0 28557289.288031515 -36121427.267824315 0 0 0 0 176984123.01873779 270061891.61412048 0 270061891.61412048 118638028.32695007 0 0 0 0 -278685454.33805847 -69264956.815338135 0 -69264956.815338135 118961838.23431778 0 0 0 0 93732782.289764404 50854582.118774414 0 50854582.118774414 -239791278.76901245 0 0 0 0 239797771.90763855 178668519.01877975 0 178668519.01877975 125021507.14069366 0 0 0 0 227140946.34750366 280529974.00020218 0 280529974.00020218 228760234.97650146 0 0 0 0 8528600.4121950865 26291902.778293021 0 26291902.778293021 -39821483.203261115 0 0 0 0 60824664.152183533 192493844.27935791 0 192493844.27935791 216780517.03978729 0 0 0 0 127757096.58094788 121332551.65631485 0 121332551.65631485 102571353.61826873 0 0 0 0 -45861252.194403648 12363258.31108284 0 12363258.31108284 57146807.887664795 0 0 0 0 74933339.417053223 185480761.58157349 0 185480761.58157349 153543209.7811203 0 0 0 0 -36861937.246678956 25508595.655738857 0 25508595.655738857 22612647.667042382 0 0 0 0 214657916.48646164 205368480.54937172 0 205368480.54937172 5289465.75050354 0 0 0 0 237284519.51271057 249972748.72112656 0 249972748.72112656 92826756.796749115 0 0 0 0 239308528.3385849 123601409.94209671 0 123601409.94209671 10987392.877090454 0 0 0 0 -6649535.4422607422 89079983.42527771 0 89079983.42527771 104245544.07197571 0 0 0 0 -20338841.950901143 4481179.408718437 0 4481179.408718437 17354198.567655642 0 0 0 0 318865765.03333473 100333038.27538395 0 100333038.27538395 1470829.5006561279 0 0 0 0 299192576.09228516 203980369.77070713 0 203980369.77070713 -31285807.363845825 0 0 0 0 19162992.404296875 35064261.647780418 0 35064261.647780418 -34928637.5046978 0 0 0 0 21209252.115384102 45419410.878613949 0 45419410.878613949 -23402762.689716339 0 0 0 0 -25708639.145004272 2876465.0524559021 0 2876465.0524559021 14334565.426330566 0 0 0 0 -22722655.926457547 30114984.143733494 0 30114984.143733494 26162932.644236483 0 0 0 0 -21405684.335862882 21948585.377253842 0 21948585.377253842 20937541.301370069 0 0 0 0 -2521880.8466589116 14294022.179729411 0 14294022.179729411 18756326.291913338 0 0 0 0 25831453.706829071 15339139.311117172 0 15339139.311117172 20514887.533622742 0 0 0 0 -31155691.350746155 10477086.668795586 0 10477086.668795586 9520807.9013404846 0 0 0 0 -31061179.785934448 12986218.11384201 0 12986218.11384201 12748120.989143372 0 0 0 0 -27001994.984202176 13317639.835567832 0 13317639.835567832 21619210.540547639 0 0 0 0 -26962995.503898941 2567249.1580225434 0 2567249.1580225434 14334110.446930718 0 0 0 0 -109522408.42414856 -8476928.346549511 0 -8476928.346549511 7350541.4918368459 0 0 0 0 -395344.78509902954 12419839.069921494 0 12419839.069921494 25446485.149097443 0 0 0 0 234714484.83235931 9272758.9586261511 0 9272758.9586261511 -50720275.98131609 0 0 0 0 75235698.339553833 189068639.44757891 0 189068639.44757891 39738027.827612996 0 0 0 0 -76003031.711372375 116183898.25210357 0 116183898.25210357 297833431.53444481 0 0 0 0 162053977.01539993 73190104.151632905 0 73190104.151632905 -56450145.541124344 0 0 0 0 8663032.9017982483 85614436.889672279 0 85614436.889672279 46952157.667320251 0 0 0 0 -80515272.771747589 -25217765.715382099 0 -25217765.715382099 37378641.915600896 0 0 0 0 -165845538.89313889 93636395.488998413 0 93636395.488998413 141125655.91722107 0 0 0 0 -5273931.5827265987 28330023.431443743 0 28330023.431443743 14409662.959665101 0 0 0 0 1483362.1561900154 3326231.9749924988 0 3326231.9749924988 4928939.0827713786 0 0 0 0 -24494329.847572327 134516630.69197845 0 134516630.69197845 -25237645.007225513 0 0 0 0 -37685005.720794678 89783295.636808872 0 89783295.636808872 -70468700.096132755 0 0 0 0 23373717.778572083 20104299.774567127 0 20104299.774567127 3742498.7807180882 0 0 0 0 6045382.3034548312 888826.21571723558 0 888826.21571723558 -4440876.8792269649 0 0 0 0 2482990.3339382056 2864323.9710403383 0 2864323.9710403383 -530230.44487450924 0 0 0 0 3759952.0602035522 193301337.36527729 0 193301337.36527729 35010095.276978493 0 0 0 0 92326291.421229362 292972381.80802041 0 292972381.80802041 146568404.61104012 0 0 0 0 5131828.5209560394 70525095.871334434 0 70525095.871334434 -94028180.54542923 0 0 0 0 55526033.566614151 204552204.4304235 0 204552204.4304235 21327171.728229523 0 0 0 0 -3393090.0094680786 143625841.17863607 0 143625841.17863607 -40248036.431524754 0 0 0 0 -81349155.148193359 109493408.85106516 0 109493408.85106516 475819873.43850994 0 0 0 0 140699049.85333729 177289121.88012844 0 177289121.88012844 -53957269.595300674 0 0 0 0 112289173.93682671 281231873.56868267 0 281231873.56868267 32913155.271057129 0 0 0 0 -80934393.910575867 134575305.10844278 0 134575305.10844278 99526676.125754833 0 0 0 0 -78802354.28040123 70418867.59802708 0 70418867.59802708 -40006345.161259651 0 0 0 0 -200465654.69470215 -142916695.59102821 0 -142916695.59102821 126162469.35340405 0 0 0 0 208153396.84391022 -145062064.89323568 0 -145062064.89323568 22716396.287303925 0 0 0 0 -22760728.444255829 52555108.978825808 0 52555108.978825808 27761062.546265602 0 0 0 0 929770.40917205811 71437108.951121569 0 71437108.951121569 -6629797.3349761963 0 0 0 0 18199014.667251587 56500186.70508337 0 56500186.70508337 -46871950.741431236 0 0 0 0 -1982377.8754234314 79816882.782372475 0 79816882.782372475 -30529315.2725631 0 0 0 0 -148801296.69095612 -75556425.645838737 0 -75556425.645838737 -52324157.072747961 0 0 0 0 -12520486.416389562 24905217.275087871 0 24905217.275087871 10377800.060508601 0 0 0 0 153000973.82280731 20252989.746192455 0 20252989.746192455 -114026994.05663443 0 0 0 0 -16725112.092551434 24233622.360540714 0 24233622.360540714 7955259.8141935663 0 0 0 0 59982372.21412468 41616721.444461584 0 41616721.444461584 18178920.551399708 0 0 0 0 -4804618.6657676697 47559867.79791379 0 47559867.79791379 29939545.882860333 0 0 0 0 20372402.982131958 26489249.368174791 0 26489249.368174791 34689145.276581049 0 0 0 0 24240840.078525543 36692675.898069382 0 36692675.898069382 30052890.943967193 0 0 0 0 -1917786.0639937408 23685890.484901663 0 23685890.484901663 -8386908.390686905 0 0 0 0 -738546.35913848877 288704307.63216305 0 288704307.63216305 95818906.192596436 0 0 0 0 -174858912.12856293 295310670.15626049 0 295310670.15626049 -46679217.93132019 0 0 0 0 196268493.78323364 18897388.727413177 0 18897388.727413177 -130290544.50854492 0 0 0 0 -78602695.813301086 157054864.80242157 0 157054864.80242157 146374448.3455658 0 0 0 0 146705387.12514496 168000192.11159897 0 168000192.11159897 -426945624.35462952 0 0 0 0 38482791.05556488 38164775.515804291 0 38164775.515804291 13923787.690703392 0 0 0 0 180389233.5177536 17001655.935642242 0 17001655.935642242 -51352748.060863495 0 0 0 0 4895212.2194017284 23477360.487840589 0 23477360.487840589 -12643467.012028266 0 0 0 0 25437896.35013473 48106105.035798684 0 48106105.035798684 20412831.785087347 0 0 0 0 -55338441.07170105 -6283765.7703483105 0 -6283765.7703483105 -46876330.14298439 0 0 0 0 25752318.792678833 -38027893.62732029 0 -38027893.62732029 -88108106.336125851 0 0 0 0 95935498.80774498 107387425.49048269 0 107387425.49048269 -103877531.01659966 0 0 0 0 -36742832.350948334 15439615.873402596 0 15439615.873402596 -31161467.736826897 0 0 0 0 -73465316.504074097 -29564944.316619873 0 -29564944.316619873 -80902813.326283455 0 0 0 0 40781023.322678566 46190974.391776145 0 46190974.391776145 17107185.645987511 0 0 0 0 -21149921.373016275 26807586.475748695 0 26807586.475748695 7989394.8117017029 0 0 0 0 -2158870.9823722839 35376026.980220795 0 35376026.980220795 6650948.2972259521 0 0 0 0 20921831.069599152 26508481.959564209 0 26508481.959564209 7821594.9756408334 0 0 0 0 20496820.226016417 29444457.91208889 0 29444457.91208889 -21164973.043229833 0 0 0 0 -688248954.31942844 -111237959.68092728 0 -111237959.68092728 275727752.48441315 0 0 0 0 7503136.9567402229 18666217.922800459 0 18666217.922800459 -7440665.3193345945 0 0 0 0 -26804263.867426135 17329610.167311907 0 17329610.167311907 10612636.113275871 0 0 0 0 -24688085.826148987 12471652.470262527 0 12471652.470262527 13208010.061191142 0 0 0 0 -55376392.386988521 20534705.693603516 0 20534705.693603516 70672323.182876587 0 0 0 0 15774167.477313995 22037345.707431793 0 22037345.707431793 -10398599.58172226 0 0 0 0 -25445836.426053114 10474762.323678087 0 10474762.323678087 12852181.05729346 0 0 0 0 -636406.40138793876 555196.73215874936 0 555196.73215874936 581754.5566982124 0 0 0 0 -45629249.086332321 -101052103.85482788 0 -101052103.85482788 7149525.7571868896 0 0 0 0 -11000169.905109882 4075696.0544586182 0 4075696.0544586182 36501846.071159363 0 0 0 0 -16763333.706207395 -32653497.622314453 0 -32653497.622314453 72256928.897872925 0 0 0 0 -1321223.8047876686 -44832.195544164628 0 -44832.195544164628 1434727.0071464702 0 0 0 0 -884752.93111164612 2517626.1369190984 0 2517626.1369190984 -974958.34110674635 0 0 0 0 409299549.47751284 611110087.72149467 0 611110087.72149467 242885624.73629761 0 0 0 0 261165002.28349686 -195474974.25951385 0 -195474974.25951385 159673485.34442139 0 0 0 0 -22147330.683827877 -203753389.009758 0 -203753389.009758 696259635.1938839 0 0 0 0 -6155333.294788301 -128636257.08457565 0 -128636257.08457565 155684269.45761108 0 0 0 0 481445711.55331135 357547387.65253448 0 357547387.65253448 306118201.49625015 0 0 0 0 528952370.04712486 482976081.58370972 0 482976081.58370972 74985447.836149216 0 0 0 0 452674432.1506753 420360158.57717514 0 420360158.57717514 251129925.35374451 0 0 0 0 378683952.06355286 501324187.46850586 0 501324187.46850586 571995482.83549428 0 0 0 0 1304276010.2351303 47484770.40593338 0 47484770.40593338 -28799705.019184113 0 0 0 0 494616495.24008894 315574919.772995 0 315574919.772995 -51124936.114654541 0 0 0 0 1335007.4198739096 -846768.78665283043 0 -846768.78665283043 -1360931.9397515319 0 0 0 0 2566570813.0089912 746697447.73332214 0 746697447.73332214 -57030964.604028702 0 0 0 0 805338570.84181595 -639746050.65740013 0 -639746050.65740013 252074153.29987335 0 0 0 0 -134259203.72565842 -115435642.67780304 0 -115435642.67780304 333015168.56372452 0 0 0 0 -1254292919.0973206 -344419860.56517029 0 -344419860.56517029 -846788106.50595093 0 0 0 0 -558947783.93296385 1064729331.9202566 0 1064729331.9202566 229110926.61117554 0 0 0 0 1944535840.2389297 -763860639.70920181 0 -763860639.70920181 -105827482.93008423 0 0 0 0 -1146774585.7645502 1446389792.1061039 0 1446389792.1061039 663371439.4414444 0 0 0 0 709684.26787440106 3301510.5296446281 0 3301510.5296446281 4833327.1729434244 0 0 0 0 -1579106477.4208908 1042918880.6899223 0 1042918880.6899223 1279054448.6993561 0 0 0 0 -1053676094.2540283 -167526111.00309372 0 -167526111.00309372 1769483646.5152836 0 0 0 0 -364718717.47167969 565139088.88692474 0 565139088.88692474 783113114.04357529 0 0 0 0 -898820509.66210461 964516235.20258141 0 964516235.20258141 1367154007.4289856 0 0 0 0 16412795.572665673 13242932.750166798 0 13242932.750166798 -11104822.625798313 0 0 0 0 3475100703.2714539 1013927811.4577332 0 1013927811.4577332 61835964.363363266 0 0 0 0 1973665594.8641205 3767229738.326561 0 3767229738.326561 2298422804.1926498 0 0 0 0 3508800397.8355179 608324886.33054733 0 608324886.33054733 -578074518.85305786 0 0 0 0 837678380.46516418 719868853.94125557 0 719868853.94125557 81660443.573011398 0 0 0 0 564303063.73839569 887962964.8729372 0 887962964.8729372 574486954.57933044 0 0 0 0 -12968460.331609726 40891384.432594299 0 40891384.432594299 59574943.286658287 0 0 0 0 -22601933.907418244 15640055.126296515 0 15640055.126296515 -3683592.9697415642 0 0 0 0 425065786.90667725 317627437.86889458 0 317627437.86889458 458188900.67805624 0 0 0 0 682442450.14599609 182376091.88548851 0 182376091.88548851 -491216973.32324982 0 0 0 0 -795585178.24052429 -174827635.46888161 0 -174827635.46888161 -38807449.534996033 0 0 0 0 657203519.13915253 -84788002.125806808 0 -84788002.125806808 -883964180.55396652 0 0 0 0 427775.67411709204 5246359.818839917 0 5246359.818839917 -1540643.7927593619 0 0 0 0 13017897.768909454 39885766.1521492 0 39885766.1521492 -43973128.609863281 0 0 0 0 -20285692.374689639 10239129.25301509 0 10239129.25301509 -640125.32208595984 0 0 0 0 -500760485.43397617 1267205767.1064785 0 1267205767.1064785 1246918663.1292267 0 0 0 0 65151491.488117218 120519247.63341141 0 120519247.63341141 68623512.31867981 0 0 0 0 -51983792.993852615 133616598.31522369 0 133616598.31522369 232315794.57535172 0 0 0 0 -109292953.69604874 43250399.429779053 0 43250399.429779053 235853428.35784912 0 0 0 0 -55057643.275140762 58641155.966819763 0 58641155.966819763 164998820.95928001 0 0 0 0 -97251364.061958313 80094047.282150269 0 80094047.282150269 169365319.35002136 0 0 0 0 -28637324.551120281 -154854858.45045471 0 -154854858.45045471 245967676.59602356 0 0 0 0 -117421955.30748367 31334289.778583527 0 31334289.778583527 284681526.05099487 0 0 0 0 -56802535.682302475 19276657.911903381 0 19276657.911903381 153434704.38158798 0 0 0 0 -57122527.848930359 -41519588.031730652 0 -41519588.031730652 201112691.31130981 0 0 0 0 -34975660.617711544 -27196008.429489136 0 -27196008.429489136 126512622.35728455 0 0 0 0 -47966800.9877038 -4117256.8993225098 0 -4117256.8993225098 130414232.37786102 0 0 0 0 -30723352.864197254 -62313200.106739044 0 -62313200.106739044 210548833.46511841 0 0 0 0 -15638894.762909889 19755193.309402466 0 19755193.309402466 1228703.1265487671 0 0 0 0 -34487020.946877591 13648594.716531558 0 13648594.716531558 7488555.5486320788 0 0 0 0 -31536542.729719162 16715164.32617569 0 16715164.32617569 77717787.920631409 0 0 0 0 -41512879.813189507 -8663765.9139766693 0 -8663765.9139766693 63827348.708847046 0 0 0 0 -5378487.2543640137 67178937.737419128 0 67178937.737419128 71298411.348014832 0 0 0 0 -34961439.821512222 44769125.385505676 0 44769125.385505676 80584549.550756454 0 0 0 0 -56540760.609276295 26327448.153394699 0 26327448.153394699 85698273.953796387 0 0 0 0 308925556.88520813 344741084.90643692 0 344741084.90643692 267783336.84088135 0 0 0 0 -32553743.372316122 9616051.9053385258 0 9616051.9053385258 9640432.8609161377 0 0 0 0 -25406218.885399617 18563678.591772612 0 18563678.591772612 -2936428.5055925734 0 0 0 0 447869742.68916321 158434037.92372608 0 158434037.92372608 -45359524.341945648 0 0 0 0 259562018.07022858 103940920.59013557 0 103940920.59013557 -9432516.6383361816 0 0 0 0 121329439.95848083 157971383.75716209 0 157971383.75716209 32682931.045833588 0 0 0 0 182945599.3952713 173146419.28770256 0 173146419.28770256 34797921.056346893 0 0 0 0 -6000958.3543981537 -2641794.0083499327 0 -2641794.0083499327 4674831.5956524238 0 0 0 0 276273640.17327118 94113681.368448257 0 94113681.368448257 -78533901.380840302 0 0 0 0 3323888.3435821533 30156508.086594582 0 30156508.086594582 11122818.352103233 0 0 0 0 -86635240.940948486 17105823.147438049 0 17105823.147438049 16254636.534088135 0 0 0 0 -16938691.874546699 8458445.3383604996 0 8458445.3383604996 4612112.876602279 0 0 0 0 -94628013.288478851 88943847.39127183 0 88943847.39127183 -86636851.017759323 0 0 0 0 -7313809.8125305176 55431840.628858566 0 55431840.628858566 25396578.370388031 0 0 0 0 163681803.47855377 22454882.967573166 0 22454882.967573166 -19324536.678459167 0 0 0 0 173864761.31573486 -17957575.404607773 0 -17957575.404607773 -53959192.445240974 0 0 0 0 220391941.82070923 72367960.039176941 0 72367960.039176941 -72201406.214362144 0 0 0 0 276089443.19180679 113493.56190490723 0 113493.56190490723 -141106498.49061584 0 0 0 0 135366442.12978363 -112207024.97221851 0 -112207024.97221851 -125147882.12643528 0 0 0 0 162254195.73644257 -68091087.943947792 0 -68091087.943947792 -77618463.979090691 0 0 0 0 233158496.16358185 -62028538.870911598 0 -62028538.870911598 -217349252.29556656 0 0 0 0 368112689.83148193 57848275.597465992 0 57848275.597465992 -158080969.47322845 0 0 0 0 123549504.49813843 -125160037.47580433 0 -125160037.47580433 -193879223.02822399 0 0 0 0 118641031.56331635 -73939864.102499008 0 -73939864.102499008 -389066635.51401901 0 0 0 0 66444741.691444397 -898479.24485969543 0 -898479.24485969543 -26175874.341003418 0 0 0 0 -264563688.47757721 -155741836.49278831 0 -155741836.49278831 -76044061.572877884 0 0 0 0 -117903273.38737345 -63191724.089929998 0 -63191724.089929998 82863166.830369949 0 0 0 0 283145108.79151917 -72274978.853035927 0 -72274978.853035927 -7771312.5705738068 0 0 0 0 53659598.15184021 75212224.136750221 0 75212224.136750221 249353477.93415451 0 0 0 0 261646211.0980835 235733687.06606293 0 235733687.06606293 370146367.546978 0 0 0 0 39616438.277084351 32078197.731506348 0 32078197.731506348 138367550.75819206 0 0 0 0 -125280778.79176903 14966613.29167819 0 14966613.29167819 260917975.64864731 0 0 0 0 -273220932.06081772 111153746.33467245 0 111153746.33467245 95519859.422159195 0 0 0 0 120747182.38345909 315365103.10317022 0 315365103.10317022 200265138.68299961 0 0 0 0 -6497680.9002096951 5119245.1650071945 0 5119245.1650071945 2705781.9518762939 0 0 0 0 173694026.85379791 -23447262.45261097 0 -23447262.45261097 -25904094.284998894 0 0 0 0 -1623887.245302137 1707500.5733281374 0 1707500.5733281374 990748.75983498525 0 0 0 0 444094463.52438354 52340876.179531097 0 52340876.179531097 81062723.10496521 0 0 0 0 -130496056.85259247 -267976593.36812568 0 -267976593.36812568 269745451.00984192 0 0 0 0 372905.71856648475 622744.90770688653 0 622744.90770688653 606340.03244254366 0 0 0 0 -160925646.04225922 -255309557.49687195 0 -255309557.49687195 361756218.24909091 0 0 0 0 -134018126.0428009 103065214.07051325 0 103065214.07051325 102353133.37872505 0 0 0 0 -134870358.79866028 77641795.347109318 0 77641795.347109318 -34675058.703745365 0 0 0 0 1223112.4601027034 1656811.8985601366 0 1656811.8985601366 995202.48829687014 0 0 0 0 337040738.78777313 -412927537.26872802 0 -412927537.26872802 143202300.57017899 0 0 0 0 -238352090.42481995 566855124.30780315 0 566855124.30780315 397672782.63328147 0 0 0 0 2213237.819729507 2328215.9149138667 0 2328215.9149138667 222536.91503985785 0 0 0 0 -36019383.719390869 351527472.47596073 0 351527472.47596073 -162003337.53054047 0 0 0 0 -124582390.55162048 289058814.74230623 0 289058814.74230623 88611571.415667534 0 0 0 0 -32097295.120330811 114075363.1062268 0 114075363.1062268 -29571697.988193512 0 0 0 0 -78075105.856307983 183221399.14578247 0 183221399.14578247 -104119487.31499481 0 0 0 0 -76037097.220527649 189734557.88900042 0 189734557.88900042 -121997292.94454765 0 0 0 0 -39786353.783599854 -75496000.334991455 0 -75496000.334991455 211612217.03371525 0 0 0 0 -103866474.86102295 -71101008.22372818 0 -71101008.22372818 607105134.96676636 0 0 0 0 -29000235.195129395 -46816238.74653101 0 -46816238.74653101 285092544.94381905 0 0 0 0 143786597.72650909 -17715482.822065353 0 -17715482.822065353 -285318686.20152855 0 0 0 0 152768940.02878571 -224448698.47935009 0 -224448698.47935009 100917512.4951601 0 0 0 0 -30023724.970619202 171869221.97327042 0 171869221.97327042 -220519509.73476887 0 0 0 0 42599614.93686676 -94941209.676571846 0 -94941209.676571846 48366426.791789055 0 0 0 0 -17057248.401832581 -16294603.837454319 0 -16294603.837454319 -38762366.817976952 0 0 0 0 47096634.785118103 -31170961.959204674 0 -31170961.959204674 -102931754.85529232 0 0 0 0 6143311.6301269531 9257284.793366909 0 9257284.793366909 -63520289.868981361 0 0 0 0 5983866.1393153369 -13376661.643160297 0 -13376661.643160297 -39918741.00161171 0 0 0 0 3162280.9968109131 -6318146.0156078339 0 -6318146.0156078339 -48767862.432085991 0 0 0 0 28948989.401836395 282302517.34600961 0 282302517.34600961 32127286.57618618 0 0 0 0 -105109280.05498505 42147186.909394622 0 42147186.909394622 -4018995.0426540673 0 0 0 0 96248667.3322258 31336308.782347739 0 31336308.782347739 -6139477.5212032795 0 0 0 0 2920583.2442840338 3272511.8230571114 0 3272511.8230571114 -224698.43093555933 0 0 0 0 -1628926.8624658659 2546426.4122469556 0 2546426.4122469556 1083045.9346313928 0 0 0 0 507340.68151798472 3489268.7379387775 0 3489268.7379387775 2041278.9187638056 0 0 0 0 -45747701.736639023 60083114.377588391 0 60083114.377588391 -183194265.87203693 0 0 0 0 31589042.0154953 98632399.631617785 0 98632399.631617785 -407930825.14913177 0 0 0 0 -270803566.74151611 -107946488.93174553 0 -107946488.93174553 -38480610.20597744 0 0 0 0 -308837010.7989502 -471690929.60388517 0 -471690929.60388517 -279958199.73245239 0 0 0 0 24783021.191581726 292254303.02745914 0 292254303.02745914 -328086089.13683987 0 0 0 0 -540997181.68367958 -1977836.2580982447 0 -1977836.2580982447 131085066.97920227 0 0 0 0 -438168661.38916016 386730844.73697519 0 386730844.73697519 150947179.772964 0 0 0 0 -280458193.54772186 148108745.7605052 0 148108745.7605052 90539714.816958666 0 0 0 0 -259741459.24789429 138497326.4365021 0 138497326.4365021 92188570.705533281 0 0 0 0 -230274995.75415039 87719359.453957081 0 87719359.453957081 118947305.44596672 0 0 0 0 -304050836.35897827 5500424.1059477329 0 5500424.1059477329 39847267.696045876 0 0 0 0 7803039.3853759766 -29068279.174747944 0 -29068279.174747944 -23377463.791404128 0 0 0 0 59632173.75881958 -20675173.403050184 0 -20675173.403050184 -57157066.96945262 0 0 0 0 4866267.6506848438 8747407.5817126408 0 8747407.5817126408 5719975.2497678911 0 0 0 0 -61248216.711837769 54298193.169151239 0 54298193.169151239 36849258.850549974 0 0 0 0 -69690156.908752441 51885486.868661225 0 51885486.868661225 47554361.192005806 0 0 0 0 -3688506.6265563965 9355197.6112413406 0 9355197.6112413406 19225334.18677187 0 0 0 0 8126531.6344196256 5897909.7040859852 0 5897909.7040859852 -6460603.5022645919 0 0 0 0 -5322735.1435852051 10178209.804206133 0 10178209.804206133 1056121.3462219238 0 0 0 0 12989072.747070312 54131200.032209396 0 54131200.032209396 -25514719.682281494 0 0 0 0 3871280.180362124 10322022.981228516 0 10322022.981228516 11240615.64250827 0 0 0 0 -291099423.81912231 270141720.40192795 0 270141720.40192795 -2180392.8521385193 0 0 0 0 16520810.179512024 144961896.39862275 0 144961896.39862275 -8514922.3914077282 0 0 0 0 -254434140.32138824 137771709.34884685 0 137771709.34884685 44476214.981150389 0 0 0 0 85531252.441509247 194497020.82908344 0 194497020.82908344 112813183.93472672 0 0 0 0 2281483.1647130251 5917420.2911039032 0 5917420.2911039032 7337871.373655553 0 0 0 0 -89361961.809242249 -206227457.86435795 0 -206227457.86435795 -242558885.71370173 0 0 0 0 -27630628.009754181 -33265346.777005196 0 -33265346.777005196 -43522605.369716644 0 0 0 0 127828.23362444807 -346915.8321173694 0 -346915.8321173694 8994205.1228409335 0 0 0 0 -4568118.4555422738 62058.778724444564 0 62058.778724444564 3674632.0647254428 0 0 0 0 -63820215.994009018 -48649729.018896103 0 -48649729.018896103 -11645118.917304993 0 0 0 0 -168929982.19428158 131019811.30509138 0 131019811.30509138 -100444422.2279129 0 0 0 0 198476153.87481689 470314458.22472811 0 470314458.22472811 383192691.04007363 0 0 0 0 740306754.64558411 994440577.00824142 0 994440577.00824142 709214942.47155952 0 0 0 0 1487728.6778843068 1472338.4193404224 0 1472338.4193404224 -321263.37022388063 0 0 0 0 28705689.027471066 140678448.36625284 0 140678448.36625284 790654388.9565196 0 0 0 0 5617731.2794957161 -121172854.25579201 0 -121172854.25579201 124347997.82943392 0 0 0 0 -1896449.2303462513 2673252.4539054316 0 2673252.4539054316 1098194.6770444927 0 0 0 0 -118480850.06831741 41540761.718496978 0 41540761.718496978 50008884.56798315 0 0 0 0 -834081.17633173987 888466.6438156683 0 888466.6438156683 558621.30859409506 0 0 0 0 -544426138.71942902 -31901888.217536926 0 -31901888.217536926 48821157.593279071 0 0 0 0 117738322.88381004 189749417.26956171 0 189749417.26956171 -234180368.41667747 0 0 0 0 -228072199.33049011 198822050.14247751 0 198822050.14247751 69651191.064411163 0 0 0 0 434644060.67016602 501142386.34514141 0 501142386.34514141 -136174310.59993362 0 0 0 0 360585160.14562988 580815691.01648664 0 580815691.01648664 -179095869.56451643 0 0 0 0 231738433.42062187 579244097.75604784 0 579244097.75604784 50711226.806900024 0 0 0 0 535828134.80330658 770021993.3626833 0 770021993.3626833 63857689.532935143 0 0 0 0 310959868.92572021 561653810.34564114 0 561653810.34564114 -51211710.535856247 0 0 0 0 848295442.18339539 453043591.8927393 0 453043591.8927393 53579394.774535179 0 0 0 0 348149924.3651123 732246882.94206095 0 732246882.94206095 539285566.3718152 0 0 0 0 1131370673.3869247 1129531878.6445744 0 1129531878.6445744 -434265948.9285326 0 0 0 0 310125444.76470757 917911943.7682966 0 917911943.7682966 21991528.074735641 0 0 0 0 2556308.9901353829 4249549.8137288503 0 4249549.8137288503 -2422429.3454780392 0 0 0 0 54506699.344207764 35525444.432517052 0 35525444.432517052 -887667.31656646729 0 0 0 0 -102907641.02792358 -983124855.20338774 0 -983124855.20338774 1361970796.8549538 0 0 0 0 280560749.07807159 993926403.62027609 0 993926403.62027609 646741776.21557808 0 0 0 0 -339153084.87774658 439234666.89574242 0 439234666.89574242 1914435144.2405109 0 0 0 0 -286561190.77223587 495180326.67793131 0 495180326.67793131 918679591.53276825 0 0 0 0 51580835.866348267 8174090.0559196472 0 8174090.0559196472 1159659750.4478531 0 0 0 0 1414178449.2946854 458903384.882164 0 458903384.882164 -262261250.63107848 0 0 0 0 548961.31383567676 1878299.4841649439 0 1878299.4841649439 2870458.2292432366 0 0 0 0 1073043567.6498184 -169166396.62018824 0 -169166396.62018824 165536650.37837219 0 0 0 0 -2486490.7950327359 148649.84048364032 0 148649.84048364032 2229304.2623200482 0 0 0 0 83061233.720497131 182011639.53327274 0 182011639.53327274 737362584.55082512 0 0 0 0 85322713.632202148 -349398218.27120972 0 -349398218.27120972 -88063210.961368561 0 0 0 0 -1509130.2575807571 -127157415.22152996 0 -127157415.22152996 82249300.50510025 0 0 0 0 771986166.76603317 802880123.28427243 0 802880123.28427243 700159494.75538969 0 0 0 0 -489698.97883373639 -1941426.7613068949 0 -1941426.7613068949 3995795.4101825217 0 0 0 0 -697502479.83508015 246239509.5639323 0 246239509.5639323 1329081919.8439007 0 0 0 0 318785915.36854553 379710255.29328823 0 379710255.29328823 319068413.19918108 0 0 0 0 218097141.87570953 668914813.15520191 0 668914813.15520191 807944217.96384525 0 0 0 0 -9209687.4473571777 528779220.51276207 0 528779220.51276207 755379597.73635352 0 0 0 0 -65999083.349342346 605669982.23087335 0 605669982.23087335 984689737.72501862 0 0 0 0 -63485143.916160583 651261696.71776199 0 651261696.71776199 985897745.94277477 0 0 0 0 -6094297.8441619873 -103873564.81085676 0 -103873564.81085676 624030356.11095691 0 0 0 0 -41277776.882240295 470357289.24576569 0 470357289.24576569 580867088.97638321 0 0 0 0 -88139572.586271286 549064023.44354594 0 549064023.44354594 1710698610.9869099 0 0 0 0 184691594.22606659 -591357442.39690733 0 -591357442.39690733 1251078082.2347507 0 0 0 0 133686363.84378815 -308212740.71992183 0 -308212740.71992183 -148186211.16896725 0 0 0 0 155062030.7930603 -12736659.020586431 0 -12736659.020586431 50445397.441329718 0 0 0 0 243014799.54532623 55578112.007888064 0 55578112.007888064 -205192163.89501134 0 0 0 0 136446893.299366 -177550526.0640012 0 -177550526.0640012 -284900631.98855418 0 0 0 0 -779705565.78228378 318096627.67416763 0 318096627.67416763 1149223556.322794 0 0 0 0 -659699749.86788559 603088880.71844482 0 603088880.71844482 1633930609.9040136 0 0 0 0 758977394.64152527 778954693.80983853 0 778954693.80983853 454020965.41945601 0 0 0 0 1095660488.6325684 -315125589.52267742 0 -315125589.52267742 -122518131.87736893 0 0 0 0 252400298.37052917 86594805.706407905 0 86594805.706407905 -165658683.10654402 0 0 0 0 382949121.02971649 208360856.30816758 0 208360856.30816758 -1037128121.88816 0 0 0 0 565999834.74783325 -140325298.05053973 0 -140325298.05053973 -1471393836.0167861 0 0 0 0 -212943494.26765442 36851306.710057259 0 36851306.710057259 -68925266.158312321 0 0 0 0 -176135699.80818558 25966560.506103396 0 25966560.506103396 -706490202.89485836 0 0 0 0 5216754.7817908246 6997648.0185050471 0 6997648.0185050471 228867.36650094879 0 0 0 0 89440955.167713165 259318032.42281246 0 259318032.42281246 -671379501.19013667 0 0 0 0 375109887.00941467 -182795726.80632788 0 -182795726.80632788 -46967001.052910328 0 0 0 0 -11269650.727157593 -7765322.6444368362 0 -7765322.6444368362 -23399410.689212799 0 0 0 0 2492360.4831228033 -1016729.4643659899 0 -1016729.4643659899 -4114195.2025953848 0 0 0 0 325911738.45370483 676878734.5650959 0 676878734.5650959 -1556939752.6921294 0 0 0 0 16048711.069632167 7536926.145685019 0 7536926.145685019 -15857628.19929605 0 0 0 0 16653431.503738403 24193360.703308105 0 24193360.703308105 -477173.84760284424 0 0 0 0 -7577458.4446716309 6728754.5461239815 0 6728754.5461239815 -253568204.14714336 0 0 0 0 -66793071.647315979 -65496732.992220402 0 -65496732.992220402 -336227278.65633965 0 0 0 0 7930427.5319625139 19996376.904362649 0 19996376.904362649 917360.35665294924 0 0 0 0 -200658787.74002075 175858157.16784763 0 175858157.16784763 -491827010.93749142 0 0 0 0 1120403.4209594727 581732718.39113808 0 581732718.39113808 -503964893.89296603 0 0 0 0 212138975.18457413 -93037070.276223183 0 -93037070.276223183 -611707948.24296284 0 0 0 0 -186787574.75003052 463654012.80225992 0 463654012.80225992 -879374619.18641353 0 0 0 0 -321428353.79193115 -135094664.23806858 0 -135094664.23806858 -1222576721.4165459 0 0 0 0 -11785.092353092507 453962.65913688578 0 453962.65913688578 465693.34116051509 0 0 0 0 16995338.600243568 23038769.420290947 0 23038769.420290947 -12392408.460014343 0 0 0 0 36170809.15530777 10324255.459644794 0 10324255.459644794 -7370434.2580604553 0 0 0 0 6531381.8775432147 10573538.360384518 0 10573538.360384518 -7255844.265505936 0 0 0 0 -90662239.651039124 -246478526.51121569 0 -246478526.51121569 -326569615.1492424 0 0 0 0 50474954.863613129 25975248.18630743 0 25975248.18630743 1810734.0982284546 0 0 0 0 233764519.02426147 590344875.24048364 0 590344875.24048364 -228211362.85154724 0 0 0 0 135079918.1991272 -160548560.69504255 0 -160548560.69504255 -484355503.1781438 0 0 0 0 -27349085.118156433 238793387.40494013 0 238793387.40494013 152626567.36043453 0 0 0 0 56556656.813631773 -300538887.13126516 0 -300538887.13126516 -343848141.79732084 0 0 0 0 -452747296.96297157 196441974.44152498 0 196441974.44152498 841142732.82473183 0 0 0 0 -417207308.92385602 -239956666.90018296 0 -239956666.90018296 -279285006.36954498 0 0 0 0 2380026.7599847214 -2584334.8035534592 0 -2584334.8035534592 -1297130.691833433 0 0 0 0 210572467.48915672 473673932.95237797 0 473673932.95237797 357061964.45972502 0 0 0 0 40319716.096899033 465650050.29143667 0 465650050.29143667 142497244.05398417 0 0 0 0 -138681484.19078064 210190733.8749547 0 210190733.8749547 178963967.68682039 0 0 0 0 227264248.18430901 -190535400.66210198 0 -190535400.66210198 -159803328.37735844 0 0 0 0 290302417.15888596 -70571186.964480877 0 -70571186.964480877 59791900.541535378 0 0 0 0 9553.5169122302905 617096.63687829953 0 617096.63687829953 2154654.6360643134 0 0 0 0 51399127.913679123 350352018.21137524 0 350352018.21137524 603482378.6908865 0 0 0 0 1291017623.1023331 87617116.816609383 0 87617116.816609383 122528819.07999325 0 0 0 0 534600898.24204636 -167900299.90241909 0 -167900299.90241909 97672641.116268158 0 0 0 0 648679495.41472244 480380542.51355702 0 480380542.51355702 266866643.59335995 0 0 0 0 -51597570.120250225 358756241.50375015 0 358756241.50375015 367821212.50029182 0 0 0 0 51581721.465978622 356500642.76921654 0 356500642.76921654 287596306.07068062 0 0 0 0 -339596687.4388504 231259002.43194485 0 231259002.43194485 608471375.04200554 0 0 0 0 24435636.411393166 -308253735.11741924 0 -308253735.11741924 -93113410.972053528 0 0 0 0 -77531726.919143677 -353217698.86922264 0 -353217698.86922264 1066253227.8459702 0 0 0 0 782482159.27997971 916074386.41202068 0 916074386.41202068 997361916.62693214 0 0 0 0 607713277.19496155 44075177.748017311 0 44075177.748017311 -347545730.3491993 0 0 0 0 72929603.70174408 124008669.15348053 0 124008669.15348053 -343623216.56588948 0 0 0 0 -338792138.2675209 -195588228.70899582 0 -195588228.70899582 -125843859.41499519 0 0 0 0 -17732013.942344666 128542078.29752254 0 128542078.29752254 184905724.14596558 0 0 0 0 4185070.2052678098 -4667796.628914725 0 -4667796.628914725 -2065566.0891121812 0 0 0 0 -66356774.635073185 304601507.19618893 0 304601507.19618893 120141037.43747711 0 0 0 0 -357018830.26616287 159166453.93912983 0 159166453.93912983 269058613.29473877 0 0 0 0 -166758002.59738255 289342855.2106514 0 289342855.2106514 367231052.60633087 0 0 0 0 -627034019.38541126 -379251721.05465317 0 -379251721.05465317 192616672.65545654 0 0 0 0 4244846.4013158139 -4874527.821833455 0 -4874527.821833455 -1771194.5586085003 0 0 0 0 -479271101.43053627 -33213166.360039711 0 -33213166.360039711 370448642.48434353 0 0 0 0 -338316686.21120739 31836529.938472748 0 31836529.938472748 210089022.8535862 0 0 0 0 -314406870.83936453 -147549026.62064743 0 -147549026.62064743 1057133202.7369804 0 0 0 0 449647634.56754589 820855593.82675171 0 820855593.82675171 694669724.71941757 0 0 0 0 -39870396.187842369 312418666.01291847 0 312418666.01291847 180142115.78392792 0 0 0 0 -38437167.766359329 267673229.93133354 0 267673229.93133354 168904901.19445038 0 0 0 0 8005387.0602965355 222910623.32845688 0 222910623.32845688 293928712.28321838 0 0 0 0 -66048659.141714096 318706187.71125031 0 318706187.71125031 185311169.26695633 0 0 0 0 16053408.823209763 286716886.58143234 0 286716886.58143234 191747684.22120667 0 0 0 0 103028355.2789526 136851287.56577301 0 136851287.56577301 -188795743.27521515 0 0 0 0 170799101.74469852 76839619.637523651 0 76839619.637523651 112244049.73428535 0 0 0 0 300757441.26752061 21583005.412404537 0 21583005.412404537 -297027174.0004425 0 0 0 0 1314592.2203201302 2622383.9213260189 0 2622383.9213260189 -1902064.8263443317 0 0 0 0 40872157.883972168 155971166.71057129 0 155971166.71057129 -191759807.15861511 0 0 0 0 -17560444.923828125 365291544.12308884 0 365291544.12308884 420670113.7355535 0 0 0 0 -138485959.11388206 237262510.96864319 0 237262510.96864319 425092295.9152832 0 0 0 0 -58867599.957641602 232625649.37728882 0 232625649.37728882 7605561.6647796631 0 0 0 0 2690091.223893295 1590000.6537884157 0 1590000.6537884157 -2146193.7269069441 0 0 0 0 299532450.40517426 283314474.17279434 0 283314474.17279434 189690262.96915829 0 0 0 0 -51766417.270963192 34420225.528306007 0 34420225.528306007 -222007851.62934875 0 0 0 0 -38450235.433181763 85635894.856777191 0 85635894.856777191 -66467945.41166687 0 0 0 0 -4149864.9553756714 166825763.39161682 0 166825763.39161682 -191425707.48196554 0 0 0 0 -34065155.114994049 121846272.78974915 0 121846272.78974915 27442885.927566528 0 0 0 0 -36771744.166163087 184733501.88666391 0 184733501.88666391 32758209.576324463 0 0 0 0 -35881594.489068151 212649150.73760962 0 212649150.73760962 -84236366.184631348 0 0 0 0 -41633766.279144287 106381005.40892029 0 106381005.40892029 -122934068.86170959 0 0 0 0 -48965376.117298126 94697014.572349548 0 94697014.572349548 -10084213.2397995 0 0 0 0 36487983.345939636 -19566140.667106628 0 -19566140.667106628 12808720.430207253 0 0 0 0 -15383592.178979874 75529201.609870911 0 75529201.609870911 -110997645.53302002 0 0 0 0 90700736.162670612 -23692764.494895935 0 -23692764.494895935 -417211409.52713776 0 0 0 0 10567354.715929985 -19053226.917770386 0 -19053226.917770386 33494112.916030884 0 0 0 0 1279481.6167282201 8239863.331837289 0 8239863.331837289 2816927.0616722386 0 0 0 0 138475491.26722002 103375597.37896347 0 103375597.37896347 -333611814.89455032 0 0 0 0 216599019.28522873 -14391576.512807131 0 -14391576.512807131 -216027320.62099457 0 0 0 0 1159843.3132684063 -1061716.8385496782 0 -1061716.8385496782 -305060.03258458152 0 0 0 0 -50060030.424476624 181490.99311065674 0 181490.99311065674 28750276.183581352 0 0 0 0 435269132.08988476 483857321.36182022 0 483857321.36182022 137614389.5929718 0 0 0 0 -512744671.79123688 -94717056.825218201 0 -94717056.825218201 -56204446.231334686 0 0 0 0 2269496.0013896283 -2343923.9177576732 0 -2343923.9177576732 -1552182.9170578457 0 0 0 0 -263103265.54201317 -151500079.64408112 0 -151500079.64408112 -108349585.47797775 0 0 0 0 -372750592.0752449 284549698.58355713 0 284549698.58355713 488608602.80661011 0 0 0 0 52471021.135380745 327024221.64494944 0 327024221.64494944 457378967.63210297 0 0 0 0 201300407.42583847 469571225.61805153 0 469571225.61805153 297761991.78634644 0 0 0 0 570149842.15774536 83620667.279548645 0 83620667.279548645 -313045275.05290985 0 0 0 0 59943249.585571289 83633898.859634399 0 83633898.859634399 29421249.912287712 0 0 0 0 75259126.536237717 74466415.44719696 0 74466415.44719696 139256698.83547974 0 0 0 0 6800661.8340606689 -211131589.82688904 0 -211131589.82688904 44209765.231372833 0 0 0 0 -240188549.77264404 6590746.2124519348 0 6590746.2124519348 564560461.34098816 0 0 0 0 -196319540.97699356 -359801576.36399841 0 -359801576.36399841 169738512.03778076 0 0 0 0 -7371203.7476348877 -101266090.45463562 0 -101266090.45463562 -357516460.91926575 0 0 0 0 -2935892.6356163025 11891864.445079803 0 11891864.445079803 -169845.56098556519 0 0 0 0 26747057.33357811 61901741.349679947 0 61901741.349679947 10805612.185421944 0 0 0 0 5288323.894094401 5585912.7494058637 0 5585912.7494058637 -2028151.3080356047 0 0 0 0 1052460.9001012035 10179387.823984643 0 10179387.823984643 11481297.644912923 0 0 0 0 234388.6326007843 4153525.2118077278 0 4153525.2118077278 -444693.03053092957 0 0 0 0 9137380.9515403882 9368806.594304245 0 9368806.594304245 6691629.0868275864 0 0 0 0 973340.06734837964 4030778.1320781615 0 4030778.1320781615 2199525.8031137045 0 0 0 0 -537686.51343536377 10144188.961587906 0 10144188.961587906 607832.94216918945 0 0 0 0 -472553.55738830566 10956353.249961853 0 10956353.249961853 88972.889194488525 0 0 0 0 -304622.21862125397 11315645.278937578 0 11315645.278937578 461682.05144119263 0 0 0 0 6210755.3007244915 15086240.705142548 0 15086240.705142548 14912685.211199854 0 0 0 0 14023028.840218658 28978548.228021178 0 28978548.228021178 14100685.958536083 0 0 0 0 21585990.688980103 7368196.1758685112 0 7368196.1758685112 721327.13754415512 0 0 0 0 18675798.899179243 18482148.011540055 0 18482148.011540055 11911401.785751611 0 0 0 0 1998115.2469177246 10433834.410424232 0 10433834.410424232 -3457891.3907241821 0 0 0 0 12946805.166711772 12220496.06630557 0 12220496.06630557 -1375673.6877520457 0 0 0 0 -19875040.738967896 101712192.28055573 0 101712192.28055573 -425781464.88111115 0 0 0 0 4471233.2763326876 15492966.258639766 0 15492966.258639766 4563073.4276853241 0 0 0 0 -10472908.502670288 3420530.8245391846 0 3420530.8245391846 -165444283.0258255 0 0 0 0 26038410.824792862 54412949.91940549 0 54412949.91940549 -31462275.24557209 0 0 0 0 49203130.805988312 42885197.974221945 0 42885197.974221945 -39477579.831760883 0 0 0 0 16262433.087275311 6380831.5474636555 0 6380831.5474636555 -10672796.642895278 0 0 0 0 73371299.978441238 22590525.965269148 0 22590525.965269148 -37745421.272586823 0 0 0 0 2676165.1325530726 4016323.6930328198 0 4016323.6930328198 -1115790.292883073 0 0 0 0 47891761.109462738 7146825.8236141205 0 7146825.8236141205 -25621857.567411423 0 0 0 0 7093821.256149292 11833277.904661179 0 11833277.904661179 -4581276.0088891983 0 0 0 0 34310624.500793457 19489061.125888824 0 19489061.125888824 -27566376.366088867 0 0 0 0 14770528.274459839 29393790.972383499 0 29393790.972383499 -21013258.787614822 0 0 0 0 10205122.008605879 11865058.631765708 0 11865058.631765708 -1399080.7251948882 0 0 0 0 18765756.778030396 6705364.5798120499 0 6705364.5798120499 -4213765.5962104797 0 0 0 0 9078341.3516988754 32755801.925567627 0 32755801.925567627 52300672.869134903 0 0 0 0 17078258.118811488 77750228.64997983 0 77750228.64997983 138850564.95813751 0 0 0 0 -16297354.81435585 32538047.003522873 0 32538047.003522873 73510195.364776611 0 0 0 0 59568522.700515747 -52049092.947242737 0 -52049092.947242737 -148836818.23616028 0 0 0 0 -31529049.109924197 43570814.981815338 0 43570814.981815338 36548765.838233948 0 0 0 0 2337220.8616295308 15839888.896071723 0 15839888.896071723 7922969.9257149827 0 0 0 0 -24544482.557058811 34177584.80430603 0 34177584.80430603 33131126.413295746 0 0 0 0 -17820619.365942925 25205620.46090126 0 25205620.46090126 43074551.159797668 0 0 0 0 -32938949.284335375 37161046.127597809 0 37161046.127597809 47331217.797315598 0 0 0 0 -7957122.1589050293 2736975.2307004929 0 2736975.2307004929 -21845037.971497536 0 0 0 0 -1312311.0751161575 40610630.145656586 0 40610630.145656586 -4144074.2099533081 0 0 0 0 5787652.7926755147 34758072.951421887 0 34758072.951421887 20778972.811985821 0 0 0 0 804200.83880853653 67768212.759937286 0 67768212.759937286 -6310485.7786560059 0 0 0 0 7873562.0574827194 66744650.75340271 0 66744650.75340271 67173383.120656967 0 0 0 0 -76794.90629345784 1650004.1858193008 0 1650004.1858193008 -1402800.135035336 0 0 0 0 70971940.689815521 49325216.183883667 0 49325216.183883667 -5544524.0517120361 0 0 0 0 -19483018.472751617 26209375.6622715 0 26209375.6622715 -10823788.359024048 0 0 0 0 8548963.8266742397 22776347.318007641 0 22776347.318007641 -1197641.7364714853 0 0 0 0 -44086477.080914974 13107297.287443161 0 13107297.287443161 17072064.485626221 0 0 0 0 60239882.15931797 94386303.508045197 0 94386303.508045197 79334464.273483276 0 0 0 0 -3612995.1680119471 2735625.6648118915 0 2735625.6648118915 3387717.9967416897 0 0 0 0 -57008514.18274641 -35276412.595170975 0 -35276412.595170975 39139074.984054565 0 0 0 0 -123785069.6355114 75985677.367019653 0 75985677.367019653 123162139.15027905 0 0 0 0 -64781874.209020615 -25686684.217338562 0 -25686684.217338562 108669941.52560329 0 0 0 0 -68388378.96693635 -822808.72024250031 0 -822808.72024250031 49707593.127822876 0 0 0 0 129891912.19541931 170921375.89365005 0 170921375.89365005 214265289.44308853 0 0 0 0 -37376400.486547165 14908278.88032474 0 14908278.88032474 20344461.835968331 0 0 0 0 137912520.91304016 239404853.19690681 0 239404853.19690681 254851402.32948303 0 0 0 0 -34203632.857731506 7821106.6119664274 0 7821106.6119664274 21450874.347752184 0 0 0 0 -46347273.981620789 90712789.670114517 0 90712789.670114517 80996554.042064667 0 0 0 0 -7415068.3457679749 24715395.671541214 0 24715395.671541214 36267028.169315338 0 0 0 0 -144476988.04002953 180493955.40549469 0 180493955.40549469 -103480323.71791077 0 0 0 0 27370067.31550169 85217795.920860291 0 85217795.920860291 -10190182.945671082 0 0 0 0 22708824.059745789 -10495229.512915611 0 -10495229.512915611 -21074727.634376526 0 0 0 0 20294729.835659027 -46141246.644088745 0 -46141246.644088745 -46783034.210808277 0 0 0 0 51913293.665194511 -25982410.540912628 0 -25982410.540912628 -41437371.859436035 0 0 0 0 83034422.911552429 -22781244.196046829 0 -22781244.196046829 -333825910.37761688 0 0 0 0 -48174585.531080246 482148946.22504997 0 482148946.22504997 -189639928.61857986 0 0 0 0 -77815190.653880119 -293750657.42811394 0 -293750657.42811394 -46551645.23525238 0 0 0 0 40879826.064884186 211740796.23914337 0 211740796.23914337 -526243681.92312622 0 0 0 0 -162837505.10061121 82361131.57690239 0 82361131.57690239 191032252.13993835 0 0 0 0 -255021289.97014046 322662595.69387436 0 322662595.69387436 282920691.14559507 0 0 0 0 1729288.2141570018 4218593.9159881352 0 4218593.9159881352 -2946896.8345580148 0 0 0 0 244016809.05199587 -224591120.19536114 0 -224591120.19536114 -91448189.998672485 0 0 0 0 -157829447.68023014 -198087378.19550323 0 -198087378.19550323 198177091.13745975 0 0 0 0 900009.47801500699 2962050.1206253022 0 2962050.1206253022 225559.62328448053 0 0 0 0 -71551937.98408699 -26965023.750839233 0 -26965023.750839233 -38381397.764270782 0 0 0 0 -12285868.548466682 -298159318.41810226 0 -298159318.41810226 -601199956.65068436 0 0 0 0 -159547460.21713638 -64343388.914764404 0 -64343388.914764404 -149695983.12012863 0 0 0 0 -22903173.900033951 -31849364.371116638 0 -31849364.371116638 150485112.41273451 0 0 0 0 69950221.442950249 40784089.128700256 0 40784089.128700256 -8754445.7569274902 0 0 0 0 -198883062.3924067 24802663.949115753 0 24802663.949115753 88817428.176803589 0 0 0 0 400710193.24910355 56704609.262227058 0 56704609.262227058 269749126.28452682 0 0 0 0 -139070440.00875854 101375388.81499481 0 101375388.81499481 64921017.222178459 0 0 0 0 5458517.6502990723 84211300.702758789 0 84211300.702758789 62063476.396450043 0 0 0 0 -5071198.7124754786 2862031.4530219994 0 2862031.4530219994 3736503.6629105303 0 0 0 0 -64958976.404792786 -67413134.330532074 0 -67413134.330532074 29223234.295730591 0 0 0 0 -26217758.989570618 37852257.683805466 0 37852257.683805466 -302344919.69478607 0 0 0 0 -14765567.460193634 165094330.08399439 0 165094330.08399439 -420919228.90229797 0 0 0 0 95903614.907775879 -140451502.67657089 0 -140451502.67657089 -803297041.49753952 0 0 0 0 91871840.594284058 -74812406.712940216 0 -74812406.712940216 -443713948.84080696 0 0 0 0 45524376.86296463 18706785.623646736 0 18706785.623646736 -572443015.5124054 0 0 0 0 37952845.104888916 -37985082.196435928 0 -37985082.196435928 -463218841.05221558 0 0 0 0 229116424.60343361 377160992.6748569 0 377160992.6748569 399278793.25764465 0 0 0 0 -129208506.74516296 658404593.98727798 0 658404593.98727798 313290089.53087044 0 0 0 0 4057977.8630017266 24286916.195321627 0 24286916.195321627 -41261336.414287709 0 0 0 0 151787642.96279287 277315216.09372282 0 277315216.09372282 300799915.3875885 0 0 0 0 237801492.72181702 252427621.54164886 0 252427621.54164886 277006788.54350185 0 0 0 0 -2520380.7227295637 588293.42646856606 0 588293.42646856606 1943963.6750539988 0 0 0 0 -235075453.57242584 267404353.03528214 0 267404353.03528214 -572245542.83148956 0 0 0 0 4916542.0951436013 25290890.666854769 0 25290890.666854769 -41303658.325988121 0 0 0 0 -326821588.88214111 1097265346.3392487 0 1097265346.3392487 -307490219.13327026 0 0 0 0 796863507.17300415 -9827542.9660720825 0 -9827542.9660720825 613330319.43248367 0 0 0 0 212471363.63113403 304447103.52941132 0 304447103.52941132 284867847.6905365 0 0 0 0 216789568.12406921 223852307.25657654 0 223852307.25657654 217466071.75688934 0 0 0 0 158939101.58068848 194565281.27990341 0 194565281.27990341 247973277.32685757 0 0 0 0 -5171579.8718204498 -26062809.246780396 0 -26062809.246780396 -21867537.739139557 0 0 0 0 -6050909.3198661804 -14514903.552898407 0 -14514903.552898407 -865929.47662353516 0 0 0 0 -29398519.003511004 2544038.6425677417 0 2544038.6425677417 24568914.057735305 0 0 0 0 159080305.47654724 180904086.84487915 0 180904086.84487915 284813704.14608765 0 0 0 0 141849317.46788883 261251795.81177711 0 261251795.81177711 384261404.41197205 0 0 0 0 300925261.46024323 320594564.65437317 0 320594564.65437317 297251582.15900421 0 0 0 0 -8259556.7408447266 116221830.61463165 0 116221830.61463165 310376332.02257919 0 0 0 0 199693323.55128479 532414493.79098701 0 532414493.79098701 549531652.76390076 0 0 0 0 202290662.30688477 327561396.74176788 0 327561396.74176788 457462315.94646072 0 0 0 0 33575384.902961731 306782750.97220993 0 306782750.97220993 205461192.43718624 0 0 0 0 5206889.1494549662 23302570.001287706 0 23302570.001287706 -40823680.545651793 0 0 0 0 -54901214.760263443 -42403084.487911224 0 -42403084.487911224 65803337.408266068 0 0 0 0 -15823901.583044093 -2596127.0023256298 0 -2596127.0023256298 34930232.652881533 0 0 0 0 14183123.998668194 419801004.99804926 0 419801004.99804926 421933806.98788452 0 0 0 0 141711140.03184509 188508849.19707489 0 188508849.19707489 23730328.215667725 0 0 0 0 -23409211.640158668 -1211927.3770395354 0 -1211927.3770395354 29042469.449729498 0 0 0 0 -47472692.064079285 -21761758.600112915 0 -21761758.600112915 2816162.6282157898 0 0 0 0 -54909844.157283783 -60341669.375614166 0 -60341669.375614166 -16730785.889881134 0 0 0 0 -28825406.748260498 7884881.8422174454 0 7884881.8422174454 232993200.0158577 0 0 0 0 1225734.4213351384 1484830.3435446853 0 1484830.3435446853 -1149335.1372758169 0 0 0 0 -31525986.726589203 -65443646.285316467 0 -65443646.285316467 -77439198.607432365 0 0 0 0 -17626051.314167023 -17217580.744300842 0 -17217580.744300842 -38679759.630479813 0 0 0 0 -45409353.265958786 -31860013.477764606 0 -31860013.477764606 -8488915.5415077209 0 0 0 0 -13054929.212724686 -32788764.805244446 0 -32788764.805244446 2535528.696018219 0 0 0 0 2052345.0544228461 2817860.403003728 0 2817860.403003728 -2127992.2913797935 0 0 0 0 27361710.693122864 165066689.58431339 0 165066689.58431339 320742528.25410843 0 0 0 0 -49407036.845531464 92096148.859949112 0 92096148.859949112 293440630.59377289 0 0 0 0 85968036.994949341 151435256.75728798 0 151435256.75728798 284934490.39640808 0 0 0 0 83747701.206365585 149062192.13790417 0 149062192.13790417 294295970.75697708 0 0 0 0 86300843.86288929 152820059.90187931 0 152820059.90187931 275110322.15818405 0 0 0 0 2248565.8216435947 1615951.8111419138 0 1615951.8111419138 1172323.6698604673 0 0 0 0 -196245534.29944992 -18873977.614178658 0 -18873977.614178658 82459418.707992554 0 0 0 0 211479542.6897316 196204691.6877737 0 196204691.6877737 139759982.30603838 0 0 0 0 406112625.93708801 285157289.60674095 0 285157289.60674095 166085469.48643494 0 0 0 0 102481177.14183044 211827624.22646332 0 211827624.22646332 326490038.43270874 0 0 0 0 158866538.51789284 143871174.36228085 0 143871174.36228085 196212319.79764175 0 0 0 0 71261299.14535141 110911776.21443081 0 110911776.21443081 189192902.92200279 0 0 0 0 80384457.330986023 75283117.457817078 0 75283117.457817078 92135637.201999664 0 0 0 0 7491006.1616077423 20309296.383653164 0 20309296.383653164 155632781.41338539 0 0 0 0 -39540003.083740234 12974579.949206233 0 12974579.949206233 237912121.58797455 0 0 0 0 21983375.390403748 85972629.270500183 0 85972629.270500183 260170080.10594559 0 0 0 0 35658715.770317078 75155412.819040298 0 75155412.819040298 252166392.71224213 0 0 0 0 -41360586.0963974 -488523.37335968018 0 -488523.37335968018 227678622.12558556 0 0 0 0 -9842555.2367706299 77223647.082702637 0 77223647.082702637 174754051.33659029 0 0 0 0 -10093106.248611927 65561040.246224761 0 65561040.246224761 59845956.210208893 0 0 0 0 -101447615.39883804 8173381.3557710648 0 8173381.3557710648 80730638.716166735 0 0 0 0 -45247269.972551346 -26927166.884550214 0 -26927166.884550214 94324063.186410904 0 0 0 0 -27220825.991615295 -316445270.31575394 0 -316445270.31575394 101595552.74104691 0 0 0 0 -18813415.570352554 187700908.84622955 0 187700908.84622955 337958103.59635925 0 0 0 0 154265721.1592617 498539064.10007858 0 498539064.10007858 832695316.63249922 0 0 0 0 -287821307.45155239 -212297943.84197617 0 -212297943.84197617 1004900220.5986409 0 0 0 0 551682469.44931126 30463298.254239082 0 30463298.254239082 -341347367.70456314 0 0 0 0 5187514.9631420579 2353279.3135715928 0 2353279.3135715928 -3512843.4584958507 0 0 0 0 172937448.03235054 25569659.618610382 0 25569659.618610382 21872993.918365479 0 0 0 0 1103730160.9299593 338625559.96980858 0 338625559.96980858 -300694568.61266327 0 0 0 0 4628383.3071534624 1813614.7690930357 0 1813614.7690930357 -2844455.8924459219 0 0 0 0 -140280620.56504726 111435272.58994102 0 111435272.58994102 167343202.90343952 0 0 0 0 -73842549.764541626 -31787370.152881622 0 -31787370.152881622 244347332.88866615 0 0 0 0 142732969.57316971 -15820031.112041473 0 -15820031.112041473 -31621208.283760071 0 0 0 0 1784015.9741825415 3614357.3999963454 0 3614357.3999963454 -2571561.3999149669 0 0 0 0 21534574.448244095 -39470716.935754776 0 -39470716.935754776 -15169381.252073288 0 0 0 0 -79961425.246985435 131961349.50175047 0 131961349.50175047 149685235.52970505 0 0 0 0 119369029.96232224 -99709124.499416351 0 -99709124.499416351 61218289.66768074 0 0 0 0 -61831338.045181274 95747623.397985458 0 95747623.397985458 496219187.65130615 0 0 0 0 2056755.9586356245 993772.56504259165 0 993772.56504259165 -1407855.1571192956 0 0 0 0 -82504176.348469734 141163699.38594007 0 141163699.38594007 402011282.69274902 0 0 0 0 18820497.139129639 165496784.99868774 0 165496784.99868774 384248914.53195953 0 0 0 0 145332928.41928864 142891065.87688446 0 142891065.87688446 264079353.00255203 0 0 0 0 78106928.690601349 13754050.642339706 0 13754050.642339706 364195928.18605423 0 0 0 0 -12978845.040313721 82582996.785047531 0 82582996.785047531 331458816.30782509 0 0 0 0 -59706542.025444031 146397992.96998215 0 146397992.96998215 265657097.24005234 0 0 0 0 15614275.761146545 185621862.71720123 0 185621862.71720123 267262174.13349915 0 0 0 0 54206325.834270477 98673879.872176647 0 98673879.872176647 210459949.12678528 0 0 0 0 -43027686.73021698 50210335.518806458 0 50210335.518806458 198593791.08093643 0 0 0 0 3355366.3841891289 100473764.42276192 0 100473764.42276192 106871709.35754395 0 0 0 0 -87676286.203266144 84015377.862846375 0 84015377.862846375 107472525.38864231 0 0 0 0 -52572179.790615082 139944227.93871307 0 139944227.93871307 41440662.202761173 0 0 0 0 17943081.418132782 89316089.054679871 0 89316089.054679871 204766383.01843262 0 0 0 0 13185723.221418381 88288942.568479538 0 88288942.568479538 278881363.18021202 0 0 0 0 81615941.636915207 104722217.22388744 0 104722217.22388744 128240381.15916443 0 0 0 0 -12559137.75353241 40026720.648646593 0 40026720.648646593 172888870.53044891 0 0 0 0 31831532.110900879 110632204.49082375 0 110632204.49082375 95083108.400665283 0 0 0 0 46975466.175186157 67090767.801174164 0 67090767.801174164 107982540.57457829 0 0 0 0 212140368.28415871 120348031.45108414 0 120348031.45108414 69889861.964933395 0 0 0 0 86654617.522917747 126806446.90702057 0 126806446.90702057 221074639.24023819 0 0 0 0 45252568.715835571 161233376.38331795 0 161233376.38331795 229238998.44007301 0 0 0 0 162294900.90966702 319814347.53411674 0 319814347.53411674 418193321.47332382 0 0 0 0 -16051259.903597832 159160766.72042131 0 159160766.72042131 419365154.12538147 0 0 0 0 1184574.5181102655 -2073639.1871942289 0 -2073639.1871942289 3822016.5257873554 0 0 0 0 21637052.420597553 -352749854.79412198 0 -352749854.79412198 108715402.8161993 0 0 0 0 759677088.61772776 399827398.84963131 0 399827398.84963131 232650305.66053963 0 0 0 0 365107766.78669214 116729330.20553589 0 116729330.20553589 55395556.858926773 0 0 0 0 169753964.30522394 17971345.310172796 0 17971345.310172796 44974439.610815048 0 0 0 0 114914061.41600895 31541480.484951019 0 31541480.484951019 54414327.01052475 0 0 0 0 133713342.89053392 21488895.419392109 0 21488895.419392109 9005835.8406982422 0 0 0 0 5301544.3936161054 -425520.99105331441 0 -425520.99105331441 9838184.6532419939 0 0 0 0 105249139.71637177 -6977580.9216220379 0 -6977580.9216220379 -11122889.15669632 0 0 0 0 51439458.257882595 25337040.240484715 0 25337040.240484715 -30298153.93736124 0 0 0 0 27554825.890514374 62476700.53402853 0 62476700.53402853 -29105622.33480072 0 0 0 0 81073961.452892303 46137984.280982018 0 46137984.280982018 -26399207.518638611 0 0 0 0 151618354.13284588 46367903.345539093 0 46367903.345539093 -2962464.4856834412 0 0 0 0 76147601.262656212 56685666.589436531 0 56685666.589436531 -4344123.4806346893 0 0 0 0 93691451.068447113 61169586.17579174 0 61169586.17579174 50923813.741688728 0 0 0 0 103331159.69750786 106215787.02203417 0 106215787.02203417 28916147.785568237 0 0 0 0 47621909.001169205 68710041.956337929 0 68710041.956337929 3907569.8736925125 0 0 0 0 12690135.362726212 138636951.85908556 0 138636951.85908556 -24892630.239356995 0 0 0 0 -6683349.8787612915 100823742.89064884 0 100823742.89064884 -34765192.486873627 0 0 0 0 1181103.4440727234 44614634.267317772 0 44614634.267317772 15621672.937688828 0 0 0 0 -136876835.51213074 97654363.926610947 0 97654363.926610947 11704207.654634476 0 0 0 0 2297210.5944674797 6037477.7479882594 0 6037477.7479882594 1906071.7111731349 0 0 0 0 -263318.00410461426 16249999.144126892 0 16249999.144126892 -3320766.8147735596 0 0 0 0 15579413.746250052 24629242.307332698 0 24629242.307332698 13341559.223256089 0 0 0 0 -1498366.5445194244 90204425.094525814 0 90204425.094525814 11527849.989815474 0 0 0 0 -1772117.7235202789 6152288.3236627579 0 6152288.3236627579 6042307.1996154785 0 0 0 0 14827155.542665688 19747603.940863051 0 19747603.940863051 2918839.2517340556 0 0 0 0 691585.49362945557 74761238.074573994 0 74761238.074573994 -21277821.109440327 0 0 0 0 58988245.629806995 100926139.34624934 0 100926139.34624934 -12776168.7096138 0 0 0 0 50486131.542466164 74426984.313459396 0 74426984.313459396 -43311525.236537933 0 0 0 0 87392624.13438797 4650254.7965812683 0 4650254.7965812683 -69632523.635307312 0 0 0 0 32776640.338104092 30169033.100667048 0 30169033.100667048 18767106.288277477 0 0 0 0 17944653.057096362 8821124.5675132386 0 8821124.5675132386 -12266769.880034707 0 0 0 0 27086440.004882812 20520790.497421265 0 20520790.497421265 -13291266.174600601 0 0 0 0 7578758.6777052227 14664455.859235583 0 14664455.859235583 6374424.3329618573 0 0 0 0 39455424.026687622 33820969.796401978 0 33820969.796401978 -4198333.5010375977 0 0 0 0 10315203.413213573 13905132.859997587 0 13905132.859997587 13144910.100044779 0 0 0 0 38272300.426521301 17342728.50428009 0 17342728.50428009 6526459.4323272705 0 0 0 0 13380180.962266922 47092449.635676384 0 47092449.635676384 153204.18403625488 0 0 0 0 40832625.806152344 41106368.975669861 0 41106368.975669861 -12870668.830810547 0 0 0 0 41454460.335075378 53899159.353218079 0 53899159.353218079 -44887738.853257179 0 0 0 0 -97085258.502693176 143679872.31078339 0 143679872.31078339 12866573.989349365 0 0 0 0 39337267.05180119 32736506.543613456 0 32736506.543613456 16486017.997156676 0 0 0 0 65609448.303163767 21109393.855946302 0 21109393.855946302 -56908745.82270956 0 0 0 0 80976261.532752991 81368797.323799133 0 81368797.323799133 -66350047.668312073 0 0 0 0 3034877.895019684 25544821.617176417 0 25544821.617176417 49660186.53969273 0 0 0 0 -391904.23221642897 18600853.996329017 0 18600853.996329017 53289767.840832733 0 0 0 0 -131992757.50780487 77370540.252761364 0 77370540.252761364 97858669.114405632 0 0 0 0 32968792.240707397 60834440.628635406 0 60834440.628635406 33715928.997463226 0 0 0 0 37804487.769333839 79675973.692361832 0 79675973.692361832 58740228.915676117 0 0 0 0 -13573508.508098602 104142936.15962791 0 104142936.15962791 32360488.327432461 0 0 0 0 26780428.569231033 61353932.198485851 0 61353932.198485851 29222937.985254765 0 0 0 0 13612641.886157995 11773701.807472071 0 11773701.807472071 -8812674.9123051912 0 0 0 0 138276046.91682696 113751334.84068978 0 113751334.84068978 41248780.811412811 0 0 0 0 98607418.884918213 73553490.990442276 0 73553490.990442276 41577010.697450161 0 0 0 0 812826.96704589948 -2512787.9259368102 0 -2512787.9259368102 -2721763.7642735383 0 0 0 0 136592590.23103333 97890103.631231308 0 97890103.631231308 30992838.295318604 0 0 0 0 111757200.33259583 112620560.96305084 0 112620560.96305084 39171303.063011169 0 0 0 0 120456315.53889465 109754170.64560699 0 109754170.64560699 35226120.169281006 0 0 0 0 105754357.17778778 120323715.75063515 0 120323715.75063515 80543373.832233429 0 0 0 0 191228205.01995468 124926651.75515556 0 124926651.75515556 86443149.059839249 0 0 0 0 105787942.38194691 93846511.809099451 0 93846511.809099451 76125636.898231506 0 0 0 0 -154164.11241149902 15763071.742073059 0 15763071.742073059 7482218.8317947388 0 0 0 0 1809710.259513855 21920464.775497437 0 21920464.775497437 8317150.6803588867 0 0 0 0 11472600.412789868 18725104.731300257 0 18725104.731300257 12765533.649234146 0 0 0 0 11870780.168136751 5521796.3249486834 0 5521796.3249486834 -11225197.321438471 0 0 0 0 126323.7347869873 9176083.3091659546 0 9176083.3091659546 10624469.042301178 0 0 0 0 2732873.1673736572 10169013.650474548 0 10169013.650474548 128665.52930450439 0 0 0 0 2991966.754196167 12557214.306938171 0 12557214.306938171 8958990.8927612305 0 0 0 0 12066120.045749448 11753852.354135968 0 11753852.354135968 1389886.7822411275 0 0 0 0 13284672.522171021 20809822.046489716 0 20809822.046489716 8438044.852935791 0 0 0 0 -27464.518677949905 743611.02246289421 0 743611.02246289421 2160295.0879093781 0 0 0 0 12200307.167610168 23179497.985142708 0 23179497.985142708 27917474.652526855 0 0 0 0 22511650.370315552 27870031.538162231 0 27870031.538162231 17052787.199905396 0 0 0 0 8883230.5188293457 13682848.952941895 0 13682848.952941895 20612265.592323303 0 0 0 0 6491259.0201263428 28920943.11631012 0 28920943.11631012 70872717.467147827 0 0 0 0 44800070.533905029 35850158.040794373 0 35850158.040794373 25178338.617004395 0 0 0 0 3806450.0286940709 12177437.091777824 0 12177437.091777824 18444588.700144492 0 0 0 0 23353486.219844818 30378227.193088531 0 30378227.193088531 24523018.236602783 0 0 0 0 14975787.917382549 16944305.781374279 0 16944305.781374279 -20178013.245458212 0 0 0 0 12679430.301963806 85953999.226284027 0 85953999.226284027 56160207.910491943 0 0 0 0 63000607.783508301 58780597.959003925 0 58780597.959003925 7482255.8392564058 0 0 0 0 139968886.22491455 67375127.662506104 0 67375127.662506104 53825065.697677612 0 0 0 0 78874247.393901825 92649732.39761734 0 92649732.39761734 77719457.683166504 0 0 0 0 19087059.848472595 -91195343.591209412 0 -91195343.591209412 143233860.94961548 0 0 0 0 4163724.6217427738 4310840.6570460172 0 4310840.6570460172 7252960.8200723603 0 0 0 0 4856209.8870011717 4764694.2906528637 0 4764694.2906528637 4735138.2708730772 0 0 0 0 -22661996.725395203 205791345.82678604 0 205791345.82678604 166139823.56774902 0 0 0 0 177994388.3684082 -26642253.935577393 0 -26642253.935577393 248638780.87841797 0 0 0 0 124044221.44761276 97236383.610519409 0 97236383.610519409 28815584.908325195 0 0 0 0 -343306758.95017624 -69593417.868026733 0 -69593417.868026733 22395951.647033691 0 0 0 0 2313977.6727820262 2330025.9134216644 0 2330025.9134216644 -1625212.1022270471 0 0 0 0 18580513.343639374 675515722.78570175 0 675515722.78570175 -987037062.91543579 0 0 0 0 -663562633.12280273 495214848.79841614 0 495214848.79841614 -147085766.97465658 0 0 0 0 -231283510.50099182 -72031835.984588623 0 -72031835.984588623 -171098465.38419008 0 0 0 0 -42019459.561660767 -8424414.6566467285 0 -8424414.6566467285 -33687881.790977478 0 0 0 0 1593385.3899126835 1066145.2116856296 0 1066145.2116856296 1895128.0443860963 0 0 0 0 -299584934.54234314 180990479.47902298 0 180990479.47902298 186954794.88414001 0 0 0 0 -7353593.21434021 76356862.655994415 0 76356862.655994415 -116394988.91088867 0 0 0 0 197389598.6578064 268197865.46144104 0 268197865.46144104 -66888102.438186646 0 0 0 0 -1641220.8444213867 46813792.96697998 0 46813792.96697998 132059542.14821625 0 0 0 0 61582174.867301941 -23491775.620569229 0 -23491775.620569229 43554624.922714233 0 0 0 0 -45018274.203796387 56761505.419525146 0 56761505.419525146 -16213691.549682617 0 0 0 0 -570803700.9574585 224260554.63567352 0 224260554.63567352 -73267635.071403503 0 0 0 0 -131340859.61401463 -31294378.663175583 0 -31294378.663175583 -101486248.69384766 0 0 0 0 -185544753.30754089 332134833.80010986 0 332134833.80010986 -67823007.006637573 0 0 0 0 -194923461.21437073 92186084.195541382 0 92186084.195541382 -164870778.22836304 0 0 0 0 19098878.809967041 77669568.846809387 0 77669568.846809387 -111999090.21691132 0 0 0 0 -28167806.108760834 -41432463.203605652 0 -41432463.203605652 -375170573.20541382 0 0 0 0 17774093.962463379 11658764.965042114 0 11658764.965042114 -139893492.03249359 0 0 0 0 -36194055.461882114 -50335430.621216297 0 -50335430.621216297 -20827428.644897461 0 0 0 0 2869592.1676635742 1043368.5447235107 0 1043368.5447235107 42518434.8279953 0 0 0 0 -1760220.8266143799 10635332.189033508 0 10635332.189033508 31937603.62727356 0 0 0 0 -3300225.5898001194 -19744212.579159737 0 -19744212.579159737 6108176.4568481445 0 0 0 0 4268618.7653702218 5142386.980586078 0 5142386.980586078 2532007.2422489077 0 0 0 0 20206693.571548462 3226803.0949630737 0 3226803.0949630737 28048020.615791321 0 0 0 0 18792692.922706604 55660688.505859375 0 55660688.505859375 -67841609.708602905 0 0 0 0 1271933.3749630591 1517016.8673915304 0 1517016.8673915304 757027.31681009382 0 0 0 0 17436452.639933586 15447399.447781563 0 15447399.447781563 3517836.0783996582 0 0 0 0 121663306.39487648 200909899.08826923 0 200909899.08826923 84481103.038879395 0 0 0 0 88483868.874051094 32391008.166248322 0 32391008.166248322 -104338116.25210571 0 0 0 0 243580.41395509243 -534824.85252134129 0 -534824.85252134129 -115300.61459698249 0 0 0 0 194077297.16954041 181333448.2150116 0 181333448.2150116 -808446804.54182863 0 0 0 0 -43609204.475982666 286509412.79417419 0 286509412.79417419 326595111.85503578 0 0 0 0 -263488379.64068604 314975429.28525352 0 314975429.28525352 -318243457.1269989 0 0 0 0 35363529.958198547 415690691.34728241 0 415690691.34728241 -351924220.02148438 0 0 0 0 21263637.604446411 59700055.176345825 0 59700055.176345825 -62441095.273910522 0 0 0 0 132869735.78256989 301916896.45458221 0 301916896.45458221 -152545317.18031311 0 0 0 0 -13574799.230758667 399648306.33124542 0 399648306.33124542 165702066.05517578 0 0 0 0 -138255065.25434875 347738375.55459595 0 347738375.55459595 -178140911.60821533 0 0 0 0 -264463413.09741211 527414316.18978882 0 527414316.18978882 -1033675375.5597229 0 0 0 0 -357531604.51500702 -160938950.83178711 0 -160938950.83178711 -482698094.03997803 0 0 0 0 -398200105.27799988 274952310.0650177 0 274952310.0650177 -204678977.1806488 0 0 0 0 -115418820.43281555 142585420.88214111 0 142585420.88214111 -189554676.38153076 0 0 0 0 -708437955.11965942 125053259.27745819 0 125053259.27745819 12991646.68057251 0 0 0 0 -121292144.15008545 425439543.58500671 0 425439543.58500671 -399987619.13826466 0 0 0 0 -163592757.61154175 247215929.79051208 0 247215929.79051208 -409344283.2338562 0 0 0 0 -56076584.928665161 277696859.98000336 0 277696859.98000336 -255106487.99841309 0 0 0 0 -234391332.94651794 424501864.34132385 0 424501864.34132385 11757502.064468384 0 0 0 0 -494540885.74879837 705675768.00346756 0 705675768.00346756 -879679719.69921875 0 0 0 0 -226776076.79353333 398090936.38362885 0 398090936.38362885 -133689541.83995819 0 0 0 0 2652916.8646805473 1895243.3631958663 0 1895243.3631958663 -1525868.5509443581 0 0 0 0 -395990061.95985413 762331239.61964417 0 762331239.61964417 -964219182.3001709 0 0 0 0 -488057580.34803772 734753852.50028992 0 734753852.50028992 -749911788.38909912 0 0 0 0 -256094031.53808594 198130626.81323242 0 198130626.81323242 89593227.208984375 0 0 0 0 -282332487.43432617 529225251.65472412 0 529225251.65472412 -661348186.08511353 0 0 0 0 -442088110.26875305 720131074.05256653 0 720131074.05256653 -809650649.03309631 0 0 0 0 -377911657.47180176 801865260.8692627 0 801865260.8692627 -744981565.52374268 0 0 0 0 -398417425.10253906 538474188.41088867 0 538474188.41088867 -330429712.32287598 0 0 0 0 -466434714.78338623 832276981.48013306 0 832276981.48013306 -964998346.69239807 0 0 0 0 -399057660.72402954 800169960.94541931 0 800169960.94541931 -990197793.23019409 0 0 0 0 -458389049.38639832 749793489.44082642 0 749793489.44082642 -1023389043.7810516 0 0 0 0 -456789783.41161156 791838603.19746208 0 791838603.19746208 -971164687.19534302 0 0 0 0 -482879189.00454712 549054921.65135193 0 549054921.65135193 -790910546.47485352 0 0 0 0 25031264.539505005 30262748.132064819 0 30262748.132064819 -23756967.575042725 0 0 0 0 -128745138.78623962 -64199210.47492218 0 -64199210.47492218 -12167746.139343262 0 0 0 0 3118736.5045292825 2765838.2310741395 0 2765838.2310741395 -560811.59257613122 0 0 0 0 -1817219.2326570898 204410.65484750271 0 204410.65484750271 491132.48015947267 0 0 0 0 -254108902.52719879 -56413497.388748169 0 -56413497.388748169 694322.71565246582 0 0 0 0 -367043265.86605835 344985702.82597351 0 344985702.82597351 -785225819.27763367 0 0 0 0 -499218815.10653687 642091563.84218597 0 642091563.84218597 -720073632.78578949 0 0 0 0 234480.2506454736 72287.461082518101 0 72287.461082518101 -412331.54054639488 0 0 0 0 -281201822.1789856 -26800353.708869934 0 -26800353.708869934 63330806.103523254 0 0 0 0 -13539779.139900208 192163728.66843796 0 192163728.66843796 305764021.32663155 0 0 0 0 136173222.75652313 -196949657.66963387 0 -196949657.66963387 -59030694.377929688 0 0 0 0 -315944979.94359589 59918848.941452026 0 59918848.941452026 414983007.87361526 0 0 0 0 250527832.85791588 212804860.40499973 0 212804860.40499973 -101250965.72114563 0 0 0 0 3878684.8076735325 1990891.3935907222 0 1990891.3935907222 -2009940.0836005211 0 0 0 0 337782078.37698364 -77850441.126281738 0 -77850441.126281738 -24308610.851484299 0 0 0 0 -3575365.3004302979 -23537342.038513184 0 -23537342.038513184 212311074.97302246 0 0 0 0 -2266913.3408813477 -18031747.791946411 0 -18031747.791946411 51075444.053222656 0 0 0 0 -3562405.64909935 65402260.079175949 0 65402260.079175949 183323004.45716858 0 0 0 0 -1583971.4368972778 70879018.643291473 0 70879018.643291473 51856120.026618958 0 0 0 0 91427427.443935394 61404146.745404243 0 61404146.745404243 42491863.883972168 0 0 0 0 201699528.65149498 135673234.9618845 0 135673234.9618845 45798528.425598145 0 0 0 0 -13870144.562828064 164779861.68198013 0 164779861.68198013 47784340.332214355 0 0 0 0 -142142698.80595398 74025096.025760651 0 74025096.025760651 -100959527.55712128 0 0 0 0 51036147.291687012 96632777.395812988 0 96632777.395812988 -104904384.66389465 0 0 0 0 -34644566.052947998 144979280.37895966 0 144979280.37895966 64870833.637832642 0 0 0 0 379911.43248039484 -884801.56316328794 0 -884801.56316328794 -178522.5719698309 0 0 0 0 -58412866.644691467 260782658.86606598 0 260782658.86606598 -86547061.818421841 0 0 0 0 94252535.171394348 112218564.26440048 0 112218564.26440048 -251289840.91210938 0 0 0 0 150749.65400497615 -672609.32451145351 0 -672609.32451145351 -90424.266340131639 0 0 0 0 -179968853.65722656 118204913.62599945 0 118204913.62599945 421888778.71106672 0 0 0 0 -97998618.042938232 149725312.8348999 0 149725312.8348999 -116202331.97846985 0 0 0 0 169946802.26475525 119176070.98740768 0 119176070.98740768 -550436231.30635834 0 0 0 0 328475415.64993286 74830340.37247467 0 74830340.37247467 -181132612.69535828 0 0 0 0 -95683538.23340416 -137091464.7696209 0 -137091464.7696209 -54264609.801605225 0 0 0 0 -24376484.76348877 100861189.45675659 0 100861189.45675659 -180750410.34670424 0 0 0 0 -12435636.794944763 64972097.624370575 0 64972097.624370575 -78332020.387969971 0 0 0 0 -52500861.041625977 70813945.851547241 0 70813945.851547241 15907306.144699097 0 0 0 0 12437176.477500916 15149104.937911987 0 15149104.937911987 1433679.1466064453 0 0 0 0 23330873.306808472 36080019.422279358 0 36080019.422279358 26036739.091667175 0 0 0 0 5295092.2555066152 16198899.493365513 0 16198899.493365513 4996802.1325036809 0 0 0 0 33236180.91355896 22054795.616195679 0 22054795.616195679 147362.89346313477 0 0 0 0 21144808.666442871 21749784.87387085 0 21749784.87387085 1786682.4750671387 0 0 0 0 11819693.638216019 11043437.069416046 0 11043437.069416046 -2568753.8748168945 0 0 0 0 7580259.7188177472 19003989.892245129 0 19003989.892245129 648506.8667582646 0 0 0 0 12637746.670928955 8109154.3498687744 0 8109154.3498687744 -5237849.3053970337 0 0 0 0 4960033.6316628866 9399338.5315962918 0 9399338.5315962918 -6077193.4469118416 0 0 0 0 19179346.66545105 8522096.9789352417 0 8522096.9789352417 -3122904.0751495361 0 0 0 0 19028558.617075276 8688139.2049684227 0 8688139.2049684227 -1162356.2794622183 0 0 0 0 28470503.423088074 6467865.0490455627 0 6467865.0490455627 -4175849.5020141602 0 0 0 0 -6478648.280582428 17339443.380325317 0 17339443.380325317 15623758.458251953 0 0 0 0 49862565.248054504 7006796.4353103638 0 7006796.4353103638 -4755871.798034668 0 0 0 0 131279.43037477881 489941.32901967317 0 489941.32901967317 -573040.78080860525 0 0 0 0 15785842.886612505 17458480.00199743 0 17458480.00199743 5064778.8809833378 0 0 0 0 22278243.039031982 16790627.782569885 0 16790627.782569885 -2016845.7081451416 0 0 0 0 8282818.8220812092 19458230.241688937 0 19458230.241688937 7086459.2814853415 0 0 0 0 12162954.446687698 14544933.222938538 0 14544933.222938538 2437382.8052062988 0 0 0 0 84442870.37877655 41455575.045471191 0 41455575.045471191 3719515.769493103 0 0 0 0 12569971.146881368 8470484.4935654402 0 8470484.4935654402 3708861.7832778618 0 0 0 0 17305732.818206787 8350527.8265533447 0 8350527.8265533447 7443357.1692848206 0 0 0 0 11743661.271125793 11580224.145095825 0 11580224.145095825 1792811.9189910889 0 0 0 0 22300593.637261745 18756392.827883154 0 18756392.827883154 8229929.5281661227 0 0 0 0 7959634.7225608323 19106743.933003172 0 19106743.933003172 12397741.049773872 0 0 0 0 14599138.029064178 15812155.344177246 0 15812155.344177246 3094704.9246711731 0 0 0 0 14413308.480186462 18782759.566558838 0 18782759.566558838 70207.889976501465 0 0 0 0 26403681.673768044 26143541.287727356 0 26143541.287727356 6517659.9546127319 0 0 0 0 6190832.5088498723 19285863.575948104 0 19285863.575948104 1282034.5878493935 0 0 0 0 7841237.5032958984 29147353.728374481 0 29147353.728374481 4815130.630317688 0 0 0 0 17226904.722219467 17030442.605434418 0 17030442.605434418 5476460.4766516685 0 0 0 0 17188347.357871722 22588149.513189919 0 22588149.513189919 5660235.1876788661 0 0 0 0 -1818340.0045776367 20705609.151412964 0 20705609.151412964 17264692.892883301 0 0 0 0 6752408.7435753318 15927553.993137222 0 15927553.993137222 2646249.8843600675 0 0 0 0 30897883.62501812 22311432.35799408 0 22311432.35799408 -3570197.7215080261 0 0 0 0 28149837.487868071 35959553.136012554 0 35959553.136012554 19872861.138748169 0 0 0 0 18287064.728298187 20572144.991645813 0 20572144.991645813 1774903.1926269531 0 0 0 0 10971741.982391011 17419106.859549604 0 17419106.859549604 -2101104.948594179 0 0 0 0 35521461.281814575 23716304.428724289 0 23716304.428724289 -156945.67227935791 0 0 0 0 23326748.896558762 20922540.144678116 0 20922540.144678116 11881009.867866516 0 0 0 0 12996903.085590845 13681867.163881822 0 13681867.163881822 262685.7374856323 0 0 0 0 6604353.0617470555 11545415.961890783 0 11545415.961890783 -3705685.6905131936 0 0 0 0 33677250.003253937 31013348.728294373 0 31013348.728294373 9682877.1415224075 0 0 0 0 11158755.80049599 13424656.78542825 0 13424656.78542825 -4519470.5429339111 0 0 0 0 26427475.456767082 28378930.516117096 0 28378930.516117096 793165.83447265625 0 0 0 0 25829573.409689605 20185863.837368488 0 20185863.837368488 -3543837.1643676758 0 0 0 0 4821927.2317781877 10325794.941104267 0 10325794.941104267 -11150266.138130076 0 0 0 0 65529361.329891205 69327279.266746521 0 69327279.266746521 -3366451.7405319214 0 0 0 0 -611245.33162807347 2052188.3280795999 0 2052188.3280795999 -521398.42649000138 0 0 0 0 41002848.234252095 -48581915.803887367 0 -48581915.803887367 -135817863.15119934 0 0 0 0 -44960392.461324692 156054830.86621094 0 156054830.86621094 -17053451.668037415 0 0 0 0 30090535.188951492 26538697.250434875 0 26538697.250434875 5103981.2569885254 0 0 0 0 47805192.449249268 63333041.370891571 0 63333041.370891571 -16839768.668243408 0 0 0 0 22264714.404800415 31650843.511871338 0 31650843.511871338 -6350649.5852355957 0 0 0 0 45298321.415070534 39766767.941482544 0 39766767.941482544 9986565.2417516708 0 0 0 0 28428356.135271072 21956483.120773315 0 21956483.120773315 5889770.4141845703 0 0 0 0 47754161.578317642 13501583.592933655 0 13501583.592933655 9121264.5977401733 0 0 0 0 -89763247.643405437 134670559.87577057 0 134670559.87577057 78975860.203857422 0 0 0 0 -1065862.4992932216 717302.40444677323 0 717302.40444677323 685776.40525266528 0 0 0 0 -88312684.624551773 94700285.476257324 0 94700285.476257324 5911567.1688613892 0 0 0 0 -26077144.655133724 108101816.33671188 0 108101816.33671188 -35409934.121322632 0 0 0 0 -5324306.215051651 31311806.91394043 0 31311806.91394043 35709332.124053955 0 0 0 0 -514097810.30017853 170836839.81658936 0 170836839.81658936 -241683263.02339053 0 0 0 0 5919932.5277557373 118681800.94878387 0 118681800.94878387 215830318.61962891 0 0 0 0 1193138.2190651996 247305.25370767713 0 247305.25370767713 2921996.4001179859 0 0 0 0 -47507288.313101768 196529286.78125381 0 196529286.78125381 -132674830.84762573 0 0 0 0 197264433.88235474 -519216838.84864807 0 -519216838.84864807 -238479417.59585571 0 0 0 0 195961311.4992404 118934970.3631134 0 118934970.3631134 8700654.269317627 0 0 0 0 -69328715.760893822 63983740.651039124 0 63983740.651039124 159029981.62179565 0 0 0 0 137264048.87697721 -61534796.523426056 0 -61534796.523426056 -27833162.165588379 0 0 0 0 -53546839.773890495 -79978487.709709167 0 -79978487.709709167 14125942.796081543 0 0 0 0 5064163.9186162949 61176671.78188324 0 61176671.78188324 9488607.2475141287 0 0 0 0 -27393506.932971954 -21396677.928268433 0 -21396677.928268433 118251612.99669647 0 0 0 0 87408214.158734322 44882436.519729614 0 44882436.519729614 -99162462.713760376 0 0 0 0 38905629.686063766 33445291.131004333 0 33445291.131004333 5038938.1294170022 0 0 0 0 5106680.5791323408 12225194.841301683 0 12225194.841301683 -9451413.0230090395 0 0 0 0 -40805405.836437225 98747615.696739197 0 98747615.696739197 49294641.319465637 0 0 0 0 37627556.521040916 33503362.364955902 0 33503362.364955902 10600260.595657349 0 0 0 0 36284019.000672102 30348050.486334801 0 30348050.486334801 13496215.402038574 0 0 0 0 36475810.488399506 31679926.8123703 0 31679926.8123703 10449442.272652149 0 0 0 0 10082924.177182902 13917041.590037528 0 13917041.590037528 -1203450.6903013662 0 0 0 0 5958398.3249946311 19686130.676758252 0 19686130.676758252 -3299716.0403682292 0 0 0 0 24740335.989975214 32301405.392293453 0 32301405.392293453 478181.07805633545 0 0 0 0 22348155.208141327 17364018.874702454 0 17364018.874702454 -5843508.8039779663 0 0 0 0 20412086.554570645 17947868.60448847 0 17947868.60448847 -14251847.12243272 0 0 0 0 36568258.645893097 75782084.750062943 0 75782084.750062943 -51238664.506820679 0 0 0 0 25348675.635933392 15654379.166775102 0 15654379.166775102 -25904971.779895756 0 0 0 0 42373661.494894385 -72912767.273415685 0 -72912767.273415685 18921115.808963776 0 0 0 0 -4148673.2382240295 34449275.022630692 0 34449275.022630692 31736577.555805206 0 0 0 0 -3896970.881321907 36251110.119083405 0 36251110.119083405 7624794.9122238159 0 0 0 0 26603938.613521576 22850062.892274857 0 22850062.892274857 13175575.790336609 0 0 0 0 -35896655.038421631 47420018.505207062 0 47420018.505207062 16049231.012182236 0 0 0 0 21221414.311874758 22254289.188160732 0 22254289.188160732 -2977709.1897909474 0 0 0 0 6227193.8422145844 56111920.253196716 0 56111920.253196716 -27036999.80229187 0 0 0 0 41548514.218490601 56379902.758811951 0 56379902.758811951 4817130.0124282837 0 0 0 0 10692560.400799025 20573156.195182551 0 20573156.195182551 86526.383073337376 0 0 0 0 902920.90320396423 37169465.452503204 0 37169465.452503204 5799472.7934265137 0 0 0 0 1670587.2953582378 2997411.9508814104 0 2997411.9508814104 2177985.2286127582 0 0 0 0 50486269.140426636 36016566.488891602 0 36016566.488891602 26357076.111579895 0 0 0 0 80651795.223999023 91696261.608280182 0 91696261.608280182 -15596535.341188908 0 0 0 0 44658139.888949394 46185365.348275185 0 46185365.348275185 2816531.6247558594 0 0 0 0 1814656.8685836792 39769404.804080963 0 39769404.804080963 35528950.63684845 0 0 0 0 3074529.1458768845 33576848.111287117 0 33576848.111287117 35997683.303817749 0 0 0 0 3266754.7153701782 34207735.751457214 0 34207735.751457214 36538447.65687561 0 0 0 0 -10817156.36725235 50953654.202789307 0 50953654.202789307 16275373.60975647 0 0 0 0 10886441.341072001 17671050.458609458 0 17671050.458609458 -5340726.1950187273 0 0 0 0 17833612.600486755 25362303.156974792 0 25362303.156974792 41900156.62210083 0 0 0 0 14589075.99669075 13892236.294994354 0 13892236.294994354 46075702.252761841 0 0 0 0 12018290.082702637 34847918.804904938 0 34847918.804904938 37603670.269218445 0 0 0 0 -21054572.935440063 19371742.83754158 0 19371742.83754158 -19017549.060554504 0 0 0 0 -16462294.925681591 52534566.176285505 0 52534566.176285505 23994445.911094666 0 0 0 0 33471661.737621307 66208707.747900009 0 66208707.747900009 -31077425.232975006 0 0 0 0 25193408.728244781 22733351.823080063 0 22733351.823080063 -83096438.873588562 0 0 0 0 18406839.022583008 23675921.559396744 0 23675921.559396744 -19691765.417589188 0 0 0 0 72528700.423828125 47188339.295585632 0 47188339.295585632 4598986.6877288818 0 0 0 0 20164895.864859 13781917.143723354 0 13781917.143723354 -15450140.436184343 0 0 0 0 95090150.456604004 20819533.663906097 0 20819533.663906097 -22652189.342763901 0 0 0 0 1656260.8048422383 1376554.6195810381 0 1376554.6195810381 828792.98813290149 0 0 0 0 41829459.135551453 44819184.175840378 0 44819184.175840378 40655846.373249054 0 0 0 0 3953092.9701330401 -4356306.8964698669 0 -4356306.8964698669 -5750765.5543823689 0 0 0 0 -19985948.282836914 -13516976.403320312 0 -13516976.403320312 -25265491.168052673 0 0 0 0 22968304.780492578 9171815.2293904833 0 9171815.2293904833 -11378168.559935436 0 0 0 0 398398.26578712463 11743785.82719326 0 11743785.82719326 9815960.9553070068 0 0 0 0 18684399.967680931 30748212.016924381 0 30748212.016924381 185002.31649780273 0 0 0 0 184244207.77266407 -28263835.585026741 0 -28263835.585026741 -25839263.125793457 0 0 0 0 -18603990.772644043 22315825.484033585 0 22315825.484033585 26625880.655742645 0 0 0 0 1420439.8212329876 1540142.344654008 0 1540142.344654008 -1247265.7823411897 0 0 0 0 15134096.369304657 -9141140.7799873352 0 -9141140.7799873352 13549006.410161972 0 0 0 0 79024053.509520531 -3852205.9156312943 0 -3852205.9156312943 -32807861.34059906 0 0 0 0 61180842.457893372 35659446.9945755 0 35659446.9945755 -77710691.219772339 0 0 0 0 -25622172.192689896 40727689.160392761 0 40727689.160392761 -6510003.9814147949 0 0 0 0 171450979.54259872 258669540.42812109 0 258669540.42812109 -82334902.644864559 0 0 0 0 6379042.2903441098 6810160.6537980046 0 6810160.6537980046 -5865950.8600716144 0 0 0 0 14490577.397643659 10166866.229167715 0 10166866.229167715 -16338929.495111182 0 0 0 0 268625797.43053436 -32606446.650924206 0 -32606446.650924206 114433283.89232254 0 0 0 0 155087982.08601379 326362146.65706062 0 326362146.65706062 -206650168.91294003 0 0 0 0 257055073.71196222 82190049.17230314 0 82190049.17230314 -437184094.83969021 0 0 0 0 -109159416.19112015 -25189470.348142624 0 -25189470.348142624 70212604.027032852 0 0 0 0 100754251.23072433 96002037.968360901 0 96002037.968360901 -166021501.53361559 0 0 0 0 58957361.557866096 5518476.5629127026 0 5518476.5629127026 23320515.943214417 0 0 0 0 4752038.1799820447 2977170.3854596829 0 2977170.3854596829 284490.66699506622 0 0 0 0 71477343.572639465 11825616.487592936 0 11825616.487592936 -86748291.3667593 0 0 0 0 5150185.3843202591 65665275.695995331 0 65665275.695995331 543334796.4186691 0 0 0 0 85470556.712675095 96835564.391314983 0 96835564.391314983 -50151180.982996941 0 0 0 0 85124207.544583201 -183378443.07554722 0 -183378443.07554722 -141713151.02040577 0 0 0 0 -85213651.934892863 153090363.71327877 0 153090363.71327877 -40864696.830562592 0 0 0 0 15973454.931445803 18501530.085973676 0 18501530.085973676 11648697.946031345 0 0 0 0 39644439.210123062 143723310.05233574 0 143723310.05233574 -167485311.23258185 0 0 0 0 112688414.16451836 3504014.3563146591 0 3504014.3563146591 3367400.162902832 0 0 0 0 133799707.77541256 55427217.246556282 0 55427217.246556282 -96574886.926898956 0 0 0 0 43471519.893140338 56005071.171997547 0 56005071.171997547 12215459.334552765 0 0 0 0 14377273.515617503 29612794.353726856 0 29612794.353726856 17569097.095005304 0 0 0 0 52202216.457942963 61895929.539577484 0 61895929.539577484 -34661892.191022873 0 0 0 0 -38671542.149691895 104126114.47038555 0 104126114.47038555 -15780679.221473694 0 0 0 0 6478179.4156493396 13457927.894656919 0 13457927.894656919 45081.035342916846 0 0 0 0 -1864419.6452941895 18510958.808135986 0 18510958.808135986 8186293.8223667145 0 0 0 0 20180283.456250258 30181500.221277196 0 30181500.221277196 16158151.697468266 0 0 0 0 7818816.6054153442 17712398.512942314 0 17712398.512942314 -8015503.1031494141 0 0 0 0 16586116.643844604 17905210.268863678 0 17905210.268863678 1493371.8862228394 0 0 0 0 17303948.11532402 23024359.399143219 0 23024359.399143219 3232788.0586242676 0 0 0 0 16948240.425340824 22827874.698497396 0 22827874.698497396 7335168.7166980878 0 0 0 0 34415972.586750507 32672799.911160469 0 32672799.911160469 1721493.4827728271 0 0 0 0 19714600.090790842 30617161.148189314 0 30617161.148189314 -7845714.3116128258 0 0 0 0 16093225.435661316 24042977.160842896 0 24042977.160842896 5590198.6541442871 0 0 0 0 32257326.682136536 15193695.111068726 0 15193695.111068726 19116562.886077881 0 0 0 0 26562745.087645367 6417882.6019188557 0 6417882.6019188557 -33770064.521220863 0 0 0 0 1178797.9286480257 891934.76398184104 0 891934.76398184104 655010.25576303154 0 0 0 0 18993742.064923536 19054923.345442876 0 19054923.345442876 -12011811.096697684 0 0 0 0 24833149.54961586 23349322.457328796 0 23349322.457328796 -21913157.051025391 0 0 0 0 16976206.117950439 41752960.017795563 0 41752960.017795563 -17392550.536018372 0 0 0 0 47646887.899810791 26192639.884578705 0 26192639.884578705 24634866.147666931 0 0 0 0 31586365.811098099 46703494.717853546 0 46703494.717853546 397766.01483154297 0 0 0 0 4094122.3618183136 28779393.832452774 0 28779393.832452774 10694038.029602051 0 0 0 0 33032317.079612732 43301297.622383118 0 43301297.622383118 8283436.6002044678 0 0 0 0 1443668.8688371815 1241170.0235347524 0 1241170.0235347524 763019.4174759686 0 0 0 0 14421586.55958325 19079146.600298721 0 19079146.600298721 -12096577.004209021 0 0 0 0 8062757.6686080378 17838355.022265267 0 17838355.022265267 10306218.361651391 0 0 0 0 19210040.989608765 34784196.271428585 0 34784196.271428585 57236473.099250793 0 0 0 0 43850850.06974411 137818976.98182392 0 137818976.98182392 90556974.263435841 0 0 0 0 41354059.802947998 171889044.01352978 0 171889044.01352978 341164223.47079659 0 0 0 0 106695.59700775146 132504706.43450165 0 132504706.43450165 303836147.10452652 0 0 0 0 -4535582.6631126404 1325000.0072598476 0 1325000.0072598476 8162340.1198853459 0 0 0 0 52979512.372612 110581329.02504337 0 110581329.02504337 169663206.3064537 0 0 0 0 5159032.3647086918 2391864.9341096338 0 2391864.9341096338 -4752509.6803334802 0 0 0 0 524982.64358520508 13704989.676677704 0 13704989.676677704 28557576.917770386 0 0 0 0 -8647072.7923144698 5521221.8806671109 0 5521221.8806671109 7564868.2245299481 0 0 0 0 4278876.0837860107 17744952.702617645 0 17744952.702617645 32565089.478328705 0 0 0 0 85146690.651145935 33737621.793147087 0 33737621.793147087 83738224.088943481 0 0 0 0 31255380.363525391 125952250.63431263 0 125952250.63431263 229262628.76568222 0 0 0 0 -8536268.9487762451 190724289.53899479 0 190724289.53899479 631175697.84463882 0 0 0 0 216344395.00860596 336786397.84260273 0 336786397.84260273 262655824.3891778 0 0 0 0 185939792.77999306 124612676.85561621 0 124612676.85561621 -80426597.633466721 0 0 0 0 458526.98727814853 561158.40257354453 0 561158.40257354453 2492742.8046478638 0 0 0 0 74411394.929466248 433059806.36374664 0 433059806.36374664 538945654.9249897 0 0 0 0 131348560.97581482 46433367.298326492 0 46433367.298326492 447831743.9556942 0 0 0 0 -6350655.1449565887 183226858.21670574 0 183226858.21670574 401271781.16734505 0 0 0 0 -55082.000701904297 156903952.23245621 0 156903952.23245621 346205587.65483093 0 0 0 0 -90988.69743347168 137874779.12380362 0 137874779.12380362 223168857.03758526 0 0 0 0 -33118386.255569458 59513761.202335835 0 59513761.202335835 413549555.66919285 0 0 0 0 74929.968872070312 105942040.23082185 0 105942040.23082185 -118505123.69281435 0 0 0 0 -41401690.027374268 22365942.608422041 0 22365942.608422041 176709997.71132186 0 0 0 0 -25061280.90555954 115603475.36393422 0 115603475.36393422 88239248.153670311 0 0 0 0 -829948937.54450989 -277674652.84315634 0 -277674652.84315634 -123359330.5271287 0 0 0 0 -240994562.79470825 72266367.949185014 0 72266367.949185014 10038674.865114212 0 0 0 0 -15212740.063980103 135748814.43527377 0 135748814.43527377 -217959517.01075387 0 0 0 0 -127354429.67262268 -74888507.756271839 0 -74888507.756271839 -167026812.1185571 0 0 0 0 -172849712.51803589 116985536.44815159 0 116985536.44815159 178652795.83771706 0 0 0 0 -218219369.69285202 141383973.04524791 0 141383973.04524791 168172139.28699398 0 0 0 0 -67218612.348983765 241328549.93802452 0 241328549.93802452 296531288.15493774 0 0 0 0 -72770433.641708374 28153721.691931725 0 28153721.691931725 241968650.41201496 0 0 0 0 13590485.678356171 161941734.43212843 0 161941734.43212843 334732826.55799103 0 0 0 0 -34807574.796127319 202614395.75756454 0 202614395.75756454 338253900.06233406 0 0 0 0 239868784.42183685 316404491.3590796 0 316404491.3590796 377948219.28017426 0 0 0 0 45326037.151123047 339442984.44608784 0 339442984.44608784 427816930.10844421 0 0 0 0 93682758.702819824 318664094.54947853 0 318664094.54947853 307483717.8016777 0 0 0 0 145638511.42749023 418069892.17572403 0 418069892.17572403 255086818.15964317 0 0 0 0 46182572.600784302 372464019.00929642 0 372464019.00929642 247583421.89048004 0 0 0 0 77905427.309265137 265418178.32650375 0 265418178.32650375 169336683.70128775 0 0 0 0 249966631.67422485 360414548.76157856 0 360414548.76157856 135671920.86792374 0 0 0 0 256497578.80821228 522529258.79253721 0 522529258.79253721 233729062.21261978 0 0 0 0 -43363841.335037231 591698237.85651493 0 591698237.85651493 425282262.37788677 0 0 0 0 -3352117.6379566193 405744729.35955739 0 405744729.35955739 353405837.57563019 0 0 0 0 -107982704.94845581 359069345.03618813 0 359069345.03618813 334502434.85916662 0 0 0 0 -198543803.73418617 352412165.17394638 0 352412165.17394638 393692719.07460403 0 0 0 0 -498811387.05267334 172753380.63276553 0 172753380.63276553 301862469.32487297 0 0 0 0 -346141814.81329346 516095308.89680505 0 516095308.89680505 412216679.12598896 0 0 0 0 -167028245.15606689 439621574.97833872 0 439621574.97833872 379667905.36949658 0 0 0 0 71891407.26008606 823363151.72939587 0 823363151.72939587 727303514.20519924 0 0 0 0 -227640737.00900269 332457246.6282326 0 332457246.6282326 552852865.32301807 0 0 0 0 -136171261.25667572 280172332.25601411 0 280172332.25601411 57875151.545007229 0 0 0 0 -598218890.8722229 471548387.92669296 0 471548387.92669296 -19682138.511629343 0 0 0 0 1161054728.0800171 1895176054.6560287 0 1895176054.6560287 1078914663.357846 0 0 0 0 -421981898.44934082 -93593515.938746929 0 -93593515.938746929 1735974748.6088138 0 0 0 0 -655465683.14574432 893953701.14215529 0 893953701.14215529 753292025.03049469 0 0 0 0 1220136541.8575745 -1277960055.2568278 0 -1277960055.2568278 632364623.5537107 0 0 0 0 487821495.09921265 1295726635.0140576 0 1295726635.0140576 1593590209.2625403 0 0 0 0 1744529943.5491486 784361294.7486403 0 784361294.7486403 116781777.30077267 0 0 0 0 843318004.70582581 699109327.0306859 0 699109327.0306859 186337671.22033024 0 0 0 0 671109946.72045898 486959607.23924351 0 486959607.23924351 83976724.98794651 0 0 0 0 1606289318.7578583 -39476630.156055927 0 -39476630.156055927 -19466470.247360229 0 0 0 0 669939398.08448792 530968537.82146072 0 530968537.82146072 4638035.8127918243 0 0 0 0 1253415120.5081177 -579640109.73995399 0 -579640109.73995399 600176944.05613518 0 0 0 0 -4383325.1375113875 2446601.4119598195 0 2446601.4119598195 6956151.5773687232 0 0 0 0 -25770983.958496094 -234705460.04190063 0 -234705460.04190063 421273157.92581177 0 0 0 0 940139695.90917969 -124432868.26490784 0 -124432868.26490784 -47297247.404006958 0 0 0 0 -79565050.085769653 62307008.3861022 0 62307008.3861022 95245921.698872566 0 0 0 0 1361945.9993071109 12543667.608484343 0 12543667.608484343 11341310.914900824 0 0 0 0 -661718.77354621887 1280385.8075615168 0 1280385.8075615168 685588.70831737109 0 0 0 0 255784341.17880249 -268561196.58829594 0 -268561196.58829594 -48077149.845272064 0 0 0 0 23328040.373413086 101161704.28256702 0 101161704.28256702 -205698285.72617149 0 0 0 0 274504784.65298462 506455228.83504581 0 506455228.83504581 129455924.54040623 0 0 0 0 604577472.46813965 180874066.73121452 0 180874066.73121452 -43391633.56722641 0 0 0 0 1088883171.8077393 229279666.39067745 0 229279666.39067745 -136564204.51962662 0 0 0 0 496324578.25582886 130139560.09302139 0 130139560.09302139 -64445380.420158386 0 0 0 0 119035109.25326538 109266942.28882408 0 109266942.28882408 34603754.526407242 0 0 0 0 220029272.48132324 301335889.80051613 0 301335889.80051613 35991396.324836731 0 0 0 0 527712423.89456177 426921709.68028128 0 426921709.68028128 74159874.629379272 0 0 0 0 132619693.63934326 175925439.6053524 0 175925439.6053524 107884036.25555038 0 0 0 0 317721896.73913574 222396356.18872166 0 222396356.18872166 55702164.777996063 0 0 0 0 95073504.27444458 139541361.55041218 0 139541361.55041218 72626301.379395485 0 0 0 0 74029953.223300934 27566042.015645981 0 27566042.015645981 -23752192.464853287 0 0 0 0 115896359.00997162 121174513.27867794 0 121174513.27867794 16212812.526439667 0 0 0 0 -73471770.139404297 13360237.210752487 0 13360237.210752487 77785928.903601646 0 0 0 0 -29333470.202758789 -5832806.6950454712 0 -5832806.6950454712 53148273.019146919 0 0 0 0 2108021.4580230713 55347678.701817036 0 55347678.701817036 90458075.493782043 0 0 0 0 -16602306.117614746 53184793.674472809 0 53184793.674472809 77198580.129034042 0 0 0 0 31368193.149597168 130572892.82346725 0 130572892.82346725 195599538.57176208 0 0 0 0 -25056301.973070964 -6802066.2657471746 0 -6802066.2657471746 29325835.663880035 0 0 0 0 -8454216.8591003418 -18766727.3595047 0 -18766727.3595047 23030432.962121964 0 0 0 0 -39970791.88608551 15847501.00432539 0 15847501.00432539 143039484.09235001 0 0 0 0 -5082934.1377105713 54755924.348575592 0 54755924.348575592 105742916.49913216 0 0 0 0 58360991.69354248 115069922.08205318 0 115069922.08205318 146978144.04627609 0 0 0 0 4376727.5148696899 148803593.43248367 0 148803593.43248367 304978778.78351974 0 0 0 0 -35291375.802276611 83089882.582732201 0 83089882.582732201 217440023.85957909 0 0 0 0 -43726402.429046631 96360687.427107811 0 96360687.427107811 868312414.13425922 0 0 0 0 -4687155.6640160531 9439448.7301313803 0 9439448.7301313803 14123008.759239241 0 0 0 0 6344071.8337249756 75941997.44582653 0 75941997.44582653 214631466.99222946 0 0 0 0 24196272.348510742 50926891.983375549 0 50926891.983375549 10325074.104202271 0 0 0 0 -11175724.866843 12148600.813871877 0 12148600.813871877 9524739.5268537253 0 0 0 0 -8755640.993560791 25225243.074714661 0 25225243.074714661 15541206.801891327 0 0 0 0 -1962137.20362854 29884081.37502861 0 29884081.37502861 34057771.430873871 0 0 0 0 -4266751.6945221871 22246613.410560358 0 22246613.410560358 15875499.317234237 0 0 0 0 -57939009.695571899 76079660.553840637 0 76079660.553840637 91176968.217720032 0 0 0 0 -20244640.918807983 9096192.5759754181 0 9096192.5759754181 88972973.872983932 0 0 0 0 13435602.417255804 7598139.8313044608 0 7598139.8313044608 -10446863.685889192 0 0 0 0 8643778.2584075928 23378439.539606094 0 23378439.539606094 17600564.501075745 0 0 0 0 1358828.9859695435 31548775.212395683 0 31548775.212395683 -17689224.782036293 0 0 0 0 7180871.9806976318 112955119.88446808 0 112955119.88446808 546689698.78909302 0 0 0 0 70291832.939697266 366748444.19605255 0 366748444.19605255 423183442.67478561 0 0 0 0 797900.09274481237 32889427.042412344 0 32889427.042412344 -4856029.7959835874 0 0 0 0 -112242631.13581848 368433600.929245 0 368433600.929245 890963397.30238342 0 0 0 0 -190334206.36834717 -180205429.97276306 0 -180205429.97276306 170449435.01495361 0 0 0 0 -6585453.5039367676 20373327.720500946 0 20373327.720500946 9332739.3013858795 0 0 0 0 -7118532.7246972322 8438898.8998224922 0 8438898.8998224922 18258077.328387525 0 0 0 0 32338652.940124512 -25527676.749305725 0 -25527676.749305725 265258730.09406281 0 0 0 0 -200178.64846727252 37673105.024645999 0 37673105.024645999 4326725.6229556426 0 0 0 0 3252157.6265487671 25350239.267194748 0 25350239.267194748 -4170269.8806762695 0 0 0 0 -28341972.907959908 -12447936.291274667 0 -12447936.291274667 51458956.175877973 0 0 0 0 2950542.1388219595 29594812.290557552 0 29594812.290557552 -2764063.8513730434 0 0 0 0 -22376454.551651001 -137767792.98789215 0 -137767792.98789215 186807326.03662872 0 0 0 0 -1706271.657623291 7063284.1474533081 0 7063284.1474533081 24438183.651531219 0 0 0 0 81388874.993263245 -92029821.638923645 0 -92029821.638923645 -195103301.72554779 0 0 0 0 -2105977.0466774032 34564809.695674166 0 34564809.695674166 -9618136.4651482422 0 0 0 0 -2336186.4639722854 -587998.15938291699 0 -587998.15938291699 6666727.9311370924 0 0 0 0 192595923.60876465 -194883844.65863037 0 -194883844.65863037 389343525.56996155 0 0 0 0 135610695.17884827 308164438.28988266 0 308164438.28988266 235560916.74241638 0 0 0 0 488148.94999036193 32937277.259844173 0 32937277.259844173 10030942.955301644 0 0 0 0 1915773.2901000977 18088994.888917923 0 18088994.888917923 -11273226.353363037 0 0 0 0 125992014.53768921 264550606.32806778 0 264550606.32806778 156041313.07117462 0 0 0 0 1527792.2767222226 34689594.00774958 0 34689594.00774958 -13837964.927848302 0 0 0 0 278565569.52661133 342621459.59884644 0 342621459.59884644 185882995.41862488 0 0 0 0 -13533763.958892822 178291119.36257935 0 178291119.36257935 264506688.22581482 0 0 0 0 -208468729.9291687 381020185.5701828 0 381020185.5701828 577216553.63186646 0 0 0 0 -183785266.79721069 187187468.37069702 0 187187468.37069702 1008761596.4436684 0 0 0 0 92997775.838619232 44126622.681541443 0 44126622.681541443 755702010.80761719 0 0 0 0 -117239759.93055725 84641763.9920578 0 84641763.9920578 728051691.01773834 0 0 0 0 -8260434.6329345703 37323206.943634033 0 37323206.943634033 1055325335.3031616 0 0 0 0 -16122523.971176147 213370841.42293549 0 213370841.42293549 836349464.48735046 0 0 0 0 45810653.293548584 92230883.901260376 0 92230883.901260376 1329982644.3044434 0 0 0 0 19100138.074483871 -69921279.056895256 0 -69921279.056895256 1033533039.4877319 0 0 0 0 29652265.43901062 76939123.462913513 0 76939123.462913513 759942899.90426636 0 0 0 0 -98804386.402709961 -61305195.54649353 0 -61305195.54649353 1239569578.5097046 0 0 0 0 912110.205051817 28495144.678342436 0 28495144.678342436 -13954067.954536427 0 0 0 0 -142118662.15429688 36344684.644821167 0 36344684.644821167 1125522836.3496056 0 0 0 0 -77589663.68850708 -64663325.591918945 0 -64663325.591918945 1080463179.298111 0 0 0 0 34658891.909866333 5312034.3179473877 0 5312034.3179473877 1124083472.1872253 0 0 0 0 -16329772.545795441 -90512278.72870636 0 -90512278.72870636 1110384014.2191162 0 0 0 0 -788296.50287563354 26393091.500130314 0 26393091.500130314 -5025360.5653831102 0 0 0 0 -206586824.17324829 7625645.8034820557 0 7625645.8034820557 17737804.360300064 0 0 0 0 56348604.689437866 -16954331.928237915 0 -16954331.928237915 1753291407.5432281 0 0 0 0 196058270.24960327 363247402.05184937 0 363247402.05184937 1335094208.7883377 0 0 0 0 27620278.813919067 -170295142.62062073 0 -170295142.62062073 1538101751.8372498 0 0 0 0 4957331.5644824356 30795376.065410845 0 30795376.065410845 -10117437.847125165 0 0 0 0 28816341.677139282 68322567.905887604 0 68322567.905887604 68087472.960391998 0 0 0 0 -42282977.907577515 119313768.66546249 0 119313768.66546249 31644970.614841223 0 0 0 0 -132959289.83538818 63153397.246194839 0 63153397.246194839 54431273.004669189 0 0 0 0 -53301201.936424255 -23154799.729751587 0 -23154799.729751587 1561763.6290435791 0 0 0 0 -63149446.681060791 163644857.91902161 0 163644857.91902161 -68201252.553287506 0 0 0 0 81709589.32913208 30735269.213180542 0 30735269.213180542 27285124.186660767 0 0 0 0 26298425.428726196 66736907.417854309 0 66736907.417854309 14866035.875675201 0 0 0 0 -26926275.543731689 94353429.411575317 0 94353429.411575317 185289907.3736496 0 0 0 0 11463359.501373291 7202897.9546127319 0 7202897.9546127319 17744735.606521606 0 0 0 0 -4481687.9366179705 6608997.187484974 0 6608997.187484974 25087863.763403177 0 0 0 0 80723310.760223389 27274732.56022644 0 27274732.56022644 15517435.754455566 0 0 0 0 572592.91636504978 1748385.2139748577 0 1748385.2139748577 -917006.69342058338 0 0 0 0 -32479148.448530674 59375051.641563177 0 59375051.641563177 169841117.0153389 0 0 0 0 -6303487.9213104248 138189708.4475441 0 138189708.4475441 193128505.73500633 0 0 0 0 -83932422.230976105 122176973.88979101 0 122176973.88979101 372476321.25700378 0 0 0 0 47588575.075042725 204553767.94633865 0 204553767.94633865 274829985.48671722 0 0 0 0 -7408212.5668055713 3330911.6192792282 0 3330911.6192792282 4559834.27767298 0 0 0 0 -32283207.347991943 109742853.43083572 0 109742853.43083572 258088287.77967834 0 0 0 0 -68309570.28527832 74681486.377340317 0 74681486.377340317 238865650.89290047 0 0 0 0 117850565.29990387 94932996.843566895 0 94932996.843566895 93783354.668655396 0 0 0 0 -6238238.81095054 5962497.4389755651 0 5962497.4389755651 8075000.6248338893 0 0 0 0 -12516361.12059021 7676511.9287948608 0 7676511.9287948608 15747431.550672531 0 0 0 0 -13162966.942626953 162375501.6978178 0 162375501.6978178 305812363.09327698 0 0 0 0 278081780.53701782 208236413.49737358 0 208236413.49737358 157769177.31145477 0 0 0 0 -13076634.581478119 229360079.65867901 0 229360079.65867901 611998660.53407288 0 0 0 0 -55022029.665466309 86256918.597160339 0 86256918.597160339 253242586.64337921 0 0 0 0 20251599.509292603 -51874466.314739227 0 -51874466.314739227 55547458.44395256 0 0 0 0 -26882945.677753955 1063337.4618041962 0 1063337.4618041962 23351207.499460682 0 0 0 0 29271919.830596924 269775549.46264648 0 269775549.46264648 432777192.62692261 0 0 0 0 -56874233.625061035 -36825354.299526215 0 -36825354.299526215 392351560.18589878 0 0 0 0 -8215733.0500639193 -5862315.2559680082 0 -5862315.2559680082 7264963.6252894029 0 0 0 0 -15922038.788917542 12573870.027169704 0 12573870.027169704 13197364.612443924 0 0 0 0 -44595980.401924133 16793581.799225807 0 16793581.799225807 35598869.1900177 0 0 0 0 -82779596.967803955 35009064.002054214 0 35009064.002054214 61030743.758220673 0 0 0 0 -9192004.6662503257 10885249.432914577 0 10885249.432914577 25447232.07836251 0 0 0 0 -11254843.153442383 6366282.4079957008 0 6366282.4079957008 10026918.587056637 0 0 0 0 -2359605.7745513916 8010848.3010969162 0 8010848.3010969162 11301892.293092728 0 0 0 0 -11357256.775039673 7678856.3823666573 0 7678856.3823666573 15277267.718299389 0 0 0 0 1681879763.8890152 469363099.03015447 0 469363099.03015447 -712428716.68367052 0 0 0 0 -4116032.6369094849 10820328.130548477 0 10820328.130548477 13239443.010434151 0 0 0 0 -2665289990.5374146 -1281686005.1941681 0 -1281686005.1941681 433342711.20619678 0 0 0 0 -20563826.906784058 9456076.2489800453 0 9456076.2489800453 12473899.129301071 0 0 0 0 -15973031.513298079 9833521.6590391733 0 9833521.6590391733 10678679.626191944 0 0 0 0 -241833504.87411499 911883326.38205528 0 911883326.38205528 -21312844.689886808 0 0 0 0 -632110289.80300903 471363912.12901354 0 471363912.12901354 971744837.08028793 0 0 0 0 -634253231.00076294 509319805.67242289 0 509319805.67242289 415969732.16396809 0 0 0 0 -1351619360.2493343 -578950770.10956359 0 -578950770.10956359 51751576.91069603 0 0 0 0 -1500172426.7348633 526376226.18511438 0 526376226.18511438 676152269.66448116 0 0 0 0 -3331054.8312456459 6658628.0570831951 0 6658628.0570831951 -1650427.6780508121 0 0 0 0 -113180888.28865051 -720185489.00131273 0 -720185489.00131273 -843712610.07765579 0 0 0 0 126955619.36123657 40222420.033759117 0 40222420.033759117 87422084.884534061 0 0 0 0 507459176.99176407 787116034.52297699 0 787116034.52297699 996667836.666152 0 0 0 0 458050373.87149048 650577284.01221871 0 650577284.01221871 1135649784.1293437 0 0 0 0 391235354.6607666 -350642553.02500296 0 -350642553.02500296 422285708.1375196 0 0 0 0 -302126462.23178101 -297198837.33352292 0 -297198837.33352292 457061468.88447094 0 0 0 0 667476384.26342773 908368329.79151762 0 908368329.79151762 811647654.45805287 0 0 0 0 -845815873.37886095 1838314081.6142809 0 1838314081.6142809 745903045.16246867 0 0 0 0 -546956303.5954895 842876196.52368736 0 842876196.52368736 391595348.66362524 0 0 0 0 -497857306.81270647 708304844.55302441 0 708304844.55302441 614946944.10925102 0 0 0 0 -486046840.70046997 106886744.5699302 0 106886744.5699302 543333857.5204134 0 0 0 0 38055340.397567749 16466061.300167084 0 16466061.300167084 -18530257.195030212 0 0 0 0 -557609742.08328247 83558765.560360432 0 83558765.560360432 293885837.93154836 0 0 0 0 -227401153.48654175 -170170642.45036173 0 -170170642.45036173 262632357.43705893 0 0 0 0 -46701349.507980347 -162489583.1289258 0 -162489583.1289258 -446931322.57454205 0 0 0 0 -12437061.151544169 16018586.022712998 0 16018586.022712998 -2001915.7806835098 0 0 0 0 -152391301.45821381 310608595.32857406 0 310608595.32857406 398755692.74671423 0 0 0 0 -237043734.69049072 -65658238.392583847 0 -65658238.392583847 -17909774.472579956 0 0 0 0 162982444.00800323 536820456.47864532 0 536820456.47864532 -493991944.54208183 0 0 0 0 -231820826.82104492 124002875.81825447 0 124002875.81825447 239748432.00917053 0 0 0 0 -227281375.11906433 152988554.42628288 0 152988554.42628288 403371747.97140121 0 0 0 0 -8995592.6835617572 12977507.176836237 0 12977507.176836237 8301489.4385751421 0 0 0 0 -1123207.3505001068 15944928.975287318 0 15944928.975287318 21345548.786973953 0 0 0 0 -4354172.2049407959 7856373.3268852234 0 7856373.3268852234 15883424.002851486 0 0 0 0 873564.04234161228 15238844.015378091 0 15238844.015378091 6664190.3946809741 0 0 0 0 1714210.6081542969 15433661.643355846 0 15433661.643355846 18267122.426163673 0 0 0 0 -8414033.2754747495 1360927.3416605517 0 1360927.3416605517 2812066.5569411935 0 0 0 0 -216591433.41906738 -235188234.16542053 0 -235188234.16542053 61545467.605983734 0 0 0 0 -191654535.92076111 -332849046.17542267 0 -332849046.17542267 431220725.24446869 0 0 0 0 -966906061.88082886 579956758.58705902 0 579956758.58705902 -290800016.84076691 0 0 0 0 -150075578.88870239 -687403982.44235229 0 -687403982.44235229 -1976606632.4472809 0 0 0 0 -2764681.0776479095 3163141.8159667868 0 3163141.8159667868 2475400.7689752867 0 0 0 0 802249.07159928232 1712196.0236159973 0 1712196.0236159973 -151603.84812655207 0 0 0 0 -149351258.09619141 217323633.11435699 0 217323633.11435699 -1805151448.4018784 0 0 0 0 2078907566.4510994 1212523549.3555489 0 1212523549.3555489 -558811411.29814911 0 0 0 0 1786776.7472810429 -3379267.6911820099 0 -3379267.6911820099 3918384.0471338555 0 0 0 0 1359343707.8876534 1555503616.5214691 0 1555503616.5214691 -418486664.70438385 0 0 0 0 -931960971.11013794 -1546716226.8209 0 -1546716226.8209 694774902.34199524 0 0 0 0 -865487953.23974419 -438499229.94440079 0 -438499229.94440079 301149810.27600479 0 0 0 0 -986588823.97730255 404013891.01453495 0 404013891.01453495 -864155823.22854424 0 0 0 0 -494535384.79154968 -364077265.98274994 0 -364077265.98274994 308875319.75283813 0 0 0 0 -61279311.063095093 450034784.72511482 0 450034784.72511482 -312783055.64076996 0 0 0 0 -59120625.405502319 264966495.51002121 0 264966495.51002121 -2238354405.7113342 0 0 0 0 -1145445807.5463142 519557923.96197557 0 519557923.96197557 -36834875.958557129 0 0 0 0 92789572.768508911 -269631179.93042564 0 -269631179.93042564 413935254.86948013 0 0 0 0 394269508.95849609 914909726.56337166 0 914909726.56337166 -1618635.1096134186 0 0 0 0 -63034684.784622192 -66637849.849232912 0 -66637849.849232912 1358986440.519105 0 0 0 0 -1161799.4259172771 300100.22629088908 0 300100.22629088908 833705.23912116047 0 0 0 0 -210595178.41065216 175522648.94403541 0 175522648.94403541 603069239.27933288 0 0 0 0 7922927.7535964549 12836929.251354471 0 12836929.251354471 -6507607.3317349143 0 0 0 0 -451310506.15066528 104082534.86283302 0 104082534.86283302 1316669935.0410748 0 0 0 0 384779337.98702145 766025240.61277533 0 766025240.61277533 1166065064.3610725 0 0 0 0 -344520089.16290283 -180638604.52436918 0 -180638604.52436918 564256967.1899004 0 0 0 0 -164167006.87290955 86258231.396780252 0 86258231.396780252 773939271.57971621 0 0 0 0 115674116.4803009 -225171488.47745621 0 -225171488.47745621 217461548.63731876 0 0 0 0 2774740.0347672552 4736444.8286562869 0 4736444.8286562869 -2311895.0039128424 0 0 0 0 61237083.204116821 18430782.572567225 0 18430782.572567225 -146384731.91842747 0 0 0 0 60089334.028251648 5656446.5636794567 0 5656446.5636794567 -65426257.545368195 0 0 0 0 39978875.544387817 -4689054.5880975723 0 -4689054.5880975723 -7120074.2290091515 0 0 0 0 184460.52242413815 15510991.0364029 0 15510991.0364029 -4428388.508209859 0 0 0 0 13827732.215425491 25939188.819647491 0 25939188.819647491 -34904695.988534927 0 0 0 0 -28926132.633963585 102857815.55406928 0 102857815.55406928 -128969854.5423584 0 0 0 0 489910482.62552643 183586406.46237564 0 183586406.46237564 -199429387.6140976 0 0 0 0 -516374.50411511958 2151153.4619888216 0 2151153.4619888216 1987072.113307368 0 0 0 0 768022664.08015442 555269793.08150482 0 555269793.08150482 -113193260.63285828 0 0 0 0 967623563.00648499 519501529.16482544 0 519501529.16482544 -955251823.49191284 0 0 0 0 747847224.25808716 623934219.91826248 0 623934219.91826248 279939476.82089233 0 0 0 0 590980891.17111206 332725735.51210785 0 332725735.51210785 727027599.03511047 0 0 0 0 627548611.37646103 343723201.33009529 0 343723201.33009529 193856579.57112122 0 0 0 0 -68248470.402999878 380559867.03898633 0 380559867.03898633 -453546133.12148666 0 0 0 0 66345498.794219971 56770725.284302235 0 56770725.284302235 -87204379.726118565 0 0 0 0 689077984.49481201 -121915476.31157088 0 -121915476.31157088 -1204594056.3524599 0 0 0 0 973422588.47363281 322481579.38253021 0 322481579.38253021 -36557802.244159698 0 0 0 0 853557088.85974121 423098581.84121704 0 423098581.84121704 65277224.32624054 0 0 0 0 1217912649.5678482 725861701.31583214 0 725861701.31583214 58513272.540481567 0 0 0 0 949284481.67941284 375119589.27248383 0 375119589.27248383 -58143830.615196228 0 0 0 0 -112193013.74719238 -556497751.80870867 0 -556497751.80870867 530562178.31564713 0 0 0 0 1661453.5316812992 -7810881.624490872 0 -7810881.624490872 16599700.181354843 0 0 0 0 854721489.84370422 620673129.22599792 0 620673129.22599792 707497308.82557678 0 0 0 0 933826948.39825439 573222351.94632339 0 573222351.94632339 -126694359.92853165 0 0 0 0 -69436499.799915314 41462789.437866211 0 41462789.437866211 32665397.755992889 0 0 0 0 48111854.664672852 465242.46839141846 0 465242.46839141846 43336706.30770874 0 0 0 0 527558291.31761169 602111563.51564407 0 602111563.51564407 36543257.602020264 0 0 0 0 13194375.431213379 -2812624.177822113 0 -2812624.177822113 43695208.235619068 0 0 0 0 25083325.669670105 5906442.6511955261 0 5906442.6511955261 49244480.130340576 0 0 0 0 -3551426.0052323826 7498035.6271397788 0 7498035.6271397788 3210624.9471667223 0 0 0 0 417525661.67164612 39062577.906814575 0 39062577.906814575 728618399.36093903 0 0 0 0 -1062998.9139026329 7324944.3127308004 0 7324944.3127308004 5907780.6546980292 0 0 0 0 611793234.84100342 178714940.09925079 0 178714940.09925079 1119831789.2053452 0 0 0 0 693069623.62976074 135845345.42481995 0 135845345.42481995 313915512.91251373 0 0 0 0 383810156.69520569 749449873.05606842 0 749449873.05606842 171705457.92847443 0 0 0 0 1183487062.9340668 -98190970.232082367 0 -98190970.232082367 916852662.33660698 0 0 0 0 64404972.926773071 135812964.88974285 0 135812964.88974285 105949574.59526324 0 0 0 0 -92578676.673034668 -13360064.648593903 0 -13360064.648593903 -35614016.302871704 0 0 0 0 218730789.82266235 53616015.140686035 0 53616015.140686035 -899792975.16220093 0 0 0 0 109731.16335052997 -67505.993214003742 0 -67505.993214003742 -883250.2242407687 0 0 0 0 9269916.7263851762 22521156.664932042 0 22521156.664932042 -41193416.908409506 0 0 0 0 132080458.70774841 59263445.896213531 0 59263445.896213531 113658116.13612747 0 0 0 0 683281430.66085815 449550160.29685974 0 449550160.29685974 109424090.30291748 0 0 0 0 365763576.14421082 596355697.61593628 0 596355697.61593628 504632226.44833374 0 0 0 0 -79714738.577666283 -4246628.8259677887 0 -4246628.8259677887 854556626.16360474 0 0 0 0 88058772.155303955 278015898.03765869 0 278015898.03765869 885874116.08023071 0 0 0 0 136999405.4515686 463674207.64169312 0 463674207.64169312 482205360.40091324 0 0 0 0 300444510.6579895 933918551.61275482 0 933918551.61275482 1705063182.3625793 0 0 0 0 -56746742.083717346 -221238063.85768127 0 -221238063.85768127 370634908.12465668 0 0 0 0 44817966.171310425 -290640204.85054779 0 -290640204.85054779 177064416.37388611 0 0 0 0 -5141449.3934294432 -7178658.6623761766 0 -7178658.6623761766 6345272.0428795591 0 0 0 0 656043885.97802734 628632504.68795776 0 628632504.68795776 397668495.47990799 0 0 0 0 337587197.51840961 1377198605.715843 0 1377198605.715843 765074601.65045166 0 0 0 0 -326085368.79856873 1426079936.2818222 0 1426079936.2818222 -41977321.509124756 0 0 0 0 -873701575.43257141 -284121278.57920837 0 -284121278.57920837 -45603353.033309937 0 0 0 0 338500130.90161133 804281807.43488312 0 804281807.43488312 1433564867.2456055 0 0 0 0 63226685.354380488 73820994.694292068 0 73820994.694292068 75646459.20675087 0 0 0 0 -188927.06080942601 32798508.633684367 0 32798508.633684367 12479374.305178881 0 0 0 0 20699584.934073739 6558153.8590013571 0 6558153.8590013571 -48068094.014609635 0 0 0 0 2502539.3557968363 -710049.99343726039 0 -710049.99343726039 -11632917.710748896 0 0 0 0 1584887823.8081055 688002794.31872559 0 688002794.31872559 1355617409.1594238 0 0 0 0 3094705.2407969683 17403590.238421235 0 17403590.238421235 -23703302.39257716 0 0 0 0 29635187.158813477 42470104.951156616 0 42470104.951156616 33721806.723731995 0 0 0 0 929612039.05879974 1221399946.943059 0 1221399946.943059 776287728.69784164 0 0 0 0 -445768322.46490479 -9049203.0427818298 0 -9049203.0427818298 1683917373.8838997 0 0 0 0 54582919.877914429 199316044.73411942 0 199316044.73411942 60747809.540868759 0 0 0 0 -1128996988.2514648 -562771632.30853271 0 -562771632.30853271 1627002247.6419182 0 0 0 0 22925918.608398438 56896274.358177185 0 56896274.358177185 59623439.171592712 0 0 0 0 10542061.262075208 26491500.307334263 0 26491500.307334263 -29636151.141246285 0 0 0 0 -4704472.8836364746 22965949.720718384 0 22965949.720718384 76957800.449964523 0 0 0 0 4821661.0771735087 1755239.1904694159 0 1755239.1904694159 -4203485.2589482851 0 0 0 0 588547634.22766113 543738616.28833008 0 543738616.28833008 797701340.96082497 0 0 0 0 -6124332.6744395867 24705305.271356791 0 24705305.271356791 31652138.969808869 0 0 0 0 1682795817.5753021 1123897336.2461243 0 1123897336.2461243 -88791049.398239136 0 0 0 0 6771386.0617178008 25642570.182799317 0 25642570.182799317 -20024392.011388786 0 0 0 0 894735114.11269569 606263589.24378681 0 606263589.24378681 273335684.59126282 0 0 0 0 1569749515.8900757 752074954.73884583 0 752074954.73884583 222429399.11997986 0 0 0 0 50177067.100494385 -4034738.807923317 0 -4034738.807923317 -16589185.873626709 0 0 0 0 62736649.914428711 10557847.639579773 0 10557847.639579773 -21101411.222015381 0 0 0 0 -55698114.887481689 44063879.91324234 0 44063879.91324234 44951406.584579468 0 0 0 0 1427940038.0415497 409520049.10873413 0 409520049.10873413 272645313.89019775 0 0 0 0 13163825.52996581 19688837.485817045 0 19688837.485817045 -32186930.42762287 0 0 0 0 26362085.549133301 -67760920.715652466 0 -67760920.715652466 -66800379.962432861 0 0 0 0 110335022.09559631 59426942.663646698 0 59426942.663646698 -48438643.035705566 0 0 0 0 1792894.7675516382 555732.09232537169 0 555732.09232537169 -1590958.3689763844 0 0 0 0 107552849.07725525 -30277369.23859024 0 -30277369.23859024 -104894184.30448151 0 0 0 0 56582949.069458008 539496399.13433838 0 539496399.13433838 4812441521.3401184 0 0 0 0 2585110072.4689636 578235563.29193115 0 578235563.29193115 -301841034.02542114 0 0 0 0 1385641555.8394928 1040673226.165863 0 1040673226.165863 1660682427.2888794 0 0 0 0 912314.1996813789 888771.17414230853 0 888771.17414230853 -2962120.1835564617 0 0 0 0 1469327384.4931107 -309004868.88616943 0 -309004868.88616943 1627268254.1677856 0 0 0 0 1794471155.810791 186969991.16967773 0 186969991.16967773 1240936728.7032318 0 0 0 0 2800948264.0397644 1024193294.0037994 0 1024193294.0037994 1677362093.237854 0 0 0 0 1500595745.2868652 1706229165.3471985 0 1706229165.3471985 3747179277.4404297 0 0 0 0 768716818.28625488 619042663.68170166 0 619042663.68170166 2286889406.760376 0 0 0 0 -244856901.9967041 -125570371.86853027 0 -125570371.86853027 3346741285.8792725 0 0 0 0 636344314.63839722 706472278.73474121 0 706472278.73474121 2508352547.0153809 0 0 0 0 764610527.06668091 483173028.36547852 0 483173028.36547852 1481874286.0793457 0 0 0 0 1244211114.4242096 1035530626.4739456 0 1035530626.4739456 2112503580.6763306 0 0 0 0 512872694.00747681 545389263.78814697 0 545389263.78814697 1655056319.6880493 0 0 0 0 595566495.01251221 643668762.58563232 0 643668762.58563232 1738755909.6561584 0 0 0 0 23728963.748718262 -235107504.17144775 0 -235107504.17144775 2168622806.7003174 0 0 0 0 339089076.33813477 229691279.9418335 0 229691279.9418335 1747170819.4863129 0 0 0 0 241358805.60626221 353506915.26411438 0 353506915.26411438 1081628190.6337585 0 0 0 0 916322751.12515259 239559078.19538879 0 239559078.19538879 359584163.66778564 0 0 0 0 672716329.57174683 181305890.69648743 0 181305890.69648743 1412095421.6337891 0 0 0 0 549360077.73886108 -145193784.14979553 0 -145193784.14979553 648485006.21882629 0 0 0 0 132849563.76184082 65932865.704849243 0 65932865.704849243 319568469.40042114 0 0 0 0 -679326793.44265747 25965467.25201416 0 25965467.25201416 705027812.03609467 0 0 0 0 -793220554.90589905 632658341.33583069 0 632658341.33583069 153669679.68045902 0 0 0 0 -505932592.07150269 158180905.78028107 0 158180905.78028107 89862954.653243065 0 0 0 0 -6060367.502554547 14191061.645532241 0 14191061.645532241 54511148.074941248 0 0 0 0 -350053362.85122299 436366231.16224861 0 436366231.16224861 -444310583.14888 0 0 0 0 -3896830.1636123806 2741329.0160940364 0 2741329.0160940364 6972882.8041858971 0 0 0 0 937017869.86230373 356721035.12571812 0 356721035.12571812 -813500320.00933838 0 0 0 0 -896994482.75003052 -86005577.861404419 0 -86005577.861404419 394080045.49043274 0 0 0 0 -18195550.343612671 -172830332.23452759 0 -172830332.23452759 220260978.99578094 0 0 0 0 24768849.921295166 -300604166.59886169 0 -300604166.59886169 139592056.68534851 0 0 0 0 -172507826.32266235 -195855349.23915863 0 -195855349.23915863 87365563.238311768 0 0 0 0 -292992526.91584015 -143820563.49742126 0 -143820563.49742126 131588723.22249222 0 0 0 0 -798147266.50503922 124816836.94429016 0 124816836.94429016 338142428.61541748 0 0 0 0 -410556053.82189178 44330030.149620056 0 44330030.149620056 76791625.092599869 0 0 0 0 -350244863.8380394 -255900880.87960148 0 -255900880.87960148 502870154.53671265 0 0 0 0 -55802929.86315918 -170866719.72329712 0 -170866719.72329712 381104719.50883484 0 0 0 0 444922042.26495361 -285414003.52206421 0 -285414003.52206421 486473859.11393738 0 0 0 0 -67263542.593755722 -179188793.82480621 0 -179188793.82480621 858937490.4085083 0 0 0 0 1008452450.3300476 -403399447.62794495 0 -403399447.62794495 866075313.27340698 0 0 0 0 436889614.48747253 -191677241.95501709 0 -191677241.95501709 799283388.23605347 0 0 0 0 498362736.05899048 -248128282.16976929 0 -248128282.16976929 422645099.3884697 0 0 0 0 892295149.84729004 -205340594.19015503 0 -205340594.19015503 410725402.0927124 0 0 0 0 16684007.249103546 -300462977.85083389 0 -300462977.85083389 496879689.08734131 0 0 0 0 570573009.20880127 371011197.18280029 0 371011197.18280029 1484949168.6827507 0 0 0 0 1325715919.505127 361663848.54524231 0 361663848.54524231 811303603.55929565 0 0 0 0 786896754.78872681 290407246.65826416 0 290407246.65826416 810132432.92973948 0 0 0 0 1043210633.7191467 262828733.57250977 0 262828733.57250977 1273417963.3098297 0 0 0 0 1369812733.5098572 89287671.908935547 0 89287671.908935547 715697126.74694824 0 0 0 0 773482894.07876587 -100193937.16183472 0 -100193937.16183472 705049075.83774948 0 0 0 0 778816249.19297791 -21414563.478912354 0 -21414563.478912354 169440439.37124634 0 0 0 0 651726872.95223999 -38501658.215286255 0 -38501658.215286255 401222140.91227722 0 0 0 0 1083185785.4351501 99561733.052566528 0 99561733.052566528 441678271.13598633 0 0 0 0 647813062.46638489 95616179.791439056 0 95616179.791439056 208130977.58508301 0 0 0 0 728925938.668396 134348120.36418152 0 134348120.36418152 556475533.21594238 0 0 0 0 735731071.32888794 270139957.26750183 0 270139957.26750183 453949127.40110779 0 0 0 0 483640106.6427002 316012455.27884674 0 316012455.27884674 591426319.72155762 0 0 0 0 718608342.15474224 383734795.99640989 0 383734795.99640989 604384650.4163208 0 0 0 0 453690454.89952278 77982371.523680687 0 77982371.523680687 206835928.26779175 0 0 0 0 527929117.80070496 173590691.3213501 0 173590691.3213501 -21386375.731903076 0 0 0 0 560644722.379776 -66629238.121582031 0 -66629238.121582031 -45741323.137054443 0 0 0 0 451645500.35543823 -34631070.091400146 0 -34631070.091400146 169662104.85394287 0 0 0 0 451517574.21035767 29536614.074142456 0 29536614.074142456 -287998733.81173706 0 0 0 0 336285989.14987183 29367766.484436035 0 29367766.484436035 -82676713.314041138 0 0 0 0 332746433.83015442 51541484.945983887 0 51541484.945983887 -91071837.042022705 0 0 0 0 402614022.74356079 211405537.2182045 0 211405537.2182045 -223220971.55648804 0 0 0 0 46053111.34913063 -174282638.39336491 0 -174282638.39336491 133169496.00695801 0 0 0 0 369930913.76864624 -331825232.78489685 0 -331825232.78489685 207425592.52088928 0 0 0 0 527923044.31271362 -207385302.48857117 0 -207385302.48857117 22381407.36139679 0 0 0 0 415326819.67733765 -124421548.39824677 0 -124421548.39824677 240887776.61859131 0 0 0 0 426717021.03913879 -45734525.894309998 0 -45734525.894309998 -222602246.61837769 0 0 0 0 228999629.95210266 -112599098.01046753 0 -112599098.01046753 -5728323.6679763794 0 0 0 0 280761708.65579224 -219474429.15575409 0 -219474429.15575409 -49959928.337020874 0 0 0 0 33101693.604675293 -98277492.415748596 0 -98277492.415748596 -103074088.13181305 0 0 0 0 157455188.75931931 -119563818.66195679 0 -119563818.66195679 -199850853.13327026 0 0 0 0 209261276.58602905 49407958.106006622 0 49407958.106006622 -361222776.15148926 0 0 0 0 45228105.626739502 100155894.87677002 0 100155894.87677002 -334116176.50217438 0 0 0 0 -21274216.727645874 8354455.9309692383 0 8354455.9309692383 -275164383.61436462 0 0 0 0 249474382.46092224 -38028201.634231567 0 -38028201.634231567 -219103410.83780479 0 0 0 0 271024902.02578735 168057403.66209412 0 168057403.66209412 -335464189.71208954 0 0 0 0 171263715.65454102 297099878.51580048 0 297099878.51580048 -607216293.32788086 0 0 0 0 295810242.29464722 90825322.228691101 0 90825322.228691101 -496055021.00663757 0 0 0 0 212153549.03689575 353268610.65026855 0 353268610.65026855 -558937144.63587952 0 0 0 0 211860781.42900467 178676030.37403488 0 178676030.37403488 -482049887.71035767 0 0 0 0 -34522063.684371948 505959249.81731415 0 505959249.81731415 -592531142.76850891 0 0 0 0 -774190.13020758331 704772.53393276781 0 704772.53393276781 631949.82094163075 0 0 0 0 -150713373.48457336 227595000.81369019 0 227595000.81369019 -445775808.38249969 0 0 0 0 -34256034.962127686 143597197.75772858 0 143597197.75772858 -417516517.52133942 0 0 0 0 85522184.115646362 22988805.708244324 0 22988805.708244324 -338904879.13938904 0 0 0 0 -15237375.443969727 142634243.58798218 0 142634243.58798218 -527082179.74229431 0 0 0 0 -57591341.490081787 131528683.8272171 0 131528683.8272171 -423693169.28909302 0 0 0 0 -174830262.47221375 129743656.48130798 0 129743656.48130798 -329428047.86053467 0 0 0 0 -188043153.13130188 38940056.334381104 0 38940056.334381104 -38900235.861587524 0 0 0 0 -84149143.52048111 37903018.895973206 0 37903018.895973206 -236416376.63618469 0 0 0 0 -149451496.44325256 -75038709.797027588 0 -75038709.797027588 -127206090.00546265 0 0 0 0 2947132.0138549805 -44977242.198883057 0 -44977242.198883057 -240770856.63374376 0 0 0 0 -143968417.29661942 -143698640.49087811 0 -143698640.49087811 -14543592.729644775 0 0 0 0 51182641.687213898 -194086066.32335758 0 -194086066.32335758 -61101438.761688232 0 0 0 0 -197077264.62075615 -120989322.38661766 0 -120989322.38661766 -6550601.2276306152 0 0 0 0 -264748043.50237274 -120182630.28061676 0 -120182630.28061676 -10501148.037172318 0 0 0 0 -279772864.92118835 -35918520.254737854 0 -35918520.254737854 -99990215.653961182 0 0 0 0 -293652863.69934082 7247711.7004623413 0 7247711.7004623413 -152695356.15812683 0 0 0 0 -301041219.58046722 305073049.99593353 0 305073049.99593353 -257025652.68754578 0 0 0 0 -312071811.46202087 345162018.00106144 0 345162018.00106144 -714218816.49102783 0 0 0 0 -184223254.68684387 288379991.59307861 0 288379991.59307861 -340100858.24429321 0 0 0 0 -97754242.244995117 158303079.76609802 0 158303079.76609802 -321819999.63845825 0 0 0 0 -168904774.50608444 292749195.14061165 0 292749195.14061165 -475507743.62567139 0 0 0 0 -616543311.54446411 709454970.98052979 0 709454970.98052979 -621093430.04707718 0 0 0 0 10027557.125640869 15392590.062438965 0 15392590.062438965 -8090584.6372375488 0 0 0 0 976895.85738873482 537671.61467850208 0 537671.61467850208 -455298.61323685199 0 0 0 0 -547647823.59913635 435448423.57420349 0 435448423.57420349 -668753347.34628201 0 0 0 0 -13517146.68522644 97069121.093338013 0 97069121.093338013 -543124897.7520256 0 0 0 0 -39903227.593643188 -5651611.7598571777 0 -5651611.7598571777 -354529.32308959961 0 0 0 0 -634515.1460589692 2590414.0226687379 0 2590414.0226687379 1416609.6255784929 0 0 0 0 -744806950.42935181 908073634.87193298 0 908073634.87193298 -670549104.00423145 0 0 0 0 193727.77784202993 -23727.66056048125 0 -23727.66056048125 -753479.93323981762 0 0 0 0 -660989923.09451294 634700342.23823547 0 634700342.23823547 -1020576795.9098015 0 0 0 0 -234825598.55834961 567060167.49102783 0 567060167.49102783 -1056367833.8278198 0 0 0 0 -252998406.01639557 783615871.09259796 0 783615871.09259796 -841666191.79559326 0 0 0 0 -121843691.26416016 620779848.31304932 0 620779848.31304932 -1045118693.922699 0 0 0 0 -567718578.70678711 781607612.05284119 0 781607612.05284119 -1010532551.6117859 0 0 0 0 -617793290.41638184 645828730.90138245 0 645828730.90138245 -893490141.06776428 0 0 0 0 -717482989.33362007 832955305.14728737 0 832955305.14728737 -1004753468.1495514 0 0 0 0 -662817215.01679993 561271571.4315033 0 561271571.4315033 -842837001.11154175 0 0 0 0 -822192995.43369102 963228291.13603985 0 963228291.13603985 -1236380631.1051025 0 0 0 0 -824841898.68716431 708397207.43840027 0 708397207.43840027 -1028758150.2713013 0 0 0 0 -971265214.70873833 762414829.82783127 0 762414829.82783127 -1236655250.5088806 0 0 0 0 -508131323.79922485 781817026.55026245 0 781817026.55026245 -1272473717.5494385 0 0 0 0 -690185360.04586792 957175435.40912628 0 957175435.40912628 -1562374253.9966354 0 0 0 0 -485432170.02731323 874261191.94789124 0 874261191.94789124 -1222702223.7294664 0 0 0 0 -391040768.14162445 567273594.80832672 0 567273594.80832672 -1176576056.2493591 0 0 0 0 -920002787.3863678 1475459385.7973175 0 1475459385.7973175 -1697722304.2507477 0 0 0 0 -937129509.68855286 1639236910.9941177 0 1639236910.9941177 -1557569765.3635864 0 0 0 0 -1445948593.3876114 1270103619.9497566 0 1270103619.9497566 -1194595539.8432922 0 0 0 0 -870044039.98745537 1015490952.299263 0 1015490952.299263 -1633874339.4232941 0 0 0 0 -1117446117.8815918 817571071.64892578 0 817571071.64892578 -1308166546.78302 0 0 0 0 -920907726.12176514 776947838.43183899 0 776947838.43183899 -1012121884.1153793 0 0 0 0 -788818694.41120148 1190255375.363862 0 1190255375.363862 -1245799721.4069824 0 0 0 0 -600855114.61625671 1534588251.6811676 0 1534588251.6811676 -1449205487.9720306 0 0 0 0 -735210894.05612183 1107397085.7882462 0 1107397085.7882462 -1158526269.8979797 0 0 0 0 -938255964.45515442 1585242425.5285797 0 1585242425.5285797 -1447313494.3057556 0 0 0 0 -749147207.84432983 1465517369.9060669 0 1465517369.9060669 -1439476782.7810059 0 0 0 0 -304217920.90393066 1202018618.0368881 0 1202018618.0368881 -1360898655.4971733 0 0 0 0 -534595229.72976685 962145169.80958557 0 962145169.80958557 -1110882672.8052979 0 0 0 0 -482087438.4708252 952172089.61260986 0 952172089.61260986 -1128921476.5367584 0 0 0 0 -538225658.53024292 654342076.93632507 0 654342076.93632507 -906913633.37899017 0 0 0 0 -699118952.67431641 934203043.00868988 0 934203043.00868988 -1003833538.3973083 0 0 0 0 -531739349.54916382 1033808859.3238678 0 1033808859.3238678 -1209144092.3330536 0 0 0 0 -439677733.16467285 758273945.791399 0 758273945.791399 -961933809.25653076 0 0 0 0 -392716172.58403015 821984298.5415802 0 821984298.5415802 -883645000.20248413 0 0 0 0 -279773363.3861084 632904038.48902893 0 632904038.48902893 -995334810.40816498 0 0 0 0 -13861560.499298096 2549380.0874633789 0 2549380.0874633789 -12107660.4945755 0 0 0 0 -20137381.674194336 196730911.72725677 0 196730911.72725677 -556474878.15556335 0 0 0 0 -283846942.3019104 521880842.84892273 0 521880842.84892273 -877289065.02080154 0 0 0 0 -518014704.92980957 741867301.44859314 0 741867301.44859314 -796076826.59098053 0 0 0 0 -3279713.7508579493 1118097.7879501581 0 1118097.7879501581 1213663.4463971257 0 0 0 0 -74010384.613395691 308638372.55711365 0 308638372.55711365 -532304176.27905273 0 0 0 0 2294148.630726099 1181857.3757653013 0 1181857.3757653013 -17464.61566676572 0 0 0 0 -103849244.88504028 218536859.35670471 0 218536859.35670471 -468791546.29450989 0 0 0 0 -158559302.35416031 1063147138.5368786 0 1063147138.5368786 -1400312015.4229584 0 0 0 0 -317002047.52615356 736957780.59661102 0 736957780.59661102 -1005599600.3158417 0 0 0 0 -275476257.9201355 726950884.77288818 0 726950884.77288818 -1061110614.5664062 0 0 0 0 -255638808.95652771 380882673.32034302 0 380882673.32034302 -648421192.12191772 0 0 0 0 125078643.65842152 812830108.24191904 0 812830108.24191904 -1304266508.5516968 0 0 0 0 154245934.59393311 568337623.68827057 0 568337623.68827057 -1219977122.2746887 0 0 0 0 -335944195.9846344 1251255216.2134247 0 1251255216.2134247 -1536854787.6112518 0 0 0 0 -6278260.0452423096 790623715.92422485 0 790623715.92422485 -1743800319.942791 0 0 0 0 -562992423.50974274 1227575350.9743805 0 1227575350.9743805 -1893795296.0597153 0 0 0 0 -213660178.17056274 1177071779.6207008 0 1177071779.6207008 -2370372606.5891418 0 0 0 0 -752319752.15694427 2088529361.1472015 0 2088529361.1472015 -2078814585.1429062 0 0 0 0 -156148796.39035797 1008444305.4906654 0 1008444305.4906654 -1486956525.8446198 0 0 0 0 -446326564.63020325 1429403121.7388458 0 1429403121.7388458 -1698557998.657959 0 0 0 0 -506714394.59571838 1722888753.1913719 0 1722888753.1913719 -1555522446.3132477 0 0 0 0 -587152713.43395996 1557331667.4663315 0 1557331667.4663315 -1514952480.4206085 0 0 0 0 -569929429.48428345 1704561324.0888977 0 1704561324.0888977 -1556813242.0022593 0 0 0 0 -855602332.45373535 1509022173.2130947 0 1509022173.2130947 -1062049311.3178711 0 0 0 0 -586369992.52561188 1716995236.9807892 0 1716995236.9807892 -1546032044.5440369 0 0 0 0 -932998037.63792419 1717700045.2935104 0 1717700045.2935104 -1493273556.1175232 0 0 0 0 -1566922042.5703583 796988868.07576752 0 796988868.07576752 -221193129.83886719 0 0 0 0 -898746699.47477722 1599349244.0355415 0 1599349244.0355415 -1232004685.2980118 0 0 0 0 -1069838868.0763092 1816806199.6693726 0 1816806199.6693726 -1203154973.8389196 0 0 0 0 -3589943443.4428444 1130775136.4792194 0 1130775136.4792194 -185018518.17139435 0 0 0 0 -610255750.89967346 -126690911.09065628 0 -126690911.09065628 63567794.735549927 0 0 0 0 142141.35148880631 3961590.7237069588 0 3961590.7237069588 -7566708.6753456742 0 0 0 0 -2006360111.2069855 3026130733.8226662 0 3026130733.8226662 -2736117641.6247559 0 0 0 0 -399551228.9389267 1075889466.7775898 0 1075889466.7775898 -4127320044.9921417 0 0 0 0 -1824956709.351059 777198827.10933304 0 777198827.10933304 -1775127807.0179672 0 0 0 0 -638438855.56781006 1254717173.5828934 0 1254717173.5828934 -1592361987.5835342 0 0 0 0 -313988585.70147705 823486843.25493622 0 823486843.25493622 -896056893.51737213 0 0 0 0 -231220247.31486893 625214371.48377419 0 625214371.48377419 -1185081991.4580231 0 0 0 0 -307567963.63435364 689126515.66912842 0 689126515.66912842 -1003403517.2693558 0 0 0 0 -548829151.16957855 510349485.90546417 0 510349485.90546417 -258917039.96453857 0 0 0 0 -323682865.00009155 314220500.96903229 0 314220500.96903229 -632229811.83201599 0 0 0 0 -965102420.46824265 352814114.48163986 0 352814114.48163986 -1174288555.5032806 0 0 0 0 -311240245.69119644 674588379.87805939 0 674588379.87805939 -1125760746.7037659 0 0 0 0 -178798440.4540863 717359724.68715668 0 717359724.68715668 -2235377661.3371964 0 0 0 0 33531760.284881592 464967782.78798676 0 464967782.78798676 -1290778280.6157341 0 0 0 0 -52120539.279754639 317382165.35830688 0 317382165.35830688 -653308616.20135498 0 0 0 0 -101985407.27604675 751648231.33979034 0 751648231.33979034 -851002063.75854492 0 0 0 0 233046823.30828857 307038169.38729858 0 307038169.38729858 -966790728.71022797 0 0 0 0 258643206.44400024 276142983.37664795 0 276142983.37664795 -727376758.60162354 0 0 0 0 64764577.420982361 107205232.55315399 0 107205232.55315399 -467882663.40628052 0 0 0 0 -79273333.299354553 296688397.87802887 0 296688397.87802887 -227813344.38442993 0 0 0 0 182382222.8783493 275691541.46480942 0 275691541.46480942 -427883019.3109436 0 0 0 0 258762912.34555054 84968063.323104858 0 84968063.323104858 -328126107.58228302 0 0 0 0 221937099.25579834 289406448.00639343 0 289406448.00639343 -274644650.05123901 0 0 0 0 -428184555.08981323 306219234.84712219 0 306219234.84712219 -607780175.99534607 0 0 0 0 40578890.343017578 361939833.12179565 0 361939833.12179565 -610892662.64592743 0 0 0 0 -195667702.5075407 501011199.86519957 0 501011199.86519957 -397083420.0072937 0 0 0 0 -213215307.96624756 207264055.74603271 0 207264055.74603271 -121110948.66181946 0 0 0 0 -36534154.615617752 185999080.39903069 0 185999080.39903069 79041816.674102783 0 0 0 0 -26730097.657718182 410739728.22088742 0 410739728.22088742 87138225.500183105 0 0 0 0 -80929251.442810059 156920707.91285706 0 156920707.91285706 229247508.94165039 0 0 0 0 288353309.12139893 119974694.38139343 0 119974694.38139343 5702168.9736633301 0 0 0 0 284763179.93756104 305485513.30856323 0 305485513.30856323 1894779.7690887451 0 0 0 0 164946410.99780273 343662643.36465454 0 343662643.36465454 -225386941.88848877 0 0 0 0 135315917.29421997 163258258.70399475 0 163258258.70399475 -123738963.31227112 0 0 0 0 138829754.98065186 391281438.80665588 0 391281438.80665588 286564178.99227905 0 0 0 0 199411830.35702515 154798357.63902283 0 154798357.63902283 179917586.55158997 0 0 0 0 473389009.73892403 276187675.02208614 0 276187675.02208614 126813358.94390869 0 0 0 0 402384485.52163696 159959811.86427307 0 159959811.86427307 310293119.80715942 0 0 0 0 353144049.72197723 344162811.37530899 0 344162811.37530899 382891056.68753052 0 0 0 0 153327953.53579712 198987671.53779602 0 198987671.53779602 680839625.15525818 0 0 0 0 142966614.69761372 370736268.91387081 0 370736268.91387081 747950363.68423462 0 0 0 0 86563451.003051758 95260059.474349976 0 95260059.474349976 749166269.15625 0 0 0 0 77571129.163208008 197357002.92625427 0 197357002.92625427 1207230561.8953247 0 0 0 0 349404593.66491699 309653352.73466492 0 309653352.73466492 731578420.45748901 0 0 0 0 353234715.26953125 242867820.27438354 0 242867820.27438354 1095128428.9352722 0 0 0 0 341240939.38682556 344761735.73397827 0 344761735.73397827 1117058265.4996948 0 0 0 0 -190373142.6864624 365361816.20164108 0 365361816.20164108 403101051.78414917 0 0 0 0 -44479208.552381516 207510549.03172874 0 207510549.03172874 412195865.05975342 0 0 0 0 14232999.893295288 341156555.95410156 0 341156555.95410156 469337769.40222168 0 0 0 0 41109895.628601074 149800829.07832336 0 149800829.07832336 435128440.50691986 0 0 0 0 -52699439.810699463 226365585.33231735 0 226365585.33231735 975187934.33990479 0 0 0 0 -77383861.351303101 54608606.075485229 0 54608606.075485229 727248699.14015198 0 0 0 0 -70882147.70306778 329562401.07484627 0 329562401.07484627 341030139.47885132 0 0 0 0 -178263207.91325378 113922541.87872314 0 113922541.87872314 787611985.8864975 0 0 0 0 -263132885.69187927 282809778.90398407 0 282809778.90398407 329748001.81953812 0 0 0 0 -258642118.23719025 540495842.27374649 0 540495842.27374649 53196312.010635376 0 0 0 0 -103731122.68526459 502164538.34880829 0 502164538.34880829 -292551402.08460999 0 0 0 0 -289485281.32872772 526713687.98440933 0 526713687.98440933 -274650175.72929382 0 0 0 0 -207628464.33898926 245182304.80129242 0 245182304.80129242 181398607.7334137 0 0 0 0 -188410453.61645508 509830253.94916534 0 509830253.94916534 -306976728.92462158 0 0 0 0 251470134.97497559 117278124.70233154 0 117278124.70233154 -902823802.37748718 0 0 0 0 36814134.562042236 315256470.414505 0 315256470.414505 -152754279.11132812 0 0 0 0 87537119.453659058 597391789.19476318 0 597391789.19476318 -921014515.88358688 0 0 0 0 51525568.748840332 347719796.99572754 0 347719796.99572754 -411275156.24636841 0 0 0 0 -87168402.733192444 747990593.64884949 0 747990593.64884949 -982652819.4103241 0 0 0 0 20886460.552322388 178937699.79824829 0 178937699.79824829 236250537.39008331 0 0 0 0 -152819503.01509857 438964005.53085709 0 438964005.53085709 386403563.40306091 0 0 0 0 161614490.29072571 345767028.11540985 0 345767028.11540985 -159066210.48332214 0 0 0 0 50375703.638015747 232919278.64420319 0 232919278.64420319 299387971.96687317 0 0 0 0 365168318.1665802 448814422.06290627 0 448814422.06290627 -55333021.925361633 0 0 0 0 4712620.815071702 24182315.668715745 0 24182315.668715745 -33888039.984850541 0 0 0 0 67507336.999710083 16535429.936836243 0 16535429.936836243 -29101846.49468708 0 0 0 0 91515126.712432861 11619485.595874786 0 11619485.595874786 -61520151.839202881 0 0 0 0 245498366.67781067 295114388.53885722 0 295114388.53885722 -1027074695.1469269 0 0 0 0 86201978.587661743 -121301831.41011047 0 -121301831.41011047 115755157.64082718 0 0 0 0 953653721.34251404 -96325641.311080933 0 -96325641.311080933 -3463509866.3675995 0 0 0 0 123969034.60707092 -1090359170.3517914 0 -1090359170.3517914 -1552120050.8465862 0 0 0 0 -147645981.77837753 -443555953.0479269 0 -443555953.0479269 372512185.54748535 0 0 0 0 5095744.659935452 9829320.1892813891 0 9829320.1892813891 -29269755.787719361 0 0 0 0 620617654.28160095 117780412.08984947 0 117780412.08984947 -655437093.19732666 0 0 0 0 -266742062.06060791 -1393955292.3396301 0 -1393955292.3396301 -5639897321.8022537 0 0 0 0 -1605828.1362172067 382193.07926136628 0 382193.07926136628 -3737838.0206523295 0 0 0 0 518704849.62132263 -463747019.48310089 0 -463747019.48310089 -4144184169.3644028 0 0 0 0 699557847.80941772 -267727624.61433411 0 -267727624.61433411 -7336849083.6342316 0 0 0 0 1359464356.9105835 365582316.0670929 0 365582316.0670929 -3374832536.7604733 0 0 0 0 1285397196.2565308 785995200.54279709 0 785995200.54279709 -3101817886.9805908 0 0 0 0 1300718771.8210602 495360125.57466125 0 495360125.57466125 -3654597221.1316528 0 0 0 0 537774919.49911499 514535623.91724396 0 514535623.91724396 -1029062407.4091911 0 0 0 0 522824890.24020386 416698427.21337128 0 416698427.21337128 -1656694154.5215759 0 0 0 0 959269451.84922504 68543046.058287382 0 68543046.058287382 -2256587837.5684052 0 0 0 0 -390783130.63972092 834696905.98266029 0 834696905.98266029 -919689050.21948242 0 0 0 0 158506972.05072784 1167583285.3429985 0 1167583285.3429985 -2134294042.5610352 0 0 0 0 1243930529.9372864 1241085692.7857361 0 1241085692.7857361 -2225089420.4291801 0 0 0 0 2249967162.3208923 2291568672.7785378 0 2291568672.7785378 -3604541921.0166473 0 0 0 0 -430348090.98855972 2346599650.2643661 0 2346599650.2643661 -2953075321.9406815 0 0 0 0 1700266462.6560631 881728522.03930855 0 881728522.03930855 -2623474950.8624115 0 0 0 0 1911756806.8022614 1149420333.3342896 0 1149420333.3342896 -3732167546.8924103 0 0 0 0 2288169334.432251 1860743033.1568985 0 1860743033.1568985 -2057433660.548233 0 0 0 0 2843250923.8721771 859185894.29233932 0 859185894.29233932 -2726167245.2616024 0 0 0 0 1628268703.9723892 937460924.97743225 0 937460924.97743225 583568435.20618439 0 0 0 0 1717379023.6857834 2633509414.893404 0 2633509414.893404 3197160026.2649994 0 0 0 0 1480767343.4749069 1845444562.2585201 0 1845444562.2585201 806857854.9606204 0 0 0 0 -1792889.2264226936 13008607.80190387 0 13008607.80190387 -14219248.613857053 0 0 0 0 117927662.32248306 169800418.67193413 0 169800418.67193413 -279220009.84199524 0 0 0 0 1353415702.0789719 -212490489.5120945 0 -212490489.5120945 1863105319.234436 0 0 0 0 3641527523.0024185 1161341633.8521004 0 1161341633.8521004 -730149922.83151245 0 0 0 0 1177142986.4980316 1636868117.0930328 0 1636868117.0930328 -814608672.5236721 0 0 0 0 870246185.13165665 -8416776.5975451469 0 -8416776.5975451469 -1041480134.1738281 0 0 0 0 229470435.0934906 1135412578.7432098 0 1135412578.7432098 269084279.41595459 0 0 0 0 2109197771.5625153 820019948.05064392 0 820019948.05064392 -2669900892.4237442 0 0 0 0 1274630550.5930939 681821420.69406891 0 681821420.69406891 -2612445827.4679623 0 0 0 0 662202560.21061325 297471548.52000904 0 297471548.52000904 -4614382605.4459229 0 0 0 0 1054495827.8690796 1459154867.0411034 0 1459154867.0411034 -4328748368.5569458 0 0 0 0 -556090328.68399048 367035204.16732407 0 367035204.16732407 -4544927164.0608139 0 0 0 0 -3005446088.0195923 147035747.52259827 0 147035747.52259827 -4204104286.1670237 0 0 0 0 -317250894.68521118 -22101340.507843018 0 -22101340.507843018 -4209658141.5657539 0 0 0 0 -1171006323.2996979 -530123345.07024956 0 -530123345.07024956 -2772841962.9015274 0 0 0 0 104280910.44534302 384870373.32036209 0 384870373.32036209 -4426616449.7518158 0 0 0 0 -728561890.68858337 -825364392.79893494 0 -825364392.79893494 -5648768456.6336861 0 0 0 0 -237917195.94626617 34589851.097112656 0 34589851.097112656 -2597923314.0335312 0 0 0 0 -1330275861.12854 745434279.2903595 0 745434279.2903595 -2494795354.4015121 0 0 0 0 468416627.66644287 842374544.3832283 0 842374544.3832283 -2496598082.9406004 0 0 0 0 170698600.0990448 302308968.81705475 0 302308968.81705475 -476337689.20141411 0 0 0 0 -941475252.41465759 469293351.08131218 0 469293351.08131218 -475370282.08097076 0 0 0 0 -651445472.39303589 472462236.41626358 0 472462236.41626358 685120042.10490417 0 0 0 0 -523361743.66623306 902478844.62141991 0 902478844.62141991 1105579756.5606461 0 0 0 0 -498685646.07303619 408288753.34985542 0 408288753.34985542 -82414657.434581757 0 0 0 0 -264368359.72639465 661208506.71004486 0 661208506.71004486 -897184226.80410767 0 0 0 0 -621016439.36524963 190941290.84251785 0 190941290.84251785 -968590796.22155523 0 0 0 0 -356090.34155273438 827994597.15377998 0 827994597.15377998 -1322462498.176754 0 0 0 0 287566308.59060669 -99620065.984886169 0 -99620065.984886169 -4245923531.5201988 0 0 0 0 193110.58486938477 722462408.12280655 0 722462408.12280655 -3268627601.4439125 0 0 0 0 -226569624.54963684 -266972432.86397934 0 -266972432.86397934 -2234524155.3229485 0 0 0 0 237055002.95639038 842345287.63895416 0 842345287.63895416 -4415155577.8336411 0 0 0 0 343204.3412024476 899839783.41349852 0 899839783.41349852 -4352511776.9909706 0 0 0 0 -30224.848229721189 655147.49180852249 0 655147.49180852249 -8422433.5171310771 0 0 0 0 -78624760.940536499 -20110155.275074005 0 -20110155.275074005 344865291.14357376 0 0 0 0 266548201.88378525 829574360.99374199 0 829574360.99374199 -6235456765.5682373 0 0 0 0 -1616965483.100708 2282700149.7133102 0 2282700149.7133102 -3213141399.7479324 0 0 0 0 -1005023292.2138367 1892653719.2282753 0 1892653719.2282753 -8913050061.3648224 0 0 0 0 -837380.09396240115 2483302.13594006 0 2483302.13594006 -3595609.8815037236 0 0 0 0 -773754698.71447754 -2636648715.6832809 0 -2636648715.6832809 -8578673142.0871487 0 0 0 0 -467864.66686958075 3504422.4905990176 0 3504422.4905990176 -10634342.33832448 0 0 0 0 -17880857.209640503 33221859.659660339 0 33221859.659660339 115303971.05019569 0 0 0 0 -5711234.5118942261 124938717.6798315 0 124938717.6798315 -27469841.761505127 0 0 0 0 -82147005.444976807 67807239.923988342 0 67807239.923988342 -34683378.163331509 0 0 0 0 -20681984.624694824 -8219465.829454422 0 -8219465.829454422 18835153.717708588 0 0 0 0 49809992.754920959 81795340.792346001 0 81795340.792346001 -50398465.795372009 0 0 0 0 37886877.36807251 98733983.867307663 0 98733983.867307663 -166918542.85545349 0 0 0 0 361334.69853489101 -1532466.1164106 0 -1532466.1164106 -651550.49252447067 0 0 0 0 4299014.1533050537 -21829031.598140717 0 -21829031.598140717 12118357.760528564 0 0 0 0 8474865.864074707 -7263269.8732337952 0 -7263269.8732337952 -18418332.698189735 0 0 0 0 457587.16256423295 -3259492.6015895866 0 -3259492.6015895866 -1632418.7299741297 0 0 0 0 -1225534.6088562012 -4015862.2162475586 0 -4015862.2162475586 -5258762.1525001526 0 0 0 0 98808783.392944336 75110839.092098236 0 75110839.092098236 -325935688.35188198 0 0 0 0 -723677.21593540907 189967.18653010018 0 189967.18653010018 3602674.749020962 0 0 0 0 -637098.8250220716 -1627407.9429228269 0 -1627407.9429228269 2032307.3831274658 0 0 0 0 10177739.344543457 1931596.4301071167 0 1931596.4301071167 -12249190.359806061 0 0 0 0 806209.90230754018 -2610882.0649217032 0 -2610882.0649217032 -941617.56302388897 0 0 0 0 3511.5640258789062 5337847.0176010132 0 5337847.0176010132 322140.31377601624 0 0 0 0 -1670180.2138671875 185261091.71112061 0 185261091.71112061 97986921.064727783 0 0 0 0 -23980753.845092773 -20832659.422138214 0 -20832659.422138214 -659719077.54530716 0 0 0 0 -2090771.405893445 -1524962.387617561 0 -1524962.387617561 3052053.027992757 0 0 0 0 352449.97655093612 248654093.75896126 0 248654093.75896126 -188858838.72557068 0 0 0 0 -92909528.686828613 279373560.87848473 0 279373560.87848473 -3720390.805305481 0 0 0 0 -35663651.248689651 64852632.715456963 0 64852632.715456963 -118182548.78495026 0 0 0 0 46488375.938392639 60552170.546350479 0 60552170.546350479 -96367198.392173767 0 0 0 0 -45325350.859428406 -5614287.3591089249 0 -5614287.3591089249 -119075117.92686462 0 0 0 0 -571998462.90668488 1688327772.6470718 0 1688327772.6470718 -554551631.97239685 0 0 0 0 -462513692.83528137 1523974324.6262741 0 1523974324.6262741 -316924585.25483322 0 0 0 0 -181480168.57777405 1774257249.1820869 0 1774257249.1820869 -326523168.84740448 0 0 0 0 263978.22303771973 1697448995.7443047 0 1697448995.7443047 -360263077.62760162 0 0 0 0 -295589244.35830688 1525155976.9481506 0 1525155976.9481506 -370299871.98326397 0 0 0 0 -502753585.22447205 1745537342.8074455 0 1745537342.8074455 -80411941.599517822 0 0 0 0 -1073672166.5995026 1210766829.5037384 0 1210766829.5037384 -457143552.88817024 0 0 0 0 -1320337960.4742279 1454840675.8165817 0 1454840675.8165817 -437412218.53535461 0 0 0 0 -2228371753.8787384 908971883.62012482 0 908971883.62012482 -490271304.68137741 0 0 0 0 -2224001937.1166687 853836132.63371277 0 853836132.63371277 37169392.827949524 0 0 0 0 1796713.1082429588 908668.75225813687 0 908668.75225813687 -2049201.8451439366 0 0 0 0 -2433835005.9136581 356143134.62096786 0 356143134.62096786 -23649391.524261475 0 0 0 0 -1036360390.8747559 1302477883.420105 0 1302477883.420105 -1019581463.0803986 0 0 0 0 -1809645006.7723999 1624454254.0218353 0 1624454254.0218353 -543742460.66958618 0 0 0 0 -1120515016.0493469 1318309726.2480621 0 1318309726.2480621 -513425519.58688354 0 0 0 0 -699910931.6758728 1774535902.4008179 0 1774535902.4008179 -478214435.43917179 0 0 0 0 -788375101.32097626 1630969480.095623 0 1630969480.095623 432153838.42958069 0 0 0 0 -388267569.06439209 1450279138.8055725 0 1450279138.8055725 -142294891.21456909 0 0 0 0 -909047452.49127197 493423449.53265953 0 493423449.53265953 -209672018.54721069 0 0 0 0 -2187294.4515408278 1785375.2486880347 0 1785375.2486880347 -191865.77520780638 0 0 0 0 -258125048.17687988 90273066.907867432 0 90273066.907867432 7216460.9956665039 0 0 0 0 -1128983287.066124 1129589912.1137009 0 1129589912.1137009 -278833694.94932556 0 0 0 0 -360111068.29510498 1536938692.407959 0 1536938692.407959 -184076824.01160812 0 0 0 0 1087858988.594574 689546444.3944931 0 689546444.3944931 407128775.64977264 0 0 0 0 -104622795.60074615 1452658693.7795143 0 1452658693.7795143 1118619664.4478378 0 0 0 0 -30770594.638092041 1469153859.1318054 0 1469153859.1318054 447499339.44154787 0 0 0 0 -374746766.64624214 1622667378.7190509 0 1622667378.7190509 606951714.96563721 0 0 0 0 -289499919.57159424 1871772519.3733177 0 1871772519.3733177 -308255172.8179419 0 0 0 0 -285260808.3865509 1733979768.3312416 0 1733979768.3312416 89019434.11579895 0 0 0 0 -75547187.278945923 1631876468.2773895 0 1631876468.2773895 125856174.28403091 0 0 0 0 -460242.25904111809 1461575770.6684477 0 1461575770.6684477 439988241.9463501 0 0 0 0 -200295712.37188721 1513677787.1023293 0 1513677787.1023293 522542744.4534874 0 0 0 0 -240189035.51838684 1379942901.6747093 0 1379942901.6747093 917006379.24717712 0 0 0 0 -193580586.55848694 1279990362.4224548 0 1279990362.4224548 779543874.85847473 0 0 0 0 -155510.23191833496 1325314412.3964043 0 1325314412.3964043 699788900.39122009 0 0 0 0 -254616170.98300171 1043723717.8660431 0 1043723717.8660431 736696681.6563518 0 0 0 0 -147663186.81341553 1263852728.0849609 0 1263852728.0849609 743930274.97602844 0 0 0 0 -316950892.7564888 867820795.5667367 0 867820795.5667367 425990684.24459839 0 0 0 0 -24754664.006439209 990959050.80595398 0 990959050.80595398 81077277.016019821 0 0 0 0 -569232.00033569336 1113714986.686264 0 1113714986.686264 333532816.37966919 0 0 0 0 139438703.59776306 1447151805.4209633 0 1447151805.4209633 884954424.18614769 0 0 0 0 274449180.73720551 1238031142.3592892 0 1238031142.3592892 1183958381.3163452 0 0 0 0 -34460558.625289917 1018230593.3869858 0 1018230593.3869858 495033651.86565876 0 0 0 0 -384131937.84828758 1197633958.9801707 0 1197633958.9801707 991968445.26447296 0 0 0 0 344393808.86372375 1344064464.9697189 0 1344064464.9697189 810303910.28487015 0 0 0 0 345135838.7317543 1344500506.8600283 0 1344500506.8600283 629141929.21760559 0 0 0 0 1196655713.848587 1200022141.5414734 0 1200022141.5414734 653414080.56719971 0 0 0 0 -192584547.82503891 1297503410.3738184 0 1297503410.3738184 957295663.77341461 0 0 0 0 -342115897.96396446 1370970298.6211314 0 1370970298.6211314 950823073.48690796 0 0 0 0 91726521.061553955 1349115916.6829185 0 1349115916.6829185 798860145.15058899 0 0 0 0 216569809.51159286 889585496.94936943 0 889585496.94936943 1311313078.5595856 0 0 0 0 1167435068.7651062 1242444370.9338264 0 1242444370.9338264 695898675.76111412 0 0 0 0 91306910.388671875 32332791.555603027 0 32332791.555603027 -48247058.371269226 0 0 0 0 65495262.264465332 42754686.953964233 0 42754686.953964233 83358788.573242188 0 0 0 0 65885735.696533203 110806451.94582367 0 110806451.94582367 -63290382.717437744 0 0 0 0 17010590.745574951 -59585538.405609131 0 -59585538.405609131 49384434.972473145 0 0 0 0 -7956644.2412351444 18318966.416014418 0 18318966.416014418 -9954894.0984333828 0 0 0 0 -81540112.702636719 -50273164.265159607 0 -50273164.265159607 121132031.21817017 0 0 0 0 733199432.42353058 714562075.8044281 0 714562075.8044281 166622231.39216614 0 0 0 0 2957398636.1291046 1971054078.6328144 0 1971054078.6328144 473795988.26416397 0 0 0 0 1293267954.6909943 2030411759.2609406 0 2030411759.2609406 1050483304.6951294 0 0 0 0 1653458424.818161 1176863209.8111763 0 1176863209.8111763 605766.88375091553 0 0 0 0 979267256.05195618 2312825594.0812225 0 2312825594.0812225 2685914051.379343 0 0 0 0 1652346968.802536 -416635434.78443527 0 -416635434.78443527 91827685.76571846 0 0 0 0 -1228339.3773813993 14067646.869414829 0 14067646.869414829 -4558362.5580546428 0 0 0 0 12360380.18800354 24218783.748374939 0 24218783.748374939 -87586393.56451416 0 0 0 0 -101516149.36222839 -167135411.8775177 0 -167135411.8775177 92915565.686477661 0 0 0 0 3257971.2666894943 9488878.9041828513 0 9488878.9041828513 -2323384.5475478768 0 0 0 0 45178929.436309814 24730857.812171936 0 24730857.812171936 -83838967.867156982 0 0 0 0 -5984182.9858762994 20235042.566127315 0 20235042.566127315 -15643629.136164345 0 0 0 0 -41310241.400650024 -29862378.686092377 0 -29862378.686092377 -31227914.494125366 0 0 0 0 39506431.387863159 30792007.122924805 0 30792007.122924805 -15865759.491333008 0 0 0 0 -9465660.3763809204 37735743.416484833 0 37735743.416484833 63060746.031570435 0 0 0 0 -12526672.669036865 101121264.86339569 0 101121264.86339569 144351532.28194427 0 0 0 0 78323311.680259705 37690083.388807297 0 37690083.388807297 58626033.765625 0 0 0 0 -9666435.5584716797 136341371.9914856 0 136341371.9914856 15433088.305511475 0 0 0 0 41714689.823272705 76929533.872833252 0 76929533.872833252 69241892.290985107 0 0 0 0 -85380217.17527771 73220472.89440155 0 73220472.89440155 107344490.09637451 0 0 0 0 35719944.585388184 5670360.6114196777 0 5670360.6114196777 145010456.0774231 0 0 0 0 60388210.118934631 106796781.11888504 0 106796781.11888504 301586230.69348145 0 0 0 0 30872857.280918121 75385789.020465851 0 75385789.020465851 344442056.39245605 0 0 0 0 -10410.671308785677 158235.7399745658 0 158235.7399745658 -15379.672115937807 0 0 0 0 384580.30440674722 499545.23675888777 0 499545.23675888777 -350780.72320342809 0 0 0 0 46279842.701904297 -33673375.3984375 0 -33673375.3984375 -42499175.860809326 0 0 0 0 52081005.909423828 132153924.63525391 0 132153924.63525391 280011276.2401123 0 0 0 0 2743331.1571846232 1752679.9074641764 0 1752679.9074641764 -1005962.8711889843 0 0 0 0 1370599.2806930542 20066346.364437103 0 20066346.364437103 -134537.69941711426 0 0 0 0 5011072.1435394287 10202141.439147949 0 10202141.439147949 2302727.4680566788 0 0 0 0 3200749.5480194986 1518038.2822892256 0 1518038.2822892256 -2351950.6775221229 0 0 0 0 3815207.3775278851 1135929.920271907 0 1135929.920271907 -2793135.5899439454 0 0 0 0 35459641.837440491 16758063.879112244 0 16758063.879112244 -926927.51957702637 0 0 0 0 44027922.64074707 414417.22006225586 0 414417.22006225586 -30979687.202301025 0 0 0 0 103838626.12780762 11296132.495300293 0 11296132.495300293 -13563766.86315918 0 0 0 0 55701951.240478516 -19964147.716247559 0 -19964147.716247559 25099973.607788086 0 0 0 0 -1750437.1104461178 1901356.4714779221 0 1901356.4714779221 -307129.10253406316 0 0 0 0 519747.91979980469 2072599.7320556641 0 2072599.7320556641 2444457.2291259766 0 0 0 0 6161243.4086018801 15077976.807097606 0 15077976.807097606 -6822832.7469015252 0 0 0 0 23965940.354060888 54274575.638905287 0 54274575.638905287 -2990917.2393798828 0 0 0 0 47701.974990844727 14315177.129074097 0 14315177.129074097 14458497.48274231 0 0 0 0 -5014174.8699294105 1340935.064273335 0 1340935.064273335 1023048.7460156679 0 0 0 0 2557038.0672607422 4924625.7499389648 0 4924625.7499389648 6436626.3504638672 0 0 0 0 -66927.211928941309 745086.23063100502 0 745086.23063100502 488174.55005656183 0 0 0 0 3476794.4313209876 6474262.0099129975 0 6474262.0099129975 -3508067.9058959628 0 0 0 0 26183681.103955746 -42033773.957718849 0 -42033773.957718849 51521597.601455688 0 0 0 0 -13558458.867602311 15922002.419773916 0 15922002.419773916 -1039009.7938854843 0 0 0 0 -30745312.366882324 10767349.381797791 0 10767349.381797791 -15984284.576759338 0 0 0 0 9189771.9395331312 10731936.509643346 0 10731936.509643346 -7298907.5353342146 0 0 0 0 -61117992.804355621 27667445.841320038 0 27667445.841320038 5244421.8412322998 0 0 0 0 42864786.658863068 -9633449.8597564697 0 -9633449.8597564697 -21342915.118057251 0 0 0 0 14369161.936477661 17967660.603561401 0 17967660.603561401 -14620957.96137619 0 0 0 0 5987887.0746612549 47212536.025115967 0 47212536.025115967 -35310569.898986816 0 0 0 0 -32790391.579147339 67467134.958229065 0 67467134.958229065 -39008602.469299316 0 0 0 0 107088903.70043564 59674646.232801437 0 59674646.232801437 -159753915.32965088 0 0 0 0 63323342.540534973 -39049764.058315277 0 -39049764.058315277 10749441.056304932 0 0 0 0 4037693.4513153881 2034932.1136561539 0 2034932.1136561539 -3642109.4801013991 0 0 0 0 -108884799.97686768 200798533.51411438 0 200798533.51411438 -30881483.529251099 0 0 0 0 1100693.327975899 329884.45384775661 0 329884.45384775661 -751891.15628778189 0 0 0 0 -17576340.553527832 39701702.698051453 0 39701702.698051453 37729801.489807129 0 0 0 0 205412497.34584045 -223034769.32817841 0 -223034769.32817841 111951173.40301514 0 0 0 0 48921969.572967529 23919681.744216919 0 23919681.744216919 -111401880.42140198 0 0 0 0 39362635.368408203 147154495.15449524 0 147154495.15449524 54293613.848766327 0 0 0 0 -16278515.563690186 57922428.168296814 0 57922428.168296814 4841906.5390930176 0 0 0 0 894725.52499052137 432634.59036951698 0 432634.59036951698 -627757.28104992956 0 0 0 0 46119983.133728027 165330107.23629761 0 165330107.23629761 -22885630.159584045 0 0 0 0 3336321.650680542 46132553.44708252 0 46132553.44708252 -42965645.034698486 0 0 0 0 39411964.95703125 40081383.197387695 0 40081383.197387695 3244181.0791015625 0 0 0 0 -5731900.2303786054 18307252.266723931 0 18307252.266723931 -6411856.7526487857 0 0 0 0 -29591162.976638794 -8557859.3240776062 0 -8557859.3240776062 379452426.76258755 0 0 0 0 -14918240.570602417 47724249.141944885 0 47724249.141944885 -10623745.94418335 0 0 0 0 -2290635.2896383274 5209229.6134410426 0 5209229.6134410426 1182601.2240027338 0 0 0 0 -2832844.0603027344 4724412.3002624512 0 4724412.3002624512 649641.45745849609 0 0 0 0 -10535568.766002953 7485253.2383287698 0 7485253.2383287698 1027896.9071437865 0 0 0 0 -27817908.447296143 -8941091.1322517395 0 -8941091.1322517395 3022921.3143005371 0 0 0 0 6497689.6250504032 10770930.638845723 0 10770930.638845723 -10946922.614937469 0 0 0 0 -185645.90353026241 8875002.7359868437 0 8875002.7359868437 -3159429.4829997271 0 0 0 0 -8514307.7407684326 21384404.29901123 0 21384404.29901123 -9057501.0061674118 0 0 0 0 -14479050.099243164 43749666.704124451 0 43749666.704124451 -6582730.3014678955 0 0 0 0 9299362.9723675326 19876311.328414951 0 19876311.328414951 958634.41405817866 0 0 0 0 -25080773.669189453 30716064.521835327 0 30716064.521835327 -21173304.917228699 0 0 0 0 42882632.286193848 51169499.125320435 0 51169499.125320435 3519548.9754333496 0 0 0 0 -14845140.977256775 -1884128.0355911255 0 -1884128.0355911255 -42784913.994659424 0 0 0 0 -70272611.838165283 29309527.754150391 0 29309527.754150391 3887354.4503231049 0 0 0 0 -660221022.21017456 842535920.94960785 0 842535920.94960785 -1031873636.8862152 0 0 0 0 104378936.7481842 65150241.239830017 0 65150241.239830017 -28730273.251968384 0 0 0 0 2946344.8007661588 5319483.0514160842 0 5319483.0514160842 -14272241.639722206 0 0 0 0 59485506.766685486 121466180.74588776 0 121466180.74588776 11749272.196044922 0 0 0 0 -136042337.57424927 40722689.631507874 0 40722689.631507874 71862012.811325073 0 0 0 0 -194943019.15841675 -146159363.62294769 0 -146159363.62294769 -78605284.502780914 0 0 0 0 133154704.23014069 -34246158.128009796 0 -34246158.128009796 -512960095.35717773 0 0 0 0 10754570.072799683 32837107.240509033 0 32837107.240509033 4212124.427444458 0 0 0 0 96664378.801528931 64701359.200115204 0 64701359.200115204 -559592457.97914124 0 0 0 0 757801.03778076172 106767357.38894653 0 106767357.38894653 -192007777.98591852 0 0 0 0 122835521.46748352 -13145648.452407837 0 -13145648.452407837 -339434131.62045169 0 0 0 0 12356642.747443885 17560174.26735498 0 17560174.26735498 -2204231.1083021918 0 0 0 0 -28578.392310097814 3916305.7830637544 0 3916305.7830637544 1473355.6322577829 0 0 0 0 23852790.432655334 16865694.36485672 0 16865694.36485672 -21446167.460739136 0 0 0 0 4317189.5465507507 11172102.727079391 0 11172102.727079391 -18922690.206787109 0 0 0 0 32806511.104629517 26081863.358066559 0 26081863.358066559 -28181847.758041382 0 0 0 0 8949519.2569437847 14841078.206720263 0 14841078.206720263 2393163.8671551533 0 0 0 0 17056355.282562256 35236908.377555847 0 35236908.377555847 -29125151.153053284 0 0 0 0 12841919.485565186 83081797.352802277 0 83081797.352802277 -138029433.25686646 0 0 0 0 18565019.646392822 131225267.28141022 0 131225267.28141022 14266656.090805054 0 0 0 0 -33200567.292007446 75131441.960983276 0 75131441.960983276 4401774.7143173218 0 0 0 0 18361451.150509596 10937743.785932668 0 10937743.785932668 -12546047.52592741 0 0 0 0 29296086.180215113 10935959.436130553 0 10935959.436130553 -7401657.7316047307 0 0 0 0 297654483.98561096 173430717.574646 0 173430717.574646 80151700.432282448 0 0 0 0 19355793.898479596 6075229.6668326892 0 6075229.6668326892 -3202411.0458753081 0 0 0 0 87056737.664451599 40559739.231018066 0 40559739.231018066 -334963498.58242774 0 0 0 0 393052754.31520081 880512388.55954742 0 880512388.55954742 829964220.98230362 0 0 0 0 890453247.7923584 2220617669.0436707 0 2220617669.0436707 4205483704.3586025 0 0 0 0 6987500.6004879996 2356549.9034388661 0 2356549.9034388661 -681011.93084388459 0 0 0 0 92042309.182909489 -265302626.35936356 0 -265302626.35936356 322613459.29304504 0 0 0 0 138781889.86470795 221654251.889534 0 221654251.889534 -18707480.3228302 0 0 0 0 5190485.3884782791 -11486238.138178825 0 -11486238.138178825 166002685.39004517 0 0 0 0 441931760.83521271 48721537.406135559 0 48721537.406135559 54204076.512763977 0 0 0 0 1469937930.685318 -125528537.08300018 0 -125528537.08300018 -101651377.80042267 0 0 0 0 444932708.11971855 48006675.774605751 0 48006675.774605751 -85742969.395797729 0 0 0 0 49664367.2239151 -48812907.562675476 0 -48812907.562675476 37357451.043258667 0 0 0 0 34264898.12651062 62368687.81010437 0 62368687.81010437 128266909.89474487 0 0 0 0 61535248.789638519 14232239.515594482 0 14232239.515594482 3611888.7388305664 0 0 0 0 2681537.7406082153 -28392000.883857727 0 -28392000.883857727 39661026.704040527 0 0 0 0 -33900336.575195312 1100834.8323974609 0 1100834.8323974609 16062186.013320923 0 0 0 0 20740043.263870239 65690682.726112366 0 65690682.726112366 3978427.3923139572 0 0 0 0 -32476467.36423111 58478333.368995667 0 58478333.368995667 105003696.16799927 0 0 0 0 -33200727.67691803 42692451.148712158 0 42692451.148712158 -24835430.687477112 0 0 0 0 -56783895.898300171 15163312.126586914 0 15163312.126586914 37069246.135498047 0 0 0 0 -34729202.407943726 -6024047.9622802734 0 -6024047.9622802734 -2165521.3123626709 0 0 0 0 3142498.978915967 9874927.4601802826 0 9874927.4601802826 -1733656.9562377427 0 0 0 0 -30985326.895584106 2053377.3511962891 0 2053377.3511962891 -12625734.089836121 0 0 0 0 -15302688.384635925 -9554581.4867553711 0 -9554581.4867553711 -50291691.352966309 0 0 0 0 36543904.657318115 84021000.990180969 0 84021000.990180969 -23776970.560423851 0 0 0 0 -25304967.54083252 8402366.5292892456 0 8402366.5292892456 6461149.4765777588 0 0 0 0 -21639313.452163696 -30733044.105285645 0 -30733044.105285645 -12666463.911575317 0 0 0 0 543112.19020843506 20667472.993587494 0 20667472.993587494 39484287.2239151 0 0 0 0 -4219820.2907017842 6975891.798789978 0 6975891.798789978 -1098929.3644355983 0 0 0 0 -67871902.636230469 28756285.00088501 0 28756285.00088501 61607024.598632812 0 0 0 0 -16484113.202752233 1843772.9447158966 0 1843772.9447158966 3996059.8695547841 0 0 0 0 -28542082.248830795 -34130793.665538788 0 -34130793.665538788 39200288.121902466 0 0 0 0 42928127.306030273 -39782342.215026855 0 -39782342.215026855 -11686153.803291321 0 0 0 0 -26807191.029663086 12903663.012451172 0 12903663.012451172 30538454.544265747 0 0 0 0 -4926760.4447773844 5573682.3783799969 0 5573682.3783799969 -619312.04655601084 0 0 0 0 -13551309.005367581 7983700.0288853217 0 7983700.0288853217 -1234583.5942555182 0 0 0 0 -1503482.1685028076 16925587.392852783 0 16925587.392852783 21831041.464241028 0 0 0 0 2458090.1419067383 15032424.56187439 0 15032424.56187439 21731269.208374023 0 0 0 0 -1091981.9827315956 -678832.5940161068 0 -678832.5940161068 861464.18374795839 0 0 0 0 33531064.905456543 37907799.121887207 0 37907799.121887207 129012030.55834961 0 0 0 0 -1436346.4149392098 -421028.43550930545 0 -421028.43550930545 655929.80809093267 0 0 0 0 36528177.649536133 100831044.58455658 0 100831044.58455658 97501203.343811035 0 0 0 0 -36269431.69342041 -18286337.850494385 0 -18286337.850494385 27543886.495361328 0 0 0 0 25165603.022827148 55004873.326293945 0 55004873.326293945 102662604.98092651 0 0 0 0 100044452.93130493 43538704.071609497 0 43538704.071609497 12251619.767242432 0 0 0 0 17380126.220840454 -29223536.530700684 0 -29223536.530700684 -12584736.463690758 0 0 0 0 81431886.925415039 18627882.003356934 0 18627882.003356934 99562267.108520508 0 0 0 0 49450167.551300049 61857061.443954468 0 61857061.443954468 46534329.950897217 0 0 0 0 -74854578.754394531 55150854.617965698 0 55150854.617965698 16157473.034469604 0 0 0 0 13383550.745788574 136696569.26150513 0 136696569.26150513 4768654.2785377502 0 0 0 0 51549629.854309082 135115848.72622681 0 135115848.72622681 3598596.2713623047 0 0 0 0 109042468.75547791 25575271.195381165 0 25575271.195381165 38551045.616912842 0 0 0 0 22883210.906364441 27120932.166046143 0 27120932.166046143 -28934968.379745483 0 0 0 0 -93094.791866786778 -97491.541490629315 0 -97491.541490629315 -157974.91203167289 0 0 0 0 -32860.997328102589 -68039.732064334676 0 -68039.732064334676 -41782.978373415768 0 0 0 0 32470625.533569336 47244570.614593506 0 47244570.614593506 -82710957.761413574 0 0 0 0 -77943773.58972168 -27253870.924407959 0 -27253870.924407959 30121439.04335022 0 0 0 0 -60358401.764587402 43361780.46697998 0 43361780.46697998 35632223.222686768 0 0 0 0 -47829048.750701904 -2752017.3914337158 0 -2752017.3914337158 23790954.15234375 0 0 0 0 -23516757.806053162 39583953.193740845 0 39583953.193740845 -81726650.868530273 0 0 0 0 1076591.7517860383 9428815.9866010174 0 9428815.9866010174 -2849373.9837749097 0 0 0 0 -503964434.54343414 276511547.85232544 0 276511547.85232544 -8574948.7304763794 0 0 0 0 -141905314.42706299 290566659.19100952 0 290566659.19100952 -382066629.90510941 0 0 0 0 -145043897.93951416 1284260612.2836723 0 1284260612.2836723 -1884195498.7806702 0 0 0 0 -589417072.69155884 1567452547.0326538 0 1567452547.0326538 -2058056840.4902191 0 0 0 0 -352571204.57496643 1108930440.0479393 0 1108930440.0479393 -1324693389.6878738 0 0 0 0 -70225889.492294312 775245933.25391388 0 775245933.25391388 -1040265305.6016518 0 0 0 0 -234189585.74707031 71943626.752685547 0 71943626.752685547 -470697870.21918106 0 0 0 0 1457052.507100977 10881737.838263173 0 10881737.838263173 -2003398.2275569085 0 0 0 0 7115441.7272186279 29122738.948074341 0 29122738.948074341 -11535349.218307495 0 0 0 0 -40752420.338161469 32839273.767020226 0 32839273.767020226 23774692.445068359 0 0 0 0 79634129.823425293 34960588.070129395 0 34960588.070129395 22348743.471221924 0 0 0 0 -1226216.5921445936 -776775.07323073409 0 -776775.07323073409 885070.36476361006 0 0 0 0 -24397982.785888672 3618232.801574707 0 3618232.801574707 1377591.9417724609 0 0 0 0 -17879768.381963693 3558267.5444555394 0 3558267.5444555394 5217069.310999725 0 0 0 0 210464281.86032104 192274193.38399506 0 192274193.38399506 -2749825412.5197449 0 0 0 0 791702810.69546509 628088004.64782715 0 628088004.64782715 422731488.16222382 0 0 0 0 -440948.03837232292 1021529.2992278486 0 1021529.2992278486 343799.67741517164 0 0 0 0 160592726.68518066 173931629.29405975 0 173931629.29405975 225056206.09522247 0 0 0 0 316532154.03131866 66900812.340774536 0 66900812.340774536 -73261818.591110229 0 0 0 0 377878350.11651611 2499274.8814086914 0 2499274.8814086914 -28672712.442932129 0 0 0 0 92765022.419662476 -117136564.8637619 0 -117136564.8637619 -65768950.801422119 0 0 0 0 -27739706.632278442 128773120.04553223 0 128773120.04553223 102244682.85838318 0 0 0 0 43562907.07409668 24827216.352706909 0 24827216.352706909 61256503.492080688 0 0 0 0 -59139624.271461487 118863732.17152405 0 118863732.17152405 10525512.807998657 0 0 0 0 58983927.980148315 69552207.789253235 0 69552207.789253235 -194969743.25715637 0 0 0 0 68818890.375724792 5260103.4280090332 0 5260103.4280090332 -102447597.96940613 0 0 0 0 3031521.0209180042 1087005.1686969697 0 1087005.1686969697 -1210935.5615175734 0 0 0 0 379160562.31460571 -146053274.80993652 0 -146053274.80993652 -167195225.38204956 0 0 0 0 389672084.45241165 410435492.74183083 0 410435492.74183083 240556731.21966553 0 0 0 0 1328953.1319396049 -516421.73712828755 0 -516421.73712828755 -439307.61971674347 0 0 0 0 98797814.649597168 288365552.31178284 0 288365552.31178284 446985092.46850204 0 0 0 0 224480511.36680603 783477869.76770782 0 783477869.76770782 -11180830.304428101 0 0 0 0 133370943.14459991 912480098.66614532 0 912480098.66614532 4566861.4314908981 0 0 0 0 -1330132100.1463966 1563716372.7774563 0 1563716372.7774563 -58186903.758895874 0 0 0 0 -628434421.86864471 471102734.20529556 0 471102734.20529556 93855394.682922363 0 0 0 0 656608818.21085358 19829191.537757874 0 19829191.537757874 -211362288.07693481 0 0 0 0 359454706.5931282 62731562.170740128 0 62731562.170740128 -208313390.38781738 0 0 0 0 -409761646.76661682 528210138.260849 0 528210138.260849 -58970188.167526245 0 0 0 0 -335186161.93571472 -28598550.898162842 0 -28598550.898162842 21244213.237930298 0 0 0 0 365505540.23145676 -214241393.32746887 0 -214241393.32746887 53945653.258544922 0 0 0 0 -978914304.38952637 293203263.07009125 0 293203263.07009125 525224110.81256866 0 0 0 0 -4292128.3263889775 4590796.6636622548 0 4590796.6636622548 -930284.37823349796 0 0 0 0 -56442788.889129639 812852744.12611389 0 812852744.12611389 -4103795197.2875443 0 0 0 0 50862498.614364624 181804060.32817841 0 181804060.32817841 457182438.96328354 0 0 0 0 -1368926434.5611076 2700568062.695097 0 2700568062.695097 -3792257970.3327789 0 0 0 0 -2362145297.3123169 1287239243.1302185 0 1287239243.1302185 113707612.80434036 0 0 0 0 -2188984496.1517396 453807793.01358843 0 453807793.01358843 -1988290411.900528 0 0 0 0 -1310431126.057251 1146023583.850975 0 1146023583.850975 -1581005408.2610779 0 0 0 0 -587237938.63316345 1842484168.0755692 0 1842484168.0755692 -3704197851.1083069 0 0 0 0 -2140650828.8478897 2212356325.3434086 0 2212356325.3434086 -2033119920.9659424 0 0 0 0 -520881927.9605484 1320546481.2506256 0 1320546481.2506256 -1586238922.8482313 0 0 0 0 -574935856.41539001 715002511.24102783 0 715002511.24102783 -1478535902.7135773 0 0 0 0 -535030981.83533478 1209156301.7536011 0 1209156301.7536011 -2460123179.4817505 0 0 0 0 -1058049647.6227341 685733986.60177612 0 685733986.60177612 -1760926624.1148529 0 0 0 0 -1205866079.8182297 1907165114.0450974 0 1907165114.0450974 -1308566482.9205475 0 0 0 0 -517359948.84439087 1199758529.9249649 0 1199758529.9249649 -1256209899.1360855 0 0 0 0 -866382578.42560196 1670311403.4181824 0 1670311403.4181824 -1136131723.5366211 0 0 0 0 -967155109.88962936 1644985801.2453651 0 1644985801.2453651 -431022915.06848145 0 0 0 0 -779197328.24271393 1650108669.428688 0 1650108669.428688 -1168142202.4628639 0 0 0 0 -565446029.52181244 1419751191.2479591 0 1419751191.2479591 -410056608.82402754 0 0 0 0 -1039316648.3968658 1755786505.9015102 0 1755786505.9015102 -14602670.263183594 0 0 0 0 -1379934476.7412567 716687467.66997528 0 716687467.66997528 -423655729.50245667 0 0 0 0 -2868034213.7928438 1382989321.3910441 0 1382989321.3910441 -64027305.469070435 0 0 0 0 1316270685.2367783 1305811198.4118385 0 1305811198.4118385 159489215.81478882 0 0 0 0 -171957.11682160012 1822584.3739292286 0 1822584.3739292286 205973.26263913512 0 0 0 0 -648024550.59937286 1407447833.4067421 0 1407447833.4067421 119693615.21270752 0 0 0 0 692828604.2661438 367712029.42037582 0 367712029.42037582 -80954718.612625122 0 0 0 0 1008059996.2067413 387096890.77941895 0 387096890.77941895 -83884824.039717674 0 0 0 0 934852879.24326324 473795380.4726181 0 473795380.4726181 -186012722.31272125 0 0 0 0 1188564168.2399979 1403979995.0417099 0 1403979995.0417099 98180333.813504219 0 0 0 0 3427052215.4070816 678875226.23192596 0 678875226.23192596 -465507621.96259308 0 0 0 0 1341743241.9173126 553592852.72087097 0 553592852.72087097 -207197032.68114471 0 0 0 0 1558492341.9234695 -819942511.06047058 0 -819942511.06047058 -135974932.12060547 0 0 0 0 2624987948.3080902 -833558752.87813568 0 -833558752.87813568 785851771.35903931 0 0 0 0 1073336973.4834976 1710563733.2858734 0 1710563733.2858734 2793516945.4025116 0 0 0 0 -852467105.79994965 1030366242.3134842 0 1030366242.3134842 769409778.90679455 0 0 0 0 -473666.7706864858 3148063.8530570567 0 3148063.8530570567 -572156.27458371222 0 0 0 0 -1783415154.4507599 714729728.84751797 0 714729728.84751797 -420960130.06417847 0 0 0 0 547852150.71662521 344277391.11864662 0 344277391.11864662 -48646871.242004395 0 0 0 0 -198606364.63502502 -306208704.2696228 0 -306208704.2696228 -136341538.74991226 0 0 0 0 -153403582.78708839 -487238205.82627869 0 -487238205.82627869 217172266.9855957 0 0 0 0 -141392.85105467215 2740854.4813383818 0 2740854.4813383818 -5136677.9213388562 0 0 0 0 -1250923573.4064445 -365872919.58420277 0 -365872919.58420277 465015801.82197571 0 0 0 0 -1899177545.9582539 67411631.145508766 0 67411631.145508766 262387573.50547791 0 0 0 0 -166921452.99699402 -903282297.79624939 0 -903282297.79624939 409598679.19816589 0 0 0 0 597065784.24861908 -296180487.93798065 0 -296180487.93798065 10176614.555343628 0 0 0 0 459504733.320755 -175535419.93466949 0 -175535419.93466949 838565890.8702774 0 0 0 0 859061026.83808136 690148435.60177231 0 690148435.60177231 569980005.23190308 0 0 0 0 3575603678.2620029 1625015663.5216122 0 1625015663.5216122 651905385.13542175 0 0 0 0 1785582244.3031273 -224978598.18266296 0 -224978598.18266296 -344799350.70692444 0 0 0 0 434769795.3434906 172940985.76078796 0 172940985.76078796 -394018388.89698792 0 0 0 0 708143256.29486084 -519381873.86359406 0 -519381873.86359406 -469930646.40438843 0 0 0 0 387614435.09846115 -355000798.02672958 0 -355000798.02672958 -1359625883.7000885 0 0 0 0 53508.60701815784 2757779.6617009938 0 2757779.6617009938 -457800.72462038975 0 0 0 0 247898753.45205688 374136581.58068848 0 374136581.58068848 -824294139.13750458 0 0 0 0 747338963.88904572 421823777.51111603 0 421823777.51111603 -769817178.27664185 0 0 0 0 -261659024.91156006 -66147333.087295532 0 -66147333.087295532 -536404251.30948639 0 0 0 0 336245352.72302246 -81975008.908035278 0 -81975008.908035278 -588108963.58216858 0 0 0 0 122695972.38017273 432416120.32828903 0 432416120.32828903 -723931887.66769409 0 0 0 0 -1291944.5110592544 6315693.1479584426 0 6315693.1479584426 -352891.05834167264 0 0 0 0 -2060603.3085975647 75854417.951742172 0 75854417.951742172 112348208.81718445 0 0 0 0 -1979666.4468410537 2479320.925899866 0 2479320.925899866 4222649.7463155389 0 0 0 0 28825384.559066772 81562796.244255066 0 81562796.244255066 110210622.51092529 0 0 0 0 -45525068.935707092 68892953.354347229 0 68892953.354347229 236515846.87308502 0 0 0 0 1646833.394859314 65496560.009567261 0 65496560.009567261 99284712.855275154 0 0 0 0 35033573.430019379 -28167050.410242081 0 -28167050.410242081 119321115.59272766 0 0 0 0 -4700481.5032577515 87578300.041326523 0 87578300.041326523 -21570644.491363525 0 0 0 0 -19191192.871604919 15400316.584716797 0 15400316.584716797 50092567.546600342 0 0 0 0 -1775716.3806152344 112566945.2028656 0 112566945.2028656 130608548.98074341 0 0 0 0 18837673.736785889 38067093.605186462 0 38067093.605186462 -799451957.46763611 0 0 0 0 -117199275.26490784 -249506168.44517517 0 -249506168.44517517 -145563120.76631355 0 0 0 0 1624828.2132078186 3026997.751199536 0 3026997.751199536 -13883783.735625684 0 0 0 0 -37194268.452781677 -218516365.052845 0 -218516365.052845 -318288138.18481445 0 0 0 0 -1673747605.6702518 668002119.30884552 0 668002119.30884552 767215158.04745483 0 0 0 0 5505542.0093073668 5787405.6393653713 0 5787405.6393653713 -24448168.653303757 0 0 0 0 47221251.36384201 516230498.55784607 0 516230498.55784607 -2308366244.8314209 0 0 0 0 46122517.684661865 53242877.504371643 0 53242877.504371643 795573.07362365723 0 0 0 0 720354.28649804741 18293399.755132809 0 18293399.755132809 743347.35773867369 0 0 0 0 26454007.31105423 25892847.405586243 0 25892847.405586243 -35051420.187896729 0 0 0 0 41236141.651992798 96580539.248260498 0 96580539.248260498 32062774.252929688 0 0 0 0 63660256.617141724 -4133574.0870361328 0 -4133574.0870361328 -196614162.20717239 0 0 0 0 -224707507.95780182 122151626.65257645 0 122151626.65257645 270959262.07528687 0 0 0 0 -694165.24934057985 5178751.1019484513 0 5178751.1019484513 802554.17594389617 0 0 0 0 20551592.411529541 377735972.32118416 0 377735972.32118416 536820649.2618103 0 0 0 0 129774660.59480286 -16813607.855665207 0 -16813607.855665207 115910910.88748169 0 0 0 0 92495522.89666748 175302122.64141846 0 175302122.64141846 342380306.02680969 0 0 0 0 291538882.29260254 164369326.56356812 0 164369326.56356812 584067.76013183594 0 0 0 0 849594928.56534195 903721039.92369843 0 903721039.92369843 489993239.62203979 0 0 0 0 561376763.89096832 321227017.92527008 0 321227017.92527008 90747011.906944275 0 0 0 0 25784421.181182861 65774038.155181885 0 65774038.155181885 -442.55046081542969 0 0 0 0 -949410.57755661011 68723288.19178009 0 68723288.19178009 44473745.753234863 0 0 0 0 -3489734.5452232361 51972182.095146179 0 51972182.095146179 -42152967.451507568 0 0 0 0 117205601.92181396 173284578.28708649 0 173284578.28708649 132909620.94424438 0 0 0 0 52489944.036361694 67096834.567245483 0 67096834.567245483 -359162.14465713501 0 0 0 0 91568094.111519873 52874959.672858804 0 52874959.672858804 93674250.712799072 0 0 0 0 4085785.562286377 58499162.317245483 0 58499162.317245483 116184750.60839844 0 0 0 0 23064161.324081421 10002396.610275269 0 10002396.610275269 13979365.788772583 0 0 0 0 -11324760.534622192 642409.84735107422 0 642409.84735107422 38127207.928429604 0 0 0 0 -12477313.206413269 8959120.3713874817 0 8959120.3713874817 -5844938.8115539551 0 0 0 0 -9283495.897228241 -18134512.18298912 0 -18134512.18298912 -26104794.827590942 0 0 0 0 -17582314.245182037 -7145194.7220840454 0 -7145194.7220840454 -29166527.305541992 0 0 0 0 -18969453.886730194 -7464914.5200538635 0 -7464914.5200538635 27000518.687713623 0 0 0 0 18153618.96232605 -41998214.338851929 0 -41998214.338851929 -61867226.473571777 0 0 0 0 -11853683.599998474 -33897704.86125946 0 -33897704.86125946 34352441.241241455 0 0 0 0 1043107.8709885925 19807678.629768364 0 19807678.629768364 928822.63773772493 0 0 0 0 -9798168.4779434204 18488052.509078979 0 18488052.509078979 22945347.033889771 0 0 0 0 16941514.305145264 5736216.4994735718 0 5736216.4994735718 -111168116.02617645 0 0 0 0 3120738.4486246221 11945588.695400771 0 11945588.695400771 -6913660.0198636651 0 0 0 0 6938141.3591918945 11818972.28780365 0 11818972.28780365 -691367.95215034485 0 0 0 0 2694548.7232501581 9076221.7622006536 0 9076221.7622006536 -2962679.8652137518 0 0 0 0 5137470.6111755371 41488460.652023315 0 41488460.652023315 127980398.94578552 0 0 0 0 5975662.9927444458 6289708.3585662842 0 6289708.3585662842 -7930527.5482177734 0 0 0 0 4191568.7383728027 6682625.8927383423 0 6682625.8927383423 -2629143.1979217529 0 0 0 0 6445243.2914180756 7055937.8049716949 0 7055937.8049716949 -5105701.7147216797 0 0 0 0 5396689.0587825775 9943794.3400173187 0 9943794.3400173187 1657266.7446594238 0 0 0 0 -21569378.988143921 9211023.2377166748 0 9211023.2377166748 -17079606.558906555 0 0 0 0 -23621298.073539734 -2118719.0553855896 0 -2118719.0553855896 -10935838.895370483 0 0 0 0 -23178630.387985229 288576.76826477051 0 288576.76826477051 699192.89851379395 0 0 0 0 -20345631.356735229 4507212.7899475098 0 4507212.7899475098 -7701301.2991790771 0 0 0 0 6895395.9087291025 6694009.9184747282 0 6694009.9184747282 -9104583.0724490881 0 0 0 0 8198000.2136650085 9071664.8586750031 0 9071664.8586750031 -676245.6448059082 0 0 0 0 9045652.7118377686 12475898.891288757 0 12475898.891288757 431022.07959747314 0 0 0 0 1563818.204072617 8702573.1384956986 0 8702573.1384956986 -7602183.489965111 0 0 0 0 -1281889.8692397326 1943603.8588085473 0 1943603.8588085473 -2835007.8781271726 0 0 0 0 2416553.2668057233 5516962.7927123904 0 5516962.7927123904 -482922.84100185335 0 0 0 0 -4377770.8913536072 6776249.0174674988 0 6776249.0174674988 40493.511154174805 0 0 0 0 3031444.2425537109 7015966.0357666016 0 7015966.0357666016 45878.617172241211 0 0 0 0 1191017.9460220337 8546147.6311416626 0 8546147.6311416626 -1908893.2708816528 0 0 0 0 -975847.31829293072 1009274.2997404635 0 1009274.2997404635 -288715.06523752213 0 0 0 0 -2369991.718963623 14301074.738464355 0 14301074.738464355 28240278.011047363 0 0 0 0 -21063068.98336792 31534583.103500366 0 31534583.103500366 7474.3765716552734 0 0 0 0 -7734513.2043533325 23443536.579681396 0 23443536.579681396 1814882.3385772705 0 0 0 0 1282673.7430496216 5913577.6083755493 0 5913577.6083755493 -653237.02619934082 0 0 0 0 -34663870.282608032 26307532.966011047 0 26307532.966011047 9498425.6363983154 0 0 0 0 -63705446.107910156 14854961.28527832 0 14854961.28527832 14690235.030029297 0 0 0 0 -101032.48208544764 5668967.6711361445 0 5668967.6711361445 5008424.6448512226 0 0 0 0 4577903.4756256454 7971280.6136610061 0 7971280.6136610061 -269739.76508511603 0 0 0 0 -17554385.00819397 19153413.343811035 0 19153413.343811035 5314352.5353546143 0 0 0 0 -743970.05905745178 18341934.651293464 0 18341934.651293464 3808479.3458132744 0 0 0 0 -2615737.4122085571 27079263.60723877 0 27079263.60723877 -1660972.0926818848 0 0 0 0 -13521010.925186157 29488296.081314087 0 29488296.081314087 5626812.4866485596 0 0 0 0 -1796535.5400286764 22160172.975836843 0 22160172.975836843 5504426.8698798269 0 0 0 0 -6220223.6467552185 30009252.216867447 0 30009252.216867447 19503010.94178772 0 0 0 0 6990854.8865203857 9642688.2417602539 0 9642688.2417602539 -680418.1616973877 0 0 0 0 6663657.3020303678 8413274.4874520674 0 8413274.4874520674 -12231692.592232242 0 0 0 0 36404612.007049561 41083883.858078003 0 41083883.858078003 -19467300.392692566 0 0 0 0 -9850989.8714599609 45475629.554821014 0 45475629.554821014 336053.88404846191 0 0 0 0 4483343.7629241943 6575232.2830047607 0 6575232.2830047607 -4745952.4316673279 0 0 0 0 161530333.27568054 34301536.124610901 0 34301536.124610901 -89454642.693099976 0 0 0 0 5738101.6278554928 2870976.9594602175 0 2870976.9594602175 -11250034.376804404 0 0 0 0 100115466.22892761 13437433.272705078 0 13437433.272705078 -1804348.2977619171 0 0 0 0 145256181.70292664 65452998.719207764 0 65452998.719207764 -86606643.925094604 0 0 0 0 221160614.72332764 -47438346.404876709 0 -47438346.404876709 22089360.933349609 0 0 0 0 -58216955.882137299 35343130.723920822 0 35343130.723920822 19701958.138900757 0 0 0 0 -10848394.218516141 12405142.053273557 0 12405142.053273557 8203311.158264339 0 0 0 0 -14720739.314483643 116820998.64855957 0 116820998.64855957 -64403718.324737549 0 0 0 0 797689937.91860962 1555672868.5798645 0 1555672868.5798645 2357416404.6983032 0 0 0 0 1142900524.5759563 2127655574.6229663 0 2127655574.6229663 1805492195.364975 0 0 0 0 1395486213.5715666 127926307.73701048 0 127926307.73701048 -3985607.8862609863 0 0 0 0 2362777490.4136505 1094301245.2364006 0 1094301245.2364006 1271408336.8153534 0 0 0 0 708960251.8704834 1302547967.8319626 0 1302547967.8319626 1337713944.9280853 0 0 0 0 505855455.75357056 525366393.08672333 0 525366393.08672333 556639487.7769165 0 0 0 0 1125960578.4092293 1972809202.3557663 0 1972809202.3557663 1716884631.0344696 0 0 0 0 1314628667.5149231 1988463312.1346283 0 1988463312.1346283 281370190.65200806 0 0 0 0 1007674478.3201294 1626005366.9756851 0 1626005366.9756851 1655826754.2655334 0 0 0 0 1431098507.35672 1695949698.3754272 0 1695949698.3754272 1644171564.9664555 0 0 0 0 -508098.48054923862 2372429.9334985744 0 2372429.9334985744 -697282.8522830978 0 0 0 0 1392750812.1237612 2022972383.2391424 0 2022972383.2391424 1684199908.7700806 0 0 0 0 1150067920.5118561 2427567807.3645897 0 2427567807.3645897 3729994290.8207703 0 0 0 0 3258891.2857162952 4141302.5225996897 0 4141302.5225996897 -1234737.7879049918 0 0 0 0 -236916831.55459595 -261509098.90567017 0 -261509098.90567017 409480144.1434021 0 0 0 0 -7352692.5847754329 10458596.699949691 0 10458596.699949691 2966620.2661028206 0 0 0 0 -142698.66618232464 1129217.1199133694 0 1129217.1199133694 270624.31261809915 0 0 0 0 -312932451.80047607 489037040.45274353 0 489037040.45274353 2245162889.5949097 0 0 0 0 554892230.4381752 321735040.46020222 0 321735040.46020222 164743631.93579102 0 0 0 0 -22008.044162474573 135552.18972790241 0 135552.18972790241 -277294.90557730198 0 0 0 0 -3607229.6588988006 9653587.1233756095 0 9653587.1233756095 841741.41910555959 0 0 0 0 -403990.41336222738 7239411.061159119 0 7239411.061159119 -739180.62704068609 0 0 0 0 18070858.572143555 -49037368.235229492 0 -49037368.235229492 152030107.38668823 0 0 0 0 297385245.98365784 552239001.56472969 0 552239001.56472969 -207724497.65833282 0 0 0 0 -19195233.939605713 -42085009.022338867 0 -42085009.022338867 163630728.20030212 0 0 0 0 -73076076.405441284 56992340.384498596 0 56992340.384498596 130585661.28181458 0 0 0 0 6218931.2672424316 69201026.154975891 0 69201026.154975891 117678708.04830933 0 0 0 0 381211693.2984848 762999021.02537918 0 762999021.02537918 -363453222.2855835 0 0 0 0 -319611688.91645813 382680167.4441452 0 382680167.4441452 -511295551.41246033 0 0 0 0 -8948585.3684692383 7781161.4237136841 0 7781161.4237136841 25405943.407247543 0 0 0 0 -213553745.11632729 -84520867.357682228 0 -84520867.357682228 16327907.567214966 0 0 0 0 -728624798.11314392 134064309.39665222 0 134064309.39665222 -34398515.888362885 0 0 0 0 1132826.8150935173 929508.86394157819 0 929508.86394157819 -1767936.8358696625 0 0 0 0 1618808012.9835815 1348401280.5855713 0 1348401280.5855713 961435509.24000549 0 0 0 0 1832434255.8169689 1990255439.2700024 0 1990255439.2700024 700409613.47665405 0 0 0 0 -543360613.684021 875373939.46498871 0 875373939.46498871 -192342628.26760864 0 0 0 0 1282235350.6038666 1126215050.509552 0 1126215050.509552 -157995376.84027863 0 0 0 0 311039634.23431396 923542905.59009552 0 923542905.59009552 1449719323.0388184 0 0 0 0 167772690.43854523 1431964068.2055893 0 1431964068.2055893 1531494835.3769531 0 0 0 0 247164460.76296997 1574183739.003006 0 1574183739.003006 690882149.06568146 0 0 0 0 738357343.79707718 1156280919.7992096 0 1156280919.7992096 1040932832.8495789 0 0 0 0 458988964.13975334 83616807.065771103 0 83616807.065771103 -348424.16069030762 0 0 0 0 9484046.5624383204 1491416.5443974435 0 1491416.5443974435 -5583042.0425754189 0 0 0 0 217409893.53291321 304911082.49846649 0 304911082.49846649 -654210951.2181015 0 0 0 0 -224343755.55496979 367754562.88248062 0 367754562.88248062 -479978604.37164307 0 0 0 0 648194132.3167305 876514675.74458981 0 876514675.74458981 -28294779.420959473 0 0 0 0 -399233629.87265015 187953901.03141785 0 187953901.03141785 -430585367.23257446 0 0 0 0 2440744858.6617889 935706557.81315994 0 935706557.81315994 337513354.67784119 0 0 0 0 1616684.2032994367 -857827.44097594172 0 -857827.44097594172 -113602.24798156321 0 0 0 0 -1278866117.5973129 1619839238.8563538 0 1619839238.8563538 352665349.0640564 0 0 0 0 -171612288.98057556 287666993.41769409 0 287666993.41769409 -428773450.59461975 0 0 0 0 546021150.38739204 90959352.805719852 0 90959352.805719852 -504403182.62779236 0 0 0 0 376361080.41607666 185512331.66175079 0 185512331.66175079 -555376564.23197174 0 0 0 0 197302205.49224377 102446599.09404135 0 102446599.09404135 -577516419.61671448 0 0 0 0 356060962.14277649 -64932557.405715942 0 -64932557.405715942 -875970736.80497742 0 0 0 0 -26124282.164642334 -116984497.62366486 0 -116984497.62366486 -531673484.20543671 0 0 0 0 142438082.5402298 -152475110.6909523 0 -152475110.6909523 -1356975707.0513153 0 0 0 0 -3477601070.3386745 1535130727.6221495 0 1535130727.6221495 -275064366.39138794 0 0 0 0 -111619181.27705383 -329862825.83681488 0 -329862825.83681488 -471361313.46707153 0 0 0 0 118066.28468363918 468396.36910575628 0 468396.36910575628 -4763326.9220654666 0 0 0 0 -2473146812.1679411 -59440937.978176355 0 -59440937.978176355 -600638146.97238159 0 0 0 0 -2045664911.4194946 1091863692.9302559 0 1091863692.9302559 -1748847196.7524147 0 0 0 0 -2512415063.9997406 491287482.12936401 0 491287482.12936401 -68654477.32824707 0 0 0 0 -309139726.9699707 832800929.26467896 0 832800929.26467896 -1494352342.3849669 0 0 0 0 -1650204407.5470581 771138183.80873871 0 771138183.80873871 -69208015.384893745 0 0 0 0 -2164977091.5181274 -72985240.914054871 0 -72985240.914054871 167815205.35934448 0 0 0 0 -2642496691.6847992 307380551.13355637 0 307380551.13355637 -85549310.82157135 0 0 0 0 -1921362248.9576416 818341243.47957611 0 818341243.47957611 -588114511.11555481 0 0 0 0 -2996159765.3048248 335436851.26906013 0 335436851.26906013 522014144.76055908 0 0 0 0 -2927402352.3069077 526294239.02371407 0 526294239.02371407 -342531553.45349121 0 0 0 0 -173242665.99339294 -196317145.70652771 0 -196317145.70652771 62214035.465362549 0 0 0 0 -1923148636.457077 640765938.99699402 0 640765938.99699402 1388757885.8392944 0 0 0 0 499036464.84118652 848320462.68759918 0 848320462.68759918 607075421.57273102 0 0 0 0 139346117.53354645 1084290422.1475277 0 1084290422.1475277 469322665.65756226 0 0 0 0 452581025.53140259 161874292.32022095 0 161874292.32022095 -506410470.9950943 0 0 0 0 546915539.0473938 714887820.04103088 0 714887820.04103088 246181426.00975037 0 0 0 0 1004616348.0510559 305490636.26987457 0 305490636.26987457 603443980.74436951 0 0 0 0 1020290557.3001251 1525313744.6275635 0 1525313744.6275635 1034725834.3266869 0 0 0 0 326981409.90983582 1015489721.2528534 0 1015489721.2528534 1005696629.2636948 0 0 0 0 371723327.74468994 1421196430.551487 0 1421196430.551487 3430924509.9478683 0 0 0 0 2520205674.4782257 2162642581.9276352 0 2162642581.9276352 744908436.06338978 0 0 0 0 -577439093.80971527 106042898.35178757 0 106042898.35178757 3210604407.4491348 0 0 0 0 975191282.55935574 2352937538.9502292 0 2352937538.9502292 704122833.23942566 0 0 0 0 1241853866.9132538 113396147.3641243 0 113396147.3641243 1343082.0150604248 0 0 0 0 -8494408.5363826752 18026672.213076994 0 18026672.213076994 -3518919.9261187017 0 0 0 0 -665760.04545341432 6644633.1573906541 0 6644633.1573906541 2183322.8320932761 0 0 0 0 -2110168.6803889275 32322638.387103081 0 32322638.387103081 7046502.8046112061 0 0 0 0 14807358.453838348 28335962.451375008 0 28335962.451375008 37024.882614135742 0 0 0 0 11931351.932220459 20683077.927574158 0 20683077.927574158 3818537.3240718842 0 0 0 0 -2671254.1506919861 30427567.78443718 0 30427567.78443718 -6112.7796478271484 0 0 0 0 -3008656573.8973999 4779744090.0092621 0 4779744090.0092621 1369474257.812561 0 0 0 0 41936929.886901855 4957304258.4005814 0 4957304258.4005814 -475105.96716308594 0 0 0 0 -5301885058.8271341 2721723840.8887162 0 2721723840.8887162 1760684179.1628723 0 0 0 0 -5324555906.8400269 127651932.71056366 0 127651932.71056366 939765008.14997864 0 0 0 0 -4557356.0205161348 7609407.7408581153 0 7609407.7408581153 2102757.0529149473 0 0 0 0 -1809708218.0878448 791256317.61975098 0 791256317.61975098 1057688080.5886631 0 0 0 0 -2520369020.4078064 3096945149.6960602 0 3096945149.6960602 1333259611.087265 0 0 0 0 -255099776.98209381 880945737.94701767 0 880945737.94701767 555962069.84841919 0 0 0 0 -2626887439.0288734 1512849715.5195808 0 1512849715.5195808 659966054.08413696 0 0 0 0 -3306676548.5006866 2962007246.2683716 0 2962007246.2683716 1402247978.9804993 0 0 0 0 -4862449330.4923248 1886361637.830658 0 1886361637.830658 1587550839.2695312 0 0 0 0 -2299733051.1655579 2819273678.0515518 0 2819273678.0515518 912754256.79603577 0 0 0 0 -1556474382.7979889 1843265545.4733887 0 1843265545.4733887 290599735.76182556 0 0 0 0 -2293895544.4702301 1435108226.4683609 0 1435108226.4683609 1262029879.0971613 0 0 0 0 -3035556490.9327393 2635561826.5467682 0 2635561826.5467682 -450447731.64535522 0 0 0 0 -2850789878.5917053 883137416.50221252 0 883137416.50221252 100166141.82319641 0 0 0 0 -9492915667.6843872 1353640140.7752075 0 1353640140.7752075 -83715834.373931885 0 0 0 0 -2740177054.3708344 1207850787.3475342 0 1207850787.3475342 -2931602149.0725403 0 0 0 0 -172039847.01864624 1644741177.0605164 0 1644741177.0605164 -2767260759.7612305 0 0 0 0 412261118.60717773 3502536214.0727234 0 3502536214.0727234 -3696103248.7252464 0 0 0 0 -573360514.52215576 2368645326.818512 0 2368645326.818512 -2018936351.5214844 0 0 0 0 -1995493.349396877 1516263.0918860864 0 1516263.0918860864 818196.84093096852 0 0 0 0 1107895970.0374146 377947658.77285004 0 377947658.77285004 290633237.11193848 0 0 0 0 392825271.00366211 3215523064.0932312 0 3215523064.0932312 -3668587575.2200775 0 0 0 0 -2939581375.5874038 547381958.31207609 0 547381958.31207609 -221275947.85681152 0 0 0 0 -28275682.307006836 468888334.42891693 0 468888334.42891693 73843029.192792892 0 0 0 0 -1753112.1887710169 13468928.823832257 0 13468928.823832257 -15836412.802498177 0 0 0 0 -541691201.71051025 513296815.20132446 0 513296815.20132446 99933394.643499374 0 0 0 0 -265989503.28527832 -63783251.007476807 0 -63783251.007476807 1065835117.3476257 0 0 0 0 -50223800.115463257 34973942.795860291 0 34973942.795860291 40910234.892158508 0 0 0 0 -5701787.2854969809 4016039.234382011 0 4016039.234382011 18927394.15959157 0 0 0 0 -677453.71860324778 3744167.2232488915 0 3744167.2232488915 805771.31593948603 0 0 0 0 -1650295693.3294296 1949704047.486393 0 1949704047.486393 1291150373.8895416 0 0 0 0 3436714320.8974991 718171516.29462433 0 718171516.29462433 -1288646059.5139389 0 0 0 0 897027989.03993225 958139383.93349457 0 958139383.93349457 44183209.666122437 0 0 0 0 -163483307.09670258 25556628.028358459 0 25556628.028358459 39169625.170478821 0 0 0 0 11555687.981155396 34045078.018081665 0 34045078.018081665 -10894746.158172607 0 0 0 0 -21172965.972370148 96822177.479344845 0 96822177.479344845 -166221.15849304199 0 0 0 0 -518549.45601460524 6472440.6060009897 0 6472440.6060009897 1404800.7492029667 0 0 0 0 -1820582925.3076324 5115463750.524559 0 5115463750.524559 23085033.362426758 0 0 0 0 -2331419.9808978932 2716729.9538634121 0 2716729.9538634121 6220634.5394431502 0 0 0 0 4071398567.122406 3366590950.0214539 0 3366590950.0214539 -1053827448.3898468 0 0 0 0 -2892260086.7518845 2240392274.6216278 0 2240392274.6216278 -1058945586.6915588 0 0 0 0 666908.8763885498 2738979097.0190277 0 2738979097.0190277 -1765722197.6712036 0 0 0 0 -1710268.3857628172 5072604.7636126056 0 5072604.7636126056 -3212237.7553135157 0 0 0 0 -1761302832.62146 3498283719.2215424 0 3498283719.2215424 1121973.9252929688 0 0 0 0 119827380.0975647 62881139.885803223 0 62881139.885803223 -41854213.308349609 0 0 0 0 -15504871.80973053 46357818.003360748 0 46357818.003360748 7093578.0741271973 0 0 0 0 49592774.198181152 94539375.438354492 0 94539375.438354492 135648.6931410837 0 0 0 0 9561547.2391719818 52210163.390999317 0 52210163.390999317 35527086.622558594 0 0 0 0 81479768.092910767 25131806.702919006 0 25131806.702919006 -21795949.90625 0 0 0 0 -120025.38960266113 741758.95994567871 0 741758.95994567871 -1668083.3493804932 0 0 0 0 -1855925650.1181488 1502236473.4328842 0 1502236473.4328842 -2576844555.6898499 0 0 0 0 1464536.7782684565 3640211.4268183783 0 3640211.4268183783 3349672.0859409049 0 0 0 0 7595572.7102203369 29014819.867950439 0 29014819.867950439 33932545.364578247 0 0 0 0 -2459371.8734809086 14528601.613027042 0 14528601.613027042 -14638576.460694179 0 0 0 0 -3587049.572658754 6686036.627903372 0 6686036.627903372 14647787.440185405 0 0 0 0 19423415.304901123 -35936661.656517029 0 -35936661.656517029 135053890.0429306 0 0 0 0 -579273812.81750488 8207460.9765853882 0 8207460.9765853882 178456112.73647499 0 0 0 0 -88419222.470567703 -63905321.186322689 0 -63905321.186322689 171160468.18147278 0 0 0 0 460439.2551574707 7446940.1412582397 0 7446940.1412582397 83548693.622375488 0 0 0 0 809746330.10582733 652923293.88749695 0 652923293.88749695 254384662.73066711 0 0 0 0 -40058009.455963135 285861465.75398254 0 285861465.75398254 496976044.55244446 0 0 0 0 499094332.86178589 269438698.03356934 0 269438698.03356934 205055070.10948181 0 0 0 0 -405934.88300299423 259777644.75585634 0 259777644.75585634 443055103.40420532 0 0 0 0 -224555537.98358154 -696261267.3955307 0 -696261267.3955307 -533892220.84838867 0 0 0 0 265706847.17621613 1002118446.4334641 0 1002118446.4334641 854257352.4619751 0 0 0 0 -2223390256.9257507 -613928710.60705566 0 -613928710.60705566 2765081969.052887 0 0 0 0 -782133830.73803711 538740069.17485809 0 538740069.17485809 -520049998.54190969 0 0 0 0 50801.522502213717 2342859.9415759221 0 2342859.9415759221 3114790.3031279147 0 0 0 0 -170942556.4611969 1746242384.9807129 0 1746242384.9807129 2003422261.7388 0 0 0 0 -605152591.85968018 589285651.1678009 0 589285651.1678009 -522453562.56680298 0 0 0 0 -821251.8234215565 1004327.0273297951 0 1004327.0273297951 4612154.6263538226 0 0 0 0 -87512597.465648651 258298328.23886442 0 258298328.23886442 -808054307.71984863 0 0 0 0 -946885.75441411138 779710.40460788459 0 779710.40460788459 1928634.4667507708 0 0 0 0 -666062404.96796417 348611637.45862007 0 348611637.45862007 -921556342.10374451 0 0 0 0 -1448802969.8272705 1258182968.3387833 0 1258182968.3387833 -402246553.65469742 0 0 0 0 -5716534206.687027 3194223092.0242519 0 3194223092.0242519 -1300342391.0184021 0 0 0 0 -4993391218.0556946 -156099000.36758423 0 -156099000.36758423 -531502920.01266479 0 0 0 0 -2317831079.1063843 1109758827.9319305 0 1109758827.9319305 -380235057.48056 0 0 0 0 -2372467739.0475616 1428051344.650528 0 1428051344.650528 -379415333.67316437 0 0 0 0 -3302899809.7500153 580967328.77078247 0 580967328.77078247 193262732.43267822 0 0 0 0 -2197677303.8537979 428305409.32049561 0 428305409.32049561 -489987900.19529724 0 0 0 0 -2519389975.784317 572206308.52600861 0 572206308.52600861 83261387.382423401 0 0 0 0 -705452357.07756805 776835236.47052574 0 776835236.47052574 -606964794.93127441 0 0 0 0 -1966671861.2055511 754789201.11341858 0 754789201.11341858 -276007185.27841187 0 0 0 0 -1581750839.421936 965783706.67536926 0 965783706.67536926 -293483477.86143398 0 0 0 0 -1477532207.2277222 635216913.36399078 0 635216913.36399078 -304352985.05470276 0 0 0 0 -1059279526.5330963 659480431.85037994 0 659480431.85037994 -426384827.16362762 0 0 0 0 -1635464769.201107 819664109.80625439 0 819664109.80625439 -48371173.820098877 0 0 0 0 -1664191008.1626282 957902850.56158447 0 957902850.56158447 -619408956.51586914 0 0 0 0 -2135596316.5841637 1032630604.6970234 0 1032630604.6970234 -243622197.19613647 0 0 0 0 -1653783309.0576477 856432828.98796082 0 856432828.98796082 -418053642.12374878 0 0 0 0 -1115726236.6781616 1175642788.6607819 0 1175642788.6607819 -306119584.95243835 0 0 0 0 -1070364427.9594574 1027959329.6626663 0 1027959329.6626663 169727436.21805763 0 0 0 0 -817316379.9291687 1199920985.1229553 0 1199920985.1229553 227599597.76277161 0 0 0 0 -561695.09841918945 1963895655.6532021 0 1963895655.6532021 263442243.31591034 0 0 0 0 -820095176.75534058 1193279996.8140411 0 1193279996.8140411 1525909372.5312729 0 0 0 0 1056271.911623694 1822213.7875384837 0 1822213.7875384837 686206.16798432171 0 0 0 0 -461873021.28607178 142182850.38381958 0 142182850.38381958 867694486.85568237 0 0 0 0 88750.313049316406 167219117.92770386 0 167219117.92770386 -1044689619.7504158 0 0 0 0 -459834479.62258911 379371953.69713593 0 379371953.69713593 -234997973.41584778 0 0 0 0 -1065083405.7026367 677325434.41751099 0 677325434.41751099 -49421473.466751099 0 0 0 0 -895581007.55056763 398904687.70127869 0 398904687.70127869 407617900.58477783 0 0 0 0 -10155814.956911314 23869454.277116667 0 23869454.277116667 -11010544.690188669 0 0 0 0 46955182.085624695 425116300.27257252 0 425116300.27257252 -277685399.82553101 0 0 0 0 311793033.35380554 97354703.358459473 0 97354703.358459473 -61033242.031311035 0 0 0 0 46996252.649435043 71842705.44770813 0 71842705.44770813 -8733243.346206665 0 0 0 0 53962512.522704855 4266535.0902612209 0 4266535.0902612209 -68146027.327072144 0 0 0 0 -65368369.822381973 49829645.875671387 0 49829645.875671387 39158876.544827461 0 0 0 0 198074060.10667992 51696755.710342407 0 51696755.710342407 -79877858.995285034 0 0 0 0 86918018.743974686 114753474.84494781 0 114753474.84494781 32915335.383651733 0 0 0 0 236796324.25048828 113684418.55375671 0 113684418.55375671 -11541285.14553833 0 0 0 0 -86618856.938812256 71392403.879013062 0 71392403.879013062 103050583.1879425 0 0 0 0 19434792.574401855 -181015989.23583221 0 -181015989.23583221 -87484583.359893799 0 0 0 0 4475988.0599685013 3713873.8233601935 0 3713873.8233601935 1392696.7595236003 0 0 0 0 210596851.38274384 153745081.86972427 0 153745081.86972427 6692750.0694274902 0 0 0 0 163039039.78672409 -25341020.994847298 0 -25341020.994847298 -175960641.57556152 0 0 0 0 -263549024.02879333 245927767.54611206 0 245927767.54611206 175374195.70897293 0 0 0 0 56606.983446091413 1215875.4531010166 0 1215875.4531010166 1439020.4905442074 0 0 0 0 -95038997.168174744 81472182.440208435 0 81472182.440208435 36881115.56980896 0 0 0 0 249413634.22886658 -33584949.804534912 0 -33584949.804534912 55940912.818969727 0 0 0 0 78555124.624984741 -23334864.856674194 0 -23334864.856674194 -29775035.75567627 0 0 0 0 228938018.38439941 31092304.975616455 0 31092304.975616455 -108776445.1769104 0 0 0 0 161995672.38540649 -77702774.291046143 0 -77702774.291046143 -208796758.35479736 0 0 0 0 131107229.43225098 118064273.25274658 0 118064273.25274658 -163422558.85863113 0 0 0 0 124586604.98495483 103085764.01000214 0 103085764.01000214 107607747.00561523 0 0 0 0 118917036.24707031 81088777.894348145 0 81088777.894348145 167373514.82192993 0 0 0 0 482684342.89442444 -6276932.8177185059 0 -6276932.8177185059 -286196908.19038391 0 0 0 0 520629900.07772064 326032427.62264252 0 326032427.62264252 -99024655.770061493 0 0 0 0 -59704905.290408134 -287572857.19499207 0 -287572857.19499207 240880579.75796509 0 0 0 0 -9844916.7085175365 2567887.8358204197 0 2567887.8358204197 3337831.1249063313 0 0 0 0 -9105063.7261641212 21522510.754209407 0 21522510.754209407 -7269022.6356641352 0 0 0 0 -90731787.888633668 -265312212.22694689 0 -265312212.22694689 -281705714.19110107 0 0 0 0 18693572.548988342 167935335.65192413 0 167935335.65192413 -364445001.31542969 0 0 0 0 112346342.58140182 -48413616.084823608 0 -48413616.084823608 119562185.5682373 0 0 0 0 -186010019.34274292 258921362.52398682 0 258921362.52398682 -56680066.26348877 0 0 0 0 598214555.68063354 364861861.78083038 0 364861861.78083038 -2373518.7574157715 0 0 0 0 -27174401.063994445 26022085.494163737 0 26022085.494163737 4287239.7212763131 0 0 0 0 58209123.288618088 57112702.923187256 0 57112702.923187256 32033977.966995239 0 0 0 0 62099067.550184727 44950388.223659515 0 44950388.223659515 -1189920.9418487549 0 0 0 0 60186158.477596283 48194295.79624939 0 48194295.79624939 12552526.506256104 0 0 0 0 10903162.898201682 8618160.9447799623 0 8618160.9447799623 -17290738.866125211 0 0 0 0 66811947.329343319 52881299.548347473 0 52881299.548347473 -2461351.1966094971 0 0 0 0 68250568.560787201 56342898.693725586 0 56342898.693725586 2465792.0013122559 0 0 0 0 52699834.51226902 51740723.627342224 0 51740723.627342224 3141621.8721199036 0 0 0 0 29654198.669879913 102910142.30724335 0 102910142.30724335 76886273.481628418 0 0 0 0 33441375.112129211 32821465.158569336 0 32821465.158569336 -12567696.380340576 0 0 0 0 -117292031.2933445 -21458799.449302673 0 -21458799.449302673 45155064.742736816 0 0 0 0 940436073.54813957 14214753.023727417 0 14214753.023727417 98467955.476379395 0 0 0 0 244236210.5719862 478860022.03022003 0 478860022.03022003 179549.15325927734 0 0 0 0 -883667377.30525303 217289352.17268372 0 217289352.17268372 33837985.943740845 0 0 0 0 -93660102.787731171 463611505.83081055 0 463611505.83081055 -1056756450.1599121 0 0 0 0 -187424.14766392484 191840.84049459174 0 191840.84049459174 -410714.0475628823 0 0 0 0 439972085.44329929 316672732.82303619 0 316672732.82303619 -79226343.607421875 0 0 0 0 395431506.73782158 421640918.91993713 0 421640918.91993713 -279275660.83709717 0 0 0 0 155577750.78027916 258827794.30384827 0 258827794.30384827 370129307.66976166 0 0 0 0 -180025708.07434368 437813672.28357697 0 437813672.28357697 101427722.94788361 0 0 0 0 240468107.95535612 108406715.63001251 0 108406715.63001251 159348176.67913818 0 0 0 0 -21931152.174713135 -39075918.842895508 0 -39075918.842895508 186417391.01293945 0 0 0 0 -87946136.850203991 365657.65287780762 0 365657.65287780762 195992940.699646 0 0 0 0 -435132.95129183098 -2001403.6848434024 0 -2001403.6848434024 -89476.137321278453 0 0 0 0 7649397.5558264786 8274341.8983842134 0 8274341.8983842134 -16303576.153772086 0 0 0 0 18327807.766162872 50361364.901390076 0 50361364.901390076 23509194.652267456 0 0 0 0 -1972559.9579577949 6707548.6049536085 0 6707548.6049536085 12156155.714087516 0 0 0 0 810889917.27233696 223564828.42316437 0 223564828.42316437 -119986421.18499756 0 0 0 0 501590724.78058338 530860806.85124207 0 530860806.85124207 -157547855.98284912 0 0 0 0 -86985143.997755051 2021353.2643661499 0 2021353.2643661499 -67866820.889190674 0 0 0 0 218571501.82333589 39610326.330553055 0 39610326.330553055 -4047862.473815918 0 0 0 0 -1110219.349718798 1881748.2386939712 0 1881748.2386939712 -1099630.7862920761 0 0 0 0 -828881409.73785973 -195885707.44271851 0 -195885707.44271851 -14808481.078651428 0 0 0 0 110144261.07758808 429388754.67981339 0 429388754.67981339 -138129907.17056274 0 0 0 0 -201214325.22169304 -128546037.06841278 0 -128546037.06841278 -103118659.87986755 0 0 0 0 -414290630.35743284 9312803.2682495117 0 9312803.2682495117 123654702.70593262 0 0 0 0 -141606800.06307936 -25317438.035663605 0 -25317438.035663605 2881343.0582885742 0 0 0 0 -2748610.7303793659 5655155.5307664685 0 5655155.5307664685 -2836790.1186179966 0 0 0 0 -125368720.84572792 38221785.716651917 0 38221785.716651917 -31264067.162200928 0 0 0 0 -42704135.918732166 190633133.90219498 0 190633133.90219498 138457571.88980103 0 0 0 0 -69147887.453635216 225993232.40898132 0 225993232.40898132 92183806.181304932 0 0 0 0 17248351.551042557 250155290.93591309 0 250155290.93591309 4616012.7240142822 0 0 0 0 -18576113.171524048 178609189.46586609 0 178609189.46586609 -13272954.887145996 0 0 0 0 -62472302.417987823 273891755.29792786 0 273891755.29792786 71993271.02482605 0 0 0 0 96572955.629119873 116419150.02192688 0 116419150.02192688 -4071219.0335922241 0 0 0 0 110591519.9258709 51196397.886154175 0 51196397.886154175 -53682015.973571777 0 0 0 0 125947132.47210646 16494608.845718384 0 16494608.845718384 771325.00639343262 0 0 0 0 425259343.01289749 243365266.39456177 0 243365266.39456177 385886005.24829102 0 0 0 0 561245.35224756878 163077.27855907008 0 163077.27855907008 -278642.98359279335 0 0 0 0 171104388.94257069 259330269.86296082 0 259330269.86296082 64528424.449645996 0 0 0 0 306192837.20818138 63160511.263252258 0 63160511.263252258 154954854.22015381 0 0 0 0 -33017985.592950821 288278685.25465393 0 288278685.25465393 149743444.82720947 0 0 0 0 73645909.333400726 193720209.3288269 0 193720209.3288269 147470620.09068489 0 0 0 0 71756030.449829102 217139217.65460205 0 217139217.65460205 106431872.82781982 0 0 0 0 86338709.23636055 210665648.91998291 0 210665648.91998291 84103090.887634277 0 0 0 0 111361655.59245777 193411557.46230316 0 193411557.46230316 13461250.502563477 0 0 0 0 75946234.859908819 241512918.30986404 0 241512918.30986404 61469679.71484375 0 0 0 0 -60597015.545717239 184828129.81777954 0 184828129.81777954 47717317.221069336 0 0 0 0 59146741.00706768 140028202.53823853 0 140028202.53823853 -11907223.349304199 0 0 0 0 3691408.967041845 5479697.6995026041 0 5479697.6995026041 -5812459.8415873349 0 0 0 0 -138866035.14865923 -48961144.890846252 0 -48961144.890846252 79763722.378433228 0 0 0 0 106129245.97511864 -217375407.35803223 0 -217375407.35803223 115193464.47598267 0 0 0 0 296856879.0651226 218706033.94319153 0 218706033.94319153 -95393158.905685425 0 0 0 0 541284279.23748827 -226230594.40342712 0 -226230594.40342712 -7298234.8255310059 0 0 0 0 -192806534.36001921 -29881999.504966736 0 -29881999.504966736 10175124.066864014 0 0 0 0 167374115.47225595 -34165429.637388229 0 -34165429.637388229 -67554934.478210449 0 0 0 0 -619387832.53842545 202191926.33504486 0 202191926.33504486 63324489.138061523 0 0 0 0 1069314.7722073917 1320059.0836455976 0 1320059.0836455976 -1880607.2049825042 0 0 0 0 8897995.8657131195 72351805.697406769 0 72351805.697406769 -144304675.13796997 0 0 0 0 -281767086.70365715 41945713.641540527 0 41945713.641540527 -18248292.689570427 0 0 0 0 -204294725.01529765 337492188.82159805 0 337492188.82159805 28553971.478607178 0 0 0 0 -141627638.20832443 -475766249.38032532 0 -475766249.38032532 558428171.89509583 0 0 0 0 -146681093.18992901 389884681.74887848 0 389884681.74887848 -562173131.16534424 0 0 0 0 346525854.44286919 -406536641.26019287 0 -406536641.26019287 -25948478.781448364 0 0 0 0 -363182446.04419708 -490185594.03985596 0 -490185594.03985596 -18783719.536895752 0 0 0 0 -287039690.17884636 445022302.78799438 0 445022302.78799438 333853351.92625427 0 0 0 0 -883987906.29719591 410613985.95156479 0 410613985.95156479 344242252.6394043 0 0 0 0 92315504.344184875 387834796.56376648 0 387834796.56376648 -550033294.89486694 0 0 0 0 160667770.48187447 195790630.42198181 0 195790630.42198181 -17160330.323257446 0 0 0 0 198001328.04947281 147379697.39093018 0 147379697.39093018 25323292.936584473 0 0 0 0 267864964.98398399 158985784.98617554 0 158985784.98617554 -296796907.74221802 0 0 0 0 167752969.78364944 -40583181.892745972 0 -40583181.892745972 -389335963.07440186 0 0 0 0 197325879.82567024 225198245.69976044 0 225198245.69976044 307574266.77381897 0 0 0 0 240416716.40793419 140408112.71337891 0 140408112.71337891 -45158411.366020203 0 0 0 0 219323670.75961113 81442770.66368103 0 81442770.66368103 173293558.16900635 0 0 0 0 -23037455.379009247 105291809.8121376 0 105291809.8121376 269089720.45849609 0 0 0 0 68856873.031354904 -36735547.645717621 0 -36735547.645717621 575127653.17811584 0 0 0 0 160204074.38973236 -30412067.828277588 0 -30412067.828277588 -120760840.6147995 0 0 0 0 885956.20212722942 141696.82862567902 0 141696.82862567902 -1964211.4929386973 0 0 0 0 261194515.90105724 62469022.581111908 0 62469022.581111908 -106130665.75756836 0 0 0 0 95809049.795886174 49097024.363962702 0 49097024.363962702 -18647624.366821289 0 0 0 0 95813267.258560181 3535176.6587219238 0 3535176.6587219238 -35849287.741256714 0 0 0 0 1474362.4838790153 2423597.1367520764 0 2423597.1367520764 -5409522.2733119503 0 0 0 0 -29717538.381578445 -37110337.289764404 0 -37110337.289764404 -39087755.185516357 0 0 0 0 -44653256.874740839 69617651.651154518 0 69617651.651154518 -42116161.321899414 0 0 0 0 38322431.623035431 30882622.978088379 0 30882622.978088379 -26629220.696899414 0 0 0 0 34151922.210700989 33488364.629760742 0 33488364.629760742 -24674123.094726562 0 0 0 0 35272697.324840546 30138385.912590027 0 30138385.912590027 -21848994.446594238 0 0 0 0 37116601.408879519 16815890.482585907 0 16815890.482585907 -3818249.218963623 0 0 0 0 34071199.861957788 30936838.337881088 0 30936838.337881088 -8646551.2076416016 0 0 0 0 14616554.391467094 27540299.090568542 0 27540299.090568542 -8929550.2331695557 0 0 0 0 28444203.355602264 768518.99394607544 0 768518.99394607544 -18397727.219696045 0 0 0 0 66112105.152189255 30199975.122871399 0 30199975.122871399 -6454710.8497314453 0 0 0 0 65562070.361904144 35320323.053855896 0 35320323.053855896 -24037527.659606934 0 0 0 0 -193165683.36087179 63015767.17880249 0 63015767.17880249 594707988.90782166 0 0 0 0 11805205.036235571 23204419.064254761 0 23204419.064254761 -57411872.098968506 0 0 0 0 594746.09925810155 8763184.5542239472 0 8763184.5542239472 -8897230.1220656559 0 0 0 0 3892783.4573516846 6413177.9236450195 0 6413177.9236450195 -2097897.2022399902 0 0 0 0 6279232.4911980256 12595572.122220345 0 12595572.122220345 -17723841.802779287 0 0 0 0 12924487.748420604 8046908.5422222605 0 8046908.5422222605 -3152366.9319466725 0 0 0 0 2739863.9866256714 3675483.6604614258 0 3675483.6604614258 -1110381.5642089844 0 0 0 0 -1756286.0241680406 12979463.594182298 0 12979463.594182298 -14087051.60951896 0 0 0 0 6380329.4987715594 14174254.450766735 0 14174254.450766735 -8413966.5021383837 0 0 0 0 149269784.54453063 166445856.25070572 0 166445856.25070572 113383175.35681152 0 0 0 0 148259880.34402275 190958300.7872467 0 190958300.7872467 68854717.697875977 0 0 0 0 156522331.41080284 71405803.687133789 0 71405803.687133789 -170381058.34973145 0 0 0 0 -99534504.852893829 23280722.084228516 0 23280722.084228516 -21390922.155883789 0 0 0 0 33836064.448308945 17886643.039077759 0 17886643.039077759 -31566871.697570801 0 0 0 0 -1648581.9417018455 4439823.6543121338 0 4439823.6543121338 -2516500.4811775275 0 0 0 0 41599613.492478371 28033337.455886841 0 28033337.455886841 -25062729.921630859 0 0 0 0 41130558.655179977 24611242.892120361 0 24611242.892120361 -25382847.270843506 0 0 0 0 36057893.444319725 23806555.983123779 0 23806555.983123779 -13710517.789245605 0 0 0 0 35258424.027086258 20582929.825897217 0 20582929.825897217 -26053773.107410431 0 0 0 0 23983420.761193275 24656858.971054077 0 24656858.971054077 12263009.715343475 0 0 0 0 22039912.268758774 15154372.561588287 0 15154372.561588287 -9806728.4430541992 0 0 0 0 24362416.082117081 9713780.9030456543 0 9713780.9030456543 -24804874.554992676 0 0 0 0 5894975.4054185338 3036772.2449434474 0 3036772.2449434474 -7341212.0404393375 0 0 0 0 55524756.072615623 -17339465.447731018 0 -17339465.447731018 -48653872.570114136 0 0 0 0 19971309.952301025 20232440.012046814 0 20232440.012046814 -3457297.9540939331 0 0 0 0 7185791.1584972823 10840175.857226184 0 10840175.857226184 -11052236.10858883 0 0 0 0 35644724.811837196 23840080.386367798 0 23840080.386367798 -5805048.9089355469 0 0 0 0 22723811.406747818 21122545.049057007 0 21122545.049057007 -9098765.1591186523 0 0 0 0 6200757.8959396109 14968645.575311646 0 14968645.575311646 -13460255.738033568 0 0 0 0 -3938579.5057983398 12669095.112976074 0 12669095.112976074 -19067646.210830688 0 0 0 0 13590771.656747818 21643127.205810547 0 21643127.205810547 -136730.18892478943 0 0 0 0 7966070.8507719776 14992822.523536677 0 14992822.523536677 -3888911.2761284858 0 0 0 0 4495049.4979362488 11231218.734733582 0 11231218.734733582 -6700730.9196166992 0 0 0 0 4348551.7490501404 11587437.913337708 0 11587437.913337708 -6840337.640411377 0 0 0 0 20915442.659434635 16763393.07812581 0 16763393.07812581 3283618.8634589016 0 0 0 0 11872016.606609249 8239427.9860879146 0 8239427.9860879146 -12973063.55217503 0 0 0 0 -2969257.1362940557 14911668.53561382 0 14911668.53561382 -7993971.3461687993 0 0 0 0 -6804782.4743376561 14595748.041263476 0 14595748.041263476 -8923561.3920674175 0 0 0 0 -6854465.5798950195 18269987.434570312 0 18269987.434570312 -18024892.543317795 0 0 0 0 -6697641.8167495728 18499862.81855011 0 18499862.81855011 -18019761.980773926 0 0 0 0 10179385.146301867 6980858.401121147 0 6980858.401121147 -13387121.098436907 0 0 0 0 4482157.5467935456 6533431.9190606065 0 6533431.9190606065 -5823313.9290503487 0 0 0 0 -6267446.3185710907 9734679.8841762543 0 9734679.8841762543 -8064556.6264648438 0 0 0 0 53752421.860671997 8586542.4427490234 0 8586542.4427490234 -19817030.522399902 0 0 0 0 16561468.937295454 14748393.571410116 0 14748393.571410116 -8259527.6029454172 0 0 0 0 -7075328.034324646 16192012.358078003 0 16192012.358078003 -7958707.395690918 0 0 0 0 60412236.073669434 11284371.523986816 0 11284371.523986816 -19798025.188293457 0 0 0 0 -1069551.5129476823 11498014.90194935 0 11498014.90194935 -14094578.18050199 0 0 0 0 -3729575.9072418213 12419965.653991699 0 12419965.653991699 -19128978.2395401 0 0 0 0 7901151.1328735352 9491764.5269775391 0 9491764.5269775391 -8764856.0907897949 0 0 0 0 5845594.7925605774 9371137.246925354 0 9371137.246925354 -7817635.7158813477 0 0 0 0 10417843.924430847 4578601.069732666 0 4578601.069732666 -1102110.5408630371 0 0 0 0 10903248.893591952 8761084.2348850928 0 8761084.2348850928 -2361811.3802664205 0 0 0 0 9151923.1873317398 14905877.653836057 0 14905877.653836057 -9318540.3624691889 0 0 0 0 17460129.78489434 7527049.8371510897 0 7527049.8371510897 -5044785.1838055477 0 0 0 0 11031030.755004477 11338176.679697167 0 11338176.679697167 -13505431.221049398 0 0 0 0 208690765.17728233 119636294.88825226 0 119636294.88825226 68397049.558166504 0 0 0 0 252575729.726367 158083835.77152634 0 158083835.77152634 -61252195.158081055 0 0 0 0 291190202.54582024 69078754.853378296 0 69078754.853378296 36055798.242584229 0 0 0 0 12057878.534348506 -2038362.1944717225 0 -2038362.1944717225 -2590126.6965755671 0 0 0 0 9644298.7612457275 -1195509.6606292725 0 -1195509.6606292725 -3269436.5989990234 0 0 0 0 -7108951.2591222171 7910147.6898505613 0 7910147.6898505613 -5362579.8040459529 0 0 0 0 11357688.178634644 -796827.81607055664 0 -796827.81607055664 -3592189.4410400391 0 0 0 0 -5616117.5178955309 23913639.475461412 0 23913639.475461412 -10791833.605315804 0 0 0 0 21112038.824714661 6338295.8501281738 0 6338295.8501281738 -2882600.3779907227 0 0 0 0 29099883.294081174 10267514.555963138 0 10267514.555963138 -8354897.7168109715 0 0 0 0 7006072.2223216221 14448571.107581928 0 14448571.107581928 -8257278.8424859047 0 0 0 0 -6444466.8859863281 10222670.152984619 0 10222670.152984619 -6671267.6383056641 0 0 0 0 39243635.942199707 42923385.025474548 0 42923385.025474548 -388015.66522216797 0 0 0 0 48508491.285125732 16705768.951694489 0 16705768.951694489 -18955672.36239624 0 0 0 0 69396312.365661621 26825299.984527588 0 26825299.984527588 -14057121.007492065 0 0 0 0 90196564.859268188 31662789.293556213 0 31662789.293556213 -21095775.871490479 0 0 0 0 64845394.749725342 55116188.36932373 0 55116188.36932373 2401778.3225402832 0 0 0 0 59693888.197517395 -1950831.3308734894 0 -1950831.3308734894 664360.60437011719 0 0 0 0 22693040.796138674 6766759.9329747856 0 6766759.9329747856 -7949815.034043923 0 0 0 0 102741059.82298279 57490721.405136108 0 57490721.405136108 -9824066.974609375 0 0 0 0 179248573.01052856 9995037.0825576782 0 9995037.0825576782 -81689703.147109985 0 0 0 0 -8499488.3863286078 27430855.835763797 0 27430855.835763797 -13621563.966366716 0 0 0 0 -3374440.9004993439 49169323.472915649 0 49169323.472915649 -11281882.844726562 0 0 0 0 -3133317.7228181763 2642494.1194066219 0 2642494.1194066219 -1402876.9387413859 0 0 0 0 415988417.75147438 -65749997.076828003 0 -65749997.076828003 -134649874.54821777 0 0 0 0 321721646.52625656 38985348.831863403 0 38985348.831863403 -63090251.815425873 0 0 0 0 3088143.6371732526 7770235.2229376361 0 7770235.2229376361 -12789956.294642374 0 0 0 0 -12214959.648325475 1993048.6155647114 0 1993048.6155647114 6877031.2988088578 0 0 0 0 5987826.8800773621 -417152.36775970459 0 -417152.36775970459 -1388077.8921508789 0 0 0 0 55837577.046684265 16114095.82510376 0 16114095.82510376 -6717332.6374206543 0 0 0 0 -56409265.790016174 -32417132.193817139 0 -32417132.193817139 -7685509.4162597656 0 0 0 0 50818538.48150444 -11103359.471199989 0 -11103359.471199989 -77508237.167678833 0 0 0 0 62574213.682373047 3874686.6737060547 0 3874686.6737060547 12434877.875124454 0 0 0 0 102138802.64976501 3073039.9466629028 0 3073039.9466629028 -6211364.8425598145 0 0 0 0 81642817.618621826 32203580.202896118 0 32203580.202896118 -15186619.384414673 0 0 0 0 122736487.83804321 25964285.850898743 0 25964285.850898743 -19898721.963806152 0 0 0 0 62684280.873199463 9756048.5360412598 0 9756048.5360412598 -7288751.3058357239 0 0 0 0 65698279.692871094 5917794.4128723145 0 5917794.4128723145 -29375926.887470245 0 0 0 0 90734179.504867554 17125179.658309937 0 17125179.658309937 -29724078.50604248 0 0 0 0 79170389.399864197 13670289.838798523 0 13670289.838798523 -31075000.38458252 0 0 0 0 63016370.415924072 9904618.398223877 0 9904618.398223877 -27907767.611373901 0 0 0 0 58580502.059240341 -7844778.9877853394 0 -7844778.9877853394 -44926517.16796875 0 0 0 0 60843612.048965454 8483113.811126709 0 8483113.811126709 -29368685.833984375 0 0 0 0 63588076.446289062 2863661.5277862549 0 2863661.5277862549 -36882784.681396484 0 0 0 0 22471453.646728516 -10881090.722915649 0 -10881090.722915649 -29044845.549713135 0 0 0 0 4648651.2292288281 3428319.458837606 0 3428319.458837606 1925195.0438958257 0 0 0 0 -4832151.5173492432 -20323244.835136414 0 -20323244.835136414 -22993345.666473389 0 0 0 0 87954296.027450562 213620694.27483368 0 213620694.27483368 115398442.54736614 0 0 0 0 6177263.3989772797 -52502001.582178116 0 -52502001.582178116 -38603065.246109009 0 0 0 0 14267602.529472351 2953374.3332061768 0 2953374.3332061768 -19893753.359039307 0 0 0 0 65108109.571582794 5910027.2074985504 0 5910027.2074985504 -40711148.616531372 0 0 0 0 34132393.793807983 -20795371.188781738 0 -20795371.188781738 -46263265.720001221 0 0 0 0 98682720.212341309 44087159.091873169 0 44087159.091873169 -1796876.4381103516 0 0 0 0 -35492360.076030731 -282993692.63548279 0 -282993692.63548279 202211581.25097656 0 0 0 0 83428034.595245361 86124291.254440308 0 86124291.254440308 -87159091.529685974 0 0 0 0 28187158.370635986 5965199.5849456787 0 5965199.5849456787 -22523699.520111084 0 0 0 0 337352360.62300873 105410061.05991364 0 105410061.05991364 -554424214.25799561 0 0 0 0 4931574.3356781006 65046925.697364807 0 65046925.697364807 -36085011.502441406 0 0 0 0 55598559.868011475 87480713.515632629 0 87480713.515632629 -86148223.714996338 0 0 0 0 44316469.304733276 40308374.178649902 0 40308374.178649902 -21915118.25012207 0 0 0 0 107555180.66491699 64534257.291778564 0 64534257.291778564 -76015856.466018677 0 0 0 0 33320341.040054321 64539374.049686432 0 64539374.049686432 -48673611.752227783 0 0 0 0 209107701.11857605 153665756.87038422 0 153665756.87038422 -39116139.21572876 0 0 0 0 18236475.073748294 5359642.9312081374 0 5359642.9312081374 -2167663.4577041417 0 0 0 0 44198771.640625 -846602.58441162109 0 -846602.58441162109 -17562005.658981323 0 0 0 0 60188566.263031006 7331955.56945467 0 7331955.56945467 -30074184.360015869 0 0 0 0 55426617.377166748 4958084.9719390869 0 4958084.9719390869 -22692441.059204102 0 0 0 0 40852596.13470459 4188682.2155456543 0 4188682.2155456543 -22291086.294540405 0 0 0 0 47207846.046142578 -1637061.9867858887 0 -1637061.9867858887 -23955593.543533325 0 0 0 0 47158472.299499512 -2240865.7812347412 0 -2240865.7812347412 -30108954.675567627 0 0 0 0 55093248.35382843 2114190.2127733231 0 2114190.2127733231 -27725506.59197998 0 0 0 0 46411334.866485596 -5043266.7651062012 0 -5043266.7651062012 -29768472.452972412 0 0 0 0 54235841.492019653 6311794.3078041077 0 6311794.3078041077 -13383291.475952148 0 0 0 0 44677705.151641846 -2912281.4684448242 0 -2912281.4684448242 -9783159.9406890869 0 0 0 0 53232401.094970703 3942173.4752655029 0 3942173.4752655029 -18863305.87197876 0 0 0 0 54165870.804656982 3385579.5531921387 0 3385579.5531921387 -23300327.424934387 0 0 0 0 45074006.671630859 -78320.666046142578 0 -78320.666046142578 10480595.426635742 0 0 0 0 -6751037.933380127 16313920.121139526 0 16313920.121139526 -23387264.831481934 0 0 0 0 14882531.343800202 14550437.280038573 0 14550437.280038573 -12767564.430283301 0 0 0 0 -1785221.2047702931 11508084.36526116 0 11508084.36526116 -10048817.453687321 0 0 0 0 3631674.3487854004 8880930.3919677734 0 8880930.3919677734 -6169380.5940704346 0 0 0 0 103878070.59533691 68254842.664489746 0 68254842.664489746 135408013.15429688 0 0 0 0 88151842.162994385 91074550.604721069 0 91074550.604721069 103388600.96154785 0 0 0 0 150345955.80200195 12976345.64453125 0 12976345.64453125 159826581.42608643 0 0 0 0 -1000889.7918133959 3995447.5875887424 0 3995447.5875887424 771577.12108239252 0 0 0 0 102888752.61053467 86534063.532485962 0 86534063.532485962 48283457.332702637 0 0 0 0 19117196.931668561 10022771.54673456 0 10022771.54673456 -15277597.890869567 0 0 0 0 7726384.4017028809 4873087.9548339844 0 4873087.9548339844 -4235781.0311279297 0 0 0 0 10105104.341854095 5876662.5403442383 0 5876662.5403442383 -4587052.1384277344 0 0 0 0 125561600.58251953 18692755.638427734 0 18692755.638427734 -1375630.3572387695 0 0 0 0 23150578.360217188 16253436.409890614 0 16253436.409890614 2475847.7362926751 0 0 0 0 5378002.439288307 9097429.128045734 0 9097429.128045734 -7966970.2362858281 0 0 0 0 13991042.096893311 33520749.085174561 0 33520749.085174561 -5158213.5296630859 0 0 0 0 6235885.9273893461 1004444.5968542323 0 1004444.5968542323 -876276.34642063081 0 0 0 0 43308006.882141113 10981669.081954956 0 10981669.081954956 5297828.551940918 0 0 0 0 26999805.547607422 22305846.948150635 0 22305846.948150635 6512831.3637695312 0 0 0 0 26455578.294677734 24380573.578125 0 24380573.578125 5580935.0939941406 0 0 0 0 115835364.09011841 5210333.8873138428 0 5210333.8873138428 -25984123.963989258 0 0 0 0 59118653.343040466 39786769.002475739 0 39786769.002475739 -45441427.106048584 0 0 0 0 46786645.974151611 18639341.648147583 0 18639341.648147583 -7016919.0523681641 0 0 0 0 17785631.546697617 25811066.380260468 0 25811066.380260468 9770216.4035644531 0 0 0 0 19795769.23425293 22341639.329772949 0 22341639.329772949 15243125.676757812 0 0 0 0 34769786.776367188 31328780.934692383 0 31328780.934692383 -20416516.021987915 0 0 0 0 17601219.93434906 32965600.282169342 0 32965600.282169342 -594398.39318847656 0 0 0 0 26273785.133361816 25170548.28515625 0 25170548.28515625 5771151.0982055664 0 0 0 0 18643875.805908203 25293688.423217773 0 25293688.423217773 9914114.6759033203 0 0 0 0 19196888.805664062 22601315.067504883 0 22601315.067504883 15113075.303466797 0 0 0 0 20326662.774108887 19408856.990112305 0 19408856.990112305 17970105.456787109 0 0 0 0 20377910.47454834 19712155.121582031 0 19712155.121582031 12312396.531860352 0 0 0 0 24647875.184417725 20795890.828521729 0 20795890.828521729 11883592.060546875 0 0 0 0 19197756.710393906 8870317.5066261292 0 8870317.5066261292 467425.71466064453 0 0 0 0 20950043.263366699 16755722.195068359 0 16755722.195068359 13300912.061309814 0 0 0 0 20799334.502441406 16708919.916137695 0 16708919.916137695 15335683.369750977 0 0 0 0 18667828.044840805 15308012.591656763 0 15308012.591656763 -8380235.4330075681 0 0 0 0 19086150.977630615 18502593.558197021 0 18502593.558197021 21983412.680023193 0 0 0 0 -2573551.9046541527 5686669.0066372268 0 5686669.0066372268 2710431.1615902577 0 0 0 0 102281806.46279907 77316804.971435547 0 77316804.971435547 41677009.304718018 0 0 0 0 83989434.100067139 -17757444.587158203 0 -17757444.587158203 18308257.772010803 0 0 0 0 31567164.511764526 11827646.092292786 0 11827646.092292786 5323397.2979125977 0 0 0 0 160852416.82888031 42353255.389373779 0 42353255.389373779 -70164381.944961548 0 0 0 0 3069356.0471752398 2697260.1020669378 0 2697260.1020669378 1392396.0911239237 0 0 0 0 -94598198.14793396 -39641071.979366302 0 -39641071.979366302 -9397310.694653511 0 0 0 0 92196308.502319336 42749639.817889214 0 42749639.817889214 42923985.329711914 0 0 0 0 118590112.52656078 70803695.239273667 0 70803695.239273667 -89316625.324020386 0 0 0 0 79041971.700592041 94603018.705383301 0 94603018.705383301 -92199409.922027588 0 0 0 0 89406033.497550964 91582305.07907486 0 91582305.07907486 -95514616.985366821 0 0 0 0 -146471876.28279877 31438142.47618866 0 31438142.47618866 18688803.720840454 0 0 0 0 -208571420.53093719 118988581.05485535 0 118988581.05485535 -82099258.055711746 0 0 0 0 -14162408.204338074 152526713.5507164 0 152526713.5507164 -77321933.946533203 0 0 0 0 -113324859.02938843 216082669.26433468 0 216082669.26433468 186001471.71318054 0 0 0 0 -69220306.586997986 41694254.970550537 0 41694254.970550537 187241694.89069366 0 0 0 0 -31530622.703926086 237593510.14464188 0 237593510.14464188 -67182620.138244629 0 0 0 0 -230894996.58717728 294367676.16495323 0 294367676.16495323 -19920167.010437012 0 0 0 0 -312450956.51161194 393923312.12552643 0 393923312.12552643 -115698855.18752289 0 0 0 0 -221299569.93566895 135403132.69128418 0 135403132.69128418 -25383982.359664917 0 0 0 0 -357332370.76889801 364537499.99822235 0 364537499.99822235 -129877514.26556396 0 0 0 0 -573345451.38391876 572641007.69423676 0 572641007.69423676 -227852370.14339447 0 0 0 0 -670453880.47267342 540587165.49406052 0 540587165.49406052 -202742075.11808777 0 0 0 0 -594730792.61328888 270400527.48091888 0 270400527.48091888 -33297775.22580719 0 0 0 0 -369742117.71334457 266630142.17131042 0 266630142.17131042 -186206221.18565369 0 0 0 0 -415314982.34979248 269362182.77672577 0 269362182.77672577 47860989.527257919 0 0 0 0 502471.29495082796 1220373.9060862474 0 1220373.9060862474 1242149.3593533486 0 0 0 0 -54937482.648762822 68924816.954541743 0 68924816.954541743 -272299511.75680542 0 0 0 0 91477511.52853334 56514442.929967523 0 56514442.929967523 -12319159.192932129 0 0 0 0 -263490680.15823364 35516447.609352112 0 35516447.609352112 114232185.44695473 0 0 0 0 -363800736.16034698 283667729.55863953 0 283667729.55863953 -98115955.510467529 0 0 0 0 -549802639.79693222 1024789488.6152191 0 1024789488.6152191 -896924389.59552002 0 0 0 0 -587347439.31907272 1131417572.9302826 0 1131417572.9302826 -1198050038.9130554 0 0 0 0 -401090839.41378784 836151917.45619965 0 836151917.45619965 -1217772275.102005 0 0 0 0 -450399705.26791382 794383029.9811554 0 794383029.9811554 -940966932.43638611 0 0 0 0 -549925877.19832611 912180094.70453644 0 912180094.70453644 -1067435646.7244339 0 0 0 0 -667774783.6560173 796705493.73613358 0 796705493.73613358 -794178445.98327637 0 0 0 0 -797862062.75493622 1066369014.802681 0 1066369014.802681 -876087083.6641922 0 0 0 0 -781903186.18776512 1135559390.4422112 0 1135559390.4422112 -587253005.53955841 0 0 0 0 -1026159677.0022736 972744154.09530258 0 972744154.09530258 -672031525.62382507 0 0 0 0 263103682.15107727 15758575.121406555 0 15758575.121406555 -366998313.28806782 0 0 0 0 1211348.8059786968 801519.0771651566 0 801519.0771651566 -897497.86210320145 0 0 0 0 -64775201.429431915 193789401.47681046 0 193789401.47681046 -339460316.22790527 0 0 0 0 351660907.90879822 427411026.39874268 0 427411026.39874268 -234462954.38356781 0 0 0 0 -139746813.21082306 577915152.25933647 0 577915152.25933647 -163631645.20895386 0 0 0 0 -376778053.54844284 673785089.48703003 0 673785089.48703003 -298396538.02828979 0 0 0 0 -511328901.68354225 614167953.56413078 0 614167953.56413078 -130233107.31509399 0 0 0 0 -905094001.22027588 979354537.62487793 0 979354537.62487793 -375688122.94873238 0 0 0 0 -922267172.98905563 984243678.99974632 0 984243678.99974632 -334746473.09957886 0 0 0 0 -665768249.00313568 1159489035.5564651 0 1159489035.5564651 -620135660.88053894 0 0 0 0 -872313191.68878937 1139530916.2164268 0 1139530916.2164268 -359794163.50628662 0 0 0 0 -977867467.14553833 1326261196.4578629 0 1326261196.4578629 -678174477.44950867 0 0 0 0 -1148425653.3125381 1258523177.5297623 0 1258523177.5297623 -347480572.18874502 0 0 0 0 -1261102664.8003693 1410209209.085331 0 1410209209.085331 -385119418.72710407 0 0 0 0 -880822581.61616135 1496801185.6668739 0 1496801185.6668739 -387007442.83374023 0 0 0 0 -1359783231.0858154 1173130967.773037 0 1173130967.773037 -616698872.64413452 0 0 0 0 -1288174063.9671936 1318599328.4457893 0 1318599328.4457893 -439049940.06774902 0 0 0 0 -1122476882.4321556 1251851776.7570267 0 1251851776.7570267 -419366978.21899414 0 0 0 0 -1142388322.6117744 1240678323.3949318 0 1240678323.3949318 -612548375.02448273 0 0 0 0 -1366788961.8993454 1166597413.5556107 0 1166597413.5556107 -360116855.57651615 0 0 0 0 -1074272239.242836 790036615.51528931 0 790036615.51528931 -298356668.91716003 0 0 0 0 -1568530366.1055908 1086019945.4359207 0 1086019945.4359207 -426494922.01171494 0 0 0 0 -1946152396.0710702 879451780.26367188 0 879451780.26367188 -526120274.44404602 0 0 0 0 -1004170132.9407959 1698418577.460659 0 1698418577.460659 -1443434154.7548523 0 0 0 0 -1854376753.3838053 1740428259.7758183 0 1740428259.7758183 -782168819.99423218 0 0 0 0 -1186424517.836586 1345610062.7925797 0 1345610062.7925797 -585724069.78262901 0 0 0 0 -1162711903.7563667 1285867721.8815079 0 1285867721.8815079 -926205219.4606781 0 0 0 0 -132716199.05691147 999438214.91082764 0 999438214.91082764 -1033046925.0079193 0 0 0 0 -1199187580.8621445 342449747.95788574 0 342449747.95788574 -427579315.96422386 0 0 0 0 -264704416.72708893 302251305.65908813 0 302251305.65908813 -256501821.88344955 0 0 0 0 -737828103.78584099 378481172.10747719 0 378481172.10747719 -163577387.26116943 0 0 0 0 -581681266.64007568 126306039.72823334 0 126306039.72823334 -1331341.5866622925 0 0 0 0 -727510442.38830948 366601720.13864136 0 366601720.13864136 -220257392.12158203 0 0 0 0 -1105167559.5210571 784208784.5242157 0 784208784.5242157 -278396321.89485741 0 0 0 0 -1161617393.417923 613128343.33288574 0 613128343.33288574 -184724401.2483139 0 0 0 0 -1610990954.0023575 1067581974.1300964 0 1067581974.1300964 -555556084.00283813 0 0 0 0 -1204279881.9786148 534431607.75724792 0 534431607.75724792 -319371773.36772156 0 0 0 0 -1482105326.0499802 1018130566.3364754 0 1018130566.3364754 -1214835358.7010269 0 0 0 0 -1802067383.3932114 1058048319.5384903 0 1058048319.5384903 -348204651.51696777 0 0 0 0 -1325054216.4699783 579629668.62763977 0 579629668.62763977 -29646094.552597046 0 0 0 0 -1297604397.5326996 408700764.61178589 0 408700764.61178589 88253267.930549622 0 0 0 0 -910838824.19504547 177753602.37626028 0 177753602.37626028 -13407186.806030273 0 0 0 0 -864217109.20607758 573867205.96551132 0 573867205.96551132 -435861931.97716522 0 0 0 0 -563087368.82492828 44701605.633491516 0 44701605.633491516 40137476.492507935 0 0 0 0 -620865978.07965088 235199433.74692535 0 235199433.74692535 -132331513.84854126 0 0 0 0 -731477689.26699066 320484457.00608826 0 320484457.00608826 61222470.963363647 0 0 0 0 -710670909.2745285 -27030830.588088989 0 -27030830.588088989 97786401.622894287 0 0 0 0 -566014447.49748468 386940302.91960001 0 386940302.91960001 162023380.76344299 0 0 0 0 -510079539.16010284 -44939646.893478394 0 -44939646.893478394 -164048524.89813232 0 0 0 0 -1621128255.0500488 -233911017.5694809 0 -233911017.5694809 140477078.87350464 0 0 0 0 -1364654516.2143517 376037200.33562088 0 376037200.33562088 267540216.84811401 0 0 0 0 -2626754453.7015457 771661309.48128891 0 771661309.48128891 191221798.83149719 0 0 0 0 -2303289334.3677292 1251447869.0374985 0 1251447869.0374985 242266885.55452728 0 0 0 0 -2429083476.7656069 1863123710.7183084 0 1863123710.7183084 167841905.89709473 0 0 0 0 -3990609043.4962692 1352279333.5056458 0 1352279333.5056458 488114532.50151634 0 0 0 0 -2335875499.8997002 1141242698.7598 0 1141242698.7598 449459778.20251465 0 0 0 0 -5138162807.408638 2204845585.3468704 0 2204845585.3468704 -119857148.70829773 0 0 0 0 -2116558724.5059929 1886531333.4881859 0 1886531333.4881859 -1279690631.4026642 0 0 0 0 -2428930559.2585144 -178541177.76082611 0 -178541177.76082611 -2546827130.6165123 0 0 0 0 -3364716774.1074982 2718405421.3485947 0 2718405421.3485947 -1827843344.0006409 0 0 0 0 -2790555692.2408447 2940595613.3966064 0 2940595613.3966064 -1929776026.558887 0 0 0 0 182528325.70226288 198966377.96711731 0 198966377.96711731 -2091623992.3842015 0 0 0 0 -440221304.49941254 2715320.2014846802 0 2715320.2014846802 51027286.517059326 0 0 0 0 -4551757675.9546471 -1061885843.9270716 0 -1061885843.9270716 145140444.45402527 0 0 0 0 -5037298.4757771753 6181827.6081364937 0 6181827.6081364937 -4339181.2498125732 0 0 0 0 -720011007.63349152 624306046.80958557 0 624306046.80958557 -412452650.2976532 0 0 0 0 -601052413.06564331 236404681.44921875 0 236404681.44921875 -408881789.1694622 0 0 0 0 -554181967.41749573 20139734.619777679 0 20139734.619777679 380808345.3508606 0 0 0 0 -4840516.0288523063 6120285.6989753526 0 6120285.6989753526 -3255473.1672234684 0 0 0 0 721650439.05506134 1217508522.7018509 0 1217508522.7018509 385446472.66250956 0 0 0 0 -659694389.41736603 117037708.05363464 0 117037708.05363464 1004345219.1685524 0 0 0 0 -2926193.254008539 3337289.419552125 0 3337289.419552125 -1499479.6256187707 0 0 0 0 -2757069933.5983276 1643992170.9286308 0 1643992170.9286308 555361316.68417358 0 0 0 0 1323798114.4368744 918492729.22594452 0 918492729.22594452 -1428601186.661665 0 0 0 0 -2295625719.3060532 2444849275.5376511 0 2444849275.5376511 -838828792.19373131 0 0 0 0 -1690323101.5634041 1714268594.4050446 0 1714268594.4050446 -165303784.69769287 0 0 0 0 -2006147261.1655655 1453646226.0397635 0 1453646226.0397635 222184782.07147217 0 0 0 0 -1615363022.3971176 508744384.46372986 0 508744384.46372986 -297412704.10095215 0 0 0 0 -67372121.22637558 580469229.75996399 0 580469229.75996399 -1072717911.0712433 0 0 0 0 -57076156.175670624 996992276.49465942 0 996992276.49465942 -373071771.27549744 0 0 0 0 1194502324.5139866 1599057792.8931198 0 1599057792.8931198 -63145519.710876465 0 0 0 0 1080973669.2879791 146283004.24106598 0 146283004.24106598 179764336.87763023 0 0 0 0 -678415958.96944427 586889653.49295044 0 586889653.49295044 515941576.3227005 0 0 0 0 -2524501.0669450834 2982624.3739901464 0 2982624.3739901464 -1221969.1697162539 0 0 0 0 1410645145.8793602 673569631.58556366 0 673569631.58556366 -1169403587.4899902 0 0 0 0 -263845129.75619507 -155566367.77812576 0 -155566367.77812576 416046200.63262939 0 0 0 0 -1368523596.5508575 376160403.89097595 0 376160403.89097595 812435467.06776428 0 0 0 0 1855346196.0457573 774412206.27488708 0 774412206.27488708 298492349.53321648 0 0 0 0 515709.61706666648 2737036.4920441359 0 2737036.4920441359 -1615366.8978559673 0 0 0 0 2245452124.1237183 984172103.44720459 0 984172103.44720459 -1294788241.4600525 0 0 0 0 -1040281404.8323517 1684625945.0105247 0 1684625945.0105247 -137968685.9246521 0 0 0 0 1665290845.0283203 -148553696.22007751 0 -148553696.22007751 996972487.88644409 0 0 0 0 1236598325.5891705 1723531947.0775232 0 1723531947.0775232 196871567.90101624 0 0 0 0 1132541361.8695374 988996334.85144043 0 988996334.85144043 -523490422.91020203 0 0 0 0 1016793991.7127609 153094339.6522522 0 153094339.6522522 380957317.49134922 0 0 0 0 -195075959.60986328 198103147.59827423 0 198103147.59827423 -227692480.15710449 0 0 0 0 -452036707.95178604 765790172.15203857 0 765790172.15203857 26955658.056091309 0 0 0 0 719644911.45495224 540410451.68011093 0 540410451.68011093 -531688712.81838989 0 0 0 0 -999619616.40341949 184386983.9267807 0 184386983.9267807 -442264309.65045166 0 0 0 0 -1263875809.9588299 574810294.84033585 0 574810294.84033585 162690885.63677979 0 0 0 0 -880065296.56300735 -3361593.0557403564 0 -3361593.0557403564 -3120136.5246124268 0 0 0 0 -222335656.99688911 628197086.54759216 0 628197086.54759216 431626.83449554443 0 0 0 0 797624275.70069885 110514141.51301575 0 110514141.51301575 -157231192.39167595 0 0 0 0 311032495.50894165 869016762.85493469 0 869016762.85493469 180853576.08872986 0 0 0 0 1468372585.2344971 411616735.35919952 0 411616735.35919952 -495000.54744274262 0 0 0 0 840336941.4844656 446951387.58724499 0 446951387.58724499 541148275.14457703 0 0 0 0 1794992718.6969757 904630659.41707611 0 904630659.41707611 22247342.400558472 0 0 0 0 -3024999392.600174 845055046.81585693 0 845055046.81585693 -32403792.087341309 0 0 0 0 -2370284581.9557571 1136984113.0890503 0 1136984113.0890503 -88751831.825817108 0 0 0 0 -3364127033.2378006 1076630822.4362183 0 1076630822.4362183 -92010690.617339134 0 0 0 0 -1406451400.2814827 1546767485.2427521 0 1546767485.2427521 -561018832.42558289 0 0 0 0 -2576949283.2865467 1976449499.765564 0 1976449499.765564 -681650978.34338379 0 0 0 0 -502011986.3480072 1496635345.5711746 0 1496635345.5711746 -1283076417.1293793 0 0 0 0 -5297856260.0740967 765715827.54707718 0 765715827.54707718 -14349941.678771973 0 0 0 0 -1837023498.7807198 928228939.90041351 0 928228939.90041351 -478793964.43057251 0 0 0 0 -1287650867.5994644 655776535.51194763 0 655776535.51194763 -714801139.44657898 0 0 0 0 -2158790292.1601219 154259423.99243927 0 154259423.99243927 -109965685.09013367 0 0 0 0 -3285606485.7842827 766303627.63990784 0 766303627.63990784 38344159.123184204 0 0 0 0 -1239582.0874487739 -860557.91064985096 0 -860557.91064985096 301304.08704994619 0 0 0 0 -2883870556.9916649 614404932.53668976 0 614404932.53668976 -34610947.404647827 0 0 0 0 -1318661314.0759258 398254585.95680618 0 398254585.95680618 -125781990.36872864 0 0 0 0 -2797859321.0916023 133470392.01876831 0 133470392.01876831 166734666.81285858 0 0 0 0 -1512571075.2553902 625919042.58137131 0 625919042.58137131 -457881.96269226074 0 0 0 0 -2466636.3157146862 -1720378.4514014982 0 -1720378.4514014982 338598.81460952759 0 0 0 0 -1625898138.0358939 696652699.28114116 0 696652699.28114116 -46617975.725585938 0 0 0 0 -2158461174.1397667 947242952.37428284 0 947242952.37428284 657321.58671045792 0 0 0 0 -2437599209.0189285 1165684754.7740784 0 1165684754.7740784 7133270.4039306641 0 0 0 0 -1784252549.330555 953541604.85987091 0 953541604.85987091 -227213.37997436523 0 0 0 0 -2090947486.3895578 1142520896.9096279 0 1142520896.9096279 8621947.3220672607 0 0 0 0 -1653297605.1443329 1150873798.5352859 0 1150873798.5352859 -191022345.76628113 0 0 0 0 -1170406185.5772343 849707902.2677002 0 849707902.2677002 -245612063.93893433 0 0 0 0 -1313870128.4044514 853695113.35988235 0 853695113.35988235 -86258.75764465332 0 0 0 0 -1075720219.2664719 746834272.21691132 0 746834272.21691132 -189968543.82376862 0 0 0 0 -1076360148.4656448 997142150.0009613 0 997142150.0009613 -371436669.29208374 0 0 0 0 698218.08471110556 -2287554.3013055744 0 -2287554.3013055744 -1361254.0448968261 0 0 0 0 -1121668892.7483406 724215008.15099335 0 724215008.15099335 -306212.77519160614 0 0 0 0 -1411219158.2501907 513023425.42040634 0 513023425.42040634 -102681982.552948 0 0 0 0 841068.6096155222 -1722110.6822921946 0 -1722110.6822921946 -2053484.0266128778 0 0 0 0 -312807546.91065788 275694123.51276398 0 275694123.51276398 -181059621.52975464 0 0 0 0 -650198337.92510605 190528167.34896851 0 190528167.34896851 17822783.591373444 0 0 0 0 -160218358.75251007 -60128740.608512878 0 -60128740.608512878 -56926415.813419342 0 0 0 0 -620110237.59822083 942474992.32754517 0 942474992.32754517 -894389227.29724121 0 0 0 0 -1337015515.9151926 1140330673.3792458 0 1140330673.3792458 -443957504.17784119 0 0 0 0 -673878298.69605255 572455640.69461823 0 572455640.69461823 -285230333.11373901 0 0 0 0 -675882669.92769897 701732774.27358747 0 701732774.27358747 -495201922.59341431 0 0 0 0 -144792792.04449081 264119293.69198608 0 264119293.69198608 -411062393.36109543 0 0 0 0 -537360538.68379927 592053556.04253936 0 592053556.04253936 -489514827.76486206 0 0 0 0 -471008995.12987137 632129565.97777557 0 632129565.97777557 -477602623.3578949 0 0 0 0 170562073.90981674 341080744.63625336 0 341080744.63625336 -464114733.7195282 0 0 0 0 453956366.72955132 56442351.671768188 0 56442351.671768188 -189270787.30700684 0 0 0 0 202792.40751220658 -450687.26734916214 0 -450687.26734916214 881852.28105765581 0 0 0 0 31122915.09690094 284025846.14866638 0 284025846.14866638 149910712.94226074 0 0 0 0 74691487.869689941 369247826.33416748 0 369247826.33416748 19149195.947784424 0 0 0 0 -192562351.41546249 53863089.83177948 0 53863089.83177948 80308286.776031494 0 0 0 0 17310833.813156128 64952704.815307617 0 64952704.815307617 38829478.815612793 0 0 0 0 -36903058.7584095 127950811.51299286 0 127950811.51299286 113384383.97253418 0 0 0 0 -338096236.14665222 182276882.39805603 0 182276882.39805603 -144823762.55363464 0 0 0 0 -79165859.071041107 -19222175.113487244 0 -19222175.113487244 -94656721.363723755 0 0 0 0 -8379312.3462467194 12854719.632369995 0 12854719.632369995 -90979680.684860229 0 0 0 0 900319.14316254342 -1274104.4027547101 0 -1274104.4027547101 -1468745.4231794178 0 0 0 0 -87678231.771812439 -62692032.872772217 0 -62692032.872772217 -1281240.3226013184 0 0 0 0 -130343588.18957996 -6596433.9344367981 0 -6596433.9344367981 46864959.454193115 0 0 0 0 -33458249.311092377 9275643.5936965942 0 9275643.5936965942 56667174.773681641 0 0 0 0 -31268311.883213043 14660812.689254761 0 14660812.689254761 38271378.193569183 0 0 0 0 -68692184.992986679 -37321294.590675354 0 -37321294.590675354 26905352.302368164 0 0 0 0 -64743981.595098019 -38705308.079864502 0 -38705308.079864502 25469791.227584839 0 0 0 0 -9982047.7025728226 35154351.640155792 0 35154351.640155792 8933214.7813873291 0 0 0 0 78883812.100395203 84177465.996070862 0 84177465.996070862 67149284.326812744 0 0 0 0 -5293112.3428859711 17827358.751815796 0 17827358.751815796 63609793.761398315 0 0 0 0 62140082.577842712 124524416.97563171 0 124524416.97563171 100658353.57492065 0 0 0 0 16783100.97644224 10210574.466356553 0 10210574.466356553 -18457584.174364492 0 0 0 0 67250047.872970581 58858600.515029907 0 58858600.515029907 29781266.113121033 0 0 0 0 -18434453.217576992 12953064.581399426 0 12953064.581399426 15624725.12909852 0 0 0 0 483080580.21554565 362075250.15933228 0 362075250.15933228 33995139.19335556 0 0 0 0 -35562052.106887817 33588271.346740723 0 33588271.346740723 113665597.80018616 0 0 0 0 -243366142.79801178 -66651450.134292603 0 -66651450.134292603 159420247.91711426 0 0 0 0 -15856229.516572168 17439775.670374434 0 17439775.670374434 -895827.27142351866 0 0 0 0 27684114.861450195 22813991.357757568 0 22813991.357757568 12258718.330078125 0 0 0 0 246319406.92873764 279927973.97129822 0 279927973.97129822 61524030.486083984 0 0 0 0 -153041906.75532532 -43753415.498291016 0 -43753415.498291016 22171912.648925781 0 0 0 0 -3670678.3616290027 3830273.9453375665 0 3830273.9453375665 6894178.0673701763 0 0 0 0 124385.04776000977 111927453.46807861 0 111927453.46807861 150448175.36146545 0 0 0 0 -10157022.338005275 18078459.669536285 0 18078459.669536285 -12364708.776999764 0 0 0 0 -259197040.45231628 113698748.14755249 0 113698748.14755249 353941733.80255127 0 0 0 0 11653193.380281318 13315002.826143347 0 13315002.826143347 -14559023.513785869 0 0 0 0 -4138467.9384024898 4194526.5678028744 0 4194526.5678028744 4463518.3716895878 0 0 0 0 82215766.640350342 64092185.919410706 0 64092185.919410706 103689502.43087769 0 0 0 0 226504338.65148354 161393425.17814255 0 161393425.17814255 72117570.154846191 0 0 0 0 -6493774.0647583008 122993504.2484436 0 122993504.2484436 114450713.65792847 0 0 0 0 -734488014.24824715 486649884.17967224 0 486649884.17967224 53974963.425628662 0 0 0 0 -186441143.28846169 395584765.14779663 0 395584765.14779663 -340244920.63258362 0 0 0 0 -1530784.254698369 -41008.73098628968 0 -41008.73098628968 857418.67662614584 0 0 0 0 -567184935.30262947 154633676.71694946 0 154633676.71694946 10661192.999633789 0 0 0 0 -263991485.613621 87749243.269645691 0 87749243.269645691 -80159728.614746094 0 0 0 0 -216914318.11739326 214407185.94511795 0 214407185.94511795 -11186436.275970459 0 0 0 0 -69577078.608366489 185819941.73187256 0 185819941.73187256 -71531337.142272949 0 0 0 0 -138649184.0001936 210631375.4723053 0 210631375.4723053 -20568394.955627441 0 0 0 0 -788064603.33931541 399734518.95648193 0 399734518.95648193 419121517.57714844 0 0 0 0 -568189926.8735441 299702188.36824989 0 299702188.36824989 195089880.75161743 0 0 0 0 -456668902.89913559 718343788.16833496 0 718343788.16833496 -221228860.56994629 0 0 0 0 -326393381.64945316 581817999.40377808 0 581817999.40377808 -106392139.37884521 0 0 0 0 -679155724.96519208 -154948734.09215164 0 -154948734.09215164 -18514809.280273438 0 0 0 0 -2649188497.5603333 1175173119.2539062 0 1175173119.2539062 526057196.4506073 0 0 0 0 302262896.7265892 275318844.70672607 0 275318844.70672607 -450211519.52832031 0 0 0 0 137858916.35131836 16696444.204406738 0 16696444.204406738 -636861062.31246185 0 0 0 0 -90917945.381774902 -259985500.31881714 0 -259985500.31881714 -600196819.40099335 0 0 0 0 -33706194.665466309 -59399638.114624023 0 -59399638.114624023 -301340327.51757812 0 0 0 0 323673324.85235214 202420590.64678955 0 202420590.64678955 -483816101.9125061 0 0 0 0 314698501.89284706 184987694.45769501 0 184987694.45769501 -231033518.46832275 0 0 0 0 721739898.7261095 58396642.198043823 0 58396642.198043823 -180117548.5692749 0 0 0 0 560670291.99780273 265040665.48591614 0 265040665.48591614 -313550507.70303345 0 0 0 0 214943535.52105331 49864355.062652588 0 49864355.062652588 -143722105.15922546 0 0 0 0 647605289.10101128 164563737.64215088 0 164563737.64215088 -221381547.28216553 0 0 0 0 -461224058.40137672 162114042.07623291 0 162114042.07623291 88492671.057403564 0 0 0 0 208477271.16391516 1509861.4280204773 0 1509861.4280204773 -370365758.76245117 0 0 0 0 -1724867.3864786567 -4438763.3048578221 0 -4438763.3048578221 -144959.85722960532 0 0 0 0 1325149895.7289577 258048880.64731598 0 258048880.64731598 -284055456.45492554 0 0 0 0 -87100858.847259521 12094258.277061462 0 12094258.277061462 48522126.725494385 0 0 0 0 135756.7961520477 2995045.7683307249 0 2995045.7683307249 5402472.8621348441 0 0 0 0 1080516432.6038842 394266689.8616333 0 394266689.8616333 -152567058.18257141 0 0 0 0 657115242.60762787 229033445.3142395 0 229033445.3142395 144321186.14974976 0 0 0 0 1520860063.2203979 36359729.249610901 0 36359729.249610901 -129778206.36097717 0 0 0 0 -1569270.7199609161 -1879286.4843120901 0 -1879286.4843120901 1085684.1309999526 0 0 0 0 257948799.73324585 77059668.211975098 0 77059668.211975098 18042426.235107422 0 0 0 0 792241.86381407513 -669098.78960259026 0 -669098.78960259026 -95177.951699152589 0 0 0 0 904838491.85837364 -118059817.5806427 0 -118059817.5806427 115263596.9710083 0 0 0 0 908254567.5928421 192333137.85006714 0 192333137.85006714 82201210.382019043 0 0 0 0 64255869.950504303 255555855.7817688 0 255555855.7817688 -87584223.222412109 0 0 0 0 527706058.48137665 209318172.66262817 0 209318172.66262817 -18164850.473190308 0 0 0 0 182851332.01482964 -38270725.926048279 0 -38270725.926048279 -13625592.898742676 0 0 0 0 643628823.99619293 -97753694.25328064 0 -97753694.25328064 62142899.724067688 0 0 0 0 -70770579.459571838 49331581.712036133 0 49331581.712036133 81060713.513153076 0 0 0 0 283716008.40891457 247944772.26963806 0 247944772.26963806 -47138938.819152832 0 0 0 0 408681496.85671425 -90340519.68309021 0 -90340519.68309021 96128.628129959106 0 0 0 0 601901079.69341946 184506266.89868164 0 184506266.89868164 80216467.109191895 0 0 0 0 13929076.83533287 208600880.79748535 0 208600880.79748535 1694971.3574523926 0 0 0 0 1552335089.9560852 125792119.47259521 0 125792119.47259521 -121771372.46838379 0 0 0 0 -350869.6586935902 -848230.79285787349 0 -848230.79285787349 220574.61166736484 0 0 0 0 446323085.04203224 -265094678.21588135 0 -265094678.21588135 29447249.393554688 0 0 0 0 983053972.81395149 -104137797.49954224 0 -104137797.49954224 90891379.051934242 0 0 0 0 896237930.16359138 -36059440.557159424 0 -36059440.557159424 -30667904.31061554 0 0 0 0 927858265.83924675 101358355.4056015 0 101358355.4056015 -40663451.40447998 0 0 0 0 751007179.87434101 407576813.22225952 0 407576813.22225952 57149396.204956055 0 0 0 0 782432625.36334229 52037314.25932312 0 52037314.25932312 146613452.26663971 0 0 0 0 904071611.9263916 283890720.81898499 0 283890720.81898499 176052702.5005188 0 0 0 0 790183147.61323261 63345255.426750183 0 63345255.426750183 -51267647.691833496 0 0 0 0 182515348.35470676 -94954365.076797485 0 -94954365.076797485 32320917.895385742 0 0 0 0 454457651.94344902 71972862.248126984 0 71972862.248126984 -68969973.98034668 0 0 0 0 489544797.37268448 -23144166.40473938 0 -23144166.40473938 126971124.47943115 0 0 0 0 197199086.02058125 -48231295.385406494 0 -48231295.385406494 68475693.981750488 0 0 0 0 197454052.78755379 -45555686.51890564 0 -45555686.51890564 -68241828.359466553 0 0 0 0 -351739813.37435675 213986303.85401917 0 213986303.85401917 -17918337.010162354 0 0 0 0 -168089692.36897087 71163750.469322205 0 71163750.469322205 -77781933.32144165 0 0 0 0 -123405450.29894066 145882230.25787354 0 145882230.25787354 2762248.358253479 0 0 0 0 -626758242.61002219 185501113.84440875 0 185501113.84440875 65311736.86819458 0 0 0 0 -217938238.6339407 -59334090.359603882 0 -59334090.359603882 -148062364.5853653 0 0 0 0 -399813358.7825098 211206735.42082214 0 211206735.42082214 -81754708.970428467 0 0 0 0 -2572362.4188697734 -462530.79947096109 0 -462530.79947096109 1958631.5763062388 0 0 0 0 -986940010.38035774 280279586.24256897 0 280279586.24256897 163638802.68786621 0 0 0 0 -617950626.10114002 422334109.07781291 0 422334109.07781291 -73582890.826568604 0 0 0 0 -837861573.76666164 99685928.155426025 0 99685928.155426025 -736925945.94812012 0 0 0 0 -304962850.81992483 42403376.192108154 0 42403376.192108154 -136005777.79486847 0 0 0 0 -312017441.45319653 228751655.77529907 0 228751655.77529907 -294653383.10519409 0 0 0 0 -316295893.19683218 -10725002.713851929 0 -10725002.713851929 -19639026.884546876 0 0 0 0 -505568827.35744357 268446850.24326324 0 268446850.24326324 -14377888.745071411 0 0 0 0 -153993827.70495462 125009487.37934113 0 125009487.37934113 4747657.9800109863 0 0 0 0 113430646.88492107 -68856411.032394409 0 -68856411.032394409 -36134545.687410355 0 0 0 0 -201814380.73885489 125564267.13098526 0 125564267.13098526 56894960.202850342 0 0 0 0 -219255487.42572778 70799253.622062683 0 70799253.622062683 -115066827.71394348 0 0 0 0 548604442.74104118 4183719.6195831299 0 4183719.6195831299 27593728.732499123 0 0 0 0 750961098.94551277 123973686.46644592 0 123973686.46644592 35345055.323059082 0 0 0 0 557511367.62420845 -58877541.104660034 0 -58877541.104660034 3203636.6386184692 0 0 0 0 552481558.17844963 -76898948.936706543 0 -76898948.936706543 -57468074.095424652 0 0 0 0 500971312.35198355 41713571.4621315 0 41713571.4621315 -67007407.584197998 0 0 0 0 188023830.90642691 73031926.244262695 0 73031926.244262695 41567481.655609131 0 0 0 0 880654878.68696523 101783889.92189026 0 101783889.92189026 -83575279.821090698 0 0 0 0 493461959.39832306 101939833.96446991 0 101939833.96446991 30412575.312034607 0 0 0 0 449342717.70503187 -9644869.8000068665 0 -9644869.8000068665 -44067173.465042114 0 0 0 0 412955435.39637524 100836866.22972298 0 100836866.22972298 -288194.79620361328 0 0 0 0 748625049.52937818 20080176.976341248 0 20080176.976341248 -47723770.785415649 0 0 0 0 412975047.23237991 100693421.02119446 0 100693421.02119446 297694.00112915039 0 0 0 0 69629555.703289986 21601164.492206573 0 21601164.492206573 83462748.886528015 0 0 0 0 47271018.834361553 -38782132.665969849 0 -38782132.665969849 -29768198.271688461 0 0 0 0 -172604687.49252546 132126211.24932098 0 132126211.24932098 245073.15252685547 0 0 0 0 -230454432.08171368 55456410.351203918 0 55456410.351203918 -34250877.556396484 0 0 0 0 -3537686.7303151824 -1589083.9962671325 0 -1589083.9962671325 3086308.8324018419 0 0 0 0 -311445896.03928185 115249915.87188339 0 115249915.87188339 -138967.44110107422 0 0 0 0 56770428.867350578 167901533.82493973 0 167901533.82493973 -115923073.74215698 0 0 0 0 -93597657.842477798 294647206.93788147 0 294647206.93788147 -136185.71834919855 0 0 0 0 -305709094.13119602 263030757.11911011 0 263030757.11911011 -60347.987152099609 0 0 0 0 -206914211.16416264 180041324.18156052 0 180041324.18156052 -58059824.836334229 0 0 0 0 -130476510.21679211 216551420.65566254 0 216551420.65566254 -56482125.473434448 0 0 0 0 -226660547.46820068 152344769.60470581 0 152344769.60470581 -49060558.27545166 0 0 0 0 -121078580.64710712 141094519.76358032 0 141094519.76358032 -112344654.4245224 0 0 0 0 -81694783.417900085 193042318.45032883 0 193042318.45032883 -105913764.50036621 0 0 0 0 -70512551.547517776 112499157.25331116 0 112499157.25331116 -84267928.467292786 0 0 0 0 -91028632.198265076 177223268.93138123 0 177223268.93138123 -120379105.08560181 0 0 0 0 -16963913.847444534 111176963.03087616 0 111176963.03087616 -68080294.921218872 0 0 0 0 -93807398.350823283 117747452.05794263 0 117747452.05794263 -49417505.734100342 0 0 0 0 -84793872.29910183 125047766.17391968 0 125047766.17391968 -32050479.011962891 0 0 0 0 36794188.445432663 51594609.625450134 0 51594609.625450134 -35125354.153181076 0 0 0 0 -137947956.79829121 194744923.84599304 0 194744923.84599304 -99592166.274459839 0 0 0 0 -26122699.086496353 81384320.715209961 0 81384320.715209961 -133585901.6782074 0 0 0 0 -150950573.43381763 166627702.12176895 0 166627702.12176895 -160349343.43209839 0 0 0 0 -3351370.2625462343 -1084083.0490364656 0 -1084083.0490364656 2720999.6933040917 0 0 0 0 -400725872.82658768 189059974.35873413 0 189059974.35873413 -102250005.39851379 0 0 0 0 -457774088.79428244 344351013.15959167 0 344351013.15959167 -178760628.57073975 0 0 0 0 -393558280.00252247 201714764.82216644 0 201714764.82216644 -10185889.018632889 0 0 0 0 -3471023.7374497019 -1281990.5421740115 0 -1281990.5421740115 3274008.480167985 0 0 0 0 -267548429.78999186 224883184.13137436 0 224883184.13137436 -100532838.54682922 0 0 0 0 16521855.778697968 48296325.214942932 0 48296325.214942932 28109089.341751099 0 0 0 0 -50762233.459278107 -19973062.442657471 0 -19973062.442657471 36041658.319503784 0 0 0 0 8272751.7265995257 909942.0291569382 0 909942.0291569382 -1684897.8596560657 0 0 0 0 1741972.1878999195 -3369344.8095620302 0 -3369344.8095620302 317873.40974038839 0 0 0 0 -113289974.03682399 15173728.002036095 0 15173728.002036095 39156863.765716553 0 0 0 0 222372893.44908714 185282943.52848053 0 185282943.52848053 -743873.15854299045 0 0 0 0 15420757.133440018 -24320240.928497314 0 -24320240.928497314 3425569.4402770996 0 0 0 0 12265456.460998535 62209516.381774902 0 62209516.381774902 11162157.989959717 0 0 0 0 19875609.278081894 53646447.361122131 0 53646447.361122131 -411.36542510986328 0 0 0 0 3571014.3571970761 -2169927.4098641165 0 -2169927.4098641165 -1895007.1065558344 0 0 0 0 132459275.25942421 38513184.705451965 0 38513184.705451965 -37572542.010345459 0 0 0 0 -538452050.00430393 72958157.913471222 0 72958157.913471222 30561664.760452271 0 0 0 0 -164270766.86591339 16428855.839584351 0 16428855.839584351 -9823234.0698165894 0 0 0 0 -128361712.79586792 19306857.528255463 0 19306857.528255463 -45335652.103149414 0 0 0 0 -61867002.644020557 -1051541.6963920593 0 -1051541.6963920593 -46716093.814208984 0 0 0 0 33264953.050804138 92468812.120903015 0 92468812.120903015 -8402873.3770713806 0 0 0 0 216688.43566894531 36493680.089256287 0 36493680.089256287 14080066.26804924 0 0 0 0 6060268.9244626509 1899386.1473323479 0 1899386.1473323479 -534782.8427811414 0 0 0 0 4406399.4676035857 -1171033.8897295371 0 -1171033.8897295371 -1844058.1615957916 0 0 0 0 93582908.104629517 49107861.98972702 0 49107861.98972702 -25288631.742858887 0 0 0 0 31154569.860780716 -31157783.797328949 0 -31157783.797328949 -5386870.632232666 0 0 0 0 91842493.103808761 24913157.623267651 0 24913157.623267651 -1209783.587097168 0 0 0 0 2716959.7207215414 -2415408.8305247137 0 -2415408.8305247137 459229.69355498254 0 0 0 0 -70170498.896511078 22888351.995674133 0 22888351.995674133 35509699.328460693 0 0 0 0 5256745.3576078592 1385487.279749128 0 1385487.279749128 331402.45056287944 0 0 0 0 26276029.18029213 19131629.44745636 0 19131629.44745636 -10434800.670936584 0 0 0 0 8469608.3921661377 15820020.145996094 0 15820020.145996094 1288959.1648254395 0 0 0 0 13482726.61968863 11457092.226400167 0 11457092.226400167 8910938.3918151855 0 0 0 0 13467025.587966919 13145675.339828491 0 13145675.339828491 12531138.272079468 0 0 0 0 10621373.5330019 9250885.1727170944 0 9250885.1727170944 8205061.8899688721 0 0 0 0 11595725.213452339 13068110.0092659 0 13068110.0092659 11042589.769958496 0 0 0 0 10480676.247244656 12723140.301034383 0 12723140.301034383 7157572.7100372389 0 0 0 0 115270.11835158616 7371042.4384192377 0 7371042.4384192377 7264780.5549301505 0 0 0 0 142067.9640622139 298726.30827331543 0 298726.30827331543 709225.67254638672 0 0 0 0 18130189.431167603 13027238.175209045 0 13027238.175209045 9983536.5888519287 0 0 0 0 1819331.3673296149 6404230.2893380933 0 6404230.2893380933 6466130.9619393796 0 0 0 0 3314654.8537196252 3642894.0334961489 0 3642894.0334961489 5580064.3119430244 0 0 0 0 -118356937.12850571 35605093.3387146 0 35605093.3387146 11089764.033508301 0 0 0 0 -96195080.833816528 22008651.963119507 0 22008651.963119507 11062608.464866638 0 0 0 0 31472293.164886475 44825690.250808716 0 44825690.250808716 -28041572.343139648 0 0 0 0 9667641.8178710938 51520615.900421143 0 51520615.900421143 -28984240.367195129 0 0 0 0 -6471927.4395828247 97029850.558563232 0 97029850.558563232 -38785468.787719727 0 0 0 0 -32053058.138137817 110868549.42822266 0 110868549.42822266 -43831579.27835083 0 0 0 0 -138705844.0901947 186864370.05604553 0 186864370.05604553 -55555107.563781738 0 0 0 0 -257869314.60864639 198671425.6289978 0 198671425.6289978 -77691215.720977783 0 0 0 0 -122106499.46194458 -158326486.95134735 0 -158326486.95134735 182561681.1427002 0 0 0 0 34239395.969528198 14746615.297042847 0 14746615.297042847 -4698318.5562744141 0 0 0 0 -581270.42815796472 412042.89526816458 0 412042.89526816458 636398.45536471903 0 0 0 0 -326160654.75463867 -134652055.5223999 0 -134652055.5223999 99717562.502197266 0 0 0 0 156281580.32742786 80192260.238693237 0 80192260.238693237 -124315027.81677246 0 0 0 0 64191302.659233093 147141155.03265381 0 147141155.03265381 -125609703.52822876 0 0 0 0 110198922.09378052 -41760246.891113281 0 -41760246.891113281 -16414248.366516113 0 0 0 0 52664702.235651016 -33431815.416351318 0 -33431815.416351318 25619233.652252197 0 0 0 0 -64278669.41121006 17903246.886299133 0 17903246.886299133 194339721.17785645 0 0 0 0 260956.5146905221 1746833.666412279 0 1746833.666412279 214612.78697125614 0 0 0 0 169357486.26461172 3109851.1865177155 0 3109851.1865177155 -80272275.837402344 0 0 0 0 47526018.87979126 3202227.0739746094 0 3202227.0739746094 -33055901.034378052 0 0 0 0 61577909.974529266 15615690.149581909 0 15615690.149581909 -28496919.966064453 0 0 0 0 51077701.109893799 51858052.947418213 0 51858052.947418213 -62456765.421409607 0 0 0 0 35792536.891685486 25188786.326049805 0 25188786.326049805 -31817958.324234009 0 0 0 0 39871181.600687027 9023391.7689285278 0 9023391.7689285278 -20213770.992401123 0 0 0 0 37201817.78780508 16730727.711647034 0 16730727.711647034 -3946952.0764770508 0 0 0 0 28359860.155303001 26664355.581367493 0 26664355.581367493 -6560855.1768798828 0 0 0 0 27421327.27639842 37803077.82726264 0 37803077.82726264 -21952185.719482422 0 0 0 0 28052225.604679108 27901480.957778931 0 27901480.957778931 -6425115.873840332 0 0 0 0 27488856.75100708 29717111.859054565 0 29717111.859054565 -9172120.9247436523 0 0 0 0 19090056.752670288 16916062.560531616 0 16916062.560531616 16225303.087036133 0 0 0 0 6475895.1319046021 19009160.008300781 0 19009160.008300781 29549239.699279785 0 0 0 0 -75247204.161144495 15333664.843208313 0 15333664.843208313 19467006.399902344 0 0 0 0 -38156754.704561532 27299530.905483723 0 27299530.905483723 20001484.32800293 0 0 0 0 -17966548.739028931 3871500.4394226074 0 3871500.4394226074 9136727.7634887695 0 0 0 0 -40637430.741736531 -14007932.929992676 0 -14007932.929992676 -1509691.16015625 0 0 0 0 2599912.838305254 2124535.598083362 0 2124535.598083362 50290.337308347225 0 0 0 0 -57680874.674470425 -22195075.402729034 0 -22195075.402729034 448116.91711425781 0 0 0 0 345081219.57105637 29574002.91229248 0 29574002.91229248 100565707.26499939 0 0 0 0 3876333.0041313171 29571231.196914673 0 29571231.196914673 18835223.027099609 0 0 0 0 -3015533.4268417358 29656389.136657715 0 29656389.136657715 33778027.105255127 0 0 0 0 863714.62935663108 9024198.5753260106 0 9024198.5753260106 2518783.1967940703 0 0 0 0 6899660.3826599121 36004887.049530029 0 36004887.049530029 27902476.776748657 0 0 0 0 46427577.781265259 130227420.30841064 0 130227420.30841064 161565482.51928711 0 0 0 0 8651768.025031995 6943932.8239508048 0 6943932.8239508048 -139236.6927549094 0 0 0 0 21099206.251190186 30144029.696350098 0 30144029.696350098 17454935.506134033 0 0 0 0 12335771.519716263 13502637.165473938 0 13502637.165473938 8381029.3903198242 0 0 0 0 2156919.8781433105 29360633.939437866 0 29360633.939437866 23271747.691421509 0 0 0 0 -11822704.931121826 17869928.016723633 0 17869928.016723633 18101812.368400574 0 0 0 0 -4287722.3924369812 29996327.871520996 0 29996327.871520996 18379448.193450928 0 0 0 0 -2935032.8377723694 33887019.675582886 0 33887019.675582886 3750460.5816650391 0 0 0 0 11792259.904663086 26343315.705276489 0 26343315.705276489 5024723.3733520508 0 0 0 0 -20768121.011306763 48668258.207015991 0 48668258.207015991 -4331266.7140808105 0 0 0 0 -12182836.558834076 21091265.667144775 0 21091265.667144775 10967131.500946045 0 0 0 0 -24234204.262992859 16294177.708190918 0 16294177.708190918 9098410.5834960938 0 0 0 0 1494462.0440216064 1165605.0577011108 0 1165605.0577011108 4184698.8521728516 0 0 0 0 3376179.1732700616 7184397.4778009169 0 7184397.4778009169 7346674.4223279953 0 0 0 0 -25321362.362140656 11721513.41859436 0 11721513.41859436 17143740.502166748 0 0 0 0 -3261425.6133879572 2197383.825475581 0 2197383.825475581 7680040.5081839263 0 0 0 0 22265854.461906433 15459906.039592743 0 15459906.039592743 10761648.681243896 0 0 0 0 -1929003.4383767433 5816880.5108521646 0 5816880.5108521646 9501552.8587643206 0 0 0 0 3626420.4695587158 2480616.8414001465 0 2480616.8414001465 1552854.1272735596 0 0 0 0 16931059.789913177 20169752.338760376 0 20169752.338760376 17979725.509246826 0 0 0 0 34324594.338874817 -531361.93981933594 0 -531361.93981933594 13236205.770263672 0 0 0 0 16628536.002601624 15757093.682273865 0 15757093.682273865 9673421.3369598389 0 0 0 0 24491475.810317993 14268243.249160767 0 14268243.249160767 14552559.248687744 0 0 0 0 16102886.90802002 15455889.109298706 0 15455889.109298706 15010587.402687073 0 0 0 0 16978983.73147583 16501266.303787231 0 16501266.303787231 12333270.881027222 0 0 0 0 14143019.294406891 11022420.714336395 0 11022420.714336395 10416603.966705322 0 0 0 0 -27522369.577590704 56979860.793655396 0 56979860.793655396 200279587.02986145 0 0 0 0 30800222.772177458 30552293.736740112 0 30552293.736740112 85802063.684143066 0 0 0 0 22743501.399345636 35827827.020446777 0 35827827.020446777 9060847.2652664185 0 0 0 0 7676661.3813892603 80686729.840698242 0 80686729.840698242 43539860.557571411 0 0 0 0 14776556.048237711 26206279.332141876 0 26206279.332141876 30050172.532897949 0 0 0 0 -37311582.741740227 71204230.709854126 0 71204230.709854126 -8154698.3727722168 0 0 0 0 -309754569.91958618 -100823574.89274597 0 -100823574.89274597 292990781.80899048 0 0 0 0 -221311012.15579128 -74905859.210662842 0 -74905859.210662842 30742004.743863106 0 0 0 0 73740735.429844379 -13717605.531936646 0 -13717605.531936646 34691170.108346939 0 0 0 0 26052568.215285301 115404194.51339722 0 115404194.51339722 101831999.90774536 0 0 0 0 -314383558.34136415 227806621.49480438 0 227806621.49480438 -151549475.98284912 0 0 0 0 -1379915.5207757815 1420411.4323450252 0 1420411.4323450252 353490.93940740824 0 0 0 0 -273778122.39092612 1358773438.9951096 0 1358773438.9951096 -1134685234.8601074 0 0 0 0 -313386278.40179062 220655738.60440063 0 220655738.60440063 -328716717.28125 0 0 0 0 -3884167.7262467835 3785667.5742172599 0 3785667.5742172599 1072800.9857981838 0 0 0 0 -50064335.433750153 123169425.28509521 0 123169425.28509521 -282613156.25204468 0 0 0 0 -80239776.104897499 179361717.38430786 0 179361717.38430786 -212806731.7091217 0 0 0 0 90424783.709676743 109633125.23890686 0 109633125.23890686 -159661183.6192627 0 0 0 0 73738.826601810288 36929.88910432905 0 36929.88910432905 52260.458581790328 0 0 0 0 -112410263.65935087 102682056.15296555 0 102682056.15296555 -65305294.776641846 0 0 0 0 -69727432.261386871 25922763.801116943 0 25922763.801116943 53009500.757858276 0 0 0 0 1219908.3172224537 3975494.8888708949 0 3975494.8888708949 160864.12369371764 0 0 0 0 -62897638.243262291 115315664.6544342 0 115315664.6544342 -7246207.2377166748 0 0 0 0 -3530557.5957870483 -4151026.3290176392 0 -4151026.3290176392 10394596.214027405 0 0 0 0 38054040.075618744 7100496.9049682617 0 7100496.9049682617 1632699.1327209473 0 0 0 0 2176400.6741695404 9849536.041847229 0 9849536.041847229 -2950843.8537921906 0 0 0 0 -3020583.9657992553 4048435.1148560718 0 4048435.1148560718 -662441.42460606247 0 0 0 0 18189773.844665051 58138548.772201538 0 58138548.772201538 54421525.805770874 0 0 0 0 14572777.229786634 44593823.95993042 0 44593823.95993042 60964259.267585754 0 0 0 0 44354976.686367035 5110536.1909332275 0 5110536.1909332275 16051050.194732666 0 0 0 0 33761823.774401426 17801147.376098633 0 17801147.376098633 4490694.6660308838 0 0 0 0 32402650.267333984 21882848.396972656 0 21882848.396972656 -1771613.4547424316 0 0 0 0 -159538638.07780123 97658393.254165649 0 97658393.254165649 92777300.209938049 0 0 0 0 51802327.465929985 47289375.744308472 0 47289375.744308472 12033744.045028687 0 0 0 0 -2082294.2068896615 5708052.51506266 0 5708052.51506266 160048.95585577935 0 0 0 0 34573440.825070381 29706122.996307373 0 29706122.996307373 1200556.3420410156 0 0 0 0 -16018847.031995773 38975826.914886475 0 38975826.914886475 11634633.165785789 0 0 0 0 -9174270.6246843338 24785955.353164673 0 24785955.353164673 15945478.505279541 0 0 0 0 -8733296.3748931885 21031800.513778687 0 21031800.513778687 17038199.813735962 0 0 0 0 29946068.769421101 7589777.8126831055 0 7589777.8126831055 -2751268.593421936 0 0 0 0 21236805.099065304 -284143.72051239014 0 -284143.72051239014 14309932.662643433 0 0 0 0 23425927.417353749 6516347.5929260254 0 6516347.5929260254 733072.27304840088 0 0 0 0 -5033874.5446004868 127705.10110473633 0 127705.10110473633 -62480.809143066406 0 0 0 0 32668951.300904632 6690137.8454408646 0 6690137.8454408646 -34646631.319030762 0 0 0 0 -5381688.455989778 50368454.624221802 0 50368454.624221802 1990171.2442321777 0 0 0 0 -5158347.0136695215 9038918.1546312273 0 9038918.1546312273 -56554694.816741943 0 0 0 0 -159841733.85252666 28290249.577316284 0 28290249.577316284 -24003552.418502808 0 0 0 0 -182728357.79225636 128339287.55705261 0 128339287.55705261 -78131166.676757812 0 0 0 0 -110247320.0604229 71025380.559341431 0 71025380.559341431 -25939140.560974121 0 0 0 0 25246735.655953407 2640560.5445251465 0 2640560.5445251465 -6671414.2258224487 0 0 0 0 -1956323.8416745663 -1004618.0810585022 0 -1004618.0810585022 -54284638.309661865 0 0 0 0 -132041804.40763533 48197170.856380463 0 48197170.856380463 -49713160.945037842 0 0 0 0 -1717533.3672362566 6665281.6309204102 0 6665281.6309204102 172370618.64367676 0 0 0 0 15467643.997193933 45509693.54283905 0 45509693.54283905 56429072.479766846 0 0 0 0 5328292.5992667675 25305790.805557251 0 25305790.805557251 94839744.898345947 0 0 0 0 617073.29588925838 -14111111.687683105 0 -14111111.687683105 43649699.901184082 0 0 0 0 37238526.708194852 58066681.673667908 0 58066681.673667908 74840508.507629395 0 0 0 0 44042038.920394413 51072564.040596008 0 51072564.040596008 75599255.69909668 0 0 0 0 90124707.784083128 145157589.501297 0 145157589.501297 177292098.23292303 0 0 0 0 50872919.493743643 83925330.741889954 0 83925330.741889954 87619685.995376587 0 0 0 0 52986312.752235025 68429163.372786522 0 68429163.372786522 51831649.510467529 0 0 0 0 15605159.573421001 42902205.900970459 0 42902205.900970459 76488626.901367188 0 0 0 0 -53982687.906492233 -23959511.03578186 0 -23959511.03578186 576343.20889282227 0 0 0 0 -37667875.643527985 -103883544.07516479 0 -103883544.07516479 -67557869.443969727 0 0 0 0 -3257796.6657540766 10087592.004903145 0 10087592.004903145 -3533877.4266498089 0 0 0 0 17659819.726901054 46588061.61618042 0 46588061.61618042 35816685.435438871 0 0 0 0 16749350.491482735 49152315.752197266 0 49152315.752197266 39161526.907516479 0 0 0 0 31903854.374271631 48574840.243911743 0 48574840.243911743 39702210.857803345 0 0 0 0 28896114.30226922 55085424.392181396 0 55085424.392181396 41114997.816345215 0 0 0 0 5743880.0625042915 35166908.035247803 0 35166908.035247803 52973366.366275787 0 0 0 0 9471662.6502389908 50211455.722869873 0 50211455.722869873 58703464.315231323 0 0 0 0 11933460.282058358 42550959.170249939 0 42550959.170249939 41433576.089904785 0 0 0 0 -2568703.0821933746 33003871.285293579 0 33003871.285293579 45270840.836425781 0 0 0 0 6689562.9589869976 33155614.097881317 0 33155614.097881317 38310930.883422852 0 0 0 0 1703160.1166400909 19616459.757156372 0 19616459.757156372 31902822.029815674 0 0 0 0 4133995.1106038094 25041344.720741272 0 25041344.720741272 33400208.142852783 0 0 0 0 -8195896.7830381393 24249861.087295532 0 24249861.087295532 42710435.04750061 0 0 0 0 2865366.0009055138 18237272.275665283 0 18237272.275665283 58808978.205049515 0 0 0 0 16504127.280297279 43674192.527763367 0 43674192.527763367 55458632.099975586 0 0 0 0 12687772.803407669 15520917.163192749 0 15520917.163192749 28332151.934906006 0 0 0 0 8836085.1365019083 9670457.4607334137 0 9670457.4607334137 35814724.267028809 0 0 0 0 11102233.774968863 13310781.873519897 0 13310781.873519897 29628844.43661499 0 0 0 0 -10023200.828584671 21909633.313827515 0 21909633.313827515 32852578.91456604 0 0 0 0 5441619.4582486153 22259176.335578918 0 22259176.335578918 16312206.514465332 0 0 0 0 -30477778.202555656 18906137.449691772 0 18906137.449691772 24224913.92376709 0 0 0 0 -9020302.7425625324 17356060.474985123 0 17356060.474985123 22536835.846618652 0 0 0 0 -18747420.318184853 17089830.69291687 0 17089830.69291687 30872012.039794922 0 0 0 0 -14914560.741075516 10062596.429000854 0 10062596.429000854 17933970.812110901 0 0 0 0 -21434702.37168026 5967289.4784393311 0 5967289.4784393311 20185653.609710693 0 0 0 0 -25050238.200420856 1581034.0787658691 0 1581034.0787658691 15068382.257629395 0 0 0 0 -16540176.817831039 6343272.0616455078 0 6343272.0616455078 13381966.341278076 0 0 0 0 -19647152.303779602 13557281.829597473 0 13557281.829597473 19312061.009124756 0 0 0 0 -15722699.799351931 4198493.1836643219 0 4198493.1836643219 6975266.5080566406 0 0 0 0 -11620555.420295715 7957570.7788696289 0 7957570.7788696289 10397371.865844727 0 0 0 0 -17934792.829370022 10301461.147377014 0 10301461.147377014 25499831.661712646 0 0 0 0 -13528815.749281883 17570918.759162903 0 17570918.759162903 26355135.736022949 0 0 0 0 -14855490.427134514 18079958.952682495 0 18079958.952682495 33393723.249885559 0 0 0 0 -5899005.7294893265 22651293.18239975 0 22651293.18239975 30071632.79989624 0 0 0 0 8803082.33543396 29848198.357177734 0 29848198.357177734 36899392.136672974 0 0 0 0 14323775.601806641 10949046.025947571 0 10949046.025947571 27811777.865951538 0 0 0 0 26461517.971946716 27368958.333911896 0 27368958.333911896 10818024.976264954 0 0 0 0 6466593.1327266693 4970648.2671890259 0 4970648.2671890259 1575590.0361633301 0 0 0 0 53027.188616346568 4173144.8667148128 0 4173144.8667148128 5836976.3360397518 0 0 0 0 22241360.741560593 9058629.7254871503 0 9058629.7254871503 1899838.6070239544 0 0 0 0 17784143.670721516 21258008.861960769 0 21258008.861960769 3395205.6157771945 0 0 0 0 73902363.291702271 56199119.626647949 0 56199119.626647949 -6805395.4591674805 0 0 0 0 41138440.442502975 6326217.1326122284 0 6326217.1326122284 -39664861.387176514 0 0 0 0 2781869.6668036664 16695649.677018877 0 16695649.677018877 16483913.722288668 0 0 0 0 44517086.497764587 -39991912.06124115 0 -39991912.06124115 -101049226.01016235 0 0 0 0 54084763.391418457 33297039.332489014 0 33297039.332489014 33342199.153625488 0 0 0 0 36370487.10218811 57812256.031478882 0 57812256.031478882 14795401.852844238 0 0 0 0 3769800.0512050614 2824105.277831912 0 2824105.277831912 1947143.725280948 0 0 0 0 27790803.638576508 33036021.379131317 0 33036021.379131317 30785316.206665039 0 0 0 0 2675222.8010770902 1720875.4377592504 0 1720875.4377592504 643809.03952297568 0 0 0 0 12122110.289077759 -32893020.299667358 0 -32893020.299667358 -19886388.693580627 0 0 0 0 58872883.078739166 53865383.538524628 0 53865383.538524628 -62732956.97946167 0 0 0 0 59592323.0714221 26001363.091600895 0 26001363.091600895 18386196.796188354 0 0 0 0 48291319.858589172 94914064.577911377 0 94914064.577911377 106569799.61886597 0 0 0 0 21579801.107649982 1674551.6539362669 0 1674551.6539362669 5100507.8837280273 0 0 0 0 465557.09119992703 961903.18030456454 0 961903.18030456454 1073987.5816783421 0 0 0 0 39719478.305145264 67777873.572418213 0 67777873.572418213 41951534.363418579 0 0 0 0 22380594.141690135 49272400.697062373 0 49272400.697062373 55191717.107574463 0 0 0 0 44520915.367858887 56041161.155273438 0 56041161.155273438 33316837.576751709 0 0 0 0 14997090.692352295 50659408.513885498 0 50659408.513885498 44536947.821990967 0 0 0 0 131932018.20317078 66842960.464660645 0 66842960.464660645 10633516.131103516 0 0 0 0 117154890.17806435 -49718790.693403244 0 -49718790.693403244 -35395566.663330078 0 0 0 0 -2433519.519821167 -36147467.297302246 0 -36147467.297302246 35030512.663391113 0 0 0 0 2013034.7484683369 17519162.611002292 0 17519162.611002292 20761073.739442259 0 0 0 0 -53493647.621425629 30180303.10049057 0 30180303.10049057 58685324.577636719 0 0 0 0 -11058011.701938629 69262411.362236023 0 69262411.362236023 12898378.117431641 0 0 0 0 4935183.3381729126 46212162.331947327 0 46212162.331947327 40314517.635925293 0 0 0 0 55030561.732421875 68945398.60269165 0 68945398.60269165 33868413.805389404 0 0 0 0 32415796.382888794 70687763.677703857 0 70687763.677703857 45359021.708282471 0 0 0 0 25564264.945739746 22015316.953826904 0 22015316.953826904 34902196.033119202 0 0 0 0 -1142120.4130821228 35170833.409141541 0 35170833.409141541 39980428.448303223 0 0 0 0 -1935805.368311882 28211745.938873291 0 28211745.938873291 27956244.804107666 0 0 0 0 -3928282.5349287987 24930133.292922974 0 24930133.292922974 21247245.46846962 0 0 0 0 -10483116.657684326 28957937.013000488 0 28957937.013000488 35251822.954711914 0 0 0 0 1410586.7810864449 34412831.263687134 0 34412831.263687134 36101352.751419067 0 0 0 0 13076956.758933187 31422314.867855072 0 31422314.867855072 29543975.56729126 0 0 0 0 18578505.401059747 46913955.463903427 0 46913955.463903427 35713626.474578857 0 0 0 0 16866308.389803886 39800502.210884094 0 39800502.210884094 41464902.718517303 0 0 0 0 14797302.416161379 24142943.716245152 0 24142943.716245152 1147943.6407619715 0 0 0 0 123347847.3447876 -27506134.016159058 0 -27506134.016159058 -37010651.002433777 0 0 0 0 -2306253.6032524109 42250819.810630798 0 42250819.810630798 59788002.893280029 0 0 0 0 79284877.039730072 25170884.60092926 0 25170884.60092926 -35099076.747596741 0 0 0 0 861840.92723675072 5417972.0542825609 0 5417972.0542825609 2040960.0425347257 0 0 0 0 8549728.6480865479 -18203163.476325989 0 -18203163.476325989 27747202.087020874 0 0 0 0 2453749.3353221631 24704322.02114708 0 24704322.02114708 24280250.594020188 0 0 0 0 25199122.228961945 27835072.060846329 0 27835072.060846329 -27589143.621765137 0 0 0 0 -38901694.56172514 24278860.752392292 0 24278860.752392292 24437025.730804443 0 0 0 0 13937453.997398376 17091713.099693298 0 17091713.099693298 -10225405.657752991 0 0 0 0 19084276.48012352 51618481.324635506 0 51618481.324635506 18757666.839828491 0 0 0 0 1643361.206237793 19308607.521339417 0 19308607.521339417 15595954.481747627 0 0 0 0 7844532.1304111481 29418443.759306908 0 29418443.759306908 10513195.517929077 0 0 0 0 12088878.222169876 30017149.798156738 0 30017149.798156738 6663678.1023101807 0 0 0 0 21428504.759162903 28704856.751251221 0 28704856.751251221 16326930.851261139 0 0 0 0 6544231.6588883922 21523257.098664925 0 21523257.098664925 12741216.907517664 0 0 0 0 6410833.5030212402 26056433.501693726 0 26056433.501693726 12913048.974248886 0 0 0 0 10868152.540911674 21327994.91353035 0 21327994.91353035 11949247.352218628 0 0 0 0 -61660325.45430088 40130743.180149078 0 40130743.180149078 49471262.341918945 0 0 0 0 -25012586.52180028 53728.178609132767 0 53728.178609132767 61334132.570510864 0 0 0 0 -1072514.1330490112 21974592.274326324 0 21974592.274326324 31435537.916168213 0 0 0 0 85433954.416656494 -3530584.7819213867 0 -3530584.7819213867 -4909518.3011856079 0 0 0 0 160902892.48989105 -10344279.96206665 0 -10344279.96206665 -13967868.040504456 0 0 0 0 -296602.02801826567 461471.51081228722 0 461471.51081228722 -35225.838180422783 0 0 0 0 -40211064.018753052 -7958858.5597686768 0 -7958858.5597686768 117090378.66311646 0 0 0 0 -384246.36362461001 442026.40787927248 0 442026.40787927248 -190666.95316755027 0 0 0 0 13692522.851303101 -30126341.944580078 0 -30126341.944580078 54113559.031738281 0 0 0 0 5054371.1491970243 20094799.198747773 0 20094799.198747773 8381461.1264285743 0 0 0 0 -67445188.25487709 50431759.393753052 0 50431759.393753052 46437220.115631104 0 0 0 0 26440139.935775757 93216100.060806274 0 93216100.060806274 17584371.153701782 0 0 0 0 56328084.269111633 57618220.43258667 0 57618220.43258667 -8795671.6221981049 0 0 0 0 146650518.55394554 38670661.455589294 0 38670661.455589294 -7905369.6521606445 0 0 0 0 47978906.604335785 33040603.50377655 0 33040603.50377655 -26543401.476112366 0 0 0 0 11964022.446353912 9937104.0605239868 0 9937104.0605239868 -5806240.4853515625 0 0 0 0 -20495833.168941498 12943967.147182465 0 12943967.147182465 3826281.3141784668 0 0 0 0 47412196.610912323 33785419.553657532 0 33785419.553657532 5264339.0872192383 0 0 0 0 16183846.52886915 10645781.71144519 0 10645781.71144519 162455.12644387782 0 0 0 0 60051006.228309631 13163670.20425415 0 13163670.20425415 -14610135.841995239 0 0 0 0 -2494297.6084213257 2423758.0990142822 0 2423758.0990142822 1582387.5767822266 0 0 0 0 4205625.2412911272 3402606.460754212 0 3402606.460754212 -2039464.94928056 0 0 0 0 -7174336.9019863214 721624.66268418171 0 721624.66268418171 2960051.9443392903 0 0 0 0 12377581.907147516 15987721.102256328 0 15987721.102256328 9117787.922333464 0 0 0 0 -17582165.86655426 40297616.571983337 0 40297616.571983337 22918135.121765137 0 0 0 0 -2283018.4632346034 17012953.822589289 0 17012953.822589289 12207650.366230428 0 0 0 0 -27281605.169639587 33624151.772727966 0 33624151.772727966 21860801.794473648 0 0 0 0 -8621132.847325746 17910476.223706268 0 17910476.223706268 14522100.285767332 0 0 0 0 -25170206.146130562 40433006.131570816 0 40433006.131570816 43550149.573760986 0 0 0 0 -68996385.745399475 20284861.169540405 0 20284861.169540405 34606818.954864502 0 0 0 0 -11931702.406362534 50899020.211196899 0 50899020.211196899 23966380.762077332 0 0 0 0 -15850326.908943176 40151448.965843201 0 40151448.965843201 11154108.187675476 0 0 0 0 33915990.597892761 76602140.597457886 0 76602140.597457886 -3341667.3198394775 0 0 0 0 -13401559.681669056 79991257.117575884 0 79991257.117575884 27670149.007293701 0 0 0 0 90286498.428408623 61266261.225063324 0 61266261.225063324 -23313429.41255188 0 0 0 0 53607972.274330139 101129578.88396454 0 101129578.88396454 10924673.97341156 0 0 0 0 24324116.149057388 106663680.27471924 0 106663680.27471924 10223083.185321808 0 0 0 0 169557487.68455648 234459437.55392456 0 234459437.55392456 120878751.66238403 0 0 0 0 23561845.710432053 110326267.07566071 0 110326267.07566071 49412830.229400635 0 0 0 0 -70178296.053760529 99483625.52130127 0 99483625.52130127 124182974.39033508 0 0 0 0 -168726310.83371735 34095257.267288208 0 34095257.267288208 108228618.40118408 0 0 0 0 -25303757.743125916 66645855.011283875 0 66645855.011283875 8231915.9310913086 0 0 0 0 -21015147.771209717 10957284.417037964 0 10957284.417037964 310543841.35165405 0 0 0 0 332906859.62683916 269574.01744651794 0 269574.01744651794 22928015.478103638 0 0 0 0 17384825.215490341 55059108.584732056 0 55059108.584732056 43524283.29825592 0 0 0 0 64325860.488380432 -27079964.430984497 0 -27079964.430984497 -72940417.861079216 0 0 0 0 -128339742.22598362 -68732368.157505035 0 -68732368.157505035 93681991.521057129 0 0 0 0 27864623.980843067 53139601.334014893 0 53139601.334014893 38283427.965415955 0 0 0 0 -157077752.4257946 -12704555.905151367 0 -12704555.905151367 -1666879.2191467285 0 0 0 0 -3105079.9139921758 17069979.507038578 0 17069979.507038578 -954371.32514478266 0 0 0 0 27846405.972154856 52488646.888580322 0 52488646.888580322 34505908.896087646 0 0 0 0 24162954.324565887 41936464.450088501 0 41936464.450088501 541272.53889465332 0 0 0 0 15003436.938936852 20332485.260542423 0 20332485.260542423 -5094174.8461579457 0 0 0 0 -13993268.858044295 14514431.546684869 0 14514431.546684869 18168932.301580936 0 0 0 0 21705341.62118268 46684115.433380127 0 46684115.433380127 29103580.813232422 0 0 0 0 -59023645.375816345 3977680.3858795166 0 3977680.3858795166 44128085.686454773 0 0 0 0 -117215156.23768806 -62785137.338436127 0 -62785137.338436127 -30799982.088348389 0 0 0 0 2105263.9807925485 5037286.9371378794 0 5037286.9371378794 -657577.98693285882 0 0 0 0 -6608767.1702270508 -9298496.1381225586 0 -9298496.1381225586 -72076325.26210022 0 0 0 0 31592459.526672363 786455.75501251221 0 786455.75501251221 -85500720.07244873 0 0 0 0 43707497.171325684 -17329464.706436157 0 -17329464.706436157 -90617862.446624756 0 0 0 0 -778847.86457824707 491853.56978607178 0 491853.56978607178 -85551933.427139282 0 0 0 0 -4208338.3423995972 544495.63184356689 0 544495.63184356689 -76493353.083435059 0 0 0 0 -5733614.183303833 3288351.3853378296 0 3288351.3853378296 -80248495.061187744 0 0 0 0 57223069.452255249 11381117.688682556 0 11381117.688682556 61328979.363342285 0 0 0 0 1525917.1366766766 1601160.5796201304 0 1601160.5796201304 580425.61475455854 0 0 0 0 19537775.20866394 5856529.0116882324 0 5856529.0116882324 110078590.02494812 0 0 0 0 561613.29921676219 690640.18823552132 0 690640.18823552132 147213.12073154002 0 0 0 0 -23097121.81136322 33740024.337364197 0 33740024.337364197 -26265878.036064148 0 0 0 0 -17940153.559295654 158120083.3127594 0 158120083.3127594 290330793.31076813 0 0 0 0 72986313.56300354 101512529.97205734 0 101512529.97205734 226329673.09210205 0 0 0 0 133355275.42999268 156709181.57183838 0 156709181.57183838 163156236.84980011 0 0 0 0 -1389.3305554166436 544922.0110610649 0 544922.0110610649 562669.17074780911 0 0 0 0 79530012.494827271 -65589400.110496521 0 -65589400.110496521 6662006.9745025635 0 0 0 0 121511548.10134888 197282232.73134613 0 197282232.73134613 141105408.34039307 0 0 0 0 11670558.53992673 11431603.339998238 0 11431603.339998238 -934108.66728744283 0 0 0 0 -14266909.482601166 56158156.050914764 0 56158156.050914764 134392808.32463074 0 0 0 0 145856610.74279785 123120724.42163849 0 123120724.42163849 14059468.700759888 0 0 0 0 -8604689.3451843262 34479840.271499634 0 34479840.271499634 -11635300.235084534 0 0 0 0 108690875.85993958 -3912755.2020721436 0 -3912755.2020721436 -97717042.945846558 0 0 0 0 84618599.321292877 -19135095.515102386 0 -19135095.515102386 -101009351.13761902 0 0 0 0 10013937.37525177 -3441387.0342197418 0 -3441387.0342197418 -43601765.8932724 0 0 0 0 33320456.474136353 54438629.771419525 0 54438629.771419525 -28899344.010513306 0 0 0 0 20787057.650383204 19106070.758592349 0 19106070.758592349 -3906726.1307618879 0 0 0 0 11257212.443710327 -10059405.436000824 0 -10059405.436000824 -28269071.70337677 0 0 0 0 16201318.859085083 19624685.888511658 0 19624685.888511658 -22517550.196502686 0 0 0 0 19742681.937776759 14817998.316015765 0 14817998.316015765 -3734019.0410931408 0 0 0 0 -27630573.29725647 -32905516.033641815 0 -32905516.033641815 -77004199.452430725 0 0 0 0 44619964.469230652 202003037.35162735 0 202003037.35162735 54398580.369544983 0 0 0 0 -119729229.89292908 64060949.184459686 0 64060949.184459686 39275164.460189819 0 0 0 0 19582311.526726529 14702165.516919561 0 14702165.516919561 -3321927.6386584807 0 0 0 0 60541336.106887817 104441398.91152191 0 104441398.91152191 18725999.417036057 0 0 0 0 67841832.754684448 97817226.174880981 0 97817226.174880981 -22136422.715637207 0 0 0 0 246253207.11917114 66932019.407150269 0 66932019.407150269 -55888364.06955719 0 0 0 0 143721230.65536499 134234618.8196106 0 134234618.8196106 -41144081.142715454 0 0 0 0 157900132.52199936 46687890.832798004 0 46687890.832798004 -48498092.215713501 0 0 0 0 183387174.44685364 -7128369.0857543945 0 -7128369.0857543945 -31413812.965632439 0 0 0 0 241064233.23718262 136265932.79814911 0 136265932.79814911 -43192842.558410645 0 0 0 0 55339177.768341064 -26986968.986141205 0 -26986968.986141205 63256994.907928467 0 0 0 0 51875236.020008087 17118076.292352676 0 17118076.292352676 31096945.231170654 0 0 0 0 -1850168.6555835009 1497112.9160758555 0 1497112.9160758555 1978537.9998697378 0 0 0 0 -102489056.9692688 222433021.78900146 0 222433021.78900146 -57048734.09046936 0 0 0 0 -96611700.288665771 -164241019.71121216 0 -164241019.71121216 350098472.0763092 0 0 0 0 -24078804.281890869 21730542.413261414 0 21730542.413261414 119091637.36229324 0 0 0 0 -364115201.54119873 162240478.57064056 0 162240478.57064056 402349174.66149616 0 0 0 0 514383568.28665161 -276105499.29714966 0 -276105499.29714966 -205345857.88673782 0 0 0 0 -3740762.2570953369 25851665.590332031 0 25851665.590332031 12329553.75233078 0 0 0 0 5651570.7809592606 17127107.033640925 0 17127107.033640925 3426826.7910811901 0 0 0 0 4280872.2027664185 13744178.647651672 0 13744178.647651672 3573834.1172962189 0 0 0 0 -109062806.98120117 38792998.630569458 0 38792998.630569458 77420964.849487305 0 0 0 0 10345315.054032255 22201327.353867568 0 22201327.353867568 14584565.409090817 0 0 0 0 -21339644.244628906 66096945.697883606 0 66096945.697883606 41542902.475316048 0 0 0 0 -100644878.25309753 47836418.804397583 0 47836418.804397583 73790753.012573242 0 0 0 0 -21687370.779632568 52239172.073577881 0 52239172.073577881 -20853974.14151001 0 0 0 0 2461423.6678543091 16930783.788749695 0 16930783.788749695 2931981.7947998047 0 0 0 0 -14950953.598499814 8439732.1099001653 0 8439732.1099001653 29905241.226539567 0 0 0 0 -5912541.5936431885 3229146.4326019287 0 3229146.4326019287 35013465.980819702 0 0 0 0 -53611924.128479004 62149676.729019165 0 62149676.729019165 68842058.451400757 0 0 0 0 -84693658.238616943 23203849.816146851 0 23203849.816146851 43779504.694030762 0 0 0 0 -26128767.402191162 10227609.057632446 0 10227609.057632446 86437056.73815918 0 0 0 0 -38560465.699462891 52203667.610321045 0 52203667.610321045 58725752.710502625 0 0 0 0 -48546031.643302917 71965265.657028198 0 71965265.657028198 26597735.071289062 0 0 0 0 5334193.9137861878 20394408.249303963 0 20394408.249303963 12484832.641585287 0 0 0 0 6544001.4802498445 26884362.173610888 0 26884362.173610888 18817321.91811521 0 0 0 0 4119600.593590063 16065173.807137534 0 16065173.807137534 7079673.1877500266 0 0 0 0 8092388.448135376 23774541.021865845 0 23774541.021865845 27947370.253860474 0 0 0 0 43962002.790473938 50351968.75435257 0 50351968.75435257 -50593242.52166748 0 0 0 0 -5885312.7765731812 4067616.0866928101 0 4067616.0866928101 22957788.167297363 0 0 0 0 2410632.2675271621 4207783.8223766237 0 4207783.8223766237 -1389036.1369295642 0 0 0 0 -91921013.360137939 79842385.329498291 0 79842385.329498291 -25699603.908847809 0 0 0 0 365882.1094262749 1145865.6151162982 0 1145865.6151162982 838243.21943196282 0 0 0 0 -54939999.258857727 -26112994.740997314 0 -26112994.740997314 -63638291.7137146 0 0 0 0 4036219.3187973201 8092569.8660594709 0 8092569.8660594709 2271751.6716166381 0 0 0 0 -156583505.03125 60160644.935424805 0 60160644.935424805 -25968434.799636841 0 0 0 0 1134598.4178771973 18170101.98147583 0 18170101.98147583 19438369.107912064 0 0 0 0 98617671.939544678 -69304943.806808472 0 -69304943.806808472 -65146697.374023438 0 0 0 0 7285733.2453393936 17615957.180728674 0 17615957.180728674 14268136.463806152 0 0 0 0 -19218507.03087616 123129317.72673798 0 123129317.72673798 -62344609.341461182 0 0 0 0 -4829340.4491245747 13694219.172287524 0 13694219.172287524 16088785.721801758 0 0 0 0 3269190.3120015138 10196502.493424572 0 10196502.493424572 8916207.9508898705 0 0 0 0 1392347.9620513916 -3160116.0987472534 0 -3160116.0987472534 -80411185.51071167 0 0 0 0 9046435.7653656006 9627872.1769218445 0 9627872.1769218445 -66764974.198974609 0 0 0 0 7645820.7498550415 72226197.822748184 0 72226197.822748184 -127163827.84993744 0 0 0 0 18551753.526484549 16279673.324184805 0 16279673.324184805 -1383037.1478627604 0 0 0 0 45505036.754150391 -14364326.110534668 0 -14364326.110534668 -70520293.238189697 0 0 0 0 72539902.008453369 7343232.5134429932 0 7343232.5134429932 -78029676.03200531 0 0 0 0 22275235.767822266 -183640.61753845215 0 -183640.61753845215 -79124755.083465576 0 0 0 0 2452729.7806055471 3014781.6456497684 0 3014781.6456497684 1303318.3897372186 0 0 0 0 -23369145.911880493 15451728.12928009 0 15451728.12928009 59093657.839805603 0 0 0 0 27032972.04335022 12087059.148132324 0 12087059.148132324 -67708950.182785034 0 0 0 0 6890598.8791046143 8692718.0541687012 0 8692718.0541687012 33684081.789260864 0 0 0 0 -15599165.092674255 12648743.138860703 0 12648743.138860703 55921068.067062378 0 0 0 0 -25690217.42288208 23136840.236526489 0 23136840.236526489 50494275.066390991 0 0 0 0 -19478422.967407227 8056580.4744949341 0 8056580.4744949341 98017616.210388184 0 0 0 0 6332875.5679321289 42592988.272117615 0 42592988.272117615 -56139905.130447388 0 0 0 0 -38990275.582834721 73566666.423108578 0 73566666.423108578 49253176.471588135 0 0 0 0 3702147.5881347656 18531561.988304138 0 18531561.988304138 11954218.738600969 0 0 0 0 -6498995.0486068726 27216521.330673218 0 27216521.330673218 12076864.33430481 0 0 0 0 -13465997.095283508 56400941.514148712 0 56400941.514148712 32982879.289703369 0 0 0 0 6812270.908416748 28466225.473899841 0 28466225.473899841 49951191.27337265 0 0 0 0 491995.51784127951 2018318.018900767 0 2018318.018900767 1330199.3078408539 0 0 0 0 -35602194.238739014 33452266.878334045 0 33452266.878334045 39437753.931625366 0 0 0 0 13067065.349914551 16247757.908737183 0 16247757.908737183 7808570.28647995 0 0 0 0 -23911324.057678223 -17814512.000671387 0 -17814512.000671387 31228528.221515656 0 0 0 0 -4544894.8193675578 -295053.64661213383 0 -295053.64661213383 3777166.1667006388 0 0 0 0 4166437.9004116058 21715903.435482979 0 21715903.435482979 10504603.629364014 0 0 0 0 4462503.2233123779 16624732.740127563 0 16624732.740127563 8743560.4583435059 0 0 0 0 4481966.8218688965 18429370.554336548 0 18429370.554336548 14907354.872131348 0 0 0 0 -10232313.063171387 10416376.930725098 0 10416376.930725098 29076966.222045898 0 0 0 0 8970769.8150863647 19671888.66468811 0 19671888.66468811 5318947.0486373901 0 0 0 0 2320629.3104679361 8231834.18149551 0 8231834.18149551 4224619.6478850842 0 0 0 0 2792372.4949807427 9949918.0470883437 0 9949918.0470883437 10951583.16426044 0 0 0 0 -30454172.996930122 7248306.1994895935 0 7248306.1994895935 9649006.9208984375 0 0 0 0 35407913.99810791 7610548.5777282715 0 7610548.5777282715 -90851266.640647888 0 0 0 0 1992185.7185396627 4647993.3737699911 0 4647993.3737699911 2823934.342811048 0 0 0 0 -3411579.6818108559 4125923.4773259163 0 4125923.4773259163 881944.71374511719 0 0 0 0 -1974767.0230081156 7551145.7152616512 0 7551145.7152616512 7172120.7421524823 0 0 0 0 7207729.3673701817 5918648.9533721507 0 5918648.9533721507 6292156.9683632106 0 0 0 0 -4417648.5321259648 11365235.811315425 0 11365235.811315425 11118661.242655214 0 0 0 0 -11734737.79258728 27765927.567871094 0 27765927.567871094 -61759027.692047119 0 0 0 0 -6392911.4753723145 25213432.632530212 0 25213432.632530212 18475109.296146393 0 0 0 0 6061026.1003112793 57040665.069168091 0 57040665.069168091 21709750.305847168 0 0 0 0 1396777.8455276592 1918799.6580949239 0 1918799.6580949239 -190993.15632984042 0 0 0 0 154163319.10137939 -52262969.180755615 0 -52262969.180755615 -188948521.60205078 0 0 0 0 -178990533.73693848 281419127.12971497 0 281419127.12971497 250658632.17687988 0 0 0 0 -14018167.680984497 6214889.1758117676 0 6214889.1758117676 -40953222.76473999 0 0 0 0 -28426566.189697266 8723420.3849868774 0 8723420.3849868774 5044549.1013793945 0 0 0 0 -19994825.780014038 39634415.744171143 0 39634415.744171143 -2033882.1425933838 0 0 0 0 8849898.5232122093 13401436.111940421 0 13401436.111940421 9853169.8910906166 0 0 0 0 -3417457.7620815337 38692355.098615646 0 38692355.098615646 -13585822.164627075 0 0 0 0 -4022497.214012146 24343087.026702881 0 24343087.026702881 -1757752.907324791 0 0 0 0 10697750.655860901 18800548.763542175 0 18800548.763542175 13066486.632904053 0 0 0 0 -4512556.0899124146 15774428.626327515 0 15774428.626327515 17702967.513305664 0 0 0 0 12361200.927108765 28455226.316635132 0 28455226.316635132 5834157.7347564697 0 0 0 0 -3345676.5098342896 14636139.794283867 0 14636139.794283867 33961491.708969116 0 0 0 0 59505357.627532959 59749693.559280396 0 59749693.559280396 28804607.673629761 0 0 0 0 25948539.173233032 20230191.515632629 0 20230191.515632629 4794735.3292236328 0 0 0 0 17251850.883880615 35684678.599327087 0 35684678.599327087 5426833.4939289093 0 0 0 0 3505510.2096557617 11982884.716339111 0 11982884.716339111 11421726.613586426 0 0 0 0 61026036.073913574 15667285.282119751 0 15667285.282119751 -18099497.836517334 0 0 0 0 46063577.663787842 36362327.368545532 0 36362327.368545532 33758339.589797974 0 0 0 0 207666.82281251997 -2164.0983551889658 0 -2164.0983551889658 -147510.04614902288 0 0 0 0 -37603951.198905945 -22913451.686836243 0 -22913451.686836243 -14508013.782470703 0 0 0 0 -22496680.83380127 -37473880.192062378 0 -37473880.192062378 -35865669.526226997 0 0 0 0 32278561.56867981 -16391751.890075684 0 -16391751.890075684 -28126971.177719116 0 0 0 0 8616785.6946563721 3562790.9320526123 0 3562790.9320526123 38889405.780105591 0 0 0 0 -3709458.4177246094 -15833990.206192017 0 -15833990.206192017 17337007.931838989 0 0 0 0 43056934.563430786 -835803.50400543213 0 -835803.50400543213 3618073.076385498 0 0 0 0 7029511.6360227056 3615091.0964415967 0 3615091.0964415967 -10301718.959266014 0 0 0 0 44456723.99168396 3052243.5918579102 0 3052243.5918579102 -4475209.4309844971 0 0 0 0 125114038.99771118 107187606.40615845 0 107187606.40615845 -13020117.192321777 0 0 0 0 6808478.4736381546 3985550.9834224507 0 3985550.9834224507 -8631735.4063156247 0 0 0 0 41491285.092674255 48229490.709243774 0 48229490.709243774 -28772811.268829405 0 0 0 0 39879405.313529968 49935663.999744415 0 49935663.999744415 39697147.478530884 0 0 0 0 237624.22794555873 33148.681115873158 0 33148.681115873158 -649787.53795868158 0 0 0 0 120916715.34236145 117268803.49296761 0 117268803.49296761 123145480.30636597 0 0 0 0 155443593.7628479 95912098.551933289 0 95912098.551933289 103731862.52833557 0 0 0 0 134308391.90162659 8099556.093963623 0 8099556.093963623 -8356967.2519226074 0 0 0 0 94805303.247360229 1083079.4419937134 0 1083079.4419937134 50278364.203308105 0 0 0 0 -32313452.35803318 -13265367.744254589 0 -13265367.744254589 74845044.560302734 0 0 0 0 7974793.880611293 7614353.5069415048 0 7614353.5069415048 6488816.7756781802 0 0 0 0 36645721.623939514 -25367264.419937134 0 -25367264.419937134 -63687775.881591797 0 0 0 0 41515243.500991821 48639172.55166626 0 48639172.55166626 39281348.791275024 0 0 0 0 7904106.5393692181 7320944.3779996783 0 7320944.3779996783 -2650096.4557568915 0 0 0 0 29953268.810424805 15314633.639633179 0 15314633.639633179 25173799.215454102 0 0 0 0 2381099.2103291303 2162319.0354306176 0 2162319.0354306176 1693892.4005655348 0 0 0 0 -17785379.100036621 -55345107.665634155 0 -55345107.665634155 -56720835.392822266 0 0 0 0 359198.99011474103 -10242.955609098077 0 -10242.955609098077 -230776.08609856665 0 0 0 0 -8892393.8119926453 -44351057.623729706 0 -44351057.623729706 -62520678.636520386 0 0 0 0 239377006.81407166 68935172.313499451 0 68935172.313499451 -39044603.947463989 0 0 0 0 260559417.84313965 51543545.29876709 0 51543545.29876709 -35389109.220825195 0 0 0 0 -38063317.416213989 -8400336.5677871704 0 -8400336.5677871704 66377479.611526489 0 0 0 0 216292844.55412292 64090020.224517822 0 64090020.224517822 1177189.3139648438 0 0 0 0 204916540.51797104 47755800.28837204 0 47755800.28837204 212679207.18954468 0 0 0 0 490280.23893529177 -30127.108548082411 0 -30127.108548082411 -308204.85173397511 0 0 0 0 3329957.8768768311 -73003891.930419922 0 -73003891.930419922 -24816878.421981812 0 0 0 0 14299774.00620842 32095126.280112267 0 32095126.280112267 -75402983.45904541 0 0 0 0 16467337.540176392 -16925005.140190125 0 -16925005.140190125 -20700998.997406006 0 0 0 0 -8820335.1064910889 11648980.27243042 0 11648980.27243042 -34707702.522825241 0 0 0 0 -219871.552471295 332083.29452458024 0 332083.29452458024 -29311.510170862079 0 0 0 0 402027298.72444153 101245953.71637726 0 101245953.71637726 257604852.75048828 0 0 0 0 240738848.48538208 262115984.52700424 0 262115984.52700424 588744798.65557861 0 0 0 0 1153820949.9653091 473066095.7956543 0 473066095.7956543 233533150.22872925 0 0 0 0 2586844464.7536621 775503289.32575989 0 775503289.32575989 -507950890.27789307 0 0 0 0 1524883240.5743828 1951117993.605957 0 1951117993.605957 1167624335.3255157 0 0 0 0 475861641.29268646 240089927.33742523 0 240089927.33742523 307639811.89244843 0 0 0 0 21257749.332473755 23964671.408760071 0 23964671.408760071 -235592238.54494095 0 0 0 0 259199379.26362228 168331070.54083633 0 168331070.54083633 -186272635.69793701 0 0 0 0 354262378.68331146 400762151.51987457 0 400762151.51987457 147609592.70474243 0 0 0 0 114894401.3989563 122635926.14022827 0 122635926.14022827 394982411.93055725 0 0 0 0 -253302.31440738589 1280255.3046633229 0 1280255.3046633229 -516863.18644203246 0 0 0 0 -17805125.723770142 -8875455.811706543 0 -8875455.811706543 -13558356.020049095 0 0 0 0 -535842912.13352966 269355718.51348877 0 269355718.51348877 425048093.49273682 0 0 0 0 114395960.80480003 109976407.67694426 0 109976407.67694426 74762080.614532471 0 0 0 0 337998951.53564453 -357157845.27163696 0 -357157845.27163696 -90844413.172729492 0 0 0 0 13646891.938949585 -1759904.9530639648 0 -1759904.9530639648 -20866960.816478729 0 0 0 0 1900108.49720186 2889782.3062006235 0 2889782.3062006235 -2159988.6621617675 0 0 0 0 9490245.9284667969 5834016.5205383301 0 5834016.5205383301 -11168466.451721191 0 0 0 0 31089376.224731445 7591192.2198181152 0 7591192.2198181152 -20302610.30871582 0 0 0 0 29709800.132766724 16067265.790390015 0 16067265.790390015 -9168299.7326049805 0 0 0 0 7210085.5363464355 -20408279.477645874 0 -20408279.477645874 -34557373.719558716 0 0 0 0 31699715.636440277 9572260.1345863342 0 9572260.1345863342 -18080164.85333252 0 0 0 0 115431744.3994751 205133179.83598328 0 205133179.83598328 210839896.04598999 0 0 0 0 79635525.15447998 59632147.059417725 0 59632147.059417725 61391024.840733767 0 0 0 0 265844947.23034668 205355287.05259705 0 205355287.05259705 61211390.216339111 0 0 0 0 446870937.23141479 -24620631.147262573 0 -24620631.147262573 -98733370.155700684 0 0 0 0 -8093243.5609588623 22393526.452041626 0 22393526.452041626 52249275.236602783 0 0 0 0 91892092.662834167 34670301.690086365 0 34670301.690086365 -44266843.594482422 0 0 0 0 45555850.600158691 73400301.381393433 0 73400301.381393433 -72917524.720123291 0 0 0 0 76227718.568237305 75045493.256034851 0 75045493.256034851 38199671.619628906 0 0 0 0 98444210.908660889 78161641.341751099 0 78161641.341751099 393736.72613525391 0 0 0 0 105486527.57751465 58570024.269592285 0 58570024.269592285 22864211.163299561 0 0 0 0 1318776.9208129682 940411.64914862067 0 940411.64914862067 -708744.49017138779 0 0 0 0 -194363130.20224762 115840698.33462524 0 115840698.33462524 -32459464.477081299 0 0 0 0 -154723705.38523865 -215798337.72975922 0 -215798337.72975922 90884319.071289062 0 0 0 0 -13429021.478347778 316928331.35710144 0 316928331.35710144 82360545.647742271 0 0 0 0 -33683492.169563293 67362575.432785034 0 67362575.432785034 10191344.501953125 0 0 0 0 24250721.449760437 14063584.277679443 0 14063584.277679443 -6944608.9325714111 0 0 0 0 4333265.9280173667 3524555.2183911912 0 3524555.2183911912 -2028374.2891369462 0 0 0 0 20787026.767791748 15465740.639816284 0 15465740.639816284 -2138032.5914306641 0 0 0 0 3501129.6959681213 3429399.5461388826 0 3429399.5461388826 -1905414.9202938974 0 0 0 0 -11754157.211257935 -24229628.019004822 0 -24229628.019004822 -21826982.604675293 0 0 0 0 55793440.444324493 23662856.104594469 0 23662856.104594469 -20170552.727294922 0 0 0 0 80096038.825286865 15694968.333953857 0 15694968.333953857 -25663548.034362793 0 0 0 0 54440460.889328003 -22967095.66859436 0 -22967095.66859436 -85601963.963413239 0 0 0 0 45663274.789031982 -236478.96371459961 0 -236478.96371459961 -29082173.809509277 0 0 0 0 11967752.469586201 1171562.6360675693 0 1171562.6360675693 -6004499.1165210456 0 0 0 0 35382325.87273407 4111902.6271896362 0 4111902.6271896362 -11398233.980471611 0 0 0 0 23484494.806381226 6352238.3478775024 0 6352238.3478775024 -11129684.566513062 0 0 0 0 53855692.807662964 -3831025.8650360107 0 -3831025.8650360107 -52411122.843856812 0 0 0 0 23150689.058143616 83365298.818634033 0 83365298.818634033 10111997.581466675 0 0 0 0 3179116916.4605103 3043059445.7835083 0 3043059445.7835083 1901880195.2656112 0 0 0 0 4438610.9659697413 -951255.43461224437 0 -951255.43461224437 951277.22278292477 0 0 0 0 3810673914.1504059 1818688333.9603443 0 1818688333.9603443 770824671.71470642 0 0 0 0 2299558858.9864044 1225888573.6612434 0 1225888573.6612434 961780435.75083923 0 0 0 0 87641476.197052002 -151784865.26849365 0 -151784865.26849365 -50276240.27633667 0 0 0 0 -26743094.057537079 -4864108.9464530945 0 -4864108.9464530945 38233657.935699463 0 0 0 0 269847551.56085205 -89022062.141738892 0 -89022062.141738892 -57552764.753738403 0 0 0 0 373101.82386729121 1122527.0112779737 0 1122527.0112779737 34007.051540076733 0 0 0 0 234866234.49746704 92787595.099899292 0 92787595.099899292 61972825.238616943 0 0 0 0 8695766.9209136963 12788012.871589661 0 12788012.871589661 6234218.5078811646 0 0 0 0 8678384.8678436279 13193919.645881653 0 13193919.645881653 11179037.796737671 0 0 0 0 646819.80656433105 19557673.181018829 0 19557673.181018829 8305093.1140441895 0 0 0 0 6113066.5793228149 11880130.67427063 0 11880130.67427063 14536925.522460938 0 0 0 0 -6237231.9653091431 17730014.450889587 0 17730014.450889587 9971243.2000274658 0 0 0 0 730003.68138122559 14800424.638870239 0 14800424.638870239 11573314.599197388 0 0 0 0 -3249349.2242927551 19986305.337806702 0 19986305.337806702 9179308.3671569824 0 0 0 0 -9106931.6100769043 20941620.630966187 0 20941620.630966187 9049598.7467498779 0 0 0 0 -1962804.4112319946 15176275.474838257 0 15176275.474838257 7456324.5255661011 0 0 0 0 2957328.5836544968 8772739.9375047535 0 8772739.9375047535 2826197.6689407527 0 0 0 0 -8897577.4236755371 16956280.068130493 0 16956280.068130493 12899785.959197998 0 0 0 0 2612638.5678718984 2181462.167568475 0 2181462.167568475 -1345012.4061405957 0 0 0 0 -3769901.9036026001 18160632.79271698 0 18160632.79271698 4593580.389251709 0 0 0 0 9919951.6917090453 16071760.048612775 0 16071760.048612775 8289549.1356612593 0 0 0 0 -9368773.1436986923 25249392.596284866 0 25249392.596284866 5108723.6493530273 0 0 0 0 2851187.2274017334 6323351.7110519409 0 6323351.7110519409 -1274934.6922302246 0 0 0 0 7880009.5727209449 6146520.5154984072 0 6146520.5154984072 -9020667.9741752595 0 0 0 0 164208.99374389648 4831483.5146026611 0 4831483.5146026611 -4246482.8679199219 0 0 0 0 818787.57986450195 2331532.5935058594 0 2331532.5935058594 -6178522.2051696777 0 0 0 0 3214841.3500671387 8223186.4311523438 0 8223186.4311523438 -3711732.8842163086 0 0 0 0 9714273.4498596191 5871666.431602478 0 5871666.431602478 -12687696.416351318 0 0 0 0 5698623.9925079346 4032472.9443130493 0 4032472.9443130493 -932550.76739501953 0 0 0 0 50327413.963256836 58179080.829711914 0 58179080.829711914 148117368.35314941 0 0 0 0 50327413.96307373 58179080.829772949 0 58179080.829772949 148117368.35313416 0 0 0 0 50327413.963012695 58179080.829742432 0 58179080.829742432 148117368.35317993 0 0 0 0 2202236.3676401973 4363620.8331836164 0 4363620.8331836164 -2806993.6991264448 0 0 0 0 51802916.570831299 49008939.516113281 0 49008939.516113281 31340043.900146484 0 0 0 0 947328.84783577919 6282191.2269873023 0 6282191.2269873023 115485.77291545272 0 0 0 0 90255041.636657715 60014920.246826172 0 60014920.246826172 18029497.76247406 0 0 0 0 53663542.047958374 38836604.08618927 0 38836604.08618927 77942280.308837891 0 0 0 0 89714251.324790955 91560899.473617554 0 91560899.473617554 88419114.693725586 0 0 0 0 55055899.839504242 28277811.399477005 0 28277811.399477005 -1480365.7129516602 0 0 0 0 59664144.986198425 34186401.311164856 0 34186401.311164856 -8463187.1936798096 0 0 0 0 71147524.262359619 53953443.202102661 0 53953443.202102661 19928616.624744415 0 0 0 0 39169232.518550873 20940080.643615723 0 20940080.643615723 619715.34829711914 0 0 0 0 32185090.717803955 13388588.926765442 0 13388588.926765442 -6400717.6997718811 0 0 0 0 34390500.313476562 27122356.051483154 0 27122356.051483154 13784624.334751129 0 0 0 0 12640378.760780334 24810136.40952301 0 24810136.40952301 3424964.7465286255 0 0 0 0 1180611.1568475589 10572587.641797841 0 10572587.641797841 3753047.8911947608 0 0 0 0 36869564.459842682 35289948.977321625 0 35289948.977321625 10134662.481399536 0 0 0 0 41842236.640708923 47713241.91343689 0 47713241.91343689 31245861.59576416 0 0 0 0 11517619.66519165 11027260.156703949 0 11027260.156703949 8596637.6567077637 0 0 0 0 15817469.882339478 15152972.208442688 0 15152972.208442688 3927745.3607711792 0 0 0 0 9012083.7225494385 20149773.004241943 0 20149773.004241943 769925.29846191406 0 0 0 0 5634687.6113777161 14858423.523735046 0 14858423.523735046 7536304.7446899414 0 0 0 0 9529759.1854171753 10582159.799713135 0 10582159.799713135 8361283.1470870972 0 0 0 0 9539427.6562271118 10282523.354301453 0 10282523.354301453 8519327.8127975464 0 0 0 0 9519844.2063293457 10654267.798362732 0 10654267.798362732 10118121.51889801 0 0 0 0 -25162321.179847717 13446985.403312683 0 13446985.403312683 20387965.996315002 0 0 0 0 11122397.666298931 3955720.0446878038 0 3955720.0446878038 -53128.766934752464 0 0 0 0 22288769.52282691 11789983.85270071 0 11789983.85270071 -9074036.8116455078 0 0 0 0 10078267.406661987 11105743.177406311 0 11105743.177406311 6438360.1144866943 0 0 0 0 5387827.7036395073 28500573.118860245 0 28500573.118860245 4668801.2712097168 0 0 0 0 7669796.1089485399 10568453.413616311 0 10568453.413616311 7331148.4263961315 0 0 0 0 32709799.850952148 22785935.004997253 0 22785935.004997253 5306197.8843688965 0 0 0 0 5253825.3623323068 10609390.276461221 0 10609390.276461221 5151266.3855283409 0 0 0 0 17621130.540191606 14936819.470581301 0 14936819.470581301 3922451.9736556411 0 0 0 0 23010390.741291046 18267725.874954224 0 18267725.874954224 2479176.7168045044 0 0 0 0 31517480.547859192 20947887.60181427 0 20947887.60181427 6665062.4106140137 0 0 0 0 29121885.480726242 12353633.685513496 0 12353633.685513496 -1712208.5753631592 0 0 0 0 15758769.330569506 2733736.9679004923 0 2733736.9679004923 -4148727.4657736942 0 0 0 0 29501187.739513397 1729339.4772644043 0 1729339.4772644043 -9348455.5636520386 0 0 0 0 13048890.926921844 3465028.3073921204 0 3465028.3073921204 -1610612.8688964844 0 0 0 0 11673049.400619507 5465428.4586029053 0 5465428.4586029053 -935577.43264770508 0 0 0 0 12947537.192782592 2256792.4393599443 0 2256792.4393599443 -2674760.6516260728 0 0 0 0 1073556.878211569 -933972.91440542415 0 -933972.91440542415 -1150167.8563512936 0 0 0 0 -27741077.716941833 74990505.208595276 0 74990505.208595276 272730727.80825806 0 0 0 0 123664141.43635559 78383807.063995361 0 78383807.063995361 -366300847.8503418 0 0 0 0 433550244.56324768 84657918.781677246 0 84657918.781677246 167346251.80290222 0 0 0 0 869401239.58620453 359901979.91822052 0 359901979.91822052 627437.86917114258 0 0 0 0 113489285.43058395 174062178.43125153 0 174062178.43125153 514410975.00978088 0 0 0 0 117762164.11939621 626781295.40002441 0 626781295.40002441 1060746792.7178955 0 0 0 0 156143418.66704559 254782053.56859589 0 254782053.56859589 87266065.933227539 0 0 0 0 101080087.34509468 -172433940.30204582 0 -172433940.30204582 60721927.282104492 0 0 0 0 28097982.968608856 23255306.920623779 0 23255306.920623779 6851854.0105209351 0 0 0 0 53709792.075820923 9541890.1259460449 0 9541890.1259460449 -46474321.067810059 0 0 0 0 8892986.8301720023 4323382.3536255062 0 4323382.3536255062 -2623463.2490243539 0 0 0 0 4946208.3874264881 1721000.8475239873 0 1721000.8475239873 -1492689.6707182229 0 0 0 0 7619957.7435379028 26744148.744750977 0 26744148.744750977 -1408743.1697463989 0 0 0 0 -13167191.489501953 -5245003.6959381104 0 -5245003.6959381104 48643591.620651245 0 0 0 0 46884045.604797363 32049872.156486511 0 32049872.156486511 -9474360.7928009033 0 0 0 0 52045780.805122375 61681717.891677856 0 61681717.891677856 39587626.439880371 0 0 0 0 -11960166.863515854 40733953.291286469 0 40733953.291286469 247401.72465515137 0 0 0 0 6271380.362701416 2812509.2073526978 0 2812509.2073526978 -2247924.1551194787 0 0 0 0 70513723.446884155 -2606198.6405258179 0 -2606198.6405258179 89008.12251028126 0 0 0 0 24287114.391921997 4023011.0996551514 0 4023011.0996551514 9129575.9776763916 0 0 0 0 56397683.722776413 6517566.8100471497 0 6517566.8100471497 -8856546.4954223633 0 0 0 0 2328421253.8553076 1421072817.9217734 0 1421072817.9217734 402221309.12826538 0 0 0 0 2339998117.6340179 1305483774.5736923 0 1305483774.5736923 343904935.65755463 0 0 0 0 2317984133.2493534 1515346706.7469044 0 1515346706.7469044 620865937.78311157 0 0 0 0 3066885041.7169075 1558087439.461483 0 1558087439.461483 518952642.55633545 0 0 0 0 2459073071.5318871 1100763154.33465 0 1100763154.33465 222313735.18663025 0 0 0 0 2083510568.3647079 1858462004.2287064 0 1858462004.2287064 1954396736.4000015 0 0 0 0 1808248011.0989037 1251725305.9620438 0 1251725305.9620438 769312558.32298279 0 0 0 0 14682227.676862426 -3090376.8482524082 0 -3090376.8482524082 482797.46985688806 0 0 0 0 12523605.48752594 7837472.7371826172 0 7837472.7371826172 2269737.4935150146 0 0 0 0 7047673.2385396566 8598677.8840263113 0 8598677.8840263113 -1443896.3179304451 0 0 0 0 14728459.671165168 4476523.4639289901 0 4476523.4639289901 -4367502.0184245855 0 0 0 0 5554841.3529316131 581101.3812420778 0 581101.3812420778 4464070.2898211032 0 0 0 0 22348655.484313965 23716748.71131897 0 23716748.71131897 -59577972.553497314 0 0 0 0 1540980630.4959068 847574170.15043068 0 847574170.15043068 441977908.2663269 0 0 0 0 2093030813.4109573 1345421191.0252457 0 1345421191.0252457 767910834.79542148 0 0 0 0 2349189531.4106369 1305177016.5535583 0 1305177016.5535583 376696640.41946602 0 0 0 0 2355590032.9047165 1361451024.5607147 0 1361451024.5607147 615492651.71960449 0 0 0 0 2441280729.1528473 1034828751.7459106 0 1034828751.7459106 490451443.59899902 0 0 0 0 3422877225.4800034 1546875235.3343201 0 1546875235.3343201 463448538.98040771 0 0 0 0 -218762307.16158295 67181607.79119873 0 67181607.79119873 396789711.21020508 0 0 0 0 2061117.7611214956 -328320.69335467368 0 -328320.69335467368 1353760.1960266232 0 0 0 0 101967080.86509323 157489952.26543427 0 157489952.26543427 -127046498.7895813 0 0 0 0 2716212415.1303711 1053023455.647934 0 1053023455.647934 337007994.07412338 0 0 0 0 2520343766.6185913 1423184918.0643616 0 1423184918.0643616 1023171843.2984314 0 0 0 0 2147354948.4342194 1125008697.6673431 0 1125008697.6673431 315664855.76252747 0 0 0 0 2136705914.6459374 729396205.29040551 0 729396205.29040551 689222411.71600342 0 0 0 0 2573972694.165657 907916388.48781586 0 907916388.48781586 345494.85426330566 0 0 0 0 2361771081.9227829 1110062173.8516464 0 1110062173.8516464 421752026.04086304 0 0 0 0 2205568417.2678833 1289703016.8138771 0 1289703016.8138771 -407946.67781066895 0 0 0 0 2355867594.9277763 1081620377.2548122 0 1081620377.2548122 284796840.28930664 0 0 0 0 2124337655.6221924 1290603042.1997223 0 1290603042.1997223 377871416.95150757 0 0 0 0 2305454239.6155624 1368176432.7633972 0 1368176432.7633972 285961834.27368164 0 0 0 0 2219024728.9496689 1210355806.0986671 0 1210355806.0986671 168795563.63339233 0 0 0 0 1868054910.9050522 1076546207.9040604 0 1076546207.9040604 251939135.56416321 0 0 0 0 1574450632.2367096 1426981205.4113083 0 1426981205.4113083 2348821.6693920516 0 0 0 0 889425796.78891373 964872024.9557972 0 964872024.9557972 538932880.88122559 0 0 0 0 1183752211.553833 879799970.26441956 0 879799970.26441956 524019302.83875275 0 0 0 0 1756648657.939621 1146760131.2013397 0 1146760131.2013397 364284026.31768799 0 0 0 0 1777526328.952713 807741571.98835754 0 807741571.98835754 212606156.75292969 0 0 0 0 1503363120.969841 945105240.7001524 0 945105240.7001524 391406780.6622467 0 0 0 0 2138107660.006485 1437931417.5969391 0 1437931417.5969391 694249644.69868469 0 0 0 0 2107064110.26371 1126688260.3784409 0 1126688260.3784409 22639061.633178711 0 0 0 0 232669538.42160034 908497941.89013672 0 908497941.89013672 -188520908.73983383 0 0 0 0 -464986509.85397708 255115532.85427499 0 255115532.85427499 -788042400.12966919 0 0 0 0 1434960521.0617809 629222584.64593506 0 629222584.64593506 -252633546.11804199 0 0 0 0 1480748552.8720779 1171841412.4254074 0 1171841412.4254074 16237011.416240692 0 0 0 0 1105445641.4712429 587519111.4833374 0 587519111.4833374 329455430.07254028 0 0 0 0 825418273.34030914 559552620.50066376 0 559552620.50066376 340549939.03381348 0 0 0 0 826096494.45083237 474505649.88710594 0 474505649.88710594 -326121247.29478455 0 0 0 0 240725174.67861176 153309896.02900696 0 153309896.02900696 467839880.14426422 0 0 0 0 1705149.0120522603 3026968.2940278724 0 3026968.2940278724 -2641943.3627993688 0 0 0 0 429196915.94448853 371796647.81673431 0 371796647.81673431 531997.05128479004 0 0 0 0 540425054.2583468 585443688.1667757 0 585443688.1667757 730689602.51783752 0 0 0 0 542215534.18987274 557292444.41131592 0 557292444.41131592 640193540.38243103 0 0 0 0 871584144.13641548 944306295.61565208 0 944306295.61565208 1008746062.8276367 0 0 0 0 3110347.4897101447 2571736.0455036238 0 2571736.0455036238 -2222593.1365358159 0 0 0 0 426447500.80894852 645825669.95397949 0 645825669.95397949 642561880.7473526 0 0 0 0 -271545067.15579224 936084870.60022354 0 936084870.60022354 494865.18793487549 0 0 0 0 697368261.84857178 259734538.25167847 0 259734538.25167847 446913191.78846741 0 0 0 0 -320538275.87540817 769126373.0125618 0 769126373.0125618 -398256472.83475494 0 0 0 0 -611467147.98525238 1110553194.8077316 0 1110553194.8077316 190213580.37741089 0 0 0 0 -350026857.12670898 1133634499.7700195 0 1133634499.7700195 -446189486.12664795 0 0 0 0 -921438454.02269745 558336651.44963837 0 558336651.44963837 2723705291.6611328 0 0 0 0 -786498592.9727478 2345230474.1475677 0 2345230474.1475677 -1684215013.0814819 0 0 0 0 -406567.77024120837 3335076.3578609973 0 3335076.3578609973 1248471.8579461351 0 0 0 0 -92560274.969955444 1261961095.9874268 0 1261961095.9874268 -192229335.7315979 0 0 0 0 -661430130.29022217 1252569719.5900269 0 1252569719.5900269 1066701889.9982605 0 0 0 0 -608770192.54125977 2039818791.3924255 0 2039818791.3924255 852593968.10296631 0 0 0 0 -26574279.730133057 688111636.97593689 0 688111636.97593689 10731230.413848877 0 0 0 0 -35271179.742767334 1049893708.0316162 0 1049893708.0316162 -804511112.10908508 0 0 0 0 223744873.70594788 169318691.76037598 0 169318691.76037598 345863550.97731018 0 0 0 0 316503094.01054382 932619801.85552216 0 932619801.85552216 -748196496.26535034 0 0 0 0 -32414399.846374512 1244499916.3573303 0 1244499916.3573303 -861430859.97961426 0 0 0 0 683431.08763027191 1659013.4301815182 0 1659013.4301815182 -1536862.0104093999 0 0 0 0 -506192924.51608276 1520786520.3188477 0 1520786520.3188477 -579183042.80300903 0 0 0 0 -516282425.39541626 1516203519.01828 0 1516203519.01828 -657185438.84130859 0 0 0 0 -535136771.44589233 1640244715.2695084 0 1640244715.2695084 860342444.05678177 0 0 0 0 -187247694.90917969 1858936686.2293701 0 1858936686.2293701 -243996419.03494263 0 0 0 0 -1238934643.8310547 1359466543.6867676 0 1359466543.6867676 -292009010.09484863 0 0 0 0 -670484957.16235352 1846115160.3880005 0 1846115160.3880005 -878313846.71668243 0 0 0 0 -815345125.23413086 1766085271.1031494 0 1766085271.1031494 -363531303.49545288 0 0 0 0 -1186733619.0515633 2038078896.2260151 0 2038078896.2260151 -347690630.21734619 0 0 0 0 -903990005.95921707 1522311058.7041931 0 1522311058.7041931 -200923458.00860596 0 0 0 0 -933316182.18683624 1613955288.8562012 0 1613955288.8562012 -110570510.98901367 0 0 0 0 -800758145.72119141 1861415161.4656982 0 1861415161.4656982 119199821.97814941 0 0 0 0 -825222240.03851318 1488656818.2887878 0 1488656818.2887878 290351171.73782349 0 0 0 0 -877723616.70681763 1647475791.8078766 0 1647475791.8078766 -128523492.50842285 0 0 0 0 -563828537.2281189 1453301344.417038 0 1453301344.417038 16877101.159484863 0 0 0 0 -790970125.98141479 1405350948.9628143 0 1405350948.9628143 79989449.225494385 0 0 0 0 -805561052.99606323 1290464601.5795593 0 1290464601.5795593 -56437555.07881546 0 0 0 0 -858990678.01266479 1496528130.8079071 0 1496528130.8079071 -604052767.96920776 0 0 0 0 -1052117150.7371063 1425866945.6035156 0 1425866945.6035156 -199430764.33972168 0 0 0 0 -710306366.41778946 1025967951.2256775 0 1025967951.2256775 -945481442.47293091 0 0 0 0 -520950908.22967911 958947940.36674666 0 958947940.36674666 -195223108.92684937 0 0 0 0 -476620089.24783325 1359264296.7497559 0 1359264296.7497559 -480046543.73524475 0 0 0 0 -908594798.16066742 2024886732.196434 0 2024886732.196434 -2990878089.3526306 0 0 0 0 -1863218307.1623383 1615977544.1600723 0 1615977544.1600723 -750677165.50587845 0 0 0 0 -697204210.3633728 1138197040.1797943 0 1138197040.1797943 -669699002.89056778 0 0 0 0 -527987726.6183548 1482788360.1765003 0 1482788360.1765003 -965838160.86148071 0 0 0 0 -123752195.44706726 -28853921.857421875 0 -28853921.857421875 139685816.829319 0 0 0 0 -3831441.2107977048 4173273.6349229515 0 4173273.6349229515 626015.88700220734 0 0 0 0 107793266.45351791 517157468.80587387 0 517157468.80587387 -4615235354.2878571 0 0 0 0 31894559.000896454 129879427.82287979 0 129879427.82287979 -1503053811.9377441 0 0 0 0 44156686.012592316 865581643.40277624 0 865581643.40277624 -839206696.04852295 0 0 0 0 -601260805.85571289 735153502.50839233 0 735153502.50839233 -599687222.73332977 0 0 0 0 34951983.219863892 748090490.35095215 0 748090490.35095215 -1886771910.0899811 0 0 0 0 -69308830.622177124 398180334.17717743 0 398180334.17717743 -1153522003.9161987 0 0 0 0 -9376318.5853427202 15927823.331991434 0 15927823.331991434 2101406.0139389001 0 0 0 0 -90107469.187255859 4637046.9864578247 0 4637046.9864578247 6445168.375289917 0 0 0 0 4032057.356481567 13628880.233782982 0 13628880.233782982 9316686.2791683674 0 0 0 0 -186802094.01721954 449900518.50862122 0 449900518.50862122 -1024390105.1723785 0 0 0 0 18133155.037563324 12935430.982152939 0 12935430.982152939 -31254998.225112915 0 0 0 0 2236203.3724611402 8781975.5664043054 0 8781975.5664043054 1102330.9771333076 0 0 0 0 21436398.17918396 28699514.99716568 0 28699514.99716568 -18974683.963745117 0 0 0 0 32452277.845787048 21660932.372642517 0 21660932.372642517 -50816750.570617676 0 0 0 0 10690032.13445282 25010568.321996689 0 25010568.321996689 1289551.6408996582 0 0 0 0 17061056.135990225 17331956.117341243 0 17331956.117341243 1456078.4242650792 0 0 0 0 -18124225.151351929 122983135.51462555 0 122983135.51462555 26637270.739143372 0 0 0 0 3150494.550898172 15565947.589012735 0 15565947.589012735 1822264.536183022 0 0 0 0 1000692458.0257721 1816556414.5624542 0 1816556414.5624542 2463646935.490387 0 0 0 0 14239791.61831665 40974219.20274353 0 40974219.20274353 13027175.193473816 0 0 0 0 569280909.55644226 1272248929.64468 0 1272248929.64468 2308615872.1295471 0 0 0 0 1166331.8141012341 410436.23944112472 0 410436.23944112472 -1038678.6375777647 0 0 0 0 -395305326.50317383 1366142934.6331177 0 1366142934.6331177 4933563120.6885986 0 0 0 0 -355194415.74798107 160513167.97780228 0 160513167.97780228 9798204.9139251709 0 0 0 0 20497385.361816406 43447810.549804688 0 43447810.549804688 -83757988.523178101 0 0 0 0 19025468.02610907 6534281.9707416594 0 6534281.9707416594 -3618487.3320345394 0 0 0 0 977402486.57783508 1609499956.4409485 0 1609499956.4409485 3716551112.4689026 0 0 0 0 815108337.64562988 1984824745.03125 0 1984824745.03125 4854898192.8171082 0 0 0 0 923846100.73428345 2509817651.0792389 0 2509817651.0792389 4411051498.7171555 0 0 0 0 1532402510.7998276 2085734237.6724319 0 2085734237.6724319 3424760178.4709778 0 0 0 0 -607751582.31146812 1437481648.4676399 0 1437481648.4676399 -2146709516.7382812 0 0 0 0 1080331415.2106628 3565216296.4794731 0 3565216296.4794731 7355620918.3939438 0 0 0 0 5337731.7934557945 2185413.5480815023 0 2185413.5480815023 -391359.94740756974 0 0 0 0 1730072730.5274773 2066575279.144165 0 2066575279.144165 1555755637.7420959 0 0 0 0 1056893443.3178101 1199514119.021698 0 1199514119.021698 1442277164.2529221 0 0 0 0 2675195125.1917496 3231076559.0666122 0 3231076559.0666122 2423979264.4831238 0 0 0 0 932612182.15103149 2130390053.1481094 0 2130390053.1481094 3338150749.2332458 0 0 0 0 1089228691.0203705 1984391614.3315201 0 1984391614.3315201 2079167768.7184525 0 0 0 0 897248670.43717194 1313866618.9936752 0 1313866618.9936752 886948069.97021484 0 0 0 0 855127589.98036194 1195473305.1064529 0 1195473305.1064529 1074934522.8070831 0 0 0 0 1638845412.4292297 2040802378.6797791 0 2040802378.6797791 1136512795.5488243 0 0 0 0 1336132870.2845764 2313412356.4665451 0 2313412356.4665451 1668331438.4198494 0 0 0 0 1327044179.3962822 2222129777.7838497 0 2222129777.7838497 1059089942.654541 0 0 0 0 1907198535.009201 1512337839.8412704 0 1512337839.8412704 1417821866.4393234 0 0 0 0 1929974450.9638138 1898815192.1314545 0 1898815192.1314545 793301348.01757431 0 0 0 0 1944748093.7844849 2299664723.3536682 0 2299664723.3536682 -74016137.760025024 0 0 0 0 1618556271.5348511 1004546119.6112366 0 1004546119.6112366 197370449.63316345 0 0 0 0 1340320791.838131 747221602.52396393 0 747221602.52396393 -931952375.85220337 0 0 0 0 -1311959653.695652 -183835327.34906006 0 -183835327.34906006 -1797772626.7128906 0 0 0 0 470014706.04782104 747141588.70664215 0 747141588.70664215 -512506450.47689819 0 0 0 0 460816643.50320435 1190039178.2937317 0 1190039178.2937317 -911395902.06435966 0 0 0 0 1697055301.8457947 1739591036.6153488 0 1739591036.6153488 -2985239160.9054871 0 0 0 0 1699622923.4018021 2745426744.5260544 0 2745426744.5260544 1045517572.0352631 0 0 0 0 2133644257.2685432 2631287810.504612 0 2631287810.504612 -1682661465.9234314 0 0 0 0 156173107.92549896 1902297926.811718 0 1902297926.811718 -553095.50274658203 0 0 0 0 190161.61612701416 2216067577.8304205 0 2216067577.8304205 1927180062.9649734 0 0 0 0 166138233.01345062 1258214523.5136375 0 1258214523.5136375 909512773.66845322 0 0 0 0 328300145.24110222 447848523.70886159 0 447848523.70886159 -2251483047.3322144 0 0 0 0 1407364939.1631012 4480568014.1530666 0 4480568014.1530666 2333886535.6324005 0 0 0 0 -897638232.77853394 180845249.75873566 0 180845249.75873566 2198303974.3541336 0 0 0 0 2150334.8665445298 2981749.9625335634 0 2981749.9625335634 1652617.4853856266 0 0 0 0 -1703339570.4027176 1284059311.5693779 0 1284059311.5693779 398112113.06893921 0 0 0 0 5744688.6101930141 6774212.4410377815 0 6774212.4410377815 3330455.0056722239 0 0 0 0 -836931114.44885254 1715797755.5170593 0 1715797755.5170593 -1179590496.5748062 0 0 0 0 381285660.09057426 2249832731.4412899 0 2249832731.4412899 -1817017399.4384003 0 0 0 0 -890009514.65292358 710707918.07186127 0 710707918.07186127 753974043.04946899 0 0 0 0 -981681644.66349792 2243112651.9562531 0 2243112651.9562531 2758636910.6078033 0 0 0 0 3428829.1158295721 3896411.2261626367 0 3896411.2261626367 1879168.1972971931 0 0 0 0 108708465.53579712 3265858609.4706726 0 3265858609.4706726 3341999974.8106689 0 0 0 0 2818051014.0991974 2981995086.8873367 0 2981995086.8873367 -2962626294.6166687 0 0 0 0 2775743676.013382 3296249496.1269073 0 3296249496.1269073 202325134.40093994 0 0 0 0 2528627532.0054932 2553850012.2267761 0 2553850012.2267761 1319626852.6287994 0 0 0 0 1922502952.4589844 537166283.57614136 0 537166283.57614136 1096891066.1965313 0 0 0 0 2866479640.947937 2357119403.999527 0 2357119403.999527 -963884391.73005676 0 0 0 0 3165671794.1555252 2086769817.0589104 0 2086769817.0589104 -875213350.5559082 0 0 0 0 2524564748.7703247 2441610395.4287643 0 2441610395.4287643 130746815.16998291 0 0 0 0 1406022588.4066772 859187244.93667603 0 859187244.93667603 -2081503889.6092072 0 0 0 0 2157744049.7839293 2694241342.5466995 0 2694241342.5466995 1760706718.6124573 0 0 0 0 1105083551.1877365 1382012004.4052467 0 1382012004.4052467 279234625.61997986 0 0 0 0 2319031208.3290405 216448333.40986633 0 216448333.40986633 614077038.01358032 0 0 0 0 326525441.73387909 824216422.5394783 0 824216422.5394783 1631001.4555225566 0 0 0 0 1500882.6100399792 3381146.2217109241 0 3381146.2217109241 938569.23194650188 0 0 0 0 -1033969477.9817352 1182494169.7215424 0 1182494169.7215424 -325126661.96215057 0 0 0 0 -1576015729.5494995 956079564.56408691 0 956079564.56408691 -74045823.843170166 0 0 0 0 1193166.2702584639 6489062.6981812194 0 6489062.6981812194 2182984.3698598221 0 0 0 0 5536503647.3027039 2081156317.8985596 0 2081156317.8985596 -3276036295.0756531 0 0 0 0 -1555623566.2389679 -372918417.342659 0 -372918417.342659 -666172296.68213272 0 0 0 0 1151419.2886208892 2995707.5612324942 0 2995707.5612324942 2933026.0529992953 0 0 0 0 1416345661.3424377 860231291.46458054 0 860231291.46458054 -109893575.16220093 0 0 0 0 3708761404.9205551 1255208518.7950058 0 1255208518.7950058 -146520606.04859924 0 0 0 0 -844685385.29341125 1174857312.8835602 0 1174857312.8835602 -262485406.76577413 0 0 0 0 -1031442663.0425568 772155971.64646912 0 772155971.64646912 -259255831.19059753 0 0 0 0 -278986096.22117615 162849486.95357513 0 162849486.95357513 41402785.626602173 0 0 0 0 2788322.9502591342 8461603.6376726814 0 8461603.6376726814 7512325.6645205468 0 0 0 0 -119471941.46794128 -168205139.02063751 0 -168205139.02063751 295786221.14788818 0 0 0 0 218638132.23639679 -26455413.486114502 0 -26455413.486114502 4983252.0756072998 0 0 0 0 -20923984.596008301 -158857207.41704559 0 -158857207.41704559 91945149.382156372 0 0 0 0 -37085930.645318985 27189100.294924736 0 27189100.294924736 114251772.19151306 0 0 0 0 -66546059.595413208 -39285107.36894989 0 -39285107.36894989 46115843.598144531 0 0 0 0 -49650481.903961182 -35077792.721572876 0 -35077792.721572876 31258482.446572781 0 0 0 0 127364089.93603516 333508147.10766602 0 333508147.10766602 902550211.01977539 0 0 0 0 10412462.057098389 70595387.251815796 0 70595387.251815796 47360075.634910583 0 0 0 0 6820167.4934224188 9010700.8848380744 0 9010700.8848380744 574984.89515806735 0 0 0 0 -13730599.958145142 17937313.271713257 0 17937313.271713257 14770064.36491394 0 0 0 0 2841215.0897960514 3462892.9875422157 0 3462892.9875422157 123979.3619886376 0 0 0 0 -187765709.06338501 187603937.17214966 0 187603937.17214966 116226757.72206116 0 0 0 0 1171077.6823978424 3358658.8843803406 0 3358658.8843803406 -28450.044128417969 0 0 0 0 -38623681.94303894 -64436388.955841064 0 -64436388.955841064 185927331.59923553 0 0 0 0 64759725.220031738 15355146.877666473 0 15355146.877666473 -161087915.17703247 0 0 0 0 2002478.6054534912 -92641337.041957855 0 -92641337.041957855 -141126220.49714661 0 0 0 0 132690.0762513876 1649380.7446193397 0 1649380.7446193397 767853.65325719863 0 0 0 0 3449146.0046454892 2843732.655611977 0 2843732.655611977 -2565549.6885740757 0 0 0 0 125194608.24972534 114353826.89622498 0 114353826.89622498 -363913178.63635254 0 0 0 0 -105653075.02851105 16204786.461761475 0 16204786.461761475 227882363.38316345 0 0 0 0 3662900.1199505683 4766675.8236793652 0 4766675.8236793652 1658288.2683122158 0 0 0 0 26966112.33732605 12634966.786125183 0 12634966.786125183 -23836622.673744202 0 0 0 0 -382333243.409729 73562907.426261902 0 73562907.426261902 -4341806.0557479858 0 0 0 0 -287105332.81989288 326266869.25223541 0 326266869.25223541 317088935.98654175 0 0 0 0 5759932.2295531929 5970666.752694333 0 5970666.752694333 1874505.7382022217 0 0 0 0 164689743.94374084 174311192.65484238 0 174311192.65484238 -127975199.01249695 0 0 0 0 529248484.68432617 -46060960.011993408 0 -46060960.011993408 -28365234.171089172 0 0 0 0 -166194902.42961121 322560894.76610565 0 322560894.76610565 1288508753.5262451 0 0 0 0 655642361.88877296 1741085154.0295568 0 1741085154.0295568 2151134511.6777039 0 0 0 0 23109731.44619751 -121904196.25552368 0 -121904196.25552368 376015833.145401 0 0 0 0 753015868.73782349 608301604.57966614 0 608301604.57966614 52763644.626647949 0 0 0 0 883085167.0390625 875717898.24516869 0 875717898.24516869 1251848483.0128479 0 0 0 0 1042527.1956263427 820160.91553186625 0 820160.91553186625 -420607.0019941777 0 0 0 0 1747577760.8483124 1486195580.6072769 0 1486195580.6072769 651641917.42469788 0 0 0 0 1260458179.7115326 2897993296.8988152 0 2897993296.8988152 2366941796.2930298 0 0 0 0 3735345913.7288361 2738896559.5834961 0 2738896559.5834961 1451291729.1959229 0 0 0 0 473739384.5324707 1760796041.2355347 0 1760796041.2355347 1183056033.9381943 0 0 0 0 -39771817.711334229 2124717408.6989365 0 2124717408.6989365 1942463889.4382401 0 0 0 0 675383471.49008179 2798749989.9839783 0 2798749989.9839783 2579557408.8760223 0 0 0 0 689772131.27493286 2578097526.8707886 0 2578097526.8707886 1995561246.7360992 0 0 0 0 -56248426.110900879 1986441192.8513947 0 1986441192.8513947 2452906203.7262878 0 0 0 0 -230997186.14398193 1237084587.570816 0 1237084587.570816 4689495053.4611893 0 0 0 0 226271553.96166992 2684893994.9801254 0 2684893994.9801254 3842262298.1020966 0 0 0 0 -2728353590.6390381 -145815575.03568268 0 -145815575.03568268 4323264286.6009674 0 0 0 0 -332225428.21069336 1944384090.8268204 0 1944384090.8268204 3158492983.2667847 0 0 0 0 -217120202.82834244 1425572522.9269714 0 1425572522.9269714 2659122089.4674377 0 0 0 0 -187663736.54119873 667074146.63947296 0 667074146.63947296 3216557241.5443802 0 0 0 0 -80483621.657623291 403339906.74490356 0 403339906.74490356 -526180144.50226593 0 0 0 0 604826384.41125488 149159836.85153198 0 149159836.85153198 -444302433.53196716 0 0 0 0 2079757.6890451908 2350336.5259488914 0 2350336.5259488914 1228419.7845677808 0 0 0 0 892286829.70565796 1328968977.8875809 0 1328968977.8875809 337615911.89950562 0 0 0 0 -850958067.10446167 774440424.88273621 0 774440424.88273621 740458652.03734589 0 0 0 0 -811811624.57504272 63871683.607025146 0 63871683.607025146 186406400.08241272 0 0 0 0 -1529993172.2799377 765116512.9848175 0 765116512.9848175 1453352618.1671982 0 0 0 0 1295000294.3149986 498489811.70045662 0 498489811.70045662 -1300165722.8474731 0 0 0 0 -194894.84401997749 6307413.8508671075 0 6307413.8508671075 7779298.6741360798 0 0 0 0 222908791.93151093 -483828619.56468964 0 -483828619.56468964 -1393562063.9871521 0 0 0 0 -124889.27086503746 2522730.848099485 0 2522730.848099485 4259557.9685398638 0 0 0 0 2209289178.921895 2209664203.6465545 0 2209664203.6465545 1177740032.8555069 0 0 0 0 284562940.86630249 946350054.67504883 0 946350054.67504883 789991497.2565918 0 0 0 0 -22012342.825848579 336853202.97086573 0 336853202.97086573 3649380003.8162689 0 0 0 0 1299249.0385017395 712685444.75479317 0 712685444.75479317 -146333193.67680359 0 0 0 0 -364475188.68730164 543311951.06214714 0 543311951.06214714 621946813.46360397 0 0 0 0 -379890217.3401413 1335884456.1612988 0 1335884456.1612988 -68250594.783691406 0 0 0 0 -1840455391.396225 272126933.13155746 0 272126933.13155746 190688743.86327171 0 0 0 0 -244105887.02285767 468991324.90274811 0 468991324.90274811 359586529.94127655 0 0 0 0 -283601559.77568054 593502266.71260452 0 593502266.71260452 31541914.935108185 0 0 0 0 1280988371.2087126 694032860.1210984 0 694032860.1210984 -248200132.07920837 0 0 0 0 532113869.92193604 -399539164.35010529 0 -399539164.35010529 399913287.48912811 0 0 0 0 1944380452.692749 871299185.43158722 0 871299185.43158722 -624773827.38287354 0 0 0 0 59720.725692361477 6977730.8591940403 0 6977730.8591940403 4703071.7996542975 0 0 0 0 -1220936724.4884186 -352214181.24241257 0 -352214181.24241257 -140407084.66639709 0 0 0 0 385646.24204985797 3869650.7348709777 0 3869650.7348709777 4141941.4357879162 0 0 0 0 -960800457.90837097 105861232.89942169 0 105861232.89942169 184281233.50531006 0 0 0 0 -1728619259.3506012 195942468.39805222 0 195942468.39805222 441973222.07809448 0 0 0 0 -847884765.38490295 -162671955.56681061 0 -162671955.56681061 -570978793.24448395 0 0 0 0 -772509664.98597717 -591698335.48834229 0 -591698335.48834229 109541652.39173126 0 0 0 0 -1184086533.518837 1122388495.0883865 0 1122388495.0883865 903816454.68440247 0 0 0 0 -2127078464.2522449 286974408.67558956 0 286974408.67558956 606623589.13212585 0 0 0 0 368299.67662190832 7013540.3372318298 0 7013540.3372318298 10301945.973810658 0 0 0 0 121176.97900166828 3324176.9956810772 0 3324176.9956810772 1185233.7910430357 0 0 0 0 3376776678.6771545 657221196.64069748 0 657221196.64069748 -841900832.41867065 0 0 0 0 1123718687.278717 1978041794.0459595 0 1978041794.0459595 -473241027.39221191 0 0 0 0 18448915.277206421 615213404.76210594 0 615213404.76210594 1182392100.2751312 0 0 0 0 -336225611.72184753 -229201018.20002747 0 -229201018.20002747 -703960140.44788837 0 0 0 0 1613919620.1975403 1990337264.1038361 0 1990337264.1038361 345408142.98577881 0 0 0 0 1381801775.3966064 1094137329.3469696 0 1094137329.3469696 -599142286.08448792 0 0 0 0 722153624.04760742 2399253295.9181366 0 2399253295.9181366 2068549819.8157883 0 0 0 0 452103486.67024231 1837721110.2868385 0 1837721110.2868385 1195333278.6682739 0 0 0 0 1324558013.2165527 3196226226.1037064 0 3196226226.1037064 2564884063.3024139 0 0 0 0 561780394.91785431 2209174717.1590557 0 2209174717.1590557 2703318316.9711456 0 0 0 0 591943369.00415039 2387144473.6327972 0 2387144473.6327972 3617062980.5726013 0 0 0 0 845893682.61597061 2621436968.5299854 0 2621436968.5299854 3027662516.2050781 0 0 0 0 1980717760.2035065 934322346.20901489 0 934322346.20901489 2680751451.2500763 0 0 0 0 479139124.52966309 806670439.1888504 0 806670439.1888504 1167148903.4113464 0 0 0 0 673663553.40740967 1927950313.9720917 0 1927950313.9720917 2053772618.0090942 0 0 0 0 1628683646.5765076 664945240.50804901 0 664945240.50804901 519435104.76752472 0 0 0 0 -58432820.544204712 1039643661.4443283 0 1039643661.4443283 1130298635.4261017 0 0 0 0 -266253801.88082886 -168108142.92149353 0 -168108142.92149353 410358736.155159 0 0 0 0 -721030428.11536407 189388346.57353592 0 189388346.57353592 176154779.97894287 0 0 0 0 -581688070.22927856 -235305671.59876633 0 -235305671.59876633 -85011938.083786011 0 0 0 0 -137678291.1053772 160604929.35016632 0 160604929.35016632 -117885922.56917572 0 0 0 0 476034.77775031328 1583096.1038766056 0 1583096.1038766056 243081.8526902236 0 0 0 0 94827525.653411865 -10139943.740524292 0 -10139943.740524292 -55896140.358795166 0 0 0 0 80877961.302474976 393293136.91172314 0 393293136.91172314 1449144461.1028442 0 0 0 0 1501053.7177888677 1976119.4082481712 0 1976119.4082481712 -576893.16430917382 0 0 0 0 687619527.50762939 906931753.07251358 0 906931753.07251358 685235051.31878662 0 0 0 0 591455738.37374878 566827601.41513062 0 566827601.41513062 1743901273.0755024 0 0 0 0 1560476539.844696 1834108518.401062 0 1834108518.401062 2074979083.479763 0 0 0 0 796684559.87198257 1355275479.4127293 0 1355275479.4127293 2216199453.4276733 0 0 0 0 975635829.17193604 298908824.9466629 0 298908824.9466629 -312258805.58381653 0 0 0 0 5067702.5274607837 4955613.0321609676 0 4955613.0321609676 411821.27193077654 0 0 0 0 357257251.87637329 -397580751.0703125 0 -397580751.0703125 -342380559.11736298 0 0 0 0 53947432.469711304 793479632.68984985 0 793479632.68984985 1454748654.4334717 0 0 0 0 788711487.75170898 719082268.04573822 0 719082268.04573822 545888285.50624084 0 0 0 0 277895282.03796387 1204809824.5196533 0 1204809824.5196533 1053090282.6642609 0 0 0 0 -484656147.05532837 338691254.08424377 0 338691254.08424377 816992616.64068604 0 0 0 0 -440355376.17456055 857947292.35971069 0 857947292.35971069 -829254645.84057617 0 0 0 0 272432.57273110747 -291977.88087911531 0 -291977.88087911531 -532478.3249581717 0 0 0 0 613702015.7989502 925890195.44322205 0 925890195.44322205 952281171.61202621 0 0 0 0 391450255.15365601 1321882298.2335968 0 1321882298.2335968 1462034422.0187378 0 0 0 0 823663486.07971191 1263209264.2088318 0 1263209264.2088318 974299150.20094299 0 0 0 0 898802897.93377686 1110818566.0312119 0 1110818566.0312119 1258259206.0637207 0 0 0 0 608784485.87783813 1058380083.2718353 0 1058380083.2718353 1665988312.541275 0 0 0 0 802201428.20488358 1700754272.320694 0 1700754272.320694 2099519497.5175171 0 0 0 0 1001567979.907196 821128151.02819824 0 821128151.02819824 1354839163.2241745 0 0 0 0 837688273.1491394 1369120747.6817169 0 1369120747.6817169 2504827484.7417984 0 0 0 0 1901989094.2642975 1860290496.6687241 0 1860290496.6687241 2658825262.8635864 0 0 0 0 945542677.21841431 1428152587.4732666 0 1428152587.4732666 3819965591.0365906 0 0 0 0 1621746226.3748322 3481265707.7322083 0 3481265707.7322083 4641541116.4050598 0 0 0 0 3040929258.0179138 2399297712.7850723 0 2399297712.7850723 1774785422.1775818 0 0 0 0 1183037120.6036758 1427753586.2945824 0 1427753586.2945824 2728650505.8627319 0 0 0 0 1537315132.8022766 1089084826.2449493 0 1089084826.2449493 1658250448.5771122 0 0 0 0 5303898853.4895325 2351613413.8535461 0 2351613413.8535461 2260996588.9118958 0 0 0 0 904929197.64315796 2958662765.6658173 0 2958662765.6658173 4216552433.2679443 0 0 0 0 2958151.5611921549 2041886.4193519652 0 2041886.4193519652 537344.69146396592 0 0 0 0 1108404827.9778137 -244445436.65874481 0 -244445436.65874481 -2928351494.8276443 0 0 0 0 -472691328.42201233 3155006311.4873199 0 3155006311.4873199 8759659525.0449829 0 0 0 0 7820750.0242248476 1584797.0927669555 0 1584797.0927669555 156521.16571157426 0 0 0 0 20780886.505615234 156595818.38787079 0 156595818.38787079 448764724.45030212 0 0 0 0 2893834505.0376587 1817701745.8580704 0 1817701745.8580704 -1261961180.2967529 0 0 0 0 2590997325.9401245 3700191468.3002853 0 3700191468.3002853 2695031522.9426651 0 0 0 0 1813248862.3999329 2686364624.0863037 0 2686364624.0863037 1378355499.0516663 0 0 0 0 -4305597.1421847045 -155901.66557939351 0 -155901.66557939351 2430012.0366075262 0 0 0 0 784131354.83604431 1272722935.5136337 0 1272722935.5136337 1454377836.6719208 0 0 0 0 1368144443.1682587 1040696524.7953072 0 1040696524.7953072 952396685.55042267 0 0 0 0 159530789.00592041 388871419.60852003 0 388871419.60852003 468527384.95223236 0 0 0 0 91359718.748989105 3166732.4267139435 0 3166732.4267139435 530221572.84251404 0 0 0 0 -246763534.55123901 -45439843.936309814 0 -45439843.936309814 451633242.43664551 0 0 0 0 -1104006976.9165955 717575781.18102264 0 717575781.18102264 397887770.08709717 0 0 0 0 -349866817.46205139 621789072.18061066 0 621789072.18061066 1040568441.97052 0 0 0 0 179075512.95204163 912683783.54143143 0 912683783.54143143 -694791633.12248421 0 0 0 0 426063539.99528503 749611188.45536995 0 749611188.45536995 -630925348.16511536 0 0 0 0 -136889300.4214325 1331744224.3239365 0 1331744224.3239365 -617932612.39868927 0 0 0 0 36396420.394348145 1568943795.5586243 0 1568943795.5586243 2677046688.3935013 0 0 0 0 -2066191.4055139124 -134659.56540175527 0 -134659.56540175527 1321626.6304791048 0 0 0 0 469400746.14138794 927052266.84949493 0 927052266.84949493 -1466970652.4233017 0 0 0 0 -318566680.41027832 1973973137.6466675 0 1973973137.6466675 2247954618.8823242 0 0 0 0 -195064532.92149353 1317709292.7925682 0 1317709292.7925682 2708783521.6811523 0 0 0 0 -1224963820.9067993 2269473809.7880783 0 2269473809.7880783 3373940826.7204094 0 0 0 0 -98059112.554733276 2012176687.6421738 0 2012176687.6421738 4633596845.2516479 0 0 0 0 783201777.71990967 2319778289.4929352 0 2319778289.4929352 3364272993.2521362 0 0 0 0 169641828.84402466 1911599403.2507629 0 1911599403.2507629 3144909588.6237717 0 0 0 0 -13448108.376037598 1639742785.5283508 0 1639742785.5283508 3278060831.7232971 0 0 0 0 401599928.51208496 1471039968.8712311 0 1471039968.8712311 2634646065.7713051 0 0 0 0 733202303.55625916 1703110154.5272408 0 1703110154.5272408 2733778548.8316956 0 0 0 0 474959861.13100624 2113999003.5885429 0 2113999003.5885429 2325511574.9943237 0 0 0 0 815975418.88952637 2676538968.554657 0 2676538968.554657 2724689640.5352783 0 0 0 0 885992889.88818359 2843850122.6753464 0 2843850122.6753464 3120901575.4763031 0 0 0 0 546330431.27627563 2774684099.2323608 0 2774684099.2323608 2808028234.7853699 0 0 0 0 513218711.79701233 2775907003.9458694 0 2775907003.9458694 2886543697.1013184 0 0 0 0 515740183.56820679 2739627290.9848862 0 2739627290.9848862 3228682967.6536026 0 0 0 0 673913314.90178108 3000267611.038074 0 3000267611.038074 3623932631.7010193 0 0 0 0 446006589.1050148 2274708660.9425631 0 2274708660.9425631 3594674536.9144287 0 0 0 0 -2553768493.0079803 245880972.79542542 0 245880972.79542542 2380647737.9535751 0 0 0 0 300375.82418970764 3966655.6911929473 0 3966655.6911929473 5982098.557821326 0 0 0 0 2340090768.9306641 3088231164.354229 0 3088231164.354229 1992990232.6078033 0 0 0 0 -747946562.28198242 1850235341.6037922 0 1850235341.6037922 3804205509.8540344 0 0 0 0 680176231.13796377 3228649567.8952904 0 3228649567.8952904 5300137017.0425415 0 0 0 0 -287061786.66691589 337269126.22734833 0 337269126.22734833 1253517971.3466339 0 0 0 0 -1350922670.9595032 581505417.67181396 0 581505417.67181396 3255319749.8283997 0 0 0 0 1438729504.7545433 2085774529.4672604 0 2085774529.4672604 2497907210.3435669 0 0 0 0 -510990860.81309509 1604585147.9987831 0 1604585147.9987831 3391393796.0765152 0 0 0 0 457172.5768737793 1466280626.9943619 0 1466280626.9943619 2980669968.9389572 0 0 0 0 1057786186.0828247 3235189718.5754471 0 3235189718.5754471 3772445244.6641278 0 0 0 0 595113416.50244904 3040143287.1793957 0 3040143287.1793957 4261574604.0610657 0 0 0 0 2992790184.9742432 2514019147.2633667 0 2514019147.2633667 3804200485.6418915 0 0 0 0 1945523437.4330444 1076655890.5159302 0 1076655890.5159302 4684592349.3204269 0 0 0 0 -1046208.8652156442 3739038.8176872805 0 3739038.8176872805 2196857.1639489084 0 0 0 0 -442883752.00034904 735029001.85325384 0 735029001.85325384 -740621929.91256714 0 0 0 0 3730255527.8289185 3122965490.8151398 0 3122965490.8151398 1846535594.4232483 0 0 0 0 -1958479973.8024826 953593165.2687149 0 953593165.2687149 2064200723.816803 0 0 0 0 53895842.968475342 84196591.104759216 0 84196591.104759216 -203062583.28934479 0 0 0 0 -113308641.45561218 450439540.90756607 0 450439540.90756607 538664153.03777122 0 0 0 0 2375598484.2528381 1364400704.3516083 0 1364400704.3516083 736869189.32671547 0 0 0 0 812604102.32465363 2241720143.4071693 0 2241720143.4071693 2581438775.8865814 0 0 0 0 170391321.93091965 1612469753.0894203 0 1612469753.0894203 1718332154.9755936 0 0 0 0 246238061.13007355 1336416801.4092045 0 1336416801.4092045 1251939229.7097244 0 0 0 0 -1454097.7590274252 1083779956.5729356 0 1083779956.5729356 1337518056.215416 0 0 0 0 -227222328.54718018 1072282032.4001732 0 1072282032.4001732 2179755607.7936497 0 0 0 0 -95778148.467842102 1275324545.9208241 0 1275324545.9208241 2289098527.5696564 0 0 0 0 -183766704.34521484 313733739.16952515 0 313733739.16952515 -522846732.27399445 0 0 0 0 2353386.7257365882 6088879.9110141024 0 6088879.9110141024 -480632.68433992937 0 0 0 0 55848031.429215297 2592950.3924880624 0 2592950.3924880624 -7372204.9415573999 0 0 0 0 1050814435.261261 672185916.14572144 0 672185916.14572144 679021601.48699951 0 0 0 0 86310739.818206787 -2433912.665725708 0 -2433912.665725708 10245817.428218842 0 0 0 0 121774832.22137451 -19844140.497833252 0 -19844140.497833252 -15188009.834098816 0 0 0 0 103796308.52903748 10700176.452194214 0 10700176.452194214 -67008292.222503662 0 0 0 0 95426074.649467468 3434094.6976604462 0 3434094.6976604462 -4949119.2610626221 0 0 0 0 80631768.007781982 4793368.2247200012 0 4793368.2247200012 1051169.2500915527 0 0 0 0 16259495.866270222 31895292.579761118 0 31895292.579761118 13236311.63804552 0 0 0 0 -142837535.75583649 67546870.728881836 0 67546870.728881836 20053959.235168457 0 0 0 0 87025556.602111816 -15161840.804656982 0 -15161840.804656982 -21584101.791946411 0 0 0 0 115164796.31147766 169317388.15897369 0 169317388.15897369 85578687.074920654 0 0 0 0 189530027.4772644 155486479.55934143 0 155486479.55934143 -40878493.228973389 0 0 0 0 37023257.870635986 110274341.07720947 0 110274341.07720947 -47801941.937133789 0 0 0 0 146406384.34127808 164584630.4160614 0 164584630.4160614 -74229679.84387207 0 0 0 0 14891761.069190979 140676599.85868073 0 140676599.85868073 -31451307.541015625 0 0 0 0 -114753194.8631897 19574359.346435547 0 19574359.346435547 19737302.87828064 0 0 0 0 127130893.16565704 70978882.95615387 0 70978882.95615387 -18491671.257843018 0 0 0 0 89051699.508331299 117164118.90756226 0 117164118.90756226 -16791914.568244934 0 0 0 0 166967312.90267944 122407262.11424255 0 122407262.11424255 -23982491.301628113 0 0 0 0 250303081.69792175 103054825.01955414 0 103054825.01955414 -104179736.0483551 0 0 0 0 219629487.18785095 103011236.9400177 0 103011236.9400177 -79556363.628845215 0 0 0 0 374697186.03948975 44194751.235809326 0 44194751.235809326 -80540496.067688227 0 0 0 0 -237617201.09544373 290477769.44058228 0 290477769.44058228 -63490544.479400635 0 0 0 0 -298609220.39096069 -9361545.650680542 0 -9361545.650680542 56425138.820922852 0 0 0 0 9840657.9838256836 144360968.36398315 0 144360968.36398315 -27845599.749725342 0 0 0 0 19632585.518768311 193710932.82516479 0 193710932.82516479 -80401722.547698975 0 0 0 0 249614186.44302368 168315711.1678009 0 168315711.1678009 -194335426.64831543 0 0 0 0 223538707.10176086 175012557.42453003 0 175012557.42453003 32255462.439941406 0 0 0 0 123552729.3554554 73197923.057994843 0 73197923.057994843 -71418896.910583496 0 0 0 0 108411569.95433807 207862591.57758331 0 207862591.57758331 -448740725.48321533 0 0 0 0 -293249555.76156616 -16847304.660995483 0 -16847304.660995483 66419701.016448975 0 0 0 0 305559135.7610321 336785468.31390381 0 336785468.31390381 264309051.41957092 0 0 0 0 237850183.88997078 -21085291.445112228 0 -21085291.445112228 128559103.69854736 0 0 0 0 -263287913.66595459 572382677.66094208 0 572382677.66094208 887116280.29302979 0 0 0 0 258671808.25172424 21262947.508140564 0 21262947.508140564 71193220.559387207 0 0 0 0 280569805.27365112 279047276.74256897 0 279047276.74256897 646942445.56355286 0 0 0 0 411287808.03948975 75833612.750427246 0 75833612.750427246 27398524.185203552 0 0 0 0 443343337.18229675 540836883.83356476 0 540836883.83356476 891231081.63696671 0 0 0 0 654846384.14687347 435151513.16991425 0 435151513.16991425 155337471.29510498 0 0 0 0 593622160.8401432 509608285.56643677 0 509608285.56643677 501478030.51010132 0 0 0 0 351707653.96241951 1028778095.015234 0 1028778095.015234 1758440937.3269196 0 0 0 0 606535426.40368986 1553873156.844275 0 1553873156.844275 1896421763.7580261 0 0 0 0 546178934.48397827 523653747.98426056 0 523653747.98426056 863279559.80082703 0 0 0 0 9641281.9563330635 5715561.0782150999 0 5715561.0782150999 -2700681.1289385855 0 0 0 0 -360781810.8359375 224381622.30097198 0 224381622.30097198 389940081.20721436 0 0 0 0 377022216.68815613 726261177.00583649 0 726261177.00583649 810307043.61438751 0 0 0 0 889819732.07658672 1505932906.3910165 0 1505932906.3910165 2206321108.5957336 0 0 0 0 749655196.82142639 563822347.68302917 0 563822347.68302917 821469611.46473694 0 0 0 0 1236116089.6866913 1132981394.0785599 0 1132981394.0785599 2173117821.9715729 0 0 0 0 1830923611.3454437 2231231611.0570812 0 2231231611.0570812 2174678484.6171417 0 0 0 0 1053727545.7099762 1940806470.1423035 0 1940806470.1423035 3425196931.3358779 0 0 0 0 1155047436.4075871 2498634231.143568 0 2498634231.143568 2388449872.3883362 0 0 0 0 3512202.8644768298 3392609.024733372 0 3392609.024733372 -1487199.3503211215 0 0 0 0 567781657.91465759 2375850147.4730072 0 2375850147.4730072 3927217862.1906433 0 0 0 0 1352753632.5187225 1791352612.1186523 0 1791352612.1186523 1691719004.348938 0 0 0 0 253050842.03540039 696167590.7111969 0 696167590.7111969 1400682086.7286148 0 0 0 0 1194511282.6266174 1988326242.809269 0 1988326242.809269 2697937234.0126953 0 0 0 0 740163779.53631592 1521733728.4569626 0 1521733728.4569626 2434085561.2704926 0 0 0 0 940726659.22192383 1855494589.534256 0 1855494589.534256 1999412622.0924263 0 0 0 0 240938419.58325195 799024033.53981781 0 799024033.53981781 1660251416.0950928 0 0 0 0 1251743948.9268188 1803599558.8429489 0 1803599558.8429489 2180785142.6461391 0 0 0 0 773448246.20298767 1589181140.7936707 0 1589181140.7936707 2236518213.3253021 0 0 0 0 876542594.58360291 1480354313.9624252 0 1480354313.9624252 2591376803.3453979 0 0 0 0 1033585982.639679 2371128023.0020599 0 2371128023.0020599 3243303190.9202023 0 0 0 0 1567511035.3678589 2241096342.9659119 0 2241096342.9659119 3827401588.3116379 0 0 0 0 6117013.0888032019 5049602.7839374691 0 5049602.7839374691 -1136873.9428664148 0 0 0 0 1355321868.8166199 2618995021.0642853 0 2618995021.0642853 3209794731.2939301 0 0 0 0 1241855575.4638672 2010055840.3146515 0 2010055840.3146515 3798567303.1170959 0 0 0 0 1297383286.5252495 1856825865.8969517 0 1856825865.8969517 3615305554.2759094 0 0 0 0 1008823180.9678802 2192284472.0688324 0 2192284472.0688324 4453157366.8490295 0 0 0 0 24235141.476240963 3928695.3229633346 0 3928695.3229633346 -1309310.4847670645 0 0 0 0 77210962.164978027 252978964.76873779 0 252978964.76873779 -1188470067.3472061 0 0 0 0 40221760.470923141 2738985.5655231029 0 2738985.5655231029 -3251369.0002497397 0 0 0 0 871050450.26635742 872544211.39687347 0 872544211.39687347 1693024506.9880829 0 0 0 0 202296279.7384491 1649489868.0123444 0 1649489868.0123444 4151745161.5793915 0 0 0 0 436059557.17988586 280704637.77996445 0 280704637.77996445 -1541335282.0650101 0 0 0 0 -490343911.81558228 191765547.56023407 0 191765547.56023407 8467000.1082305908 0 0 0 0 125888826.04241943 -76109489.70488739 0 -76109489.70488739 -368973800.45552063 0 0 0 0 59679538.295059204 343553064.91757584 0 343553064.91757584 -338157456.3793869 0 0 0 0 -207573483.97500229 447703053.09843922 0 447703053.09843922 244455698.2313385 0 0 0 0 -333296990.43447876 684593654.07104874 0 684593654.07104874 1331124703.7360153 0 0 0 0 -3235207.3147477955 -1064908.1588436365 0 -1064908.1588436365 1755404.3802115992 0 0 0 0 -747090194.41522217 570567419.90444183 0 570567419.90444183 422797492.81878662 0 0 0 0 -84984799.591796875 88703019.027938843 0 88703019.027938843 437110923.38130951 0 0 0 0 -455297552.6335907 -153346763.59114838 0 -153346763.59114838 281391929.70185852 0 0 0 0 781962.12292098999 300978897.48805618 0 300978897.48805618 -293375423.73376465 0 0 0 0 -448024895.11219788 -193922745.03087997 0 -193922745.03087997 -541488070.54746246 0 0 0 0 107450546.81576538 131632386.15634155 0 131632386.15634155 -1271972555.0743828 0 0 0 0 214145915.89743042 -7897366.7993011475 0 -7897366.7993011475 -1648083648.0148163 0 0 0 0 425185878.79785919 372866009.58669281 0 372866009.58669281 155422745.1529541 0 0 0 0 -77762050.667205811 23826917.847969055 0 23826917.847969055 838838846.8526001 0 0 0 0 218244848.42333984 514611617.14985657 0 514611617.14985657 1164646544.3134651 0 0 0 0 -5259151.9959638566 -848816.8664425239 0 -848816.8664425239 2702048.3619112521 0 0 0 0 264010474.48175049 52547925.218048096 0 52547925.218048096 433306962.76747894 0 0 0 0 241134713.0668335 231335220.1848774 0 231335220.1848774 -790167151.44342041 0 0 0 0 -72203829.083389282 -231103254.68095016 0 -231103254.68095016 1000040571.2024307 0 0 0 0 -13006172.64874053 2993656.5858205035 0 2993656.5858205035 600076.70612407103 0 0 0 0 219183359.66358948 109171673.22381973 0 109171673.22381973 327926542.27075195 0 0 0 0 245878266.31991577 -86497216.582332611 0 -86497216.582332611 259807178.01100159 0 0 0 0 -2443810.1308185011 1277869.9411235452 0 1277869.9411235452 2698307.5608028248 0 0 0 0 125377458.63401794 -240232818.76219177 0 -240232818.76219177 -486285091.24431229 0 0 0 0 -142223608.78421021 -700834596.90846252 0 -700834596.90846252 25361876.104377747 0 0 0 0 -713493285.32375717 756415323.92260742 0 756415323.92260742 1013967697.8884811 0 0 0 0 -104237637.82998657 117262657.86301041 0 117262657.86301041 -81948104.322135925 0 0 0 0 -18843569.472087458 6001944.5246173926 0 6001944.5246173926 1468933.9295455674 0 0 0 0 -101550605.67092896 275263427.16069794 0 275263427.16069794 657088524.17555237 0 0 0 0 -56438606.013366699 55715812.615119934 0 55715812.615119934 74199504.117078781 0 0 0 0 -21093695.27705504 9595017.2938489653 0 9595017.2938489653 3272904.9795813067 0 0 0 0 10852078.609542847 18081995.647499084 0 18081995.647499084 -2596583.8656311035 0 0 0 0 41780259.279830933 202872172.19443512 0 202872172.19443512 122702186.65365601 0 0 0 0 112598486.18558502 85605685.195056915 0 85605685.195056915 114411488.51679993 0 0 0 0 92165148.950866699 203198513.95357513 0 203198513.95357513 -23516411.822158813 0 0 0 0 5065995.9097747803 124193172.77956009 0 124193172.77956009 121385989.93663025 0 0 0 0 39885375.532165527 142082147.44633484 0 142082147.44633484 -5711815.6202392578 0 0 0 0 348356197.51322937 435847349.45460606 0 435847349.45460606 -57876982.828102112 0 0 0 0 98005154.877838135 -115671656.06115723 0 -115671656.06115723 -380022782.39286804 0 0 0 0 -4761059.2767587602 7394598.2451820672 0 7394598.2451820672 6418577.296490144 0 0 0 0 -96030112.136377335 216779997.57013988 0 216779997.57013988 237245834.36032104 0 0 0 0 58996875.07434082 121987403.78775406 0 121987403.78775406 90881276.351531982 0 0 0 0 58006540.912994385 59001556.212692261 0 59001556.212692261 -186639585.20201874 0 0 0 0 -416001.52806687355 22499226.562705688 0 22499226.562705688 6691563.0150280595 0 0 0 0 -48720351.276519775 79192195.157119751 0 79192195.157119751 -19635821.838562012 0 0 0 0 64657598.227844238 66644327.536216736 0 66644327.536216736 8092847.1522064209 0 0 0 0 100384608.73666382 53368088.895797729 0 53368088.895797729 -28812689.866775513 0 0 0 0 109025764.14437103 59290499.567722321 0 59290499.567722321 -96390666.687210083 0 0 0 0 73052696.33706665 129301856.52504349 0 129301856.52504349 -24387196.076583862 0 0 0 0 68654149.974334717 148854070.75657654 0 148854070.75657654 132154553.24564362 0 0 0 0 72930864.059295654 22757005.564956665 0 22757005.564956665 -47123336.098083496 0 0 0 0 27288581.682036534 16483257.901229657 0 16483257.901229657 -344148.72520492971 0 0 0 0 141718091.56639481 3174815.1764755249 0 3174815.1764755249 -39078578.490570068 0 0 0 0 10015808.336496046 7210273.1692673899 0 7210273.1692673899 -4212228.5351380706 0 0 0 0 6331802.9630432129 67347698.977386475 0 67347698.977386475 46696121.76474762 0 0 0 0 15192606.748993251 37990036.797578596 0 37990036.797578596 18177197.307584405 0 0 0 0 45885073.011016846 132340309.32582092 0 132340309.32582092 69486808.462020874 0 0 0 0 8565440.3553849906 23793599.456325449 0 23793599.456325449 13467784.124353342 0 0 0 0 60249559.265492879 23794971.855978049 0 23794971.855978049 -7183940.2082415037 0 0 0 0 -71988587.566215515 131092932.58489037 0 131092932.58489037 38987907.719360352 0 0 0 0 175399117.51766968 33373934.693199158 0 33373934.693199158 18640872.887680054 0 0 0 0 60542830.57144165 22331893.278488159 0 22331893.278488159 47451790.785011292 0 0 0 0 9598818.9035511389 9162322.0098054856 0 9162322.0098054856 -3116578.915291667 0 0 0 0 7446633.2271498889 3242644.4890269414 0 3242644.4890269414 -715428.2361766696 0 0 0 0 9049379.3568098992 15488978.988059953 0 15488978.988059953 8150749.0589053035 0 0 0 0 15076004.214294434 16278868.322883606 0 16278868.322883606 5291219.3676223755 0 0 0 0 -22623902.623132706 25711831.838937759 0 25711831.838937759 26588034.911849976 0 0 0 0 11686922.883916806 35657435.157709576 0 35657435.157709576 12665782.958288908 0 0 0 0 14031311.172271729 41725197.985717773 0 41725197.985717773 23950344.170010567 0 0 0 0 97051177.896240234 135357465.16723633 0 135357465.16723633 190289124.18628311 0 0 0 0 46972430.104972839 72834048.079133987 0 72834048.079133987 -53896476.902008057 0 0 0 0 -19456415.880959362 18788351.789812222 0 18788351.789812222 6231943.2328681331 0 0 0 0 214738231.85064697 64911677.574127197 0 64911677.574127197 -330511442.0447998 0 0 0 0 -27112628.781997681 193016444.36587143 0 193016444.36587143 122098796.88237 0 0 0 0 72747194.936523438 405963353.32588196 0 405963353.32588196 346323641.23266602 0 0 0 0 -24901501.288787842 6586467.106048584 0 6586467.106048584 62552225.662046432 0 0 0 0 3524612.4030685164 8808902.2528034747 0 8808902.2528034747 -3728181.6898733526 0 0 0 0 18321499.230209351 -2380450.0924291611 0 -2380450.0924291611 20557275.156814575 0 0 0 0 -3798317.6569061279 5865017.384853363 0 5865017.384853363 -25882731.537967682 0 0 0 0 -33741854.19960022 3693076.1821212769 0 3693076.1821212769 28143756.662185669 0 0 0 0 -51864807.848464966 63174599.338445663 0 63174599.338445663 -18906585.674880981 0 0 0 0 -66842086.794204712 55267489.025337219 0 55267489.025337219 -8676823.1848220825 0 0 0 0 34204233.202064514 -58372979.841171265 0 -58372979.841171265 84489079.364700317 0 0 0 0 -210821472.80624008 139574899.83782578 0 139574899.83782578 155777692.08052826 0 0 0 0 -150283021.9254303 240365964.06296539 0 240365964.06296539 -83390754.005760193 0 0 0 0 -133053149.48867798 205375177.75562286 0 205375177.75562286 -23941511.283279419 0 0 0 0 -125356814.56987 270150682.9659996 0 270150682.9659996 -60397252.740814209 0 0 0 0 -27324388.372665405 68937554.774188995 0 68937554.774188995 92154064.90385437 0 0 0 0 -329498548.27554321 256688739.34342957 0 256688739.34342957 73233914.699450016 0 0 0 0 -189595659.73152161 238483804.491642 0 238483804.491642 -170013436.24733734 0 0 0 0 -132456905.38766479 297799903.78219223 0 297799903.78219223 -155824483.32169914 0 0 0 0 -123099221.55757141 279593719.01858521 0 279593719.01858521 -275425684.97924042 0 0 0 0 -143925543.09524536 261570472.41935921 0 261570472.41935921 -172876846.12997437 0 0 0 0 -100671151.00997925 192325405.4177475 0 192325405.4177475 -132519836.48968887 0 0 0 0 -200066142.34400177 350688924.40884781 0 350688924.40884781 -252034567.50658417 0 0 0 0 -93406718.023910522 147268895.07551956 0 147268895.07551956 -120121831.59701538 0 0 0 0 -56450591.182949066 210813825.74960613 0 210813825.74960613 -324165631.26439667 0 0 0 0 -68005360.144363403 142933319.56819916 0 142933319.56819916 -154865094.5201025 0 0 0 0 -94711795.671279907 102907065.77021408 0 102907065.77021408 -45747798.239440918 0 0 0 0 -50618694.950637817 37829630.203029633 0 37829630.203029633 -1794156.5555953979 0 0 0 0 -29777186.092884064 54703923.535770655 0 54703923.535770655 -59812726.273971558 0 0 0 0 -14434256.442974091 80308480.246677399 0 80308480.246677399 -150971699.89359283 0 0 0 0 -27498624.824142456 -1637994.3175544739 0 -1637994.3175544739 -8465814.1180076599 0 0 0 0 8838752.1742324829 88274484.068200111 0 88274484.068200111 -210148872.4617691 0 0 0 0 1070400.8680343628 58606220.179039001 0 58606220.179039001 -323764033.70903397 0 0 0 0 -53251493.832178116 285873702.1915164 0 285873702.1915164 -531168757.20587158 0 0 0 0 -331180516.28143311 434249277.95595169 0 434249277.95595169 -401260371.77246857 0 0 0 0 -102641074.43159485 156105282.04577637 0 156105282.04577637 -174246477.10833168 0 0 0 0 -17752182.541427612 317985019.92941666 0 317985019.92941666 -695466176.76693726 0 0 0 0 -113296066.06558228 285562503.90021133 0 285562503.90021133 -661192384.38565731 0 0 0 0 -531982332.71887589 502557498.38520718 0 502557498.38520718 -184822156.16466522 0 0 0 0 -450701870.40211487 658950627.08280182 0 658950627.08280182 -741865127.05683613 0 0 0 0 -209853141.42860413 481233103.16238403 0 481233103.16238403 -674029283.15262604 0 0 0 0 -490967394.04464722 917640545.95625305 0 917640545.95625305 -833362033.62382126 0 0 0 0 -198089620.23951721 193876028.60311508 0 193876028.60311508 646457644.12248993 0 0 0 0 -647525.79481549561 917615.14703914337 0 917615.14703914337 830072.54501189291 0 0 0 0 -274027014.75941467 -32360999.113441467 0 -32360999.113441467 688648172.04699707 0 0 0 0 -162029681.72294521 406895416.9370172 0 406895416.9370172 -450520508.52316284 0 0 0 0 -171795912.96188354 317290469.22352982 0 317290469.22352982 -220886481.0343895 0 0 0 0 -353400099.08163452 570792085.27443314 0 570792085.27443314 -190252086.38805389 0 0 0 0 -343384210.87133789 387161118.33391953 0 387161118.33391953 -15894792.213088989 0 0 0 0 -342336509.32391357 309327038.42794418 0 309327038.42794418 -238144272.05377197 0 0 0 0 -116352299.82981873 343246203.89326096 0 343246203.89326096 -504236605.86149216 0 0 0 0 -607435141.22680664 143828567.11166382 0 143828567.11166382 -197929063.75774384 0 0 0 0 -3803408.0607881546 -1514360.8593081143 0 -1514360.8593081143 -209955.20353060961 0 0 0 0 -701750375.08303833 -186960992.17476463 0 -186960992.17476463 468357751.65588379 0 0 0 0 -170566286.92559433 432326238.66733837 0 432326238.66733837 -261610268.15396881 0 0 0 0 88852245.774932861 -137508667.79896545 0 -137508667.79896545 211876616.18504333 0 0 0 0 -148691784.09566498 -297145157.74164772 0 -297145157.74164772 356524559.55464935 0 0 0 0 -5062374.5182376504 -1278616.1626622193 0 -1278616.1626622193 1490255.1391433235 0 0 0 0 -314496407.82206726 124903520.69350815 0 124903520.69350815 1016576612.217926 0 0 0 0 398232928.17373657 -1189611.1721343994 0 -1189611.1721343994 -298711634.10057259 0 0 0 0 -1651143.7925028205 -259194.34414928034 0 -259194.34414928034 456730.64227914903 0 0 0 0 -333601599.69185257 607614649.0269537 0 607614649.0269537 108776546.30274963 0 0 0 0 -30835998.775665283 241206030.01408386 0 241206030.01408386 181764044.92211533 0 0 0 0 -3101894.751554504 -1417035.5800941885 0 -1417035.5800941885 -246427.78298493847 0 0 0 0 -84958314.745254517 59011550.29801178 0 59011550.29801178 318164016.85126877 0 0 0 0 21826089.705207825 160193764.07874489 0 160193764.07874489 -109741264.68389893 0 0 0 0 -12959037.207679749 279934206.85552216 0 279934206.85552216 -80688156.738594055 0 0 0 0 49615783.802536011 28334057.506649017 0 28334057.506649017 -262417196.93264008 0 0 0 0 -760247.46850662678 1759528.9087273255 0 1759528.9087273255 858159.03585613146 0 0 0 0 -426927607.41442108 -54632097.784553528 0 -54632097.784553528 30039221.258026123 0 0 0 0 -7609842.3038721085 34417720.181600809 0 34417720.181600809 978918.15273284912 0 0 0 0 37974434.338912964 55369498.218551636 0 55369498.218551636 -66410970.064361572 0 0 0 0 12089012.276504517 36673920.61312294 0 36673920.61312294 -2963155.0380172729 0 0 0 0 175412531.6978426 -329124050.77013993 0 -329124050.77013993 -28732800.895622253 0 0 0 0 -1698928.0505591035 -668314.52616436966 0 -668314.52616436966 -150781.75230757892 0 0 0 0 122549742.94813538 13388973.276794434 0 13388973.276794434 -204912145.32846832 0 0 0 0 -434423726.17637634 -331273219.31710052 0 -331273219.31710052 526536527.01244736 0 0 0 0 -141511384.07030487 -93192248.383548737 0 -93192248.383548737 183372691.0828476 0 0 0 0 -377797371.53242493 182219269.34827042 0 182219269.34827042 -57525607.428705215 0 0 0 0 -141089238.15699768 -170742206.51745987 0 -170742206.51745987 -99964331.44764328 0 0 0 0 -295415365.73791504 551314800.52617645 0 551314800.52617645 304327569.23673248 0 0 0 0 -332592111.25023317 -174835240.52810073 0 -174835240.52810073 257828989.56245422 0 0 0 0 210162645.345047 -153102957.10343552 0 -153102957.10343552 -387859288.98656273 0 0 0 0 349392844.5760498 458425550.65539551 0 458425550.65539551 -431771873.63322449 0 0 0 0 321803652.1713562 275192254.4479599 0 275192254.4479599 117189888.27553368 0 0 0 0 871091042.3218689 834913390.6278038 0 834913390.6278038 152599777.13019633 0 0 0 0 -129676778.39115906 -198094196.59215164 0 -198094196.59215164 -358665210.03874588 0 0 0 0 763744255.36422729 1071708287.1735344 0 1071708287.1735344 402548212.18312836 0 0 0 0 -5282907.0948300511 4878733.1772247106 0 4878733.1772247106 -1693138.0439068079 0 0 0 0 386305.8349211663 -320848.91694951989 0 -320848.91694951989 -1032392.2295146808 0 0 0 0 -250839413.44715881 -548469324.77938843 0 -548469324.77938843 304742892.56130981 0 0 0 0 -1806833774.277565 -210228923.25120735 0 -210228923.25120735 234768432.23375702 0 0 0 0 -1174381572.3414917 -613053661.0221386 0 -613053661.0221386 -207913417.31491089 0 0 0 0 -2169956.0091075823 1945679.1464819834 0 1945679.1464819834 -788497.23046522215 0 0 0 0 1053512942.7053757 347189720.73295784 0 347189720.73295784 -349718955.65445709 0 0 0 0 280312024.22784424 603658856.71286011 0 603658856.71286011 744809834.70008087 0 0 0 0 452825459.11758423 679767434.89267731 0 679767434.89267731 -525084831.5525589 0 0 0 0 -350118894.97415161 710010015.70153427 0 710010015.70153427 -492398232.31443787 0 0 0 0 -993971644.42320251 411515575.4732666 0 411515575.4732666 -62973801.501274109 0 0 0 0 -254959088.44904709 238756700.07737923 0 238756700.07737923 -34203702.613548279 0 0 0 0 -355959510.9571991 494673439.72958279 0 494673439.72958279 -206213918.46563721 0 0 0 0 82085562.65284729 451329545.58417511 0 451329545.58417511 -342204341.1952095 0 0 0 0 41985369.797866821 192401582.13456726 0 192401582.13456726 -292581633.01524353 0 0 0 0 -255427222.27159119 368049774.05518723 0 368049774.05518723 -309591210.01154709 0 0 0 0 -262538469.53851318 287014737.47305298 0 287014737.47305298 -264104287.8076973 0 0 0 0 -496045298.27771628 87547670.395661592 0 87547670.395661592 -309454842.54310608 0 0 0 0 -487447216.65411377 482721888.34910965 0 482721888.34910965 -205775904.05833817 0 0 0 0 925970.00952330546 1050769575.6297182 0 1050769575.6297182 1096525662.7472916 0 0 0 0 1173676.2231390774 -478793.56881230697 0 -478793.56881230697 2203629.7825256092 0 0 0 0 198585594.70870972 122973825.61052704 0 122973825.61052704 -746427190.73437309 0 0 0 0 -300703415.55655777 1005721501.1201353 0 1005721501.1201353 1650105838.9083862 0 0 0 0 -288653075.98861694 329579304.59285927 0 329579304.59285927 3350249509.1322155 0 0 0 0 170860268.41218567 1258169655.2462273 0 1258169655.2462273 1241969762.0046082 0 0 0 0 272682601.47302628 872106134.56013727 0 872106134.56013727 68493816.624053955 0 0 0 0 -1700822358.3635406 -145031112.83446121 0 -145031112.83446121 883530563.95238304 0 0 0 0 -761326.11234587431 2619530.5659287423 0 2619530.5659287423 1860242.1584250256 0 0 0 0 421581125.34589386 1418218293.0344105 0 1418218293.0344105 982603858.54496384 0 0 0 0 1526552232.1778564 674705508.03279877 0 674705508.03279877 -450905938.659729 0 0 0 0 -1683461.796338737 5710518.7432204634 0 5710518.7432204634 3764515.7491380796 0 0 0 0 673300406.66506958 943066475.11858749 0 943066475.11858749 84511593.53894043 0 0 0 0 1592054948.3557968 371211608.51446342 0 371211608.51446342 306835890.1302948 0 0 0 0 658082769.48269653 436351029.99987411 0 436351029.99987411 447558545.50656891 0 0 0 0 513545090.68099976 98544209.615730286 0 98544209.615730286 1137906071.161087 0 0 0 0 426671065.85943604 278655284.52323914 0 278655284.52323914 1329647942.3770752 0 0 0 0 826345285.86291504 246578539.74300385 0 246578539.74300385 1134630635.8716583 0 0 0 0 833953027.29342556 678762679.55286098 0 678762679.55286098 1450066186.9805298 0 0 0 0 291627306.44726562 869129130.05523682 0 869129130.05523682 2263119963.2717972 0 0 0 0 2489777264.6707077 1556017351.6407871 0 1556017351.6407871 963368410.39276123 0 0 0 0 -288084997.49356079 66051659.26908493 0 66051659.26908493 2631934114.5987968 0 0 0 0 3083492.0810459554 1349813.6071324497 0 1349813.6071324497 2617998.7214650828 0 0 0 0 -97547745.716674805 107161636.41447449 0 107161636.41447449 -457896477.56656647 0 0 0 0 -93665843.565505981 272610432.15117264 0 272610432.15117264 1893501714.2478943 0 0 0 0 109732761.472229 139239118.6879425 0 139239118.6879425 -549243533.76330566 0 0 0 0 112074508.33864021 46673289.222085595 0 46673289.222085595 -183061863.39907837 0 0 0 0 285994842.0296936 90052562.569328308 0 90052562.569328308 1190906528.3029671 0 0 0 0 4880918.1060540527 4314890.4601706713 0 4314890.4601706713 3458797.4696485996 0 0 0 0 152809.72805786133 71653881.258346558 0 71653881.258346558 -88548995.664924622 0 0 0 0 -23486281.499145508 23188784.913116455 0 23188784.913116455 1197525864.9961662 0 0 0 0 -237564101.75073242 -174314515.71313477 0 -174314515.71313477 1060882236.800415 0 0 0 0 229485270.55014038 117133132.68423462 0 117133132.68423462 1214859365.8666687 0 0 0 0 440772738.13659668 102253526.22341919 0 102253526.22341919 1175560222.8687439 0 0 0 0 213832405.01052856 6765304.8478164673 0 6765304.8478164673 1240928275.1914825 0 0 0 0 -58492181.914672852 -71823574.280303955 0 -71823574.280303955 1202796439.6239624 0 0 0 0 438213702.38580322 299605784.2406311 0 299605784.2406311 1578103316.4355736 0 0 0 0 311161576.98724365 43364978.150806427 0 43364978.150806427 1215412539.272995 0 0 0 0 -21333636.166900635 -285937748.30696869 0 -285937748.30696869 1160868661.1173477 0 0 0 0 -8601621.4061515331 -303332.89743517153 0 -303332.89743517153 5940360.881855485 0 0 0 0 -1050378.7226867676 -282994337.01372528 0 -282994337.01372528 1006904722.5101624 0 0 0 0 28311407.863037109 -177628398.16329956 0 -177628398.16329956 971045175.35026932 0 0 0 0 26685041.006286621 -181357952.40974426 0 -181357952.40974426 1082438551.0926285 0 0 0 0 41602870.817962646 -205680398.68642426 0 -205680398.68642426 1119752707.8029785 0 0 0 0 130819504.94293213 27429907.573165894 0 27429907.573165894 1248181640.980011 0 0 0 0 81064293.466957092 -215222302.9397583 0 -215222302.9397583 1084936127.9614258 0 0 0 0 52523801.256225586 -232392424.46870422 0 -232392424.46870422 1109952705.1340485 0 0 0 0 54474251.169006348 -239660338.85801697 0 -239660338.85801697 1059113254.7374115 0 0 0 0 82564964.902679443 -170787800.42957306 0 -170787800.42957306 1085705391.1524506 0 0 0 0 -31505135.889282227 -88788484.459960938 0 -88788484.459960938 1211252268.9389191 0 0 0 0 -366755293.20910645 -244589169.60324097 0 -244589169.60324097 1139214312.449707 0 0 0 0 -48577124.729248047 -335412006.04638672 0 -335412006.04638672 1005046959.4472656 0 0 0 0 230454368.62524414 -156882169.98681641 0 -156882169.98681641 901594493.42321777 0 0 0 0 -84309050.937072754 -511073584.62181091 0 -511073584.62181091 834609330.65820312 0 0 0 0 50100022.383300781 -302084617.53723145 0 -302084617.53723145 1015830789.4601135 0 0 0 0 117613.53291922063 101994.59631264582 0 101994.59631264582 -244612.95852055028 0 0 0 0 309212175.12365723 -335484071.72067261 0 -335484071.72067261 711279648.66720581 0 0 0 0 13762416.508056641 -239891171.01833344 0 -239891171.01833344 1090346837.8468018 0 0 0 0 47698000.064086914 -351619015.87805939 0 -351619015.87805939 1078148400.3255577 0 0 0 0 -53556988.325378418 -253351507.14381409 0 -253351507.14381409 1059982467.3134384 0 0 0 0 217528329.96881104 -5459410.7672729492 0 -5459410.7672729492 912046599.6036377 0 0 0 0 146950633.51824951 -330881113.5730896 0 -330881113.5730896 976725004.02978516 0 0 0 0 52048750.125137329 -71059243.650783539 0 -71059243.650783539 442799795.94311523 0 0 0 0 22159341.497833252 -248756710.01139832 0 -248756710.01139832 876353779.15049744 0 0 0 0 86048610.237915039 -251202705.41163635 0 -251202705.41163635 901767524.42637634 0 0 0 0 -152053240.57513428 -171559897.07362366 0 -171559897.07362366 938574397.39722061 0 0 0 0 -221732945.22976112 -7595931.0989537239 0 -7595931.0989537239 823271170.06825256 0 0 0 0 -170956604.39706612 283838703.51231956 0 283838703.51231956 434613755.97161865 0 0 0 0 77765450.035064697 -136526781.20770264 0 -136526781.20770264 723697462.45898438 0 0 0 0 406676450.31124878 428139519.89067841 0 428139519.89067841 434005829.79639816 0 0 0 0 175855677.61080933 84414929.55701828 0 84414929.55701828 1317185134.3997498 0 0 0 0 217231890.38259888 62581733.117172241 0 62581733.117172241 992696201.61827469 0 0 0 0 395721593.82888794 524298932.8877182 0 524298932.8877182 1166509388.0457458 0 0 0 0 591788097.94576645 829032363.18617725 0 829032363.18617725 -384703081.15837097 0 0 0 0 565530400.40097046 708641091.72201538 0 708641091.72201538 -349637310.4212265 0 0 0 0 146898972.82012939 974479242.16467667 0 974479242.16467667 -159111644.00862885 0 0 0 0 -73471435.527130127 125547437.76150513 0 125547437.76150513 243428527.61252213 0 0 0 0 -981575354.68374634 -349072851.89820099 0 -349072851.89820099 406187774.77284241 0 0 0 0 -414063185.00834274 989020241.68685532 0 989020241.68685532 -531518815.26347351 0 0 0 0 -239359.82079841197 329561.01356858574 0 329561.01356858574 77219.012832600623 0 0 0 0 42722869.560256958 1303084085.5915375 0 1303084085.5915375 -1751157666.7417297 0 0 0 0 -4607764.7284558117 663789.24981112033 0 663789.24981112033 109795.66628379282 0 0 0 0 -40708704.281112671 567881443.38345718 0 567881443.38345718 -2426061148.9989319 0 0 0 0 -638058295.03469849 1350758612.1546898 0 1350758612.1546898 -950946301.41991043 0 0 0 0 -261438555.12773132 606613705.48551559 0 606613705.48551559 -277184169.79034042 0 0 0 0 -942853.98004862666 1272175.0200474486 0 1272175.0200474486 996981.64651127532 0 0 0 0 27039542.913269043 -52846231.868164062 0 -52846231.868164062 -230038822.74178314 0 0 0 0 -503113146.76924133 -11307974.487289429 0 -11307974.487289429 440832397.22949982 0 0 0 0 -54333047.025276184 54805904.087148666 0 54805904.087148666 436713921.3298111 0 0 0 0 -75692576.875762939 -221577572.36410522 0 -221577572.36410522 782280732.63644409 0 0 0 0 -203012221.27262878 -54840981.54650116 0 -54840981.54650116 1034355715.2780151 0 0 0 0 -24214764.010131836 97318978.235824585 0 97318978.235824585 1114696644.5225372 0 0 0 0 -73770302.425308228 -55311131.99243927 0 -55311131.99243927 214460354.7760849 0 0 0 0 -5471305.6440887451 261860596.98038483 0 261860596.98038483 590784120.86139679 0 0 0 0 29510416.371505737 -365199128.69406128 0 -365199128.69406128 959442914.33136749 0 0 0 0 -992309.6665327549 -582712.84645380452 0 -582712.84645380452 -161778.75882541761 0 0 0 0 227778225.21490479 4244958.3965568542 0 4244958.3965568542 356079510.537117 0 0 0 0 -228607020.31555176 245621035.96527863 0 245621035.96527863 -161496430.12763214 0 0 0 0 -277273404.5607605 -189478088.72449493 0 -189478088.72449493 1364758123.8925323 0 0 0 0 -7785170.0638001114 -2039669.5070052259 0 -2039669.5070052259 2943188.1605045684 0 0 0 0 -892471936.38500977 -137129700.12414551 0 -137129700.12414551 363732670.99853134 0 0 0 0 -595277486.95278931 84814897.587776184 0 84814897.587776184 77629036.4140625 0 0 0 0 -297063512.30221558 -575735379.08442688 0 -575735379.08442688 -48641876.834289551 0 0 0 0 -140113755.56494141 -12160206.2527771 0 -12160206.2527771 57037997.052438736 0 0 0 0 -69782450.294784546 25243304.926548004 0 25243304.926548004 41189419.774353027 0 0 0 0 -213830005.9573288 96138975.742197037 0 96138975.742197037 61695561.714401245 0 0 0 0 -49743666.917266846 117107549.22264862 0 117107549.22264862 -99863983.395885468 0 0 0 0 -14338789.201583862 38996535.509342194 0 38996535.509342194 64256953.486755371 0 0 0 0 -2368648.6927261353 164437499.84778214 0 164437499.84778214 52495218.02571106 0 0 0 0 -65697227.108673096 102993741.88145447 0 102993741.88145447 3074661.2661437988 0 0 0 0 -8970266.4175415039 55995719.558372498 0 55995719.558372498 7934972.1164937019 0 0 0 0 -66555789.538604736 88909366.927536011 0 88909366.927536011 61158666.930954456 0 0 0 0 -41452783.290214539 36755309.380535126 0 36755309.380535126 15550633.752433777 0 0 0 0 -7822885.0828857422 30192270.544296265 0 30192270.544296265 11584895.050125122 0 0 0 0 -30866095.034591675 9319103.1662483215 0 9319103.1662483215 50915091.806538343 0 0 0 0 -17074316.718212128 27152223.928907871 0 27152223.928907871 13987665.691703796 0 0 0 0 -302335.02310495824 8702571.9562635198 0 8702571.9562635198 18400838.81372197 0 0 0 0 -105141968.76010132 38331576.613145828 0 38331576.613145828 52619072.785476685 0 0 0 0 -13999751.702377319 8421442.4946212769 0 8421442.4946212769 35118965.731327057 0 0 0 0 16177672.832305908 40375736.041054726 0 40375736.041054726 49754249.118999481 0 0 0 0 120863.81592559814 13431906.653865814 0 13431906.653865814 10637162.605678558 0 0 0 0 -6294528.7615814209 31343145.029466629 0 31343145.029466629 18690775.451509476 0 0 0 0 -2788142.5197836533 10812851.969986297 0 10812851.969986297 2545916.3777802326 0 0 0 0 -115958242.75440979 20742288.946201324 0 20742288.946201324 24810899.459869385 0 0 0 0 -74264594.27154541 29649307.103046417 0 29649307.103046417 20556340.567050934 0 0 0 0 -10134160.519630432 -154481331.24954605 0 -154481331.24954605 -13190577.62097168 0 0 0 0 -318963.71608927846 10064610.423001967 0 10064610.423001967 18823922.034645889 0 0 0 0 34579402.187042236 -35974457.376377106 0 -35974457.376377106 34654415.927993774 0 0 0 0 -116482.12942524999 1773078.3391972631 0 1773078.3391972631 2939498.4697249867 0 0 0 0 260313863.19485474 188713145.73864746 0 188713145.73864746 130631252.55760193 0 0 0 0 272608010.14007568 94343040.105705261 0 94343040.105705261 3397639.7473163605 0 0 0 0 266790813.5925293 -30103219.146362305 0 -30103219.146362305 -61789373.045879364 0 0 0 0 -83001213.181915283 -224418780.69740295 0 -224418780.69740295 -106765085.11932373 0 0 0 0 259883214.22076416 -493708378.87533569 0 -493708378.87533569 -141671874.54484558 0 0 0 0 617123334.40081787 -177626957.75631714 0 -177626957.75631714 -201793909.79066467 0 0 0 0 5017358.9221812487 12689739.627624344 0 12689739.627624344 8659849.1956576183 0 0 0 0 8829335.6016540527 15681344.863513947 0 15681344.863513947 23356028.456329346 0 0 0 0 -22142902.362976074 18044822.453975677 0 18044822.453975677 -9977748.3928375244 0 0 0 0 -28320793.981964111 57398713.441431046 0 57398713.441431046 -49287328.288818359 0 0 0 0 -54524896.011169434 106059633.27053833 0 106059633.27053833 -8286399.6468658447 0 0 0 0 -126006521.98077393 144526035.82630157 0 144526035.82630157 20979739.873718262 0 0 0 0 -122972092.93060303 117996208.03498077 0 117996208.03498077 7034658.2419509888 0 0 0 0 -95810041.660186768 70046995.664081573 0 70046995.664081573 9903709.9234962463 0 0 0 0 -51591565.304504395 64814727.147193909 0 64814727.147193909 10410184.172727585 0 0 0 0 -26453750.595947266 61451026.047073364 0 61451026.047073364 -65794665.429794312 0 0 0 0 -27802522.122009277 85971060.93536377 0 85971060.93536377 -92071720.679199219 0 0 0 0 -61188556.858123779 88877421.515033722 0 88877421.515033722 -42909367.048370361 0 0 0 0 12049124.20123291 115561946.0916214 0 115561946.0916214 -71662868.231613159 0 0 0 0 -78720687.593658447 148745989.20571899 0 148745989.20571899 -72832039.035614014 0 0 0 0 -114492401.90072632 326052771.42726135 0 326052771.42726135 -198586286.72616577 0 0 0 0 -37716967.212768555 205824781.2648468 0 205824781.2648468 -188373405.6782155 0 0 0 0 -99629426.859138489 253686409.65959167 0 253686409.65959167 61150397.516708374 0 0 0 0 -61185776.839645386 230011496.69695282 0 230011496.69695282 -41276265.575073242 0 0 0 0 -84056906.629638672 184378719.20646667 0 184378719.20646667 -480856.51354217529 0 0 0 0 -79980622.92388916 176427726.56080627 0 176427726.56080627 10943946.024856567 0 0 0 0 -123588081.05352783 212203375.4459343 0 212203375.4459343 39421353.208320618 0 0 0 0 -132622503.23208618 174590744.72616577 0 174590744.72616577 104310129.42630768 0 0 0 0 -99146450.460388184 127762892.87640762 0 127762892.87640762 60826783.120880127 0 0 0 0 -166862579.45565796 112205851.37792969 0 112205851.37792969 101814368.91043854 0 0 0 0 -115517814.35397339 28984500.477336884 0 28984500.477336884 76335036.279998779 0 0 0 0 -167551201.8665483 64760606.052009404 0 64760606.052009404 51741916.291816711 0 0 0 0 -96689065.796783447 77707760.046928406 0 77707760.046928406 49000936.821315765 0 0 0 0 -367512373.03738403 -99377717.577875137 0 -99377717.577875137 18151040.482765198 0 0 0 0 -1497449.0322755203 5575740.7618128881 0 5575740.7618128881 301229.87835308537 0 0 0 0 80674489.531158447 87113048.483428955 0 87113048.483428955 1611420.5049781799 0 0 0 0 -27235703.538085938 12144158.001209259 0 12144158.001209259 37667604.908721924 0 0 0 0 -553267.91110482067 1690876.4838092551 0 1690876.4838092551 21409.361063808203 0 0 0 0 -770512116.43536377 -592977861.88834381 0 -592977861.88834381 49263864.862910509 0 0 0 0 -323284720.96426392 6543170.5789527893 0 6543170.5789527893 -18308213.602475643 0 0 0 0 -313224392.09529495 118627492.31785345 0 118627492.31785345 153949941.47751617 0 0 0 0 205852887.8104248 289716294.45207977 0 289716294.45207977 108979330.84803391 0 0 0 0 -291121788.6741848 270828158.3751123 0 270828158.3751123 387493869.84020233 0 0 0 0 539535075.78128052 -93469178.336442947 0 -93469178.336442947 146438567.30641079 0 0 0 0 605622393.80081177 -710838545.82498169 0 -710838545.82498169 921529628.00580311 0 0 0 0 2831184.0906228945 -248874.07497667149 0 -248874.07497667149 -1187612.4662865438 0 0 0 0 101817810.54326248 69205007.196306705 0 69205007.196306705 710479096.35604477 0 0 0 0 3436819.8636322021 415730512.59865952 0 415730512.59865952 43158246.686698914 0 0 0 0 174244362.25967407 41395272.618824005 0 41395272.618824005 55756031.553438187 0 0 0 0 237780.39814758301 212298888.54929924 0 212298888.54929924 190133422.69935608 0 0 0 0 -3147134.0129129887 -32295.436184726655 0 -32295.436184726655 2999603.9467860535 0 0 0 0 161939441.81710815 87252646.119190216 0 87252646.119190216 95065013.781295776 0 0 0 0 -102984896.44577551 204809100.29351252 0 204809100.29351252 89291694.356147766 0 0 0 0 -1774873.9105413333 61211.654996991158 0 61211.654996991158 1501584.7842515856 0 0 0 0 -118084436.87077332 191374254.02703857 0 191374254.02703857 117254407.80802155 0 0 0 0 68640453.84161377 257922950.50216293 0 257922950.50216293 -383905412.28816986 0 0 0 0 129458558.96944046 -64921336.9928689 0 -64921336.9928689 -352115437.64492798 0 0 0 0 -251205.73854064941 187225609.87379456 0 187225609.87379456 -317308327.83837891 0 0 0 0 -48381065.242156982 -41499460.524713516 0 -41499460.524713516 89150320.287963867 0 0 0 0 -18588767.662185669 -228509827.69487572 0 -228509827.69487572 267927675.21023417 0 0 0 0 3226583.8513745815 -1823856.7226253189 0 -1823856.7226253189 -2683881.8825972639 0 0 0 0 88895571.557983398 -79246247.299224854 0 -79246247.299224854 222986708.82403183 0 0 0 0 -58624.227478027344 -18442180.441064835 0 -18442180.441064835 44829549.929721832 0 0 0 0 -38975816.855834961 2392709.542766571 0 2392709.542766571 53186692.082842827 0 0 0 0 1645930.7367777675 193331.38615519553 0 193331.38615519553 -1514903.6307672989 0 0 0 0 -28499463.709701538 29342059.312330246 0 29342059.312330246 6576797.3663043976 0 0 0 0 -37557214.696174622 11705844.916525841 0 11705844.916525841 -27456112.185256958 0 0 0 0 4708844.8520507812 -68237595.321666718 0 -68237595.321666718 101709509.60669327 0 0 0 0 3121305.3091362566 333558.97085628659 0 333558.97085628659 -2975037.9648871571 0 0 0 0 316732.10388183594 117463036.00206566 0 117463036.00206566 97881375.853798866 0 0 0 0 -48083945.067398071 41855362.019412041 0 41855362.019412041 -87986971.008276939 0 0 0 0 100319.50747103116 126373572.85234164 0 126373572.85234164 32663058.719287872 0 0 0 0 -131204.63105666122 97435809.219344705 0 97435809.219344705 -115541370.86417007 0 0 0 0 -52790432.001019478 148365106.72578853 0 148365106.72578853 -100536514.75167465 0 0 0 0 2621029.3308828622 1460249.9162000492 0 1460249.9162000492 1606580.6919351947 0 0 0 0 205249329.38651466 308799608.58443737 0 308799608.58443737 68484273.20425415 0 0 0 0 171910547.45309448 -1358313130.1202927 0 -1358313130.1202927 598239130.923172 0 0 0 0 -472500078.98672485 297374381.44968605 0 297374381.44968605 398602332.6288414 0 0 0 0 -115586476.14282227 143685557.90456772 0 143685557.90456772 -9864554.9753303528 0 0 0 0 -79806262.879623413 -438060051.71363449 0 -438060051.71363449 867374599.46047783 0 0 0 0 3477111.4683516398 4781418.2336423509 0 4781418.2336423509 5631164.5262492187 0 0 0 0 -88861690.990661621 35215973.990451813 0 35215973.990451813 1522231.6012840271 0 0 0 0 -86502818.047729492 120632967.00145531 0 120632967.00145531 -63719875.079450607 0 0 0 0 -7244573.8129882812 17415924.543602943 0 17415924.543602943 -9752486.118434906 0 0 0 0 -56375406.076049805 11024207.273044586 0 11024207.273044586 53709440.867218018 0 0 0 0 -9023320.1908874512 43694361.937601089 0 43694361.937601089 73393433.375979424 0 0 0 0 -6407630.1256103516 32608351.374965668 0 32608351.374965668 -41947436.76968956 0 0 0 0 -77932957.480751038 70420493.724077225 0 70420493.724077225 14861277.254615784 0 0 0 0 -4453758.7625274658 -108359009.78582382 0 -108359009.78582382 336515034.4806633 0 0 0 0 5629866.9158548936 9054330.565197669 0 9054330.565197669 9347306.0581023693 0 0 0 0 -26919681.692832947 -49689121.296217918 0 -49689121.296217918 187003477.40629578 0 0 0 0 -27129545.327270508 -6313930.7740688324 0 -6313930.7740688324 313532854.32708645 0 0 0 0 -926186.97194777429 934896.59787153453 0 934896.59787153453 1425733.2104497799 0 0 0 0 32687067.915655136 11606164.589783669 0 11606164.589783669 164687470.32593918 0 0 0 0 -26907070.777290344 5722726.1093578339 0 5722726.1093578339 80876211.264148712 0 0 0 0 1616356.3449707031 1457657.127571106 0 1457657.127571106 41040723.974466324 0 0 0 0 2474465.0408029556 9278123.8527339697 0 9278123.8527339697 27016337.764686584 0 0 0 0 -2607224.8664081991 2015070.8817437282 0 2015070.8817437282 4456742.9031642731 0 0 0 0 -10311572.07244873 928506.65923500061 0 928506.65923500061 55879861.97441864 0 0 0 0 -16403494.853340149 -28173416.555654526 0 -28173416.555654526 148366846.03224182 0 0 0 0 -15637221.641448975 9417060.1409683228 0 9417060.1409683228 26646093.441947937 0 0 0 0 61991400.627212524 -28832199.949108124 0 -28832199.949108124 40608320.773400784 0 0 0 0 -3900709.5637895018 3700764.8518748656 0 3700764.8518748656 8775658.2892958764 0 0 0 0 -233919.03338623047 4278795.3855323792 0 4278795.3855323792 27666884.091766357 0 0 0 0 -18994363.367218018 2986035.1333961487 0 2986035.1333961487 30975425.81502533 0 0 0 0 -3365453.3225860596 23482704.41418457 0 23482704.41418457 8420891.0914802551 0 0 0 0 -15428432.984565735 11786611.797293663 0 11786611.797293663 29842151.172637939 0 0 0 0 -1334008.2698215991 8244818.0266840607 0 8244818.0266840607 17278602.256820735 0 0 0 0 -3858730.2081842422 27239277.824384212 0 27239277.824384212 3121172.666809082 0 0 0 0 26334563.213684082 -5946579.2136268616 0 -5946579.2136268616 12229021.304550171 0 0 0 0 -14925516.270019531 45079329.932697296 0 45079329.932697296 -369101659.24928284 0 0 0 0 -9545312.575543955 3253522.0562166832 0 3253522.0562166832 19024798.654747553 0 0 0 0 -23091060.362056732 -1480896.1591649055 0 -1480896.1591649055 275325833.97074127 0 0 0 0 -1182340.2837260813 1394704.9858024269 0 1394704.9858024269 3245227.1731796823 0 0 0 0 -6654617.5036125183 -45524137.565518856 0 -45524137.565518856 257425361.57128906 0 0 0 0 90144520.307443619 -28716553.270844221 0 -28716553.270844221 223878378.73712158 0 0 0 0 19960385.513217449 8885942.0900800824 0 8885942.0900800824 256277942.72373199 0 0 0 0 -438412.35271453857 -38707604.185841084 0 -38707604.185841084 522928513.85053253 0 0 0 0 110295133.11087036 -159667054.52088928 0 -159667054.52088928 317175100.96055889 0 0 0 0 16051217.309436798 -110332013.1964829 0 -110332013.1964829 326464060.56368256 0 0 0 0 -31312907.479446411 -73000231.91975975 0 -73000231.91975975 308145318.83959961 0 0 0 0 -39565065.224975586 -16235393.485900879 0 -16235393.485900879 311390394.38311338 0 0 0 0 1304970.4576911926 -40611084.861866474 0 -40611084.861866474 307676101.55912781 0 0 0 0 43037952.103881836 142973520.12113953 0 142973520.12113953 235292116.90035629 0 0 0 0 1323499.4013704732 1291121.7563556731 0 1291121.7563556731 1572106.1530536786 0 0 0 0 -121181873.22509003 -338103969.39393234 0 -338103969.39393234 184738945.56271362 0 0 0 0 40866975.250305176 143666902.13546371 0 143666902.13546371 429181508.60433388 0 0 0 0 40331368.873291016 183154353.68265152 0 183154353.68265152 -16201289.558868408 0 0 0 0 -122893982.71591187 93584310.51815033 0 93584310.51815033 147412053.13194275 0 0 0 0 -57746759.065948486 133784581.91626358 0 133784581.91626358 172205414.47051239 0 0 0 0 12068612.079299927 6686105.5205955505 0 6686105.5205955505 52376024.697711945 0 0 0 0 -174435530.77633667 5921423.6493186951 0 5921423.6493186951 17096952.304161072 0 0 0 0 1240140.3199281618 5507177.5520010367 0 5507177.5520010367 7840544.0817350037 0 0 0 0 -2919604.9117780775 12149304.600652181 0 12149304.600652181 16295221.895399436 0 0 0 0 -1682454.5729064941 16415744.44512558 0 16415744.44512558 -601879.62549209595 0 0 0 0 -44620744.839427948 86782568.198421478 0 86782568.198421478 -38934493.894859314 0 0 0 0 -45248878.067626953 90218096.594882965 0 90218096.594882965 26509060.362389565 0 0 0 0 -5776783.3908691406 17584358.399868011 0 17584358.399868011 1803522.46043396 0 0 0 0 -5876391.3064956665 15961264.185063362 0 15961264.185063362 2022823.8438835144 0 0 0 0 8154151.8932556659 17017844.346693654 0 17017844.346693654 4530551.3096350739 0 0 0 0 13356835.410339355 35085963.237266064 0 35085963.237266064 8588268.6323362589 0 0 0 0 -9550007.513961792 56406777.74093914 0 56406777.74093914 -41500833.020292282 0 0 0 0 19077515.205596924 43111120.378398418 0 43111120.378398418 -50314851.681935906 0 0 0 0 -565993.77547454834 11198180.057978153 0 11198180.057978153 3466985.3975200653 0 0 0 0 1388943.6947479248 13347029.245710373 0 13347029.245710373 -548822.61445808411 0 0 0 0 9881677.7965625674 9696876.3426260054 0 9696876.3426260054 -24344.248573119752 0 0 0 0 5784885.3249816895 2593460.3284676075 0 2593460.3284676075 -25443668.067346096 0 0 0 0 22674153.59286499 30338578.153412521 0 30338578.153412521 -89624691.350112915 0 0 0 0 -39648846.248626709 70093630.470214844 0 70093630.470214844 -75619822.698737144 0 0 0 0 -875097.086667642 1624126.0238976739 0 1624126.0238976739 3570655.3704788322 0 0 0 0 -40372845.233215332 39018120.476120472 0 39018120.476120472 -9881428.8082284927 0 0 0 0 -84253235.514190674 61840247.7354846 0 61840247.7354846 -16682353.528048515 0 0 0 0 396249.57284127921 1756513.6023295075 0 1756513.6023295075 2099977.5931700217 0 0 0 0 -18248388.706283569 -5011070.9404001236 0 -5011070.9404001236 41095827.720239639 0 0 0 0 -2822516.9072265625 1676458.926568985 0 1676458.926568985 30978223.965946198 0 0 0 0 1286865.5434387922 12394279.857322302 0 12394279.857322302 12959515.449321309 0 0 0 0 -2286378.6734867096 13909951.063414335 0 13909951.063414335 2425378.1732521057 0 0 0 0 -10883153.983703613 9068638.0293755531 0 9068638.0293755531 22444576.436264038 0 0 0 0 21370999.9400177 50110683.105825424 0 50110683.105825424 99296321.531236649 0 0 0 0 7090640.7837193832 13821338.996362712 0 13821338.996362712 12742569.277892025 0 0 0 0 -37602256.81401062 34593330.560090065 0 34593330.560090065 15671476.455516815 0 0 0 0 -36092754.20306921 4750525.1038126051 0 4750525.1038126051 40870869.507692337 0 0 0 0 -3308009.4987792969 8749431.6713829041 0 8749431.6713829041 13511066.609419733 0 0 0 0 -38590861.669036865 20846165.246109009 0 20846165.246109009 70465925.506074905 0 0 0 0 21702285.059783936 -79432780.955873489 0 -79432780.955873489 169788032.0428009 0 0 0 0 -40145754.256505966 42472891.746541858 0 42472891.746541858 -29169166.558137894 0 0 0 0 2538418.4453524053 -679733.03371910751 0 -679733.03371910751 -814935.23646130878 0 0 0 0 -3348458.676574707 -39138780.405308723 0 -39138780.405308723 90276754.51617074 0 0 0 0 -31678166.439056396 77689239.448892117 0 77689239.448892117 -71733757.757622719 0 0 0 0 -42917885.163841248 56700607.217986047 0 56700607.217986047 -36379635.679380417 0 0 0 0 -17258741.904312134 59005996.18407917 0 59005996.18407917 -74565359.004064083 0 0 0 0 -5664252.7546615601 38894746.98675704 0 38894746.98675704 -44109956.805404663 0 0 0 0 2118353.9007233977 -2520698.7452650759 0 -2520698.7452650759 -1977076.3061221717 0 0 0 0 -22370925.784408569 19665108.72367388 0 19665108.72367388 28558315.205802679 0 0 0 0 -4823818.198425293 43196611.466879368 0 43196611.466879368 -34021312.905203819 0 0 0 0 -20413418.409713745 3497386.9338469505 0 3497386.9338469505 97807178.751611471 0 0 0 0 27073.547622680664 35479927.85665524 0 35479927.85665524 -63276391.306670666 0 0 0 0 22259330.307144165 45804943.468188047 0 45804943.468188047 -113376864.89623809 0 0 0 0 1187942.3059636056 -1451942.3274488822 0 -1451942.3274488822 -1129461.8478371999 0 0 0 0 -27137326.521606445 55457562.152159691 0 55457562.152159691 4226473.9176635742 0 0 0 0 31701.889602661133 10120353.845824718 0 10120353.845824718 61993324.977911949 0 0 0 0 8297937.822769165 70277849.47055158 0 70277849.47055158 -32703955.047086716 0 0 0 0 -19134340.833221436 32299524.314021111 0 32299524.314021111 -61944236.61085701 0 0 0 0 -12395053.737136841 79990584.033514977 0 79990584.033514977 -113543229.77816963 0 0 0 0 5701497.9232788086 -55527846.376449585 0 -55527846.376449585 231473733.13785934 0 0 0 0 3203176.1585427821 -1432868.0414772667 0 -1432868.0414772667 -2157667.0491549708 0 0 0 0 -26387.901327628962 59013855.561748065 0 59013855.561748065 -120473939.30897331 0 0 0 0 42354641.347549438 22589813.673301697 0 22589813.673301697 -63868629.026250839 0 0 0 0 -76163629.662826538 -13542558.952253342 0 -13542558.952253342 3810177.6206550598 0 0 0 0 43298921.583090305 50788592.975442767 0 50788592.975442767 391477.77610015869 0 0 0 0 -7780735.6456599683 6111429.9550707191 0 6111429.9550707191 97225.838155716658 0 0 0 0 7261719.2623748779 -2473392.8638343811 0 -2473392.8638343811 7212666.4596209526 0 0 0 0 16733325.198745728 -9822034.8411369324 0 -9822034.8411369324 -6314653.8273200989 0 0 0 0 -15348921.233917236 -13098917.373363495 0 -13098917.373363495 18636769.516132355 0 0 0 0 -8171855.3447875977 -37036618.059066772 0 -37036618.059066772 -35981720.369571686 0 0 0 0 -44563988.173522949 -37194584.048465729 0 -37194584.048465729 2309242.5455322266 0 0 0 0 -945845.43504615128 -570681.85150688142 0 -570681.85150688142 499536.39313269034 0 0 0 0 -25499566.741071701 82663669.790317297 0 82663669.790317297 -155664664.06374359 0 0 0 0 -429644978.36699677 88837463.589982986 0 88837463.589982986 80656040.069465637 0 0 0 0 -278965426.96510315 178104017.04566574 0 178104017.04566574 -60504786.995994568 0 0 0 0 -252470019.30060577 -103693776.23012543 0 -103693776.23012543 22336539.654373169 0 0 0 0 -486787431.64616394 120097374.71396637 0 120097374.71396637 78551331.437549591 0 0 0 0 -746353893.29207993 452866014.80132842 0 452866014.80132842 -194084219.86375427 0 0 0 0 -318187555.11210632 173901045.43544579 0 173901045.43544579 -68499390.469085693 0 0 0 0 -822783728.716115 11837054.313312054 0 11837054.313312054 69406196.915496826 0 0 0 0 426860304.69705582 125839105.64611244 0 125839105.64611244 341937366.07350922 0 0 0 0 513532575.00772095 635408937.87680626 0 635408937.87680626 537636747.77465057 0 0 0 0 -6946819.7283381224 6077112.747032091 0 6077112.747032091 -1257535.4494006447 0 0 0 0 -74673308.512275696 86414156.187398911 0 86414156.187398911 5276595.0858840942 0 0 0 0 396246080.91788864 72960721.310262203 0 72960721.310262203 129673549.25854492 0 0 0 0 -75263353.636520386 185399512.1149025 0 185399512.1149025 393206795.57093811 0 0 0 0 -110931991.53805351 7206017.9508914948 0 7206017.9508914948 94001312.495498657 0 0 0 0 -508734489.47775269 42928039.952091217 0 42928039.952091217 208225394.46382904 0 0 0 0 179792110.04772949 270395324.23264694 0 270395324.23264694 -345979419.46607208 0 0 0 0 62347612.430099487 270912351.89242935 0 270912351.89242935 390722442.03747559 0 0 0 0 -3324367.9115227461 6170051.1036335677 0 6170051.1036335677 5012365.4668107294 0 0 0 0 -73255470.374938965 18095179.511627197 0 18095179.511627197 13981565.724105835 0 0 0 0 -77431799.755279541 22552260.582614899 0 22552260.582614899 38693130.698688507 0 0 0 0 -66721438.958236694 39646058.017410278 0 39646058.017410278 27999282.358512878 0 0 0 0 -301163271.31384659 254165050.69590664 0 254165050.69590664 -136875069.3700943 0 0 0 0 -1041771.2529700696 -718338.62082492933 0 -718338.62082492933 1236695.7283542268 0 0 0 0 -3806729.4890917689 1206172.001113547 0 1206172.001113547 5217799.7713862099 0 0 0 0 -66301721.97442627 30503605.703903198 0 30503605.703903198 6341065.2223167419 0 0 0 0 -55326795.515655518 -296554.2917175293 0 -296554.2917175293 21704473.954228401 0 0 0 0 503675.53863974661 6372439.1264994219 0 6372439.1264994219 9372690.3297833875 0 0 0 0 -1196454.0219421387 -48954604.130027771 0 -48954604.130027771 -57236327.973869324 0 0 0 0 129574886.11782837 3196015.6420974731 0 3196015.6420974731 -52255438.957012177 0 0 0 0 -8787916.7781066895 -36352497.731641769 0 -36352497.731641769 -18569558.763259888 0 0 0 0 246011529.02467346 207043055.67540359 0 207043055.67540359 114950355.51511765 0 0 0 0 -198262806.35102844 188971282.22891808 0 188971282.22891808 303053683.8115921 0 0 0 0 132087019.10450745 373817685.42229652 0 373817685.42229652 289253268.81229401 0 0 0 0 223911470.78504944 529691649.20308685 0 529691649.20308685 553750843.71841431 0 0 0 0 522706.05018925667 2169991.9922302254 0 2169991.9922302254 3128880.6775117442 0 0 0 0 56486726.545410156 -177472900.50359726 0 -177472900.50359726 274280019.87042427 0 0 0 0 276346246.77963638 -639858631.46120644 0 -639858631.46120644 860448589.6455307 0 0 0 0 583983769.65306091 558084395.7887764 0 558084395.7887764 111109273.72898102 0 0 0 0 -809920039.36767578 132125397.50036621 0 132125397.50036621 256757131.16375732 0 0 0 0 -107036488.94668579 233253627.02102661 0 233253627.02102661 236131457.3955555 0 0 0 0 -142425007.17658997 279744672.53610992 0 279744672.53610992 413043554.0922358 0 0 0 0 -264996792.95092773 240470054.39113617 0 240470054.39113617 790543472.74459839 0 0 0 0 -8239405.6351154819 5435743.5125783086 0 5435743.5125783086 2296547.5102640018 0 0 0 0 -232405547.67436218 218010640.09903336 0 218010640.09903336 419182423.93022919 0 0 0 0 -485668.0401783064 2210248.1030241214 0 2210248.1030241214 279257.76677807514 0 0 0 0 8947313.0127563477 22644244.392230988 0 22644244.392230988 19229364.670055389 0 0 0 0 23358436.50037384 10208490.782461166 0 10208490.782461166 -3062701.8025894165 0 0 0 0 -2971812.9951282144 1805510.1903973334 0 1805510.1903973334 1214037.9145100117 0 0 0 0 -197675097.13886261 193442671.59542274 0 193442671.59542274 388864279.60234833 0 0 0 0 -86560486.725952148 33864195.724525452 0 33864195.724525452 65983901.305534363 0 0 0 0 -393678.59588623047 1744760.8676357269 0 1744760.8676357269 1703892.683883667 0 0 0 0 -3079557.0244598389 6684692.5622730255 0 6684692.5622730255 5480795.34034729 0 0 0 0 -1273360.5355626196 3100277.5110991336 0 3100277.5110991336 348313.95938753709 0 0 0 0 -10770292.159973145 2403226.8807411194 0 2403226.8807411194 15644353.427978516 0 0 0 0 -3114008.1720436513 4403384.5448051766 0 4403384.5448051766 2574422.8862685747 0 0 0 0 -2098828.3254089355 18744408.29460907 0 18744408.29460907 1319417.8311061859 0 0 0 0 12979185.570503235 -1777468.052072525 0 -1777468.052072525 -10961149.038795471 0 0 0 0 -444403523.4669342 279295508.60169983 0 279295508.60169983 1332091718.7173386 0 0 0 0 -3127803.5765075684 274893900.244133 0 274893900.244133 209748350.15289688 0 0 0 0 12697911.564994812 19805359.5952034 0 19805359.5952034 287745818.08703613 0 0 0 0 432588842.48486328 76314056.49861145 0 76314056.49861145 -882021094.72203827 0 0 0 0 406568230.51824951 -906213925.07555389 0 -906213925.07555389 -120015724.62840652 0 0 0 0 823172456.91662598 1336992342.6726074 0 1336992342.6726074 207442407.61060566 0 0 0 0 -1434424493.4833679 42963541.134346008 0 42963541.134346008 305741909.634552 0 0 0 0 -468080175.43310547 660140013.34437561 0 660140013.34437561 -2440274095.3585739 0 0 0 0 -226652.46139723808 -47652.941386149265 0 -47652.941386149265 -77912.213855868205 0 0 0 0 111060226.6473999 1375184404.8870392 0 1375184404.8870392 207641152.42613775 0 0 0 0 2791737016.2883606 -240956270.62345886 0 -240956270.62345886 316633358.25961304 0 0 0 0 -264734374.45925903 85750367.276657104 0 85750367.276657104 2580288980.6769104 0 0 0 0 -237431885.99493408 -73690589.981788635 0 -73690589.981788635 415478424.07478333 0 0 0 0 -80275217.726257324 -214470205.28185272 0 -214470205.28185272 -606192029.32392883 0 0 0 0 -850364.25092092901 1475806.0828961525 0 1475806.0828961525 -3538184.483478047 0 0 0 0 -171581.7087097168 434233.34529876709 0 434233.34529876709 -4738674.1502304077 0 0 0 0 -448800.85464477539 885855.52191925049 0 885855.52191925049 -4809360.3420391083 0 0 0 0 1420057.1474914551 11264422.307952881 0 11264422.307952881 -18685023.149131775 0 0 0 0 790719.66307669133 10178128.663683385 0 10178128.663683385 3069169.5113533065 0 0 0 0 -815443.33157348633 1468962.3873329163 0 1468962.3873329163 -5348175.8646087646 0 0 0 0 -47637.288131713867 847238.78934955597 0 847238.78934955597 -5211508.6561889648 0 0 0 0 73156938.672088623 31807378.907073975 0 31807378.907073975 -56305461.025287628 0 0 0 0 6239892.6938781738 -5347716.3553657532 0 -5347716.3553657532 -937199.72011566162 0 0 0 0 399676.16647985578 987837.49840932712 0 987837.49840932712 -950601.78464884311 0 0 0 0 44992027.714569092 -15504097.7591362 0 -15504097.7591362 -16923093.412231445 0 0 0 0 14465333.189575195 8158482.1593818665 0 8158482.1593818665 -35175999.122879028 0 0 0 0 1878022.7785655558 14119628.661961423 0 14119628.661961423 8960339.0105829909 0 0 0 0 3577273.4169921875 59050490.766281128 0 59050490.766281128 -53726546.492908478 0 0 0 0 31338478.969299316 47548290.762550354 0 47548290.762550354 -61943495.479232788 0 0 0 0 -5694599.2885131836 17560933.025035381 0 17560933.025035381 319022.63632965088 0 0 0 0 28321770.725616455 1018902.1014022827 0 1018902.1014022827 -36972458.381372452 0 0 0 0 -10442744.753463745 26359318.891025543 0 26359318.891025543 -28537161.897106171 0 0 0 0 -2810331.2592544258 8698520.0580529496 0 8698520.0580529496 5925675.6258731 0 0 0 0 -15704615.17881012 13023129.638877869 0 13023129.638877869 8429490.5235290527 0 0 0 0 5980333.8790134564 17741812.58912465 0 17741812.58912465 -236902.43880395219 0 0 0 0 10257868.870300293 -2609851.9036254883 0 -2609851.9036254883 -21643702.507644653 0 0 0 0 1250505.0312831812 1882179.9108813517 0 1882179.9108813517 -1720079.0077164918 0 0 0 0 -5382614.6013814732 6979331.7145128585 0 6979331.7145128585 7035357.7590356283 0 0 0 0 -9384596.8814544678 8638438.8246126175 0 8638438.8246126175 3061380.6142425537 0 0 0 0 -8374602.9476852417 12045966.567113876 0 12045966.567113876 3919776.8165435791 0 0 0 0 -5716815.5384750366 15540334.095929146 0 15540334.095929146 -276108.48110580444 0 0 0 0 -6266012.0557556152 20125429.537622452 0 20125429.537622452 -4434539.8721609116 0 0 0 0 5446185.12597242 20999253.980490375 0 20999253.980490375 14725000.727104286 0 0 0 0 745925.70930053294 919106.64620977547 0 919106.64620977547 -945024.56169927493 0 0 0 0 -8541285.4590682983 -6706036.1190643311 0 -6706036.1190643311 47970597.741828918 0 0 0 0 -3579703.4320907593 -4510966.7658214569 0 -4510966.7658214569 28860380.436645508 0 0 0 0 -11503091.552642822 7936900.1037750244 0 7936900.1037750244 12772743.281364441 0 0 0 0 -12928689.419578552 7961101.1427822113 0 7961101.1427822113 16552722.284065247 0 0 0 0 -9631882.6965789795 3768774.2298965454 0 3768774.2298965454 9576746.3771362305 0 0 0 0 -13292952.188659668 20831170.944396973 0 20831170.944396973 4699400.8828849792 0 0 0 0 -15242462.520568848 22129231.755935669 0 22129231.755935669 5949205.2541046143 0 0 0 0 -12346661.581207275 19259962.860357285 0 19259962.860357285 6261643.9527435303 0 0 0 0 -6429872.8035964966 2414244.7527046204 0 2414244.7527046204 37558415.310932159 0 0 0 0 -19770036.218093872 19266294.0448246 0 19266294.0448246 27931070.775146484 0 0 0 0 -7233765.0185394287 -10395228.923511505 0 -10395228.923511505 149520533.02668381 0 0 0 0 6789497.2323303223 6151712.3044319153 0 6151712.3044319153 35034434.7448349 0 0 0 0 201822013.32650757 77173073.636180878 0 77173073.636180878 7091384.221124649 0 0 0 0 583725.4909363389 100343.50533131883 0 100343.50533131883 -591180.71479038894 0 0 0 0 71387103.655021667 -39815203.678451538 0 -39815203.678451538 -14451485.512079239 0 0 0 0 31774074.131820679 4589483.4100914001 0 4589483.4100914001 -16705905.475383759 0 0 0 0 35495886.690078735 11819911.295516968 0 11819911.295516968 -13114328.317070007 0 0 0 0 25600827.994003296 8185174.0498752594 0 8185174.0498752594 -4384729.4753608704 0 0 0 0 49839152.21572876 2206014.8579406738 0 2206014.8579406738 -52331995.357654572 0 0 0 0 40092556.971191406 35321002.745504379 0 35321002.745504379 -13894864.735626221 0 0 0 0 -1612755.1275271326 -390990.53572658822 0 -390990.53572658822 883589.10132956225 0 0 0 0 733758.72339809313 929802.95939207822 0 929802.95939207822 -1025987.9088734239 0 0 0 0 -176984351.51205444 102202935.00940704 0 102202935.00940704 49395930.305130005 0 0 0 0 25757272.982261658 38335101.553887367 0 38335101.553887367 65974832.569236755 0 0 0 0 35047195.674499512 12120263.272399902 0 12120263.272399902 -3963869.4154310226 0 0 0 0 -438818554.18083191 84608243.157898903 0 84608243.157898903 78712360.907794952 0 0 0 0 -311445497.29110718 -51866222.822807312 0 -51866222.822807312 110724828.1740284 0 0 0 0 -191583035.2782135 14050134.371788025 0 14050134.371788025 -1816798.5584259033 0 0 0 0 276546517.24543762 75527761.482727051 0 75527761.482727051 -83583990.722496033 0 0 0 0 -240735108.79766083 69941093.235298157 0 69941093.235298157 -3596125.4414596558 0 0 0 0 -258083524.77072144 71965402.352405548 0 71965402.352405548 61668821.212799072 0 0 0 0 -277419366.17303467 102256644.13441467 0 102256644.13441467 18889678.661170959 0 0 0 0 -237123669.16422653 112339017.20873833 0 112339017.20873833 6923494.3159942627 0 0 0 0 -57428646.35433197 114080224.26554298 0 114080224.26554298 87471477.465167999 0 0 0 0 -231384493.8762207 102024103.19880295 0 102024103.19880295 -5145770.844178319 0 0 0 0 1176897.8121691607 1485209.9404487349 0 1485209.9404487349 -2178659.2290866151 0 0 0 0 29164410.10836792 -87070176.03327179 0 -87070176.03327179 14323670.161140442 0 0 0 0 -230538277.75094604 131489600.73643494 0 131489600.73643494 -30809294.370074131 0 0 0 0 -119557569.09794617 135599105.86352158 0 135599105.86352158 -30798489.021183014 0 0 0 0 -288892551.20716858 190856330.86365509 0 190856330.86365509 23201776.254134178 0 0 0 0 -300687622.97254944 196607137.39887619 0 196607137.39887619 25571760.73135376 0 0 0 0 -429702428.98876953 163116586.46421242 0 163116586.46421242 71711329.463630676 0 0 0 0 -294883738.8905468 126747872.69692683 0 126747872.69692683 60992718.502227783 0 0 0 0 -261890533.12101746 118305226.67620087 0 118305226.67620087 43584931.243610382 0 0 0 0 -242847159.46026611 109153753.62451553 0 109153753.62451553 46190025.118122101 0 0 0 0 -224344755.13194275 154015298.16348839 0 154015298.16348839 26314437.240997314 0 0 0 0 -245672100.9465332 135930578.47312737 0 135930578.47312737 18925783.841945648 0 0 0 0 -389168463.09736633 -16985704.622940063 0 -16985704.622940063 40151911.032306671 0 0 0 0 -182190893.70118713 22434712.526882172 0 22434712.526882172 29489225.974761963 0 0 0 0 -277033012.97255135 65031195.486345291 0 65031195.486345291 30503771.627441406 0 0 0 0 -111102727.91130066 31294288.166938782 0 31294288.166938782 7619274.1770439148 0 0 0 0 -182119373.31381798 21279517.414543629 0 21279517.414543629 8538630.2182312012 0 0 0 0 -138487137.47203064 58949699.860309601 0 58949699.860309601 37666893.291379929 0 0 0 0 -164986420.0067215 35427994.40252018 0 35427994.40252018 17045614.690063477 0 0 0 0 -154996728.95910645 65823466.33502388 0 65823466.33502388 26330138.672379494 0 0 0 0 -217275154.23052979 115327306.92707253 0 115327306.92707253 23613226.899833679 0 0 0 0 -93304630.928222656 111961220.63420105 0 111961220.63420105 19601163.027217865 0 0 0 0 -207739155.60205078 102133604.62254906 0 102133604.62254906 33804836.539180756 0 0 0 0 -158889580.77365875 15738136.818141937 0 15738136.818141937 154530063.56412125 0 0 0 0 -316198092.51304626 184162204.33755493 0 184162204.33755493 -3533921.7062416077 0 0 0 0 -270654773.240839 145399399.81604719 0 145399399.81604719 27827738.28792572 0 0 0 0 -205353407.02876282 98160761.237514496 0 98160761.237514496 33357604.83164978 0 0 0 0 -208920162.82710266 133446020.65213013 0 133446020.65213013 15949198.024297714 0 0 0 0 -189455097.09461975 91137681.889099121 0 91137681.889099121 -76325950.279150009 0 0 0 0 -382835336.01345444 24720754.445757866 0 24720754.445757866 12081799.658454895 0 0 0 0 -158715496.72344971 102226325.03868866 0 102226325.03868866 -17622726.860591888 0 0 0 0 -85385146.179168701 -35805976.812103271 0 -35805976.812103271 52330221.763575554 0 0 0 0 -207941083.34440994 66659139.033601761 0 66659139.033601761 73096679.958656311 0 0 0 0 -63720862.110366821 72724799.790569305 0 72724799.790569305 20278998.191478729 0 0 0 0 677189.14716544747 -131223.41036544368 0 -131223.41036544368 -966643.87983977795 0 0 0 0 23146599.729293823 -130499118.34942913 0 -130499118.34942913 161162097.1280632 0 0 0 0 -305419089.93357849 387266375.11233902 0 387266375.11233902 -344652062.35658836 0 0 0 0 741285.23179694265 -299969.41187921166 0 -299969.41187921166 -1534699.0329642296 0 0 0 0 -282875260.30803394 305441590.56810927 0 305441590.56810927 -175508739.83592987 0 0 0 0 -224116312.64105225 212801838.22167969 0 212801838.22167969 -128020186.73575592 0 0 0 0 -258472695.65968323 172801136.83564377 0 172801136.83564377 -170325232.87073135 0 0 0 0 -121607018.93922424 100178096.11620712 0 100178096.11620712 -69105007.195734024 0 0 0 0 -218639015.92997742 274499665.30986977 0 274499665.30986977 -155936066.01102448 0 0 0 0 -264809029.59654236 245198294.65095901 0 245198294.65095901 -157619028.10717964 0 0 0 0 -253673073.42176056 185599677.75918579 0 185599677.75918579 137679557.55421066 0 0 0 0 411182.9152802825 -481287.58187697269 0 -481287.58187697269 -1567951.5523255318 0 0 0 0 -290519587.2558918 92975972.160583019 0 92975972.160583019 -5645091.1536712646 0 0 0 0 142300547.65496063 94231328.531368256 0 94231328.531368256 -42857770.923217773 0 0 0 0 212344975.24353027 -58413915.993110657 0 -58413915.993110657 -17715579.56219399 0 0 0 0 -10624232.369327486 3713191.2487397008 0 3713191.2487397008 1079773.8390496075 0 0 0 0 -91543843.939208984 36355557.231941223 0 36355557.231941223 -62783828.190917969 0 0 0 0 9175237.739402771 19149622.830051422 0 19149622.830051422 4415742.9099121094 0 0 0 0 -31090318.398917019 27626381.266805146 0 27626381.266805146 -2851611.771940127 0 0 0 0 -18162300.055847168 -3397276.4702453613 0 -3397276.4702453613 15009667.833831787 0 0 0 0 13865096.879144788 24319081.418990225 0 24319081.418990225 -232096.10864257812 0 0 0 0 -20322021.173309326 109295767.63806152 0 109295767.63806152 -83771474.85168457 0 0 0 0 -12802287.052581159 35887805.188860819 0 35887805.188860819 -4245216.3275767043 0 0 0 0 3687154.0568220913 -661777.11259967089 0 -661777.11259967089 -1946609.9119618982 0 0 0 0 -37930661.04637146 87368609.860988617 0 87368609.860988617 28284159.104797363 0 0 0 0 -2702809.792175293 15439822.144935608 0 15439822.144935608 9279984.6006469727 0 0 0 0 -161862264.24958801 27460127.239044189 0 27460127.239044189 180318.06314849854 0 0 0 0 21795435.216278076 33537856.504211426 0 33537856.504211426 5511648.9977703094 0 0 0 0 -546097.09460820258 13796179.06978431 0 13796179.06978431 970316.27615327761 0 0 0 0 -11347507.154003914 16351684.062436428 0 16351684.062436428 -864471.05115731806 0 0 0 0 45437710.921813965 862685.00504302979 0 862685.00504302979 62556010.16375351 0 0 0 0 47079655.270523071 11822953.552902222 0 11822953.552902222 -67026755.436502457 0 0 0 0 -64537809.066810608 55777043.405281067 0 55777043.405281067 -121303766.35461426 0 0 0 0 -38148789.144958496 106580494.1297493 0 106580494.1297493 -25782925.823033333 0 0 0 0 23824436.551391602 25251860.658800125 0 25251860.658800125 -33443551.201286316 0 0 0 0 76591132.414108276 102177775.8926239 0 102177775.8926239 -136039736.50514984 0 0 0 0 -85295627.173728943 127354942.81141663 0 127354942.81141663 -39346978.012992859 0 0 0 0 -330622677.07141113 235934512.66806412 0 235934512.66806412 -93324832.802932739 0 0 0 0 -92135110.792221069 88843606.736927032 0 88843606.736927032 -90099812.114906311 0 0 0 0 -12692911.140930176 110884554.96891022 0 110884554.96891022 -82430312.676383972 0 0 0 0 -14996118.789642334 65731337.506958008 0 65731337.506958008 9977753.2620429993 0 0 0 0 70455106.698760986 41770435.832870483 0 41770435.832870483 -14219368.222428799 0 0 0 0 115638310.7665863 41556507.839675903 0 41556507.839675903 -81475075.639724731 0 0 0 0 -5413107.2955627441 14821824.030358315 0 14821824.030358315 -17855317.050712585 0 0 0 0 1592834.4933803012 20127556.815196786 0 20127556.815196786 -14782924.717434715 0 0 0 0 -7072407.4222450256 26499102.473305702 0 26499102.473305702 -20724478.784076691 0 0 0 0 -13790197.382385254 23777664.3932724 0 23777664.3932724 -19606125.697372437 0 0 0 0 -24884.03671105206 -34235.822964783758 0 -34235.822964783758 240739.91270355741 0 0 0 0 4668248.3761749268 11187916.35990715 0 11187916.35990715 -10959825.845729828 0 0 0 0 14488030.812601566 17888268.761084393 0 17888268.761084393 -9936974.0338249207 0 0 0 0 -26972247.654602051 110062815.95096397 0 110062815.95096397 -57898574.605014801 0 0 0 0 -10326006.511119405 25658605.902885497 0 25658605.902885497 -16591614.992663065 0 0 0 0 -43645158.444190979 118317046.03554535 0 118317046.03554535 -47667442.147979736 0 0 0 0 -36214388.510257721 105232673.45370483 0 105232673.45370483 -57563272.873718262 0 0 0 0 -45506722.473754883 100807276.97858047 0 100807276.97858047 -57256971.3558743 0 0 0 0 1230945873.1698356 126347551.12247045 0 126347551.12247045 1406292527.0755386 0 0 0 0 -1855813.0064250026 4672143.9540507197 0 4672143.9540507197 241137.86988907121 0 0 0 0 -274281685.48381042 -289358807.87545586 0 -289358807.87545586 1266489018.8731766 0 0 0 0 154625627.44451618 801142745.29566121 0 801142745.29566121 629592736.57011032 0 0 0 0 4268988.6894867942 20533987.946708299 0 20533987.946708299 -28461938.37728386 0 0 0 0 89910493.809295654 7524481.2133255005 0 7524481.2133255005 387206534.61749268 0 0 0 0 -136352642.43447876 164542218.38656616 0 164542218.38656616 -77222552.688633442 0 0 0 0 -80721627.55078125 115645562.30263519 0 115645562.30263519 -35929154.253990173 0 0 0 0 -78235393.45010376 125363949.5619812 0 125363949.5619812 -40957678.464336395 0 0 0 0 -95768370.537338257 117650686.9354744 0 117650686.9354744 -35001649.002994537 0 0 0 0 -79245823.353424072 100983175.55887985 0 100983175.55887985 -45800314.607673645 0 0 0 0 -147612481.32476044 79555800.532979965 0 79555800.532979965 -8545147.4669799805 0 0 0 0 -85966167.622619629 65485878.134414673 0 65485878.134414673 -10825423.096565247 0 0 0 0 -83092975.420013428 74437654.605625153 0 74437654.605625153 -33928344.253471375 0 0 0 0 -44139082.101516724 88300873.59180069 0 88300873.59180069 -41541909.541406631 0 0 0 0 -17753838.277767181 76832589.443413258 0 76832589.443413258 -34035370.854225159 0 0 0 0 -20552252.933766983 27457285.793477386 0 27457285.793477386 -24811060.918935243 0 0 0 0 1530677571.8619156 1545431321.1189957 0 1545431321.1189957 -161981662.65385342 0 0 0 0 -65476844.706420898 -16522878.295475006 0 -16522878.295475006 -11478568.514801979 0 0 0 0 -2592175432.0050659 -199117894.52591038 0 -199117894.52591038 786168404.1798315 0 0 0 0 127137891.46122742 597134181.50567341 0 597134181.50567341 967265271.0867691 0 0 0 0 566215748.1809082 -162075930.77911758 0 -162075930.77911758 996964463.10446548 0 0 0 0 -818630931.04087067 -30433793.1854105 0 -30433793.1854105 1144135811.9828033 0 0 0 0 837586015.62279892 640166613.13514185 0 640166613.13514185 767498709.69933701 0 0 0 0 -27359555.390312716 36228828.416345499 0 36228828.416345499 -26185504.03894918 0 0 0 0 -1856159745.5018692 1664638322.246356 0 1664638322.246356 1736381588.7704816 0 0 0 0 -463951305.63282776 1970099779.9342899 0 1970099779.9342899 1503822792.8584595 0 0 0 0 1411822158.5234725 -25825711.429294258 0 -25825711.429294258 -1696224463.0142803 0 0 0 0 15326722.17950058 -409418941.48992252 0 -409418941.48992252 -1666070322.328167 0 0 0 0 -152088588.32394791 -43590314.20331955 0 -43590314.20331955 -37130004.340061188 0 0 0 0 373641179.24189758 -95930582.171463966 0 -95930582.171463966 -108874497.13181591 0 0 0 0 -553495138.6916523 -717436200.32935071 0 -717436200.32935071 757319089.37695312 0 0 0 0 -51407703.939002991 -194286632.7581892 0 -194286632.7581892 167249369.10428905 0 0 0 0 -55370166.878757477 -314921909.22754622 0 -314921909.22754622 725690917.32609558 0 0 0 0 -50944727.636981964 -145963818.51430035 0 -145963818.51430035 376135530.93063736 0 0 0 0 67833627.957893372 -84056371.448535919 0 -84056371.448535919 129593741.75892448 0 0 0 0 221151759.36161423 -194540115.62305641 0 -194540115.62305641 -387754833.47183609 0 0 0 0 67919970.901008606 -53520803.666402817 0 -53520803.666402817 -72288451.392294884 0 0 0 0 -17101626.647354126 80582479.252758026 0 80582479.252758026 478528515.14885712 0 0 0 0 -5387446.4323120117 90527921.986457825 0 90527921.986457825 241276397.89575195 0 0 0 0 277476353.02528763 206564882.2056756 0 206564882.2056756 -194150031.18596649 0 0 0 0 -468660566.57191849 -102739968.49003172 0 -102739968.49003172 969580255.53775215 0 0 0 0 552206553.56727982 -50486454.611138821 0 -50486454.611138821 -468647304.97756386 0 0 0 0 -61545.763298489153 2738914.3177204616 0 2738914.3177204616 -937518.47305923048 0 0 0 0 65722092.497642517 -237817621.97345924 0 -237817621.97345924 388326447.65723991 0 0 0 0 -44970272.520629883 -135634170.5389576 0 -135634170.5389576 521245630.29231501 0 0 0 0 -14870929.880996704 -166022900.72670937 0 -166022900.72670937 271874823.72096944 0 0 0 0 -139392503.07750702 -715211554.78189278 0 -715211554.78189278 -220400989.94955063 0 0 0 0 41790288.751764297 -118407846.10200357 0 -118407846.10200357 151407243.1219635 0 0 0 0 -327597732.94172668 559874824.28647995 0 559874824.28647995 589756597.36466789 0 0 0 0 3595548.8417711123 8848460.9565295205 0 8848460.9565295205 8146447.1001777165 0 0 0 0 -34807373.367298126 127448810.5077343 0 127448810.5077343 -217083053.31695366 0 0 0 0 -737921.61286800355 3487377.6262972457 0 3487377.6262972457 3748504.8618843565 0 0 0 0 -31126124.884429932 24033784.437824726 0 24033784.437824726 -25449805.245633125 0 0 0 0 -402031695.62989807 -95702876.518361092 0 -95702876.518361092 139787224.81780624 0 0 0 0 271414614.54781342 209808182.1668241 0 209808182.1668241 -22453104.005091667 0 0 0 0 -26916221.297698498 61088342.315679163 0 61088342.315679163 -360374.61457252502 0 0 0 0 -41289616.813323975 -5045594.4463624954 0 -5045594.4463624954 21629239.025238037 0 0 0 0 -8335119.2334623747 10004851.827599484 0 10004851.827599484 10009522.780945189 0 0 0 0 210706692.08987141 -15096075.378642559 0 -15096075.378642559 -12250083.238888741 0 0 0 0 -113372180.63607025 41950131.773946762 0 41950131.773946762 47393944.168334961 0 0 0 0 -576079.94541616738 9936078.4658515956 0 9936078.4658515956 -3450269.0149867814 0 0 0 0 -5528540.1849975586 60404627.29463768 0 60404627.29463768 4734337.2951278687 0 0 0 0 22426004.832748413 1368214.4572563171 0 1368214.4572563171 10343777.596313477 0 0 0 0 3707997.0830788612 24721134.684276938 0 24721134.684276938 -15689196.699745178 0 0 0 0 -6411101.5027449951 24115955.521404341 0 24115955.521404341 -18507135.122597471 0 0 0 0 -37150129.878555298 99755441.969877243 0 99755441.969877243 40776836.164855003 0 0 0 0 -94965807.393203735 86439904.710195541 0 86439904.710195541 44371716.585936546 0 0 0 0 -234257.62544250488 -360629501.00010109 0 -360629501.00010109 436104995.58363152 0 0 0 0 -1883099.9003171586 2118515.582755493 0 2118515.582755493 2602901.5991833676 0 0 0 0 60553043.066976547 128166529.87687898 0 128166529.87687898 22600019.132045746 0 0 0 0 -206049915.36688232 -294547783.01420403 0 -294547783.01420403 886241676.77556038 0 0 0 0 41374881.256057739 195840526.70008087 0 195840526.70008087 398088162.66376305 0 0 0 0 9958412.8013153076 54292260.707010269 0 54292260.707010269 171419327.70648956 0 0 0 0 -29887299.820045471 -94435027.165239334 0 -94435027.165239334 411547483.6684227 0 0 0 0 100427417.88943481 41470726.499650955 0 41470726.499650955 -11472009.950660706 0 0 0 0 14636098.12361908 44243723.839792252 0 44243723.839792252 35043616.452758789 0 0 0 0 259073642.77187347 53413238.715820312 0 53413238.715820312 61935226.500118256 0 0 0 0 422137899.04068184 475772442.28627586 0 475772442.28627586 405954602.72817326 0 0 0 0 882003689.75058746 369161306.6854589 0 369161306.6854589 105618980.26218009 0 0 0 0 537657393.62770081 529514693.73484266 0 529514693.73484266 297900745.50898999 0 0 0 0 564958346.27407837 146804393.29838401 0 146804393.29838401 -23763411.451913714 0 0 0 0 71144405.214103699 -73728043.043853283 0 -73728043.043853283 -117685743.12776327 0 0 0 0 65849776.84766531 67146672.00895609 0 67146672.00895609 -38030329.476988792 0 0 0 0 92020.115918926895 -552087.04403887503 0 -552087.04403887503 1350006.9964922597 0 0 0 0 460472118.97721481 466545056.86106205 0 466545056.86106205 411444650.93065453 0 0 0 0 678270982.73838997 851661459.26608241 0 851661459.26608241 720284510.91177273 0 0 0 0 -1392840.5828552246 19884923.744400978 0 19884923.744400978 -70619052.455377579 0 0 0 0 -50545760.444683075 48342694.90041393 0 48342694.90041393 -3837239.1237866879 0 0 0 0 1380696.6081358232 -794468.4295883216 0 -794468.4295883216 2834392.8917681598 0 0 0 0 2528308.1945392555 5202162.1567300148 0 5202162.1567300148 6295410.8697228674 0 0 0 0 -9120053.952835083 86218754.698246896 0 86218754.698246896 25846422.799573064 0 0 0 0 -10174664.855667114 -26852142.310784578 0 -26852142.310784578 15651662.050350145 0 0 0 0 -113287696.99457288 5325549.6457421482 0 5325549.6457421482 79874119.534720421 0 0 0 0 -6686134.8358840942 14631214.287546396 0 14631214.287546396 -16881752.329781532 0 0 0 0 101136540.93944931 45693202.927344918 0 45693202.927344918 59802296.658576965 0 0 0 0 38785302.228656769 -51500487.292184114 0 -51500487.292184114 76755917.783708572 0 0 0 0 55294325.858089447 58845457.790309906 0 58845457.790309906 59091399.364680767 0 0 0 0 87036213.970264435 -276764.33501839638 0 -276764.33501839638 163620012.76923567 0 0 0 0 277986501.30204773 11864391.824910402 0 11864391.824910402 37242746.568968773 0 0 0 0 226669184.08351707 184915368.55091187 0 184915368.55091187 431282272.28043604 0 0 0 0 356488225.64381409 381246151.36850512 0 381246151.36850512 193762433.39231825 0 0 0 0 106343385.64003754 -24921376.290228844 0 -24921376.290228844 4107320.6651186943 0 0 0 0 368202692.66636658 109383894.91121435 0 109383894.91121435 261914.76625359058 0 0 0 0 14482920.478897095 148437301.91566706 0 148437301.91566706 31877045.773115396 0 0 0 0 317377164.85085297 -111151577.37465632 0 -111151577.37465632 743192556.08555174 0 0 0 0 979588920.13792419 441464480.33606184 0 441464480.33606184 147290792.04999959 0 0 0 0 1322453444.6917419 670781598.54543829 0 670781598.54543829 149515429.50459218 0 0 0 0 440822035.79901886 635995566.35871673 0 635995566.35871673 886620884.44804764 0 0 0 0 47185196.817687988 27191538.103154182 0 27191538.103154182 -1715913.6322345734 0 0 0 0 233531.62898761779 1481494.0142672341 0 1481494.0142672341 278032.5694903112 0 0 0 0 -45542885.310256958 47246723.642428637 0 47246723.642428637 33171756.844207764 0 0 0 0 42057543.766441345 43957317.704434872 0 43957317.704434872 11783369.568637371 0 0 0 0 41817409.739273071 49706372.297791436 0 49706372.297791436 -30035166.935306549 0 0 0 0 153263231.82614899 76567403.61794138 0 76567403.61794138 -28616862.935894966 0 0 0 0 44070991.746673584 32391128.126358986 0 32391128.126358986 -7712347.1670475006 0 0 0 0 43505511.747989655 31287439.153746128 0 31287439.153746128 -9174812.7688093185 0 0 0 0 34268899.774560452 32070523.67914772 0 32070523.67914772 8977881.3463592529 0 0 0 0 27248692.476547241 -18525015.413908005 0 -18525015.413908005 -41117668.70843935 0 0 0 0 3178297.7935403027 4370695.587577641 0 4370695.587577641 -2318237.9280843986 0 0 0 0 38544692.677947998 21875607.011497498 0 21875607.011497498 -21952794.798676491 0 0 0 0 5075795.0532019679 4738681.1203546068 0 4738681.1203546068 658053.43921837956 0 0 0 0 -35041362.318023682 -69999100.464045525 0 -69999100.464045525 -5151808.1540641785 0 0 0 0 21743541.835172653 28848045.166643143 0 28848045.166643143 16927717.718818665 0 0 0 0 18297668.490369797 13476743.006417274 0 13476743.006417274 10069085.946613312 0 0 0 0 35007939.413642883 28303510.334098816 0 28303510.334098816 8531730.4318847656 0 0 0 0 -812783.47690200806 24529782.979291916 0 24529782.979291916 20440066.855556488 0 0 0 0 12917206.978944778 26920052.614925861 0 26920052.614925861 12145842.389068604 0 0 0 0 11660334.06110096 30997878.014127254 0 30997878.014127254 13839279.8852005 0 0 0 0 499506.82618189603 3374366.2381474357 0 3374366.2381474357 160476.05226872233 0 0 0 0 33339472.384239197 43227099.222797394 0 43227099.222797394 20363849.602996826 0 0 0 0 3588320.3117009848 4132144.9454254657 0 4132144.9454254657 3771528.8538270183 0 0 0 0 47378381.483491898 26589367.128011703 0 26589367.128011703 14604337.370193481 0 0 0 0 16860887.844205856 39671880.361854553 0 39671880.361854553 -50736768.026321411 0 0 0 0 32280465.545391083 25293319.23840332 0 25293319.23840332 44678897.49420166 0 0 0 0 40130523.699287415 26707849.621682167 0 26707849.621682167 8959488.9564285278 0 0 0 0 31215625.472572327 36506404.904178619 0 36506404.904178619 10839650.462249756 0 0 0 0 2931355.7447451837 5522781.7607711852 0 5522781.7607711852 -4063551.2479091883 0 0 0 0 33559173.046928406 17441477.950438499 0 17441477.950438499 -7507057.6233510971 0 0 0 0 28392861.290002823 19376607.14439106 0 19376607.14439106 14734555.661304474 0 0 0 0 42955432.568431854 29022840.181070328 0 29022840.181070328 8407552.9530487061 0 0 0 0 22078693.130760193 32601482.069892883 0 32601482.069892883 15886375.67881012 0 0 0 0 43398030.349777222 30875318.377495766 0 30875318.377495766 5511461.8452115059 0 0 0 0 33794630.756086349 26265329.740588903 0 26265329.740588903 6065098.7533874512 0 0 0 0 -2146652.4423006307 4016152.116728995 0 4016152.116728995 2496496.8275748473 0 0 0 0 13579982.557880402 16312999.079679489 0 16312999.079679489 -8878818.9497680664 0 0 0 0 13449425.965820312 15286283.930784225 0 15286283.930784225 -16889772.121051788 0 0 0 0 8227149.0924911499 12308730.241178513 0 12308730.241178513 -5622294.1393089294 0 0 0 0 -7537720.1282997131 26752461.023249626 0 26752461.023249626 -13015521.244895935 0 0 0 0 8325670.4587097168 12205525.097097397 0 12205525.097097397 -11555361.780744553 0 0 0 0 -6835001.932872273 18188444.402557984 0 18188444.402557984 -14758194.019372113 0 0 0 0 -5858371.9355901554 21440729.640520282 0 21440729.640520282 -12716927.828866553 0 0 0 0 2052401.9482879639 24108930.506637573 0 24108930.506637573 -18619848.569404602 0 0 0 0 -13090089.41345787 31341764.060997963 0 31341764.060997963 -13964124.628372192 0 0 0 0 -9378897.8869171143 16948600.31798172 0 16948600.31798172 -7868045.465133667 0 0 0 0 -11490910.65023613 24938893.578533731 0 24938893.578533731 -6322811.0966897756 0 0 0 0 -1205426.1684665149 16985623.01174169 0 16985623.01174169 -3314598.8945125998 0 0 0 0 3472434.5570353642 9039639.0561339613 0 9039639.0561339613 -5107193.8101049885 0 0 0 0 3500066.7108249664 12521080.674352407 0 12521080.674352407 -4309541.5529251099 0 0 0 0 7382144.5329666138 10959707.866477966 0 10959707.866477966 1045737.6941356659 0 0 0 0 24768471.25214386 17411976.917552471 0 17411976.917552471 -15497672.811440557 0 0 0 0 53299228.279403687 41997093.583500937 0 41997093.583500937 -1754746.3008154035 0 0 0 0 3139603.2899475098 83076816.676195711 0 83076816.676195711 2423297.2975205854 0 0 0 0 -30988.441544388887 16140022.801267983 0 16140022.801267983 15013079.281306433 0 0 0 0 -53435777.097000122 44600015.803746223 0 44600015.803746223 9767728.7786278725 0 0 0 0 -1763981.5752944946 46445172.271714628 0 46445172.271714628 -21176642.948875979 0 0 0 0 23745171.216621399 27964338.924032688 0 27964338.924032688 10388584.934280157 0 0 0 0 2875641.1054077148 44450329.666603088 0 44450329.666603088 25979516.703751087 0 0 0 0 24786773.876029968 59098764.507637978 0 59098764.507637978 -3860863.7481167912 0 0 0 0 179179.21180396527 15830501.52864619 0 15830501.52864619 -4735313.6673507728 0 0 0 0 -71505974.030731201 37739030.333471298 0 37739030.333471298 35986838.99249649 0 0 0 0 45816774.71197319 17762377.558257103 0 17762377.558257103 26173224.965341568 0 0 0 0 190445196.27685547 169785178.93360901 0 169785178.93360901 -155212483.60458374 0 0 0 0 20415956.504478455 16178984.092475891 0 16178984.092475891 -9587849.0461196899 0 0 0 0 1844428.3871253207 13707010.234307276 0 13707010.234307276 3558854.4288584907 0 0 0 0 -2328421.4900627136 18949304.758444786 0 18949304.758444786 24938428.030029297 0 0 0 0 -1110727.4037747881 18629464.172497544 0 18629464.172497544 14877747.086621307 0 0 0 0 11935363.9828486 12348742.885844674 0 12348742.885844674 -15651207.649813814 0 0 0 0 4038602.3569946289 8536083.810333252 0 8536083.810333252 -12562410.905075073 0 0 0 0 21786775.737649601 16770343.007003535 0 16770343.007003535 -11139599.583789559 0 0 0 0 5657873.6040145364 15623144.303166457 0 15623144.303166457 -3888157.4747083671 0 0 0 0 17321229.762123108 17909477.320575714 0 17909477.320575714 -10315506.935435295 0 0 0 0 9119732.5104980469 14049269.034503937 0 14049269.034503937 -1986882.9095916748 0 0 0 0 25601777.108257294 15156989.348358154 0 15156989.348358154 -10604055.36706543 0 0 0 0 1935932.8511499083 18847726.666385464 0 18847726.666385464 -5830841.6092966795 0 0 0 0 19432592.519842148 11553154.165737152 0 11553154.165737152 -4219885.5707550049 0 0 0 0 -22607872.800506592 15906155.325122833 0 15906155.325122833 1540742.1171569824 0 0 0 0 -862665.59596252441 16357612.200489044 0 16357612.200489044 -11019344.803565979 0 0 0 0 -6401927.9782295823 16386333.336740924 0 16386333.336740924 540497.76399597712 0 0 0 0 9000146.2995147705 14976851.314874649 0 14976851.314874649 -335593.37392044067 0 0 0 0 -196722101.71633911 74655639.611679077 0 74655639.611679077 -14808678.639228821 0 0 0 0 12559158.91116333 19201216.302268982 0 19201216.302268982 -2575805.3049602509 0 0 0 0 -547143.66632948071 17173692.655245185 0 17173692.655245185 -976885.27547704708 0 0 0 0 -2810273.2648563385 20879785.977934837 0 20879785.977934837 3008738.8826904297 0 0 0 0 19862557.005775452 18676172.309757233 0 18676172.309757233 -4423419.3671188354 0 0 0 0 33517074.711204529 39572081.652671814 0 39572081.652671814 -1186949.7776794434 0 0 0 0 -4587955.4086164981 12295086.907774657 0 12295086.907774657 2958210.2459066287 0 0 0 0 3631089.6175460815 26992521.371974945 0 26992521.371974945 14120792.200889587 0 0 0 0 6756241.6463928223 22331393.616436005 0 22331393.616436005 6626156.0795898438 0 0 0 0 1947947.6536026001 9511446.2484836578 0 9511446.2484836578 4009698.2437133789 0 0 0 0 26383857.188774109 6089458.1505737305 0 6089458.1505737305 -45128740.032775879 0 0 0 0 -3035512.2816467285 27447777.43106842 0 27447777.43106842 30710192.906284332 0 0 0 0 7202519.5310668945 37498584.286056519 0 37498584.286056519 23313588.380260468 0 0 0 0 6284793.7223091125 17860107.457825661 0 17860107.457825661 -14444985.838371277 0 0 0 0 29959429.551185608 18356539.824810028 0 18356539.824810028 -7528146.7096939087 0 0 0 0 2497318.1838725759 18154552.525052667 0 18154552.525052667 -3001210.2132517844 0 0 0 0 -34077517.486915588 20574716.48935318 0 20574716.48935318 5442846.6532554626 0 0 0 0 21806728.607147217 19390964.57926178 0 19390964.57926178 330214.04485321045 0 0 0 0 18271028.402563095 11081856.186953545 0 11081856.186953545 -9853077.908996582 0 0 0 0 4568165.9388743648 13244827.936798703 0 13244827.936798703 -5556093.7285419814 0 0 0 0 22599095.73865509 19708772.526893616 0 19708772.526893616 -2594322.7033004761 0 0 0 0 -190551316.86270905 584294929.16598654 0 584294929.16598654 755731976.00424194 0 0 0 0 23829086.256515503 19160324.403129578 0 19160324.403129578 -6903584.826505661 0 0 0 0 24464554.279865265 16729948.29418087 0 16729948.29418087 -1107128.5927886963 0 0 0 0 233468465.4798584 256668139.39385986 0 256668139.39385986 -117666593.6574173 0 0 0 0 137756911.64774323 105633331.65504456 0 105633331.65504456 142072019.13894653 0 0 0 0 3893524.6630667457 18399688.320785303 0 18399688.320785303 -567871.65111851692 0 0 0 0 137784256.96109772 120296537.78673172 0 120296537.78673172 -94847638.167480469 0 0 0 0 16971301.876121521 22279532.47121048 0 22279532.47121048 -2802534.380317688 0 0 0 0 21160047.516098022 18722590.177505493 0 18722590.177505493 -698841.93817901611 0 0 0 0 21908453.92237854 20151885.576673508 0 20151885.576673508 -2607928.3641357422 0 0 0 0 27117966.364547729 16129680.536819458 0 16129680.536819458 -3357917.6546192169 0 0 0 0 -328659712.55492783 -239642500.4332943 0 -239642500.4332943 -19110939.86460495 0 0 0 0 6782864.904959606 17437466.590890054 0 17437466.590890054 -9979076.603426747 0 0 0 0 32540511.978801727 17608176.437091827 0 17608176.437091827 -8710044.8348922729 0 0 0 0 30346018.243551254 15661980.215370178 0 15661980.215370178 1996101.6996459961 0 0 0 0 50279189.05380249 275009610.92722321 0 275009610.92722321 -137863420.33288574 0 0 0 0 -73703998.480987549 340272756.0839386 0 340272756.0839386 -98681903.198373795 0 0 0 0 25050144.045763016 23022958.3778162 0 23022958.3778162 -13834629.424362183 0 0 0 0 33619208.615516663 22427112.832344055 0 22427112.832344055 -8569182.4931030273 0 0 0 0 20718511.137954712 12894424.780349731 0 12894424.780349731 -13979171.874140501 0 0 0 0 61853375.783370972 129042138.61901093 0 129042138.61901093 6808972.3079566956 0 0 0 0 14429553.510948181 34737011.142791748 0 34737011.142791748 -202910809.50011444 0 0 0 0 18711415.668106079 62340440.458835602 0 62340440.458835602 -76031424.933700562 0 0 0 0 -110236403.56528091 120188255.39021873 0 120188255.39021873 7472865.5607910156 0 0 0 0 95822601.141540527 -114807723.41292572 0 -114807723.41292572 -49494297.853500366 0 0 0 0 -253319197.7288208 -269669009.25897217 0 -269669009.25897217 -59142240.078399658 0 0 0 0 -248481240.44236374 87647274.986242294 0 87647274.986242294 9709750.582321167 0 0 0 0 1095183.0127054118 843600.74122354761 0 843600.74122354761 -12984.014942929149 0 0 0 0 10645932.955032349 43966681.978897095 0 43966681.978897095 -62719959.468330383 0 0 0 0 7088277.8646409214 11860007.185185889 0 11860007.185185889 -1428232.0931867734 0 0 0 0 -293122.30270981789 14528961.857363462 0 14528961.857363462 2180501.6729812622 0 0 0 0 10433054.349075317 19561517.086313248 0 19561517.086313248 -2309233.0456619263 0 0 0 0 -490219.96999502182 9798921.7081544399 0 9798921.7081544399 -3426090.0898742676 0 0 0 0 -4444179.9998601563 11051654.08539772 0 11051654.08539772 3991176.2406834662 0 0 0 0 74943106.397922516 -6929252.7224140167 0 -6929252.7224140167 -4529364.38331604 0 0 0 0 -3246599.9493103027 37373148.996906281 0 37373148.996906281 136981719.89973831 0 0 0 0 -1929707.6989874244 857307.7689665705 0 857307.7689665705 1275737.8552089445 0 0 0 0 -63713365.150535583 20188214.282831192 0 20188214.282831192 -9395118.0849609375 0 0 0 0 9251737.4954039045 1500467.0746768378 0 1500467.0746768378 -8024839.2421128638 0 0 0 0 4330054.36277771 5670158.2196807861 0 5670158.2196807861 44345313.825233459 0 0 0 0 6165830.5715338755 1914710.6783481054 0 1914710.6783481054 -8701990.9705838189 0 0 0 0 25820156.252311707 -13498641.590167999 0 -13498641.590167999 -39802898.390449524 0 0 0 0 7456103.247751236 11997355.564561844 0 11997355.564561844 -33925066.969589233 0 0 0 0 5827456.1431771219 7947428.680172937 0 7947428.680172937 -5879961.3379429393 0 0 0 0 12252184.691524506 12698605.529270172 0 12698605.529270172 -14525926.930908203 0 0 0 0 39325662.94065094 17970056.561290741 0 17970056.561290741 -19491068.71572113 0 0 0 0 39233282.31262207 15281219.332706451 0 15281219.332706451 -66657669.422309875 0 0 0 0 60880438.002464294 51183779.556144714 0 51183779.556144714 -24815631.428741455 0 0 0 0 5157324.6817550659 42200198.213748932 0 42200198.213748932 -55167831.661067963 0 0 0 0 -42911625.956905365 -37005872.760490417 0 -37005872.760490417 2225680.7276000977 0 0 0 0 6223856.0750736445 126236.97466873378 0 126236.97466873378 -4417958.472518608 0 0 0 0 41137064.417066574 -4895647.9394321442 0 -4895647.9394321442 -2048170.7314453125 0 0 0 0 73266736.431087494 -30050750.484264374 0 -30050750.484264374 -153356747.26808929 0 0 0 0 43625038.668228149 -94307275.637794495 0 -94307275.637794495 -136362977.57033539 0 0 0 0 60938637.433235168 75645103.365760803 0 75645103.365760803 36940061.209130287 0 0 0 0 -614071.55960393324 1149135.8371260501 0 1149135.8371260501 2680224.5262547657 0 0 0 0 23639678.268115997 -23214694.949417114 0 -23214694.949417114 -138348713.11740875 0 0 0 0 81068628.142356873 -50992717.571243286 0 -50992717.571243286 -132510609.28489113 0 0 0 0 47398420.312835693 -88833993.176048279 0 -88833993.176048279 -34307494.305091858 0 0 0 0 14568873.284740448 -85660927.594192505 0 -85660927.594192505 79629308.42243576 0 0 0 0 100060204.96068573 296086023.51030731 0 296086023.51030731 343149778.26999664 0 0 0 0 170365293.43532562 281602446.14122772 0 281602446.14122772 153659905.64823914 0 0 0 0 2439832.7465788145 -342879.39454067871 0 -342879.39454067871 -1628747.7162820771 0 0 0 0 883814875.62926483 -63560719.092910767 0 -63560719.092910767 -1105762832.7851334 0 0 0 0 245434898.98839569 374074105.28038788 0 374074105.28038788 267419134.11253357 0 0 0 0 13556454.78203392 -132829541.92323685 0 -132829541.92323685 134553105.32797241 0 0 0 0 -45115068.74181366 -14281191.75935173 0 -14281191.75935173 -104385484.38050842 0 0 0 0 6678139.204875946 249220433.10247421 0 249220433.10247421 257272378.37163544 0 0 0 0 337062259.43421936 -70243229.69745636 0 -70243229.69745636 -162951556.58112335 0 0 0 0 231911452.10911179 236664698.47040176 0 236664698.47040176 39423365.582885742 0 0 0 0 124668795.55950165 93892290.856033325 0 93892290.856033325 -141593814.54498291 0 0 0 0 82028726.322316289 -42317258.72416389 0 -42317258.72416389 -23648965.542739868 0 0 0 0 58089791.764572144 246830350.72600937 0 246830350.72600937 286537575.63619232 0 0 0 0 1373091.6164946984 772349.45649628155 0 772349.45649628155 -1862268.1372899637 0 0 0 0 -47661781.374038696 20733084.273681641 0 20733084.273681641 354629121.70858002 0 0 0 0 10540027.082817078 -106231482.08670807 0 -106231482.08670807 282120986.48202515 0 0 0 0 5216844.4216079712 51640386.423883438 0 51640386.423883438 76564964.883010864 0 0 0 0 24128785.808410645 87465281.970237732 0 87465281.970237732 85247312.232017517 0 0 0 0 -9881274.8717250824 255761940.0031929 0 255761940.0031929 -24877636.170455933 0 0 0 0 2705201.0637350082 160020826.69906998 0 160020826.69906998 -2937959.7805480957 0 0 0 0 -33428839.08303833 30106572.848403931 0 30106572.848403931 64794682.139080048 0 0 0 0 -18397825.254325867 65422205.712234497 0 65422205.712234497 9245252.6428146362 0 0 0 0 30856787.84866333 39085008.645313263 0 39085008.645313263 -151341491.8788147 0 0 0 0 -35154329.268318176 12882187.867233276 0 12882187.867233276 -29283652.219020844 0 0 0 0 -29297229.049942017 27207335.196117401 0 27207335.196117401 64660157.236785889 0 0 0 0 -33621799.038154602 -3910958.2000198364 0 -3910958.2000198364 114119401.69090271 0 0 0 0 55531034.403310776 -27730946.86311245 0 -27730946.86311245 50866252.774765015 0 0 0 0 -9411744.763923645 19574861.381462097 0 19574861.381462097 47871775.709892273 0 0 0 0 -4887996.1759777069 15507878.388771057 0 15507878.388771057 51030983.826950073 0 0 0 0 142497960.34683609 100683486.83441162 0 100683486.83441162 -278376727.92347717 0 0 0 0 181515925.71449089 -17589604.112422943 0 -17589604.112422943 -90334953.020614624 0 0 0 0 26962323.885625839 72425114.930985451 0 72425114.930985451 3714874.4035110474 0 0 0 0 -10023028.099212646 22471174.319274902 0 22471174.319274902 62381891.01864624 0 0 0 0 23396352.588423245 20152013.421012964 0 20152013.421012964 -2513096.3720040359 0 0 0 0 6439745.5207957234 6474564.3842561245 0 6474564.3842561245 8461989.3446886279 0 0 0 0 69766658.73714447 177114680.2926712 0 177114680.2926712 -213797936.13391495 0 0 0 0 -75378650.937606812 193860326.27695465 0 193860326.27695465 -46895710.307525635 0 0 0 0 50154541.040561676 -7573514.6240768433 0 -7573514.6240768433 25934973.43422699 0 0 0 0 13664150.106565561 19788358.638848625 0 19788358.638848625 3398821.2076329589 0 0 0 0 24666684.854454994 23421437.870410919 0 23421437.870410919 -5917430.4830474854 0 0 0 0 -8867786.0281791687 24602732.413566589 0 24602732.413566589 1984163.1329116821 0 0 0 0 9145488.9082012326 19801154.428582475 0 19801154.428582475 7865009.6070336774 0 0 0 0 169721379.3610878 -6018697.0690231323 0 -6018697.0690231323 -447713622.34301758 0 0 0 0 2724642.8474969864 12831131.172088623 0 12831131.172088623 -7369699.7835845947 0 0 0 0 14584131.842929797 16481886.652649861 0 16481886.652649861 612077.20459797233 0 0 0 0 -121810994.54733276 179741.27153778076 0 179741.27153778076 -155374623.03824425 0 0 0 0 -5721098.8679275513 61853166.33744812 0 61853166.33744812 -200957134.79487801 0 0 0 0 -1060002.5068833688 16754979.261454612 0 16754979.261454612 16385000.101831647 0 0 0 0 -80022.703323364258 10548104.458129883 0 10548104.458129883 6806685.6768341064 0 0 0 0 -2425439.6860618591 17570399.909988403 0 17570399.909988403 12161231.011245728 0 0 0 0 2529046.0812531393 11191603.468434613 0 11191603.468434613 6335486.892480813 0 0 0 0 4289797.2573922034 18865889.16539754 0 18865889.16539754 9331940.9536329936 0 0 0 0 13933081.901470661 -89836874.596324921 0 -89836874.596324921 -193327536.66305542 0 0 0 0 -4926798.0579490662 13510873.509803772 0 13510873.509803772 5609867.6738586426 0 0 0 0 -20719679.843582153 22935697.889995575 0 22935697.889995575 5968731.2534484863 0 0 0 0 2783381.1947231293 15930294.482723236 0 15930294.482723236 -1630644.0506973267 0 0 0 0 8099209.8123516832 18465284.61401061 0 18465284.61401061 7103700.3130394369 0 0 0 0 13303900.374080658 47066284.039176941 0 47066284.039176941 288544.04428100586 0 0 0 0 12775384.402801514 50091286.553735733 0 50091286.553735733 -16344072.413360596 0 0 0 0 20757852.107725143 28684814.628608704 0 28684814.628608704 -5621898.9376831055 0 0 0 0 1641557.0262050629 44588560.955844879 0 44588560.955844879 79324.846572875977 0 0 0 0 59116328.498734236 56336262.664909363 0 56336262.664909363 -51028528.075637817 0 0 0 0 57414939.826301575 41318388.790512085 0 41318388.790512085 -14695703.145645142 0 0 0 0 35388837.57557106 68583043.837181091 0 68583043.837181091 -6211183.1374969482 0 0 0 0 38011675.37921524 67885345.604217529 0 67885345.604217529 -11603019.074264526 0 0 0 0 46004533.115550995 78384590.317466736 0 78384590.317466736 -31463532.864700317 0 0 0 0 66036161.861839294 73031559.227081299 0 73031559.227081299 -76082410.327625275 0 0 0 0 77303590.008693695 95023708.971008301 0 95023708.971008301 -56067606.850799561 0 0 0 0 13638696.301921763 15614519.544363059 0 15614519.544363059 -1304676.8681380255 0 0 0 0 10602101.181474932 16033374.156450104 0 16033374.156450104 5226625.9641319141 0 0 0 0 10831209.731498718 16626206.41059494 0 16626206.41059494 3604686.1715078354 0 0 0 0 5435840.4053192139 18044644.341491699 0 18044644.341491699 11584009.303115845 0 0 0 0 -21933299.85827446 23252968.640132904 0 23252968.640132904 36391275.768417358 0 0 0 0 -7293441.1483775899 12923320.012762534 0 12923320.012762534 8573237.784873262 0 0 0 0 -10714642.598129272 21854759.346076965 0 21854759.346076965 7813566.5136833191 0 0 0 0 -1220426.088219732 2374477.30454918 0 2374477.30454918 2295050.3655682243 0 0 0 0 -27588242.679589987 91138836.568820477 0 91138836.568820477 -16666906.678466797 0 0 0 0 667361.11268850788 1083947.8596490286 0 1083947.8596490286 1371495.8941150829 0 0 0 0 -29013654.76388669 31482381.790877223 0 31482381.790877223 45062143.588195801 0 0 0 0 16016733.351867676 35772105.456451416 0 35772105.456451416 36840137.562789917 0 0 0 0 95282867.596588135 -3757888.3313217163 0 -3757888.3313217163 -57886689.656944275 0 0 0 0 -22945271.944793701 97854581.793895721 0 97854581.793895721 132490635.5201416 0 0 0 0 4251020.4817962646 -20360888.140029907 0 -20360888.140029907 135025270.05470276 0 0 0 0 5880092.1541783586 -282308.95728852972 0 -282308.95728852972 -5493437.4309095889 0 0 0 0 -4903528.8574447632 30920013.330158234 0 30920013.330158234 28231663.773033142 0 0 0 0 109259056.94873047 -61132603.295093536 0 -61132603.295093536 128081584.3062439 0 0 0 0 6884747.3875907538 19914995.352320541 0 19914995.352320541 2024646.0733937547 0 0 0 0 -12885096.473251343 18435872.660869598 0 18435872.660869598 19403646.549560547 0 0 0 0 1420069.4213164002 15186438.245901378 0 15186438.245901378 6166649.9820576366 0 0 0 0 15041780.823036194 30467686.992874146 0 30467686.992874146 -4368030.2377166748 0 0 0 0 -14274692.377624512 21244487.326797485 0 21244487.326797485 29022221.304023743 0 0 0 0 1513815.7795029432 3525047.7584185004 0 3525047.7584185004 -208052.72303651832 0 0 0 0 -529281.18251668825 15988742.923003951 0 15988742.923003951 4995977.3377164304 0 0 0 0 3652126.8311850033 12635720.349197531 0 12635720.349197531 4829920.6028877944 0 0 0 0 4671126.1112174988 17013863.696079254 0 17013863.696079254 3943245.0183868408 0 0 0 0 4219177.1662492752 18226428.233589172 0 18226428.233589172 2037926.1592025757 0 0 0 0 8360338.8164253235 19038324.860565186 0 19038324.860565186 2879182.2485618591 0 0 0 0 11962745.875164032 17009347.668457031 0 17009347.668457031 1209025.9043426514 0 0 0 0 6653853.3908417877 14920853.216516549 0 14920853.216516549 2475937.2115966678 0 0 0 0 9110981.843624115 15755411.087917328 0 15755411.087917328 2630472.6283874512 0 0 0 0 -6748535.2317552567 19397613.170631409 0 19397613.170631409 274064.81842041016 0 0 0 0 3222242.2067232579 12361186.995423267 0 12361186.995423267 3282981.7978954762 0 0 0 0 18144316.255824327 16871305.697090149 0 16871305.697090149 5582713.5329284668 0 0 0 0 2739655.7125565624 18223706.16168578 0 18223706.16168578 10744660.385069788 0 0 0 0 18585449.147506714 16008622.960998535 0 16008622.960998535 2602926.9876251221 0 0 0 0 11601626.326476097 35681316.854269505 0 35681316.854269505 20483488.159576416 0 0 0 0 16228745.353973446 13202981.628154788 0 13202981.628154788 -635579.65894179046 0 0 0 0 13630024.607944012 25244551.730958343 0 25244551.730958343 9509365.9402923584 0 0 0 0 5333819.0803070068 19454863.384338379 0 19454863.384338379 9559136.4175415039 0 0 0 0 5096709.5719299316 21177661.096069336 0 21177661.096069336 7771343.1205062866 0 0 0 0 4430441.0044937134 20207710.760772705 0 20207710.760772705 10927112.732736588 0 0 0 0 -1387447.007850647 25186998.370326996 0 25186998.370326996 18371919.367416382 0 0 0 0 6730266.3320999146 26938557.182025909 0 26938557.182025909 9257781.4358482361 0 0 0 0 -15585718.737228394 16543499.345996857 0 16543499.345996857 4501796.2102022171 0 0 0 0 3040544.0750350952 29314932.719585419 0 29314932.719585419 13767097.285018921 0 0 0 0 11160173.337068571 19588403.740195807 0 19588403.740195807 10481423.624078847 0 0 0 0 -14652017.645462036 14150912.372329712 0 14150912.372329712 4066028.5014038086 0 0 0 0 6818158.9802018926 15871783.845123682 0 15871783.845123682 5877956.7794320062 0 0 0 0 -10329247.287360273 5356663.4018701743 0 5356663.4018701743 9537121.9178332314 0 0 0 0 -30330429.44229126 69883205.19234848 0 69883205.19234848 -20828235.980232239 0 0 0 0 -48847071.444671631 -6204869.2442359924 0 -6204869.2442359924 34205586.463544369 0 0 0 0 -32210453.304580688 37449507.950057983 0 37449507.950057983 29742078.233612061 0 0 0 0 -18079651.834320068 32191361.066795349 0 32191361.066795349 -23751813.546737671 0 0 0 0 -46279444.100448608 15731772.870136261 0 15731772.870136261 -1822265.467338562 0 0 0 0 6584448.5132128112 3387077.5845549554 0 3387077.5845549554 -958568.79409043491 0 0 0 0 11045367.847510647 21431189.390862502 0 21431189.390862502 7818533.1030192673 0 0 0 0 141136204.32473755 -2900359.2319602966 0 -2900359.2319602966 21821429.161712646 0 0 0 0 -58245364.253387451 7970885.7768669128 0 7970885.7768669128 3250759.1790618896 0 0 0 0 -79071004.159492493 33743112.514122009 0 33743112.514122009 48905591.062316895 0 0 0 0 -22339317.782336548 20390748.704149351 0 20390748.704149351 23385820.854866706 0 0 0 0 -15799398.360439785 14208090.095851256 0 14208090.095851256 14950898.051597364 0 0 0 0 125130510.69549561 -86753064.410125732 0 -86753064.410125732 -415701435.04150391 0 0 0 0 -66949670.388336182 42016700.175495148 0 42016700.175495148 27180205.143251419 0 0 0 0 -19201522.278530121 -7937210.7615318298 0 -7937210.7615318298 8321390.5792541504 0 0 0 0 -19386446.943832397 181930881.84571075 0 181930881.84571075 656944861.51507568 0 0 0 0 1926869.4566497803 39273981.334884644 0 39273981.334884644 29837685.574897766 0 0 0 0 -60867246.036437988 52550203.480110168 0 52550203.480110168 68299593.562538147 0 0 0 0 -26733084.341125488 58332685.099952698 0 58332685.099952698 68881043.533535004 0 0 0 0 3595092.5689959526 36802749.773443937 0 36802749.773443937 -4205256.3832397461 0 0 0 0 -7516034.7135216221 2584185.9281153921 0 2584185.9281153921 4540473.7062171511 0 0 0 0 -19168632.477081299 12776478.894010544 0 12776478.894010544 12786730.282173157 0 0 0 0 11297986.658235867 20014429.061269458 0 20014429.061269458 5508383.3801124841 0 0 0 0 8592142.4566040039 61383759.058357239 0 61383759.058357239 105282903.33935165 0 0 0 0 2710316.5803775787 53820816.458729029 0 53820816.458729029 62421660.799621582 0 0 0 0 2999005.0675506592 33421481.296028137 0 33421481.296028137 30503772.438240051 0 0 0 0 -4065247.877166748 46120236.366004944 0 46120236.366004944 65836705.382797241 0 0 0 0 34020933.399002075 48643978.300055027 0 48643978.300055027 23995113.633010864 0 0 0 0 33563275.032219887 52165874.25455451 0 52165874.25455451 25857105.255989075 0 0 0 0 75817737.454879761 69896905.148406982 0 69896905.148406982 10280135.967605591 0 0 0 0 7262332.3868560791 30689816.357582092 0 30689816.357582092 13954917.7162323 0 0 0 0 42653843.297546387 44780326.303527832 0 44780326.303527832 -3555797.9154129028 0 0 0 0 -4623288.888671875 52192842.453102112 0 52192842.453102112 2992955.0731201172 0 0 0 0 -44341165.844669342 26071848.554726601 0 26071848.554726601 4727399.4407043457 0 0 0 0 63511760.813598633 -18820300.902122498 0 -18820300.902122498 -32363427.486013412 0 0 0 0 45122747.282363892 41705360.858232498 0 41705360.858232498 -15612139.724533081 0 0 0 0 107469499.69042969 54414247.212505341 0 54414247.212505341 -41742892.094917297 0 0 0 0 101820548.80969238 58212629.916156769 0 58212629.916156769 -33465202.927688599 0 0 0 0 93265999.034996033 84657841.523217201 0 84657841.523217201 -16606517.601425171 0 0 0 0 69553869.911254883 78032593.849178314 0 78032593.849178314 -10731994.685447693 0 0 0 0 71361685.968200684 68834322.676734924 0 68834322.676734924 3926434.2648391724 0 0 0 0 12563884.222946167 78416667.956325531 0 78416667.956325531 8899497.489944458 0 0 0 0 15247944.180994034 12666071.255814314 0 12666071.255814314 -14978918.927116394 0 0 0 0 100818224.6678009 24164717.85068512 0 24164717.85068512 20082366.583415985 0 0 0 0 70843347.463027954 67212836.736526489 0 67212836.736526489 2371498.479675293 0 0 0 0 52563246.760498047 28032478.340997696 0 28032478.340997696 27638773.316345215 0 0 0 0 70676791.785797119 63377098.625038147 0 63377098.625038147 11662814.897233009 0 0 0 0 80923269.203048706 64339683.303253174 0 64339683.303253174 -3508667.2692718506 0 0 0 0 37152155.710952759 -9127164.8612670898 0 -9127164.8612670898 -6679330.3191318512 0 0 0 0 -2640249.5353164673 4286.4063034057617 0 4286.4063034057617 -8428354.6985168457 0 0 0 0 51735851.834991455 42239786.933418274 0 42239786.933418274 6100961.230342865 0 0 0 0 9150498.3822784424 37386939.640975952 0 37386939.640975952 48479148.78616333 0 0 0 0 179194.58544676751 991445.97947590053 0 991445.97947590053 -158375.0137449801 0 0 0 0 -85587386.336425781 -95204441.952583313 0 -95204441.952583313 266414130.06076813 0 0 0 0 37685131.592636108 -28510452.416431427 0 -28510452.416431427 129675131.66188812 0 0 0 0 124254776.47918701 -124935673.77664948 0 -124935673.77664948 111546415.82707691 0 0 0 0 112215889.27018738 132402097.9496994 0 132402097.9496994 193595503.21777916 0 0 0 0 115895295.33026123 -60470735.85773468 0 -60470735.85773468 -95354730.934127808 0 0 0 0 62538469.741607666 81018749.181377411 0 81018749.181377411 54534200.097763062 0 0 0 0 112403065.52088928 59737420.984863281 0 59737420.984863281 11583558.98552537 0 0 0 0 84132648.297851562 33699759.240528107 0 33699759.240528107 16088664.287948608 0 0 0 0 222919710.66845703 62326190.056976318 0 62326190.056976318 21969018.019393921 0 0 0 0 224295714.10716248 221593669.5813179 0 221593669.5813179 139804471.0588913 0 0 0 0 324690835.25488281 101078729.60514069 0 101078729.60514069 -72996655.383735657 0 0 0 0 78403821.233306885 84130940.530467987 0 84130940.530467987 70787041.544487 0 0 0 0 73271520.765350342 74555353.223442078 0 74555353.223442078 54187937.048286676 0 0 0 0 67620165.706420898 -265080738.73784637 0 -265080738.73784637 300277276.95615005 0 0 0 0 25904297.603225708 80270002.547897339 0 80270002.547897339 287002586.54776764 0 0 0 0 1513099.9277676642 349183.28682741895 0 349183.28682741895 -335780.10640834644 0 0 0 0 235576130.00194931 -563129816.27583218 0 -563129816.27583218 -661502943.01446533 0 0 0 0 100385009.00532532 62868570.438461304 0 62868570.438461304 -47830122.622261047 0 0 0 0 995809.0087566115 1058048.6557719707 0 1058048.6557719707 -847789.3533520475 0 0 0 0 326085676.35573578 58136708.512382507 0 58136708.512382507 -306081361.93473816 0 0 0 0 133379256.97679901 3184827.5733060837 0 3184827.5733060837 -40996601.169380188 0 0 0 0 86910686.534408569 -15808372.593341827 0 -15808372.593341827 -43417547.811737061 0 0 0 0 -201705291.8230896 -129621462.17021561 0 -129621462.17021561 18629992.439712524 0 0 0 0 41303341.792602539 127103352.29534149 0 127103352.29534149 -172102851.61044693 0 0 0 0 396453.17984992266 384028.22055611387 0 384028.22055611387 -195530.03114013374 0 0 0 0 442765653.1107254 -214396900.15277672 0 -214396900.15277672 -77210424.638763428 0 0 0 0 83526672.249542236 302850528.29930878 0 302850528.29930878 1093672056.783905 0 0 0 0 -56605636.426452637 -174856013.76341248 0 -174856013.76341248 159090155.54920959 0 0 0 0 -71904294.574630737 94429267.77747345 0 94429267.77747345 -169378028.79807281 0 0 0 0 194645065.56346893 223652361.12615395 0 223652361.12615395 -154219053.26727295 0 0 0 0 -445083925.5374527 -186628522.21343231 0 -186628522.21343231 -374461383.32369232 0 0 0 0 -75685079.863494873 359296030.15441132 0 359296030.15441132 -869172858.19047165 0 0 0 0 -917920239.20567322 829193844.93989372 0 829193844.93989372 -461864214.74842072 0 0 0 0 -221003449.23356628 373670941.52379417 0 373670941.52379417 -174286452.98519897 0 0 0 0 -226160326.99375534 364166502.6156683 0 364166502.6156683 -178654428.78227997 0 0 0 0 189969719.36621094 16764330.731235504 0 16764330.731235504 -274147261.97743225 0 0 0 0 -361709610.7539072 455326696.34848428 0 455326696.34848428 -38498618.122573853 0 0 0 0 207112290.27018738 -45560365.875048637 0 -45560365.875048637 -27161570.668167114 0 0 0 0 637448.66591152549 717480.00532984734 0 717480.00532984734 -689866.02064020932 0 0 0 0 -247614461.73882294 365195186.6141758 0 365195186.6141758 -136880894.93993378 0 0 0 0 -31400064.552963257 111332616.52799225 0 111332616.52799225 -84813155.894309998 0 0 0 0 121886881.58906555 43930283.609779358 0 43930283.609779358 -55392623.483226776 0 0 0 0 30205637.658798218 -16021251.425657272 0 -16021251.425657272 -3487242.3003997803 0 0 0 0 14294517.181575775 -10517422.813563347 0 -10517422.813563347 -15836586.255485535 0 0 0 0 40579479.38269043 -11053255.178108215 0 -11053255.178108215 -18871024.798316956 0 0 0 0 44647266.941135406 15081431.81922245 0 15081431.81922245 -28828430.132446289 0 0 0 0 82865392.899543762 9451380.3788604736 0 9451380.3788604736 -28704095.688552856 0 0 0 0 1254938.2345581055 4579792.8737220764 0 4579792.8737220764 -9691466.7487869263 0 0 0 0 -4464879.207892064 13974811.533785399 0 13974811.533785399 -946073.28763838112 0 0 0 0 -14864833.722106934 11604308.99080658 0 11604308.99080658 10372729.45790863 0 0 0 0 18277567.272827148 19854388.964672089 0 19854388.964672089 -13365421.418052673 0 0 0 0 3877520.8039841503 8623377.5589728653 0 8623377.5589728653 -371098.76660202444 0 0 0 0 21492538.050689697 13903907.464115143 0 13903907.464115143 -7064120.4055633545 0 0 0 0 -4747487.7639770508 12959646.402420044 0 12959646.402420044 -3093151.8422241211 0 0 0 0 -9313917.5092926025 18905513.989933014 0 18905513.989933014 -613605.77613830566 0 0 0 0 -12643960.660644531 10050781.642402649 0 10050781.642402649 -4766564.638458252 0 0 0 0 -775285.78165137768 1458011.2496806122 0 1458011.2496806122 544771.04769711755 0 0 0 0 10329981.153780488 10035481.620563149 0 10035481.620563149 -1616329.3477965221 0 0 0 0 2517684.2786257789 13997520.979488552 0 13997520.979488552 2389538.7410607487 0 0 0 0 -5246120.4809951782 12165534.539873123 0 12165534.539873123 -1003582.4073448181 0 0 0 0 -3056414.503074646 11139256.065856934 0 11139256.065856934 -5121749.6177749634 0 0 0 0 -13793165.236602783 8942733.6817779541 0 8942733.6817779541 7098178.9254312515 0 0 0 0 -10708956.478759766 14187783.214130402 0 14187783.214130402 40244991.001655579 0 0 0 0 11234811.281707764 21815872.823379517 0 21815872.823379517 22975638.233242035 0 0 0 0 4034637.1077859849 2020676.3233295493 0 2020676.3233295493 -1017722.3586342186 0 0 0 0 -7059361.5944290161 -6912142.1797447205 0 -6912142.1797447205 58691076.094795227 0 0 0 0 83046602.127000809 -20514532.293961048 0 -20514532.293961048 -4210371.4064254761 0 0 0 0 14335633.387237549 568150.95158004761 0 568150.95158004761 2422480.6114196777 0 0 0 0 
</DataArray>
<DataArray type="Float64" Name="cross_section_updated" format="ascii">
1 1 0.050920456048354254 1 1 1 1 0.050920956996854103 1 1 1 1 1 1 1 1 1 1 1 1 0.047644005134381412 1 1 1 1 0.047642157416166835 1 1 1 1 1 1 1 0.049906742907134427 1 1 1 1 1 1 1 1 0.049865096444364501 1 1 1 1 1 1 1 1 1 1 1 0.049757228577667456 0.049891280236566554 1 1 1 1 1 1 1 1 0.040504989602911559 1 1 1 1 1 1 1 1 1 1 1 1 1 1 1 1 1 1 1 1 1 1 0.042049015884709065 1 1 1 1 1 1 1 1 1 1 1 0.040485911298085507 1 1 1 0.046239393625075932 1 1 1 1 1 1 1 1 1 1 1 1 1 1 1 1 1 1 1 1 1 1 1 1 1 1 1 1 1 1 1 1 1 1 1 1 1 1 1 1 1 1 1 1 1 0.050039121461165084 1 0.047542017466604442 1 1 1 1 1 1 1 1 1 1 1 1 1 1 1 1 1 1 1 1 1 1 1 1 1 1 0.036857220190916043 1 1 0.048548995447080578 1 0.047372035333171254 1 1 1 1 1 1 1 1 1 1 1 1 1 1 0.057976879895907107 1 0.057991904885838538 1 1 1 1 1 1 1 0.028812936414189291 1 0.043951378800905133 1 1 1 1 1 1 0.050228967914862546 1 1 0.024137284287806607 1 1 1 1 1 1 0.01937381229875193 0.077387670455591445 1 1 0.050842513402564959 1 0.065597913727298035 1 0.050700183135295507 0.052550607052153371 1 1 1 0.071699896727850085 1 1 1 1 1 1 1 1 1 1 1 1 1 0.082447708445866422 1 1 1 1 1 1 1 0.087301830800376956 1 1 1 1 1 1 1 0.091836049214813059 1 1 1 1 0.050681945863285997 1 1 1 1 1 1 0.050990030203408837 1 1 1 0.052512682615468868 1 1 1 1 1 1 1 0.055082776566728386 1 1 1 1 1 1 0.054244565942102939 1 1 1 1 1 1 0.045442938067409414 1 1 1 1 1 1 1 0.05109984471595256 1 1 1 1 1 1 1 1 1 1 1 1 1 1 1 1 1 1 1 1 1 0.05386726560349505 0.050296327406441951 1 1 1 1 1 0.032607219292231621 1 1 1 1 1 1 1 0.055519848129301413 1 0.03197638162028614 1 1 1 0.060291747137152372 1 1 1 0.046710195613077057 1 0.050055841956238564 1 1 1 1 1 1 1 0.01107097619282995 1 1 1 1 1 1 1 0.095588270602871769 1 1 1 0.04998944080620446 1 1 1 1 1 1 1 1 1 1 1 1 1 1 1 1 1 1 1 1 1 1 1 1 1 1 1 1 1 1 1 1 0.013380079066664313 1 1 1 1 1 1 1 1 1 1 1 1 1 1 1 1 1 1 1 1 1 1 1 1 1 1 1 1 1 1 1 1 0.048801926004014409 1 1 1 1 1 1 1 1 1 1 1 1 1 1 1 1 1 1 1 1 0.049370796274318951 1 1 1 1 1 1 1 0.050522235578782368 1 1 1 1 1 0.051680534694234545 1 1 0.049994242058492455 1 0.040615771297847839 1 1 1 1 0.037579100688505097 1 1 0.034549699030342974 1 1 1 1 1 1 0.047115818362251621 1 1 1 1 1 1 1 1 1 1 1 1 1 1 1 1 1 1 1 0.038664625498534944 1 1 1 1 1 1 1 1 1 1 1 0.050189817310485232 0.036797998535375798 1 1 1 1 1 1 1 1 1 1 1 1 1 1 1 1 1 1 1 1 1 0.047590522590113253 1 0.049185119366839086 0.044571419494407453 1 1 0.051344649018095746 1 1 1 1 1 1 1 1 1 1 1 1 1 0.041995748701365791 1 1 1 1 1 1 1 0.050030763878644108 0.051113208655219872 1 1 1 1 1 1 1 1 0.048384042315596537 0.051763105476222641 1 1 1 0.052190918123120739 1 1 1 1 1 1 1 1 1 1 1 1 1 1 1 1 1 1 1 1 1 1 1 1 1 1 1 1 1 1 1 1 1 1 1 0.050865271166021048 1 1 0.049679030533784502 1 1 1 1 0.049383822547448601 1 1 1 0.049722955654185046 1 1 1 0.049932204109969229 1 1 0.049790435010235667 1 1 1 1 1 1 1 1 1 1 1 1 1 1 1 1 1 1 1 1 1 0.04954874829052229 1 1 1 0.049461039329283182 1 1 1 1 1 0.048545692882392341 1 1 1 1 1 1 0.04982307111736442 1 1 1 1 1 1 1 1 1 1 1 1 1 1 1 1 1 1 0.04991075343284597 1 1 1 1 1 1 1 1 1 1 1 1 1 1 1 1 1 1 1 1 1 0.049704792013664095 1 1 1 1 1 1 1 1 1 1 1 1 1 1 1 0.050715054186086267 1 1 1 1 1 1 1 1 1 1 1 1 1 1 1 1 1 1 0.054087383316294216 1 1 1 1 1 1 1 0.048918120268101703 1 1 1 1 1 1 1 1 1 1 1 1 1 1 1 1 1 1 1 1 1 0.050793692500016564 1 1 1 1 1 1 1 1 1 0.052439594794705016 1 1 1 1 1 1 1 1 0.017140606920232837 1 1 1 1 1 1 1 1 1 1 1 1 1 1 1 1 1 1 1 0.095884491619779105 1 1 1 1 1 0.022056670274639568 1 1 1 0.049801093143290787 1 1 1 1 1 1 0.042479023671587221 1 1 1 1 1 1 1 1 1 1 0.052667210302084377 1 1 1 1 1 1 1 1 1 1 1 1 0.03629472365953211 1 0.058551814886197082 1 1 1 1 1 1 1 0.090805480760470625 1 -2.7755575615628914e-17 1 1 1 1 1 1 1 1 1 1 1 1 1 1 1 1 1 1 1 1 1 1 1 1 1 1 1 1 1 1 1 1 1 1 1 1 1 1 1 1 1 1 1 1 1 0.043883795638055403 0.051320091316533617 1 1 0.050106638483591801 1 1 1 1 1 1 1 1 1 1 1 1 1 1 1 1 0.049770740465934118 1 1 1 1 0.085722201579646704 1 1 0.05070745543153031 1 1 1 1 1 1 0.080004464798933181 1 0.075912528984179301 1 1 0.049631206802971686 1 1 1 1 1 1 1 1 1 1 0.057902927464316509 1 1 1 1 1 0.050581676063413558 0.050087052377333519 1 1 1 1 0.06500658163928115 1 1 0.068720661994949542 1 0.031060796393909518 1 1 1 1 1 0.052739343225991955 1 1 0.05001854579325294 1 1 1 1 1 1 1 1 1 1 1 1 0.050204138307773934 1 1 1 1 1 1 1 1 1 1 1 1 1 1 1 0.055261911818363693 1 0.050001312118299696 1 0.048004059692545363 0.046771337705279463 1 0.055253002730890656 1 1 0.050034536315656741 1 1 1 1 1 1 0.036734521894717986 1 0.050255595686522075 1 1 0.031967877238036367 1 1 1 0.056724526961529742 1 1 0.049996454958068426 1 1 1 1 1 0.02892424382995918 1 1 0.050237158287977299 1 1 1 1 1 0.050063513896268452 1 0.058651562756362602 1 1 0.057769740280900872 1 1 0.046853199377041473 1 1 1 1 1 1 1 1 0.049115221074351734 1 1 1 1 1 1 1 1 1 1 0.051228271482361816 1 1 1 1 0.052278763983824882 1 1 0.051527266194900501 1 1 1 1 1 0.048535082566961193 1 1 1 1 1 0.050011506968829937 1 0.050292319912549302 1 1 1 1 1 1 0.05011347845754105 1 1 1 1 1 1 1 1 0.050105196170357427 0.057583833224213725 0.053212325583639954 1 1 1 1 0.048592089972231876 1 0.053542255053690938 1 1 1 0.05764590310224639 0.050026977634567454 1 1 1 0.052907095803181856 1 1 1 0.058050565006361673 1 0.047770285949613064 1 0.054127464471526714 0.054184059761311534 1 0.049988821808329281 1 1 1 1 0.061075799135452441 1 1 1 0.04977874240592807 1 0.061785702392388557 1 0.032970172376135573 1 1 1 1 1 1 1 0.049997513087753812 1 1 1 1 0.039754382484332183 1 1 1 1 1 1 1 1 0.049986668881252042 1 0.049989343106846933 0.04932310373658709 1 1 1 0.047942916223983972 1 1 1 1 0.04536480678985183 0.048437787460291544 1 1 0.043395168947544985 0.050313720359123196 1 1 1 1 1 0.050128583168266946 1 1 1 1 1 1 1 1 0.050080555079836997 1 0.050162775671573359 1 1 1 1 1 1 1 1 1 1 1 1 1 1 1 1 1 0.050131161646217948 1 1 1 1 1 1 1 1 1 1 1 1 1 1 1 1 1 1 1 1 1 1 1 1 1 0.049976298543748132 1 0.050368450223570074 1 1 1 1 1 0.049995822888504848 0.050004406544257009 1 1 1 1 0.049854240656827677 0.049981090146186666 1 0.050646032606310884 1 1 0.049017707260839094 1 1 0.052013587332714675 1 1 1 1 0.049697064646522515 0.049695179220034316 1 1 1 1 1 1 1 1 0.04999191478406894 1 1 0.049964057942719992 1 1 1 0.049722922554334692 1 1 0.049941603697007633 1 1 1 1 1 1 0.05037315291562032 1 1 1 1 1 1 0.04595853002763705 1 1 1 1 1 0.051162626986615722 1 1 0.056536804240478258 0.043884668363854767 1 1 0.045986372085937408 1 1 0.049981804491763648 1 1 1 1 1 1 1 1 1 1 1 1 0.056241999571049514 1 0.04903943717482763 1 1 0.04959215555467536 1 1 1 1 1 1 0.050007567881021966 1 1 1 0.048946169078205412 0.055311438379707659 0.050000690853865104 1 1 1 0.047371318555115283 0.05051774150568869 1 0.048691146967659166 0.056905281685072417 1 1 0.051919891412911465 1 1 0.04930842551416427 1 0.048511820271682535 1 0.051438483930645165 1 1 1 0.049887579794206854 0.049089521240066845 1 1 0.049777516298955347 0.049222362600166047 0.051740874267805659 0.051514661046847238 1 1 1 0.050110211539415098 0.050088542365286592 1 1 0.048066251349996231 0.055948073664194589 0.051377266253390619 1 0.047913657473437926 0.050416336641039096 1 1 0.052412242506462731 1 0.051447815969531165 0.04777804032050819 1 0.054818861552489266 1 1 0.049984922700974016 1 0.054491512916579193 0.050481232917581886 1 1 1 1 0.050289025149839198 0.053911607367018693 1 1 0.049985113651005365 1 1 1 0.049941986663755121 1 1 1 1 1 1 1 1 1 1 1 1 1 1 1 1 1 1 1 1 1 1 1 1 1 1 1 1 1 1 1 1 1 1 1 1 1 1 1 1 1 1 1 1 1 1 1 1 1 1 1 1 1 1 1 1 1 1 0.041942071629380615 1 0.047377524190502722 1 1 1 1 1 1 1 1 1 1 1 1 1 1 0.040646802951576452 1 1 1 1 1 1 1 1 1 1 0.047043651351357386 1 1 1 1 1 1 1 1 1 1 1 1 1 1 1 1 1 1 1 1 1 1 1 1 1 1 1 1 1 1 1 1 1 1 1 1 1 1 1 1 1 1 1 1 1 1 0.049857115443437419 1 1 1 0.049299225447770649 1 0.05106764796246218 1 1 1 1 1 0.052930626754155059 1 0.04989973199035757 1 1 1 1 1 1 1 1 1 1 1 1 1 1 1 1 1 1 1 1 1 1 1 1 1 0.050024768581635543 1 1 1 1 1 1 0.034232860414285304 1 0.044854101036241101 1 1 1 0.025222303087294666 1 1 0.023245186601637626 1 1 1 1 1 1 1 1 1 1 1 1 1 1 1 1 1 1 1 1 1 1 1 1 1 1 1 1 1 1 1 1 1 1 1 1 1 0.054049003334621024 1 0.041608107906752012 1 1 1 1 1 1 1 1 1 1 0.050544511105727878 1 1 1 1 1 1 1 1 1 1 1 1 1 1 1 1 1 0.044598023350286946 1 1 1 0.050037823282664581 0.017363892721219722 1 0.032227311633253972 1 1 1 1 1 1 1 1 0.051067510987081295 1 1 1 1 0.050462501001716675 1 1 1 1 1 1 1 0.049614936434868091 1 1 0.036918040731606511 1 0.026083891210380013 1 1 0.050917457714500423 1 1 0.033663882354098819 0.050062678667289792 1 1 1 1 1 1 1 1 1 1 1 1 1 1 1 0.012195333600039125 1 0.042281323317064794 1 1 1 0.052812430256529638 1 0.049664299298522861 1 1 1 1 1 1 1 1 1 1 1 1 0.050212837327175908 1 0.050719208426553058 1 1 1 1 1 1 1 1 0.050545196629518209 1 1 0.048215805822544804 1 1 1 0.049094774548505832 0.047697506220970257 1 1 1 1 1 1 1 1 1 1 1 1 1 1 1 1 1 1 1 1 1 0.048533125142905142 1 1 1 1 1 0.050000447786069158 1 0.050063350757088357 1 1 1 1 0.050262869981543765 1 1 0.04962472115691529 1 1 1 1 1 0.048043830270335361 1 1 1 1 0.054557677851104783 1 1 1 1 1 1 1 0.048349266810965116 1 1 1 0.050793236514793998 1 1 1 1 1 1 1 1 1 1 1 0.05059360549462108 1 1 1 1 1 1 1 1 0.049813352179740089 1 1 1 1 1 1 0.049652709117069198 1 1 1 1 1 1 0.049936236765826647 1 1 1 1 1 1 1 1 1 1 1 0.04763268985957296 1 1 1 0.049868455877834991 1 1 1 0.050773805673741762 1 0.049660918193648554 1 1 1 1 1 1 0.050096879828497545 1 1 1 1 1 1 1 1 1 1 1 1 1 1 1 0.050952826758736462 1 1 1 1 1 0.055747197335381381 1 1 1 1 1 1 1 1 0.052004415001858109 1 1 1 1 1 1 1 1 1 1 1 1 1 1 1 1 0.049463950960773467 1 1 1 1 0.051089655835975294 1 1 1 1 1 1 1 1 1 1 1 1 1 1 1 1 1 1 1 1 1 1 1 1 1 1 0.041614768597586282 1 1 1 0.04996127808798282 1 0.050446821280143786 1 1 1 1 0.046532429821881549 1 0.05036757155912909 1 1 1 1 1 0.049505949677000526 1 1 1 1 1 1 1 1 1 0.040078836080630093 1 1 1 1 1 1 1 1 1 1 1 1 1 1 1 1 1 1 1 1 1 1 1 1 0.04904345631487185 0.04940940051287785 1 1 1 1 1 0.04923673704873581 1 1 1 0.047446721893569355 1 1 1 0.048419251954360074 1 1 0.052969234582418756 1 0.049134738591299985 1 1 1 1 0.050442880108092142 1 1 1 1 0.051569858757486181 0.050275925887227804 1 1 1 1 1 1 1 1 1 1 1 1 0.049048252669858669 1 1 1 1 0.050074911372779821 1 1 1 1 1 0.050138058471289611 1 1 0.049981186454029353 1 1 1 1 1 1 1 1 1 1 1 1 1 1 1 1 0.050189460467412621 1 1 0.050402315929397645 1 1 1 0.050714418178176873 1 1 1 1 1 1 1 1 1 1 1 0.050312102248779224 1 1 1 1 1 1 1 1 1 1 1 1 1 1 1 1 0.050449731336473666 1 1 0.058692074062873287 1 0.061603185301974332 1 1 0.057667335754165022 1 0.05139047295068451 1 0.059980905228329225 1 1 1 1 1 1 1 1 1 1 1 1 1 0.058918059675364155 1 0.05803222689709512 0.048155821344391447 1 1 0.060981562693366992 0.050134633770259028 1 1 0.049991296363092401 0.044394167578368407 1 1 1 0.062504119795061069 1 0.037564038951007586 1 1 0.060398132592507578 1 1 1 1 0.081465906295790716 0.072655279163407471 1 0.063980628841821832 1 1 0.044414579836604649 0.04999600744605788 1 1 0.043469169776524728 1 1 1 0.03702923968898357 1 1 1 0.057021108351115048 0.053651924990602499 0.038193852268358787 1 1 0.042271962402366074 1 0.040605522455548285 0.049997749556759313 1 1 1 1 1 1 1 1 1 1 1 0.049239473302675106 0.050265407588012886 1 0.033854599576873021 1 0.067243045061245829 1 0.042808231443942323 1 1 1 0.049624377648069443 1 1 1 1 1 0.050160498483173679 1 1 1 1 1 1 1 1 1 1 1 1 1 1 1 1 1 1 1 1 1 1 1 1 0.051919634490346853 1 1 1 1 1 1 1 1 1 1 1 1 1 1 1 1 1 1 0.041329467383045909 1 1 1 1 1 1 1 1 1 1 1 0.078567031210059271 1 1 1 1 1 0.03754561711879336 1 1 1 1 1 1 1 1 1 1 1 1 1 1 0.052931332085505364 1 1 1 1 1 1 1 1 1 1 1 1 1 1 0.041514457388883527 1 0.063517773217583506 1 1 1 1 0.058462895654870672 1 1 1 1 1 1 1 1 1 1 1 1 0.030780124852934528 1 0.050201147267308066 1 1 1 1 0.050027755435931569 1 1 1 1 1 1 1 0.059954145121263902 1 1 1 1 1 1 1 0.050009974706224272 1 1 1 0.029910206049861332 1 0.049990280442781088 1 1 1 1 1 1 1 1 1 0.038789622354995557 1 1 1 1 1 1 1 1 1 1 1 1 1 1 1 1 1 1 1 1 1 1 1 1 1 1 1 1 1 1 1 1 1 1 1 1 1 1 1 1 1 1 1 0.048067470677356623 1 1 0.050310912210458233 1 1 1 1 1 1 1 1 1 1 0.049378868209890285 1 1 1 1 1 0.052093247933710077 1 1 0.049977207116792897 1 1 1 1 1 1 0.033767169827707451 1 1 1 1 0.050081187350786961 1 1 0.037651480006321174 1 0.044200835656004696 1 1 1 1 1 1 1 1 1 1 1 0.04667021078709372 1 0.038231656128269946 1 1 1 1 0.048911040046777612 1 1 1 1 1 1 1 1 1 1 1 1 1 1 1 1 1 1 1 1 1 0.055201819762127756 1 1 1 1 0.05168722197193832 1 1 1 1 1 1 1 0.045324675379653755 1 1 1 1 1 0.05983458291753542 1 1 1 0.041574850094068985 1 1 1 0.056717125545282049 1 1 0.052129323272765198 1 1 1 0.039941044316204856 1 1 0.046303327547321263 1 1 1 1 1 1 1 1 1 1 1 1 1 1 1 1 1 1 1 1 1 1 1 1 1 1 1 1 1 1 1 0.051457801553423756 1 1 1 1 1 1 1 1 1 1 1 0.048871298109081279 1 1 1 1 1 1 1 1 1 1 1 1 1 1 1 0.046620745785613191 0.047339394052865927 1 1 1 0.054295607371929504 1 1 1 1 0.049192384457103285 1 1 0.054077224303611185 1 1 1 1 1 1 1 1 1 1 1 1 1 0.054898161875809412 0.051883882034112358 1 1 1 1 1 1 1 1 1 1 1 0.063725233268132009 1 1 0.05595226091777919 1 1 1 1 1 1 1 1 1 1 1 1 1 1 1 1 1 1 1 0.060181729177174549 1 1 1 0.050057676719624522 1 1 1 1 1 0.047527830067548849 1 1 1 1 1 1 1 1 1 1 1 1 1 1 1 1 1 1 1 1 0.053510441508944823 1 1 0.05178363187713244 1 1 1 1 1 1 1 1 1 1 1 1 1 1 1 1 1 1 1 0.053977109647775058 1 1 1 1 1 1 1 1 1 1 1 1 1 1 1 1 1 1 1 1 1 1 1 1 1 1 1 1 1 1 1 1 0.049729676909909995 1 1 1 1 1 1 0.042612761758937662 1 1 1 1 1 0.045458082675108757 1 1 1 1 0.048289587759665367 1 1 1 1 1 1 1 1 1 1 1 1 1 1 1 1 1 1 1 1 1 1 0.049619806362069169 1 1 1 1 1 1 1 0.049912063889591143 1 1 0.047107950714639635 1 1 0.049690833447430444 1 1 1 1 1 1 0.049049798969483055 1 1 1 1 1 1 1 1 1 1 0.034577962290067148 1 0.063642576270585616 1 1 1 1 1 1 1 1 0.049899045978175668 1 1 0.033989769576815598 1 1 1 0.059202984335105791 1 1 1 0.056145835373140399 1 1 1 0.050000142740375259 0.049913832286721457 1 1 0.047496550757424538 1 1 0.044483460212603805 1 1 0.049978839023523944 1 1 1 1 1 1 1 1 1 0.049978864158897698 1 1 1 0.041491461983979572 1 1 1 0.038517675430109269 1 1 1 0.049973124381309367 1 0.049922724608810073 1 1 0.054160199994831938 1 1 1 1 1 1 1 1 0.039761429864007089 1 1 0.048105688769498098 1 1 1 1 1 1 1 1 1 1 1 1 1 0.041304728474750696 1 0.049975767856287982 1 1 1 0.05130787666593261 0.055023801847671548 1 0.045590860417436777 1 1 1 1 0.049999264878157638 1 0.051026539683241286 1 1 1 1 1 1 1 1 1 0.050205649080755962 1 1 1 1 1 1 1 1 1 1 1 1 1 1 1 1 1 1 1 1 1 1 1 1 1 1 1 1 0.049281198706155507 1 1 1 1 1 1 0.050475089852442923 1 1 1 1 1 1 0.050378925237731284 1 1 1 1 1 1 0.050145626845856398 1 1 1 0.050126867949635501 1 1 1 0.049804499646041098 1 1 0.03172528388880301 1 1 1 1 1 1 0.056940757576011282 1 1 1 0.032164401924528442 0.050014874439826253 1 1 1 1 1 1 1 1 1 1 1 1 1 1 1 1 1 0.05008004438158975 1 1 1 1 1 1 1 0.04992951810325022 1 1 1 1 1 0.043670502190907332 1 1 1 1 1 0.050005180328837884 1 1 0.050641718834096239 1 1 1 1 0.050144718135712293 1 1 1 1 1 1 0.057617368225786808 1 0.031342924942980369 1 0.058178714321770256 0.043333194804317451 1 0.050176565159538569 1 1 1 0.050084059266517642 1 1 1 1 1 0.050173481849227083 1 1 1 0.050035647719504528 1 1 1 1 0.05012279134599449 0.048800254706351597 0.052181198276130991 1 1 1 1 0.05009435920166537 0.044081912284532947 1 0.045020739757152733 1 1 1 1 1 1 0.049999286858651973 1 0.050025060307822916 1 1 0.049511329646651087 1 1 1 0.050466901680108686 1 1 0.046088151382010625 1 1 1 1 1 1 1 1 1 1 1 1 0.049725221528063426 1 1 1 1 0.046739226885610413 1 1 1 1 0.043989811570689777 1 1 1 1 1 1 1 1 1 0.049155597657384698 0.052089406488265107 0.054762156123695241 1 1 1 0.050005338988257403 0.050056895207876581 1 1 0.048510846802284388 1 0.050540905420537005 1 1 1 1 1 1 1 0.04170998663041077 1 1 1 1 1 1 1 1 1 1 1 1 1 1 1 1 0.04979894160632857 1 1 1 1 1 1 1 1 1 0.049382484067200666 1 1 0.044888048942013245 1 0.045062338558115249 1 0.048086039019178684 1 1 0.039999609483929062 1 1 1 0.049999911681123804 0.056728233950172874 1 1 0.050411086889991193 1 1 1 0.040714696728184119 1 1 1 1 0.05015611322892817 1 1 1 1 1 1 1 1 1 1 1 0.04444865635806125 0.049995504774168413 1 1 1 1 1 1 1 1 1 1 1 1 1 1 1 1 1 1 1 1 1 1 1 1 1 1 1 1 1 1 1 1 0.050012668816754619 1 1 1 1 1 1 1 1 1 1 1 1 1 1 1 1 1 1 1 0.054042920115303344 1 1 1 1 1 1 0.049978222612701774 0.044966831267739482 1 1 0.046602797897247028 0.047262424090122615 1 1 1 0.047364727143820631 1 1 1 1 1 1 1 1 1 1 1 1 1 1 1 1 1 1 1 1 1 1 1 0.054199139896660448 1 0.038716401559510304 1 0.051407974313323432 1 1 1 1 1 1 0.049893129782128794 1 0.052360672725274976 0.050606227211376101 1 1 0.076928351022538297 1 1 1 1 1 1 0.049857871948537955 0.072602046684050681 1 1 0.058643038684880786 0.043241777554992575 1 1 0.047443606924723131 0.049956355128819477 1 1 1 1 1 1 1 1 0.049801515830142536 1 1 1 1 1 0.054149517765784395 1 1 0.073046356695382536 1 1 1 0.04993144894236326 1 1 1 1 1 1 1 1 1 1 1 1 1 1 1 1 1 1 1 1 1 1 1 1 1 1 1 1 1 1 1 1 1 1 0.050813273310202578 1 1 0.042171010241449168 1 0.036104962537420848 0.052167822228306522 1 1 1 1 1 1 1 1 1 0.033392118512332057 1 1 1 1 1 0.031059056777878569 1 1 1 1 1 1 1 0.048345029428741831 1 1 1 1 1 1 1 1 0.045096167397618361 1 1 1 1 1 0.042044648062786578 1 1 1 1 1 1 1 1 1 1 1 1 1 1 1 1 1 1 1 1 1 1 1 1 1 1 1 1 1 1 0.049327584942895956 0.049540778582875721 1 1 1 1 1 1 1 0.050430570285637778 1 1 1 0.047808880054489966 1 0.048723988184651235 1 1 1 1 1 1 1 1 1 1 1 1 1 1 1 1 1 1 1 1 1 0.050128289112607353 1 1 1 1 1 1 0.043049832491880803 1 1 1 1 1 1 1 0.04944693711045578 1 1 0.050050226050257253 1 1 1 1 1 1 0.039100244413870541 1 1 1 0.052361174562436143 1 1 0.044290746201689372 0.048972128096151007 1 1 1 1 1 1 1 1 1 1 1 1 1 1 1 1 1 1 1 1 1 1 1 1 1 1 1 1 0.050241791460568071 1 1 1 1 1 1 1 1 1 1 1 1 1 1 1 1 1 1 1 0.0484382735734094 1 1 1 0.046532117245539711 0.050029163502319951 1 1 1 1 1 0.050025783911590155 1 1 1 0.049854226458975207 1 1 1 1 1 0.049567080050867574 1 1 1 1 1 1 1 1 1 1 1 1 1 1 1 1 1 1 1 1 1 0.050782996041928985 1 1 1 1 1 1 0.053221180073280791 1 1 1 1 1 1 1 1 1 1 1 1 0.049180414253124111 1 1 1 1 0.053328090475450021 1 0.049183590827130655 1 1 1 1 1 1 1 1 1 1 1 1 1 0.057498780632183125 1 1 1 1 1 0.061809970483000493 1 1 1 1 1 1 0.053320238336229647 1 1 1 1 1 1 1 1 1 1 1 1 0.050965876891995762 1 1 0.053519263557084862 1 1 0.047526030213433434 1 1 0.049210571390699731 1 1 1 1 1 1 1 1 1 1 0.05544037888609922 1 1 1 1 1 1 1 1 0.050002966208766111 1 1 1 0.050058133667077218 1 1 1 0.05518247457193956 1 1 0.058065426906745266 1 1 1 0.046533973378672919 1 1 1 1 1 0.057341476644166611 1 0.050000540668922289 1 1 1 1 0.049926118502572531 0.057943980896917997 1 1 1 0.076239917320676101 1 1 1 1 0.050159035424546763 1 1 1 1 1 1 1 1 1 1 1 1 1 1 1 0.050255979705814496 1 1 0.054672732312273389 0.044023608383098142 1 1 1 1 0.044433057834251943 1 1 1 1 1 1 0.050113315729047384 1 1 1 1 1 1 0.05003606400681225 1 1 1 1 1 1 1 1 0.048521722235521286 1 1 1 1 1 1 1 1 1 1 0.050188142305069391 1 1 0.046469479083874526 1 1 0.047887078989939484 1 1 1 1 1 0.062301519054234603 0.049991026858651207 1 1 0.049974920641310802 0.05040216224789261 1 0.051631449053718595 1 0.045613312387106239 1 0.044906930537153389 0.05335311293140927 1 1 0.055334911089898187 1 0.049230821141864597 1 0.048070354654906319 1 0.050061585752490874 1 0.049519162949631247 1 1 0.050012314501243306 1 0.057341798590190077 1 0.047710232945494951 1 1 1 1 1 1 0.051748781747003647 1 1 1 0.050015645113389934 1 1 1 1 1 1 1 1 1 0.050180070751344737 1 1 0.049759640301717617 1 0.050003488904069998 1 0.050903716689250034 1 1 1 0.099061652468806355 0.050115480582358055 1 1 1 1 1 1 1 1 1 1 1 0.050266456536385479 1 1 1 1 1 0.050680043551634656 1 1 1 1 1 1 1 1 1 1 1 1 1 1 1 1 1 0.049848826070858686 1 1 1 1 1 1 0.047263524322281494 1 1 1 0.048109449962192137 1 1 0.050433904788825007 1 1 1 0.044060019660039147 1 0.03930666783253859 0.051384337921916615 1 1 1 1 1 1 1 1 1 0.047313480393799637 1 1 1 1 1 1 1 0.049977621009451564 1 0.049048902778920128 1 0.049676771326501036 1 1 1 1 1 1 1 1 1 1 1 1 1 1 1 1 1 1 1 1 1 1 1 1 1 1 1 1 1 1 1 1 1 1 1 1 1 0.065266259460462606 1 1 0.064789707457669571 0.038533197600836941 1 1 1 1 0.038618602725347326 1 1 1 1 1 0.042594536295550038 1 1 0.050033494560171546 0.072937539097287923 1 1 1 1 1 1 0.059516599252375228 1 0.050009920583011284 1 1 0.045801628833548734 0.050818072857865632 1 0.052528478627515897 1 1 1 0.051845370631007463 1 1 1 1 0.052770108479886814 1 1 1 0.045096488703169305 1 1 0.060193392183409251 0.049891505294718627 1 1 1 0.034326373874925653 1 1 1 1 0.050189525369914001 1 1 0.046962417104224836 1 1 1 0.052708987717890912 1 1 0.047515408904040352 1 1 1 0.060128560321967325 1 0.044282410556345443 1 1 0.042749829478217607 1 1 0.044302399048787362 0.05000380621017185 1 1 0.065763718464998011 1 0.050079123523656101 0.038951486030192307 1 1 1 1 0.059103909328484541 1 1 1 1 0.062621718483592409 1 1 1 1 1 1 1 1 1 1 1 1 0.029651769874469387 1 1 1 1 0.050003866880757752 1 0.059501589871553892 1 1 1 1 1 0.043084410589524363 0.049990420021807633 0.050103824249004607 1 1 1 1 1 1 1 1 0.040257474956443523 1 1 1 1 1 1 0.045009197364706419 1 1 1 1 0.040763078324738834 1 1 1 1 1 1 1 1 1 1 1 1 1 1 1 1 1 1 0.046158298739374534 1 0.066069429747057346 1 1 0.058039415673286576 0.058307208596890675 1 0.043946413401561732 1 1 0.050779938851806879 1 0.04903720111038426 1 0.046067000243654316 1 0.048766993289423244 1 1 1 1 0.04954029053209183 1 1 1 0.047557505495860727 1 1 1 1 1 1 1 1 1 1 1 1 1 1 1 1 1 1 1 1 1 1 1 1 1 0.049723116885579018 1 1 1 1 1 0.018764970258366709 1 1 1 1 1 1 1 1 1 1 1 0.049445320881720239 1 1 1 1 1 0.049738145564713357 1 1 0.050452003556998103 0.021405838710539069 1 1 1 0.041114149774980666 1 1 0.054088757834623635 0.039775037356405363 1 0.025523785476122121 1 1 1 1 1 1 1 1 1 1 1 1 1 1 1 1 0.049130906160520502 1 1 1 1 0.050890905497934208 1 1 1 1 1 1 1 1 0.054286427824310639 0.052018434580298915 1 1 0.049953654953573054 1 1 1 1 1 1 1 1 1 0.049776038935813838 0.052672727259802182 1 1 0.049995786015393104 1 1 1 0.050370666921243867 1 1 1 1 1 1 1 1 1 1 1 1 1 1 1 1 1 1 1 1 1 1 1 1 1 1 0.049712416571505574 1 1 1 1 1 1 1 1 1 1 1 1 1 1 1 1 1 1 1 1 0.062537954464831819 1 1 1 0.047390150250606625 0.049934894816882527 1 1 1 0.062090169361547487 1 1 0.050099792910475539 1 1 1 1 1 0.051012637899448911 1 0.048644127477110388 1 1 1 1 1 1 1 1 0.050408697412436212 1 1 1 0.055556179675077658 1 1 0.051407645946303357 1 0.049979438698485798 1 1 1 0.045432354561824193 1 1 1 0.036469990418555774 1 1 1 1 1 1 1 1 1 1 1 1 1 1 1 1 1 0.028350157323397185 1 1 1 1 1 1 1 1 1 0.048996207380357128 1 1 1 1 1 1 1 1 0.021251415341445271 1 1 1 1 1 1 1 1 1 1 1 1 1 0.050074743353366175 1 1 1 0.050162964137296234 1 1 1 1 1 1 1 1 1 1 1 1 1 1 1 1 1 1 1 0.047246515134170886 1 1 1 0.054418911198082627 1 0.050084496351329506 1 1 1 0.065784664675329341 1 1 1 0.050071427601756022 0.052018220980725019 1 1 1 1 1 1 1 1 1 1 1 1 1 1 1 1 1 1 1 1 1 1 0.049826730644715204 1 1 1 1 0.049558707805375302 1 1 1 1 0.049731977160660107 1 1 1 1 1 1 1 0.051919948853640867 1 1 1 1 0.051214057999721133 1 1 1 1 1 1 0.050441193898822331 1 1 1 1 1 1 0.050679377251381018 1 1 1 0.049983811934167774 1 1 1 1 1 1 1 1 1 0.049155066032278052 1 1 1 1 1 1 0.047635665500302821 1 1 1 1 1 1 1 1 1 1 1 0.04999289879703072 1 1 0.051628380573237924 1 1 1 1 1 0.049599504437800881 1 1 0.045779756035094314 1 1 1 1 1 1 1 0.067764321021829263 0.049079049789814304 1 1 1 1 0.050206988672327438 1 1 1 1 1 1 0.050005575295036436 1 1 1 1 1 1 1 1 1 1 0.051076603392126177 1 1 1 1 1 1 1 1 1 1 1 1 0.049221533399130366 1 0.049782719994486614 1 1 1 0.039440805665682754 1 1 0.077376949648296944 1 1 1 1 0.044301406397226344 1 1 1 1 1 0.077881017557856272 1 1 1 1 1 1 1 1 0.077720946435109656 1 1 1 1 0.048450991253881116 1 1 1 1 1 1 1 0.049445361141892061 1 1 1 1 1 1 1 1 1 1 0.048536290436885794 1 1 1 0.050398118297274773 1 0.051245272003024561 1 1 1 1 1 1 0.049922279109283756 1 0.054109796571760342 1 0.050142280296923046 1 1 1 1 0.048574753038808371 1 1 1 1 1 1 1 1 1 1 1 1 1 1 0.050245901210104929 1 0.060414731536098373 1 1 1 1 1 1 1 0.04955752120660354 1 1 1 1 1 1 1 1 1 1 1 1 1 0.062596814295049222 1 1 1 1 0.065218647480885267 1 1 1 1 1 1 1 1 1 1 1 1 1 1 1 1 1 1 1 1 1 1 1 1 0.050299922854124157 1 1 1 1 0.061173370336295864 1 1 1 0.050172546266265786 1 1 0.050001754028202762 1 1 0.050243615965195706 1 1 1 1 1 1 1 1 1 1 1 1 1 1 1 0.050083825144686032 1 1 0.05002066586386833 1 1 1 1 1 1 1 0.038876967738379661 1 1 1 1 1 0.034835912831232552 1 1 1 0.081230416223541532 1 1 1 0.085581615000685479 1 1 1 1 1 1 1 0.05383849568221822 1 1 1 0.052314122148647987 1 0.049653418546712708 0.044753493224258964 1 1 1 1 1 0.048514209342238157 1 1 1 1 1 1 1 1 1 1 0.048471625326728864 1 1 1 1 1 1 1 1 1 1 1 1 1 1 1 1 1 1 1 1 1 1 1 1 1 1 1 1 1 1 1 1 1 1 1 1 1 0.049956554300002773 1 1 1 1 1 1 1 1 1 1 1 1 1 1 1 1 0.050406649551860305 1 1 1 1 1 1 1 1 1 0.049956613725187352 1 1 1 1 1 1 1 0.050163033586664615 1 1 1 1 1 1 1 1 1 1 1 1 1 1 1 1 1 1 1 1 1 0.048621153514843155 1 1 1 1 1 1 1 1 1 1 1 1 1 1 1 1 1 0.048998737777938291 1 1 1 1 1 1 1 1 1 1 1 1 1 1 1 1 1 1 1 1 1 1 1 1 1 1 1 1 1 1 1 1 1 1 1 1 1 1 1 1 1 1 1 1 1 1 0.051203598909509748 1 1 1 1 1 1 1 1 1 1 1 1 1 0.052535329503375069 1 0.049988571632997539 1 1 1 1 1 0.049895273081463243 1 1 1 1 1 0.048844260252531586 0.046033480336162724 1 1 1 1 1 1 1 1 1 1 1 1 1 1 1 1 1 0.048961405960365474 0.051889340672061496 1 1 1 1 1 1 0.050554492574153696 1 0.051990417335311914 1 1 1 1 1 1 1 1 1 0.051353596006781577 1 1 1 1 1 1 1 1 1 1 1 1 1 1 1 1 1 1 1 0.049334149913259281 1 1 1 1 1 0.050821709571085165 1 0.051639819560486085 1 1 1 1 1 1 1 0.051541032440401167 1 1 1 0.050818109989400922 1 1 1 0.055681883950779332 1 1 0.054602373250590072 1 1 1 0.043932079220840692 1 1 0.045695884741949903 1 0.058390896504319306 1 0.046999907522684625 1 1 0.052095378043434296 1 1 1 1 1 1 1 1 1 1 1 1 1 1 1 1 1 1 1 1 1 0.049817103279909944 1 0.060756068227564457 1 1 1 1 1 1 1 0.059514445061694912 1 1 1 1 1 1 1 1 1 1 1 1 1 1 1 1 1 1 1 0.049800915214077722 1 1 1 0.049605137402197658 1 1 1 1 1 1 1 1 1 1 0.04838087358746615 1 1 1 1 0.04702947594343139 1 1 0.049234691975625466 1 1 1 1 1 0.051065003513790799 1 1 1 1 0.050723191720895483 1 0.048383120649071042 1 1 0.063010677611773092 1 1 1 1 1 1 1 0.062716589983258034 1 1 0.050305304931374077 1 0.06107219789273282 1 1 1 1 1 1 1 1 1 1 1 1 1 1 1 1 1 1 0.049673451460936276 1 1 1 1 1 1 1 0.048951626540887451 1 1 1 1 0.053858285030445013 1 1 1 1 1 1 1 1 1 0.049629554573427812 1 1 1 1 0.048322053816901495 1 1 1 1 1 1 1 1 1 1 1 1 0.050415969956199388 1 1 1 1 1 1 1 1 1 0.058369499829824707 1 1 1 1 1 1 1 1 1 1 1 1 0.054176379743190242 1 1 0.05101134789079928 1 1 1 1 1 1 1 1 1 0.049463529690221886 0.093416670048950629 0.038712647539369711 1 1 1 0.050004132539341412 1 1 1 1 1 1 0.026136995793012069 1 1 1 0.046221113660485438 0.050117856897856181 1 1 1 1 1 1 1 1 1 1 1 1 0.062140737116594832 1 1 1 0.049894917123130732 0.021779006637541488 1 1 1 1 1 0.018747412720704862 1 1 1 1 0.02043300778721955 1 1 1 1 0.050205286603509626 1 1 1 1 1 0.082079972014824504 0.06466271603063381 0.043843583816411465 1 1 1 0.055577494957149601 0.057630863553436232 1 1 1 1 1 1 1 1 1 0.042577919703410544 0.049712951554126743 1 1 1 0.050534934844374525 0.049918079790822148 1 1 1 1 1 1 1 1 1 1 1 1 1 1 1 1 1 0.040957204804391974 1 0.039199992478791815 1 1 1 1 0.027465243001761952 1 1 1 1 1 1 1 0.029085402103105666 1 1 1 1 1 1 1 0.03717923396067116 1 1 0.065211019153146796 1 0.035880583799225346 0.028129435912582233 1 1 1 0.061565509852868815 0.049987886685776035 1 1 1 0.049970639197086456 0.050667345482998519 1 1 1 1 1 1 1 1 1 1 0.049711734176354418 1 1 1 1 1 1 1 0.054799350722557282 1 1 1 1 0.062547496189441373 1 1 1 1 1 1 0.025311252907401164 1 1 1 1 0.05027641552883215 1 0.031350594549944474 1 1 1 1 1 1 1 1 1 1 1 1 1 1 0.022454889371529646 1 1 1 1 1 1 1 0.021827574516677668 1 1 1 1 0.049950141307500834 1 1 1 0.055885473290634112 1 1 1 1 1 1 1 1 1 1 1 1 1 1 1 1 1 1 1 1 1 1 0.053953836455508518 1 0.051443317192002624 1 1 0.050891308169290397 1 1 1 0.052148213816412062 1 1 0.052611469791493642 1 1 1 1 1 1 1 1 1 1 1 1 1 1 1 1 1 1 1 1 0.05335339359684612 0.048042618445020557 0.048695521580676887 1 1 1 1 1 1 1 1 1 1 1 1 1 0.056317272791464645 1 1 1 0.046274307056153631 1 1 0.064596416862261224 1 1 1 1 0.058810202363547573 1 1 0.05694847154001971 0.049228280089206947 1 1 1 1 0.051458028212747919 1 1 0.047868423921651491 1 0.049321600906066049 1 1 1 1 1 1 1 1 1 1 1 1 0.046203507865507774 1 1 1 1 1 1 1 0.052996050882106682 1 0.04974815971889604 1 1 1 1 0.05271408042272812 1 1 1 1 1 1 1 1 1 1 1 1 1 1 1 1 1 1 1 1 1 1 1 0.054678929255190523 1 1 1 0.049600958905354556 1 0.039390862799974814 1 1 1 0.069254875552821393 1 1 1 1 1 0.049930540138565613 1 1 0.039774618464763607 1 1 1 1 1 1 1 1 0.050950720524608105 1 1 1 1 1 0.0518074895499675 1 1 1 1 1 1 1 1 1 1 1 1 1 1 0.051887172065546355 1 1 1 1 0.052211473930865532 1 1 1 1 1 1 1 1 1 1 1 1 0.049476727893524794 1 1 1 1 0.050354754791989254 1 1 1 1 1 1 1 1 1 1 1 1 1 0.04676804300012604 1 1 0.049642892167932752 1 1 1 0.050626418659288928 1 1 1 1 1 1 1 1 1 1 1 1 1 0.049057188645573908 0.062380737030468952 1 0.051987940001037646 0.054492165620520311 1 1 1 0.04776268930817236 0.083920152473002232 1 0.054236706924682965 1 0.050360119761005601 1 0.0657504786595762 1 1 1 0.042367687275928441 1 0.049986708126848627 1 1 1 1 0.061859167204159932 1 1 1 1 1 1 0.043962480813430335 1 1 1 1 1 0.086999434520975888 1 1 0.050014639638559809 1 1 0.037090534938094909 1 1 0.050228948688320119 1 1 1 1 1 0.027739425072089978 1 0.035120130468522956 1 1 1 1 1 1 1 1 1 1 1 1 1 0.048894949852296608 1 1 0.049060276698494103 1 1 1 1 1 1 1 1 1 0.046207539410326369 1 1 1 1 1 1 1 1 1 0.017864451834808656 1 1 0.048766525499894291 1 0.017431471959633925 1 1 1 1 1 1 1 0.042505354303017322 1 1 1 1 1 1 1 0.019299659475833696 1 0.056239198454065456 1 1 0.049696846561173139 1 1 1 0.050038370752292977 1 1 1 1 0.049883499465291796 1 1 1 1 1 0.050051273924280847 1 1 1 1 1 1 1 1 1 1 1 1 1 1 1 1 1 1 1 1 1 0.051236755030190727 1 1 0.051331348429659224 1 1 1 0.049263350671770637 1 1 1 1 0.050449348191457744 1 1 1 1 1 1 1 1 1 1 1 1 1 1 1 1 1 1 1 1 1 1 1 0.052764196075081315 1 1 1 1 1 1 0.057733496247885666 1 1 1 1 1 1 1 1 1 1 1 1 1 0.049926025909911798 1 0.078755198194730508 1 1 0.047367322141585476 1 1 1 1 0.083716362271163303 0.053437968039501682 1 0.051210812046689279 1 0.061950245556230285 1 1 1 1 1 0.08940321328275827 1 1 0.097663795287284014 0.096908770666578214 1 1 1 1 1 0.039214479631757691 1 1 0.050002497395144549 1 1 1 1 1 1 1 1 0.073380484475198765 0.041558821405668349 1 1 1 0.062500120581529817 1 0.050003227664737041 1 1 1 1 1 0.053977900499812811 1 0.039935924946467749 1 1 1 1 1 0.052345417198411209 0.050255580479899899 1 1 1 1 0.050041003273339844 1 1 1 1 0.050743145332630697 1 1 1 1 1 1 1 1 1 1 1 1 1 1 1 1 1 0.050689826309391534 1 1 0.050211558524929159 1 1 1 0.050174233640212194 1 1 1 1 1 1 1 1 1 1 1 1 1 1 1 1 1 1 1 0.051705488047695911 1 1 1 1 1 1 1 1 1 1 1 1 1 1 0.052985118452932425 0.049073096515257431 1 1 1 0.050074103694566163 1 1 1 1 1 0.051167197586703593 1 1 1 1 1 1 1 1 1 1 1 0.050269958598157104 1 1 0.050095724957944884 1 1 1 1 1 1 1 1 1 1 0.055969903464890232 1 1 1 0.061636661469623016 1 0.053643922944952696 1 0.046532466316611287 1 1 1 0.050011084851567918 0.045636097680818215 1 0.058035677858613112 1 1 0.049063328001975604 1 1 0.047166551991538214 0.062180228863739598 1 1 1 0.062073466831282183 1 1 0.04245942353592537 1 0.061236629616906943 1 1 1 0.040228015549416435 1 1 0.044112929294689206 0.041340897077824124 1 0.040926916055464974 1 1 0.037218470661364106 1 0.047948670877371563 1 1 1 1 1 1 1 1 1 0.049398870049585542 1 1 1 1 1 0.050925904371716089 1 1 1 1 1 1 1 1 1 1 0.037343344834885196 1 1 1 1 0.041792549285566034 0.037449248277495975 1 1 0.070178487335751813 1 0.073105631229447715 1 1 1 1 1 0.072206447708594731 1 1 0.03743269089883669 1 0.049996028697712108 1 1 1 1 1 1 1 0.037150229639529714 1 1 1 1 1 1 1 1 1 0.067341707478005983 1 0.049940843069244602 1 0.05004110839148701 1 0.04466812538260654 1 1 1 1 0.050181615569043145 1 1 1 1 1 0.050576593417064761 0.036858245336317472 1 1 1 1 1 1 0.049050439972606497 1 1 1 1 1 0.061553376591151447 1 1 1 1 0.069360510754230609 1 1 0.058199663450779877 1 0.066574889038287122 1 1 1 0.043377269491597856 1 0.07315786819790808 1 1 0.071403988995644679 0.049997259264122365 0.06943124380482682 1 1 1 1 1 1 0.050000630301420199 0.032783143937156506 0.047096498661906093 1 1 1 1 0.047240353028024054 1 0.053344324620014018 1 0.041982222683580359 1 1 1 1 1 1 0.050774561768502466 1 1 1 1 1 1 1 1 1 1 1 1 1 1 1 1 1 1 1 1 1 1 1 1 1 1 1 1 1 1 1 1 1 1 1 1 1 1 1 1 1 1 1 1 1 1 1 1 1 0.055527539945654673 1 1 1 0.064986913953483078 0.049945356868386831 1 1 1 1 1 1 1 1 1 1 1 1 1 1 1 1 1 1 1 0.040968928058654347 1 1 1 1 1 1 1 0.052042743502714511 1 1 0.036684842060272782 1 1 0.047421006959626311 1 1 0.058419036113269922 1 0.043223122643455847 1 1 0.042703458427894227 1 1 1 0.050138381867994929 1 0.060454935395322214 1 0.044086884123283182 0.04519480317547625 1 1 1 0.057771869103263894 0.050107699633676797 1 1 0.042723696028626017 1 1 0.060492118268959387 1 1 1 1 1 1 1 1 1 1 1 1 0.058289729863790232 1 1 1 1 0.056622977100842353 1 1 1 1 0.031034491469659274 1 1 1 1 1 1 1 1 1 0.047267251439149525 1 0.050011185687902908 1 1 1 1 0.04370113501459242 1 1 1 0.043396471413330036 1 1 1 1 1 1 0.034418010608568278 1 1 0.050478972712521789 1 1 1 0.072180311259879754 1 1 1 1 1 1 1 0.041521584467375208 1 1 1 1 1 0.045368219909238672 1 1 1 1 1 1 1 1 1 1 1 1 1 1 1 0.035543166342532316 1 1 1 1 1 0.047760379401182669 1 1 0.055925950164449977 1 0.043954619632037402 1 1 1 1 0.049036808305986383 0.049519785246232927 1 1 0.054678724663400263 1 1 1 1 1 1 1 1 1 1 1 0.050685837999527958 1 0.051911885093723395 1 1 1 1 1 0.050594817258364629 1 1 1 0.048094215205898072 1 1 1 0.049728227131987268 1 1 1 1 1 1 1 1 1 1 1 1 1 0.065795870412169499 1 1 1 1 1 1 1 0.043370084394593021 1 0.048663776311035509 1 1 1 1 1 1 1 0.049868849054521852 0.021558897728745811 1 1 1 1 1 1 1 1 1 0.0509815135033415 1 1 1 1 1 1 0.036155209808860299 0.050083230267371007 0.049980557698573444 1 0.029147097878465845 1 1 1 1 1 1 0.033907220380292001 1 0.049218881503331063 1 0.052316466467679623 1 0.021929423421705535 1 1 1 1 1 1 0.01941763165361738 1 1 0.049776125033724458 1 1 1 1 0.050873844529251144 1 1 1 1 1 1 1 1 1 1 1 1 1 1 1 1 1 1 1 1 1 0.095399267257110204 1 0.04835315811445004 1 1 1 1 1 1 1 1 1 1 1 1 1 1 1 1 1 1 1 1 1 1 1 1 1 1 1 1 1 1 1 1 1 1 1 1 1 1 1 1 1 1 1 1 1 1 1 1 1 1 1 1 1 1 1 1 1 1 0.050268618629611191 1 1 1 1 1 1 1 1 1 1 1 1 1 1 1 1 1 1 1 1 1 1 1 0.050807543825224531 1 1 1 0.051509608140009704 1 0.049706817713682003 1 1 1 1 1 1 1 1 1 1 1 1 1 1 1 1 1 1 1 1 1 1 1 1 1 1 1 1 1 1 1 1 1 1 1 1 1 1 1 0.048825091646648992 1 0.052105803476205331 1 1 1 1 1 1 1 1 1 1 1 1 1 1 1 1 1 1 1 1 1 1 1 1 1 0.042706616449470172 1 1 1 1 1 1 1 1 1 1 1 1 1 1 1 1 1 1 1 1 1 1 1 1 1 1 1 1 1 1 1 1 1 1 1 1 1 1 1 1 1 1 1 1 1 1 1 1 1 1 1 1 1 1 1 1 1 1 1 1 1 1 1 1 1 1 1 1 1 0.013930300450444962 1 1 1 1 1 1 1 0.025424770147051107 1 1 0.048777327892796624 1 1 1 1 1 1 1 1 1 1 1 1 1 1 1 1 1 1 1 1 0.032413972225026594 1 1 1 1 1 1 1 1 1 1 1 1 1 1 1 1 1 1 1 1 1 1 1 1 1 1 1 1 1 1 1 1 0.049923671936428313 1 1 1 1 0.046050309787217678 1 0.050383087075611108 1 1 1 1 1 1 0.049945672502745175 1 1 0.049638593068888154 1 1 0.049863952255219328 0.049930371321177044 1 0.050058388359704151 1 1 1 0.049880040572291784 1 1 1 1 1 1 1 1 1 1 1 1 1 1 1 0.04841216168176217 1 1 1 1 1 1 1 1 0.049926037125821984 1 1 1 1 1 1 1 1 1 1 1 1 1 1 1 1 1 1 1 1 1 1 1 1 1 1 1 1 1 1 1 1 1 1 1 1 0.030734796023477173 1 1 1 1 1 1 1 0.05446565747455643 1 1 0.056075515902821449 1 0.026229042521528825 1 1 1 1 1 1 1 1 1 1 1 0.050003290529109123 0.050025225035816634 1 1 0.05229898664402885 1 1 0.050074473312175738 0.049636297468549723 1 1 1 1 0.047849138189047818 1 0.055969653177801851 1 1 0.047233530931600973 1 0.049536151963018187 0.053220625704052685 1 0.030741432468001213 1 0.051066785536719853 1 1 1 1 1 1 1 0.050211682290139642 1 0.049913685481522772 1 1 1 1 1 0.050021990976172777 1 1 1 0.033342314138102035 1 1 0.052069929317955857 1 0.049272010517873763 1 0.037245052764808328 0.049569242986726519 1 1 0.069522305104049401 1 1 1 1 1 1 0.040176643048221009 1 1 1 1 1 1 1 1 0.060463912316806312 0.050078396803229015 1 1 1 0.066100375813268747 1 1 1 1 0.048294643616815555 0.073594623013304786 1 0.065551984698819399 1 1 1 0.055619791128846748 1 1 1 1 1 1 1 1 1 1 1 1 1 1 1 1 0.053207331667108379 1 1 1 1 1 1 0.043700733379340523 1 0.039843530664757182 1 1 1 0.043862707487420959 0.036224811993006034 1 1 0.050076270948626489 1 0.049982529192496822 1 1 1 1 1 1 1 1 1 1 1 1 0.049978933926543054 0.050021571034200962 1 1 1 1 1 0.054409563162626053 1 1 1 1 1 1 1 0.055317083725839523 1 1 1 0.050000700367600341 1 0.035846394221805453 1 1 0.050100483662349461 1 1 1 1 1 1 1 1 1 0.052478240824425232 1 1 0.051014013056265031 1 1 1 1 1 1 1 1 1 1 1 0.044745797314565697 1 1 1 1 1 1 1 1 1 1 1 1 1 1 1 1 1 1 1 1 1 1 0.050520871885762195 1 1 1 1 1 1 1 1 1 1 1 0.050172725823862951 1 1 1 1 0.046531066483825129 1 1 1 1 1 1 1 1 1 1 1 0.0495141066285575 1 1 1 1 1 0.047788837617160282 1 0.049975171717460548 1 1 1 1 1 1 1 1 1 0.039778670519557885 1 1 0.032125365693125324 1 1 0.055826344182164825 1 1 1 1 0.051647133860473343 1 1 1 1 1 1 1 1 1 1 1 1 1 1 1 1 1 1 1 1 1 0.056513719116753555 1 1 0.038213609381097739 1 0.054593143747964624 1 1 1 1 1 1 1 1 1 0.04183518915700591 1 1 0.055352867995452193 0.049985365194283218 0.046274253062064036 1 1 1 0.050001520889528792 1 1 1 1 1 1 0.054124226189661062 0.049998504853452197 1 0.062155839197759057 1 1 0.064281672609794616 1 1 0.040519735578516347 1 1 1 1 0.041151347899456868 1 1 1 1 0.039757256485809703 1 1 1 1 1 1 1 1 1 1 1 0.047638970009591455 1 1 0.051750246921200962 1 0.040322277417785546 0.050244651972124431 1 1 0.050014598983155294 0.045359175317859601 0.051749576488989604 1 1 1 1 1 1 1 1 1 1 0.048918471782829855 1 1 1 1 1 1 1 1 1 0.047664372749851455 1 1 1 1 1 0.04963403951706942 1 1 1 1 1 1 1 1 1 1 0.046408478453000598 1 1 1 1 1 1 1 1 1 1 1 1 1 1 1 1 1 1 1 1 1 1 1 1 0.031135685581059214 0.054294241724276285 1 1 1 1 1 1 1 1 0.043223477924909284 1 1 1 1 1 1 1 1 1 1 1 1 1 1 1 1 0.048056778405280415 1 1 1 1 0.034417203158842932 1 1 1 0.064579647262998668 0.049975437450331506 1 1 1 1 1 1 0.049973125634509237 1 0.054660227710297438 1 1 1 0.04710097259431828 1 1 1 1 1 1 1 1 0.04892865399739444 1 0.033587900529371301 0.06113368344263502 1 1 1 1 1 1 1 1 1 1 1 1 0.053248674828151585 1 1 0.053582511364232137 1 0.051141511829510738 1 1 1 1 1 1 1 1 1 1 1 1 1 1 1 1 1 1 1 1 1 1 1 0.052109390986270876 1 1 1 1 1 0.028027254229206301 1 1 1 1 1 1 1 1 1 1 0.049223119998925285 1 1 1 0.049729117192790946 1 1 1 1 1 1 1 1 1 1 1 0.050167824054420378 0.031998409579932399 1 1 1 1 1 0.037462431973867991 1 1 1 0.041911150959794641 1 1 1 1 1 1 1 1 1 1 0.049838702760717668 1 1 1 1 1 1 1 0.050085157780167811 0.041095863343365999 1 0.058100037185134221 1 1 1 1 0.047663216610238715 1 1 1 1 1 0.043386393161830974 1 1 1 1 1 1 1 1 1 1 0.050020558009699512 1 1 1 1 1 1 1 1 1 1 0.044400225220479664 1 1 1 1 1 1 1 0.048278469509006619 1 1 1 1 1 1 1 1 1 1 1 1 1 1 1 1 1 1 1 1 0.050574419116169306 1 1 1 0.051778475778560346 1 1 1 1 1 1 1 1 1 1 1 1 1 0.053705212144068606 1 0.058318515876279932 0.044850923549657168 1 0.053510908300188592 0.037146958547854561 1 1 1 1 1 0.050150148642289227 1 1 1 1 1 1 1 0.046203924332758078 1 1 0.037269337422529046 1 1 0.059214943041444139 1 1 0.056381880233803555 1 1 0.045142418075196492 0.04689882489009696 0.052463518636439339 0.050903424536317805 1 1 0.04858636994965157 0.050062721762675476 1 1 0.058157123565088252 1 1 0.053355050955564712 1 1 1 1 0.044756326686972638 0.037080503413364142 0.047596543371654407 0.035767973668172574 1 1 1 0.050766144639299668 1 0.049870138436556813 1 0.058621297902664231 1 0.047802716504911164 0.056138301508814242 1 1 1 1 1 1 1 0.048597399194694704 1 1 0.024456150368993318 1 0.050347897259945019 1 1 0.045143715127141701 0.053177787612459768 1 1 1 1 1 1 1 1 1 1 1 1 1 1 1 1 1 0.049723491760828228 1 1 1 1 1 1 1 1 1 1 1 1 1 1 1 1 1 0.050545892999806059 1 1 1 1 1 1 1 1 1 1 1 1 1 1 0.066767902250543326 0.052139590917436647 1 1 1 1 0.050004705431824246 1 0.067256127304889918 1 1 1 0.045856096178078808 0.052378387664497261 1 0.04953359152074574 1 1 1 1 1 1 1 1 1 1 1 1 1 1 1 1 1 1 1 0.06894808570591969 1 0.05006401943212288 1 1 1 1 0.049710068400652105 1 1 1 1 1 1 1 1 1 1 1 1 1 1 1 1 1 1 1 1 0.04980501282787151 1 1 1 1 1 1 1 1 1 1 1 1 1 1 0.050637769237260516 1 1 1 1 1 1 1 1 1 1 1 1 1 1 1 1 1 1 1 1 1 1 1 1 1 1 1 1 1 1 1 1 1 1 1 1 1 1 1 1 1 1 1 1 1 1 1 1 1 1 1 1 1 1 1 1 1 1 1 1 1 1 0.041372566002860572 1 1 1 0.042554881789667987 1 1 0.046022535661419353 1 1 1 1 1 1 1 1 1 1 1 0.046532346128248629 1 1 1 1 0.051138076879933228 1 1 1 1 1 1 1 1 1 1 1 1 1 1 1 1 1 1 1 1 1 1 1 1 1 1 1 1 1 0.050209599141310499 1 1 1 1 0.050209790711060145 1 1 1 1 1 1 1 1 1 1 0.049411070212536878 1 1 0.04875794256278293 1 1 1 1 1 1 1 1 1 1 1 1 0.05086565101611433 1 1 1 1 1 1 1 1 0.049124164933546682 1 1 1 1 1 1 1 1 1 1 0.042836195920101253 1 0.052807913116758205 1 1 1 0.036552936212673165 1 1 1 0.052590512621290761 1 0.026901055426769085 1 0.039500842083013653 0.050211106531691127 1 1 1 1 1 0.05023887738983529 1 1 1 1 1 1 1 1 1 1 1 1 1 1 1 1 1 1 1 1 1 1 1 0.050229734389380568 1 1 0.053610345607012333 1 1 1 0.051003776704991399 1 0.050071963717029336 1 1 1 1 1 1 1 1 1 1 1 1 0.050240423053054956 1 1 1 1 1 1 1 1 1 1 1 1 1 1 1 1 1 1 1 0.050464150539606789 1 1 1 1 1 1 1 1 1 1 1 1 1 1 1 1 1 1 1 1 1 1 1 1 1 1 1 0.050256406109006391 1 1 1 1 1 1 1 1 1 1 1 1 1 1 1 1 1 1 0.050393665668002532 1 1 1 0.050585882308626082 1 1 1 0.049785927879664377 0.050088456222144764 1 1 1 1 1 0.049762459317717098 1 1 1 1 1 1 1 0.049175548646407191 0.049425416104306355 1 1 1 0.050247960092472038 1 0.050334544939153569 1 1 1 1 1 1 0.065669265166111865 0.055681383134328966 1 1 0.055441771313983479 0.052732816085808529 1 1 1 1 1 1 1 1 1 1 0.049971129688412289 1 1 1 1 1 1 0.050522169790793346 1 1 1 1 1 1 1 1 1 1 1 1 1 1 1 1 1 0.049912490671855866 1 1 1 1 0.044280033016737413 1 1 0.049727453213008151 1 1 1 1 1 1 1 1 1 1 1 0.052517240822686453 1 0.056194549631287949 1 0.057816967484771734 1 1 1 1 1 1 1 1 1 1 1 1 1 1 1 1 1 1 1 0.049179462543189098 1 1 0.047652789180841662 1 1 1 0.050024216224721738 1 1 0.051675275616820796 1 1 1 1 0.045191948289951545 1 1 1 1 1 1 1 0.044638238600595556 1 1 1 1 1 1 1 1 1 1 1 1 1 1 1 1 1 1 1 1 1 1 1 1 1 1 1 1 1 0.039451450414427686 1 1 1 1 1 1 1 1 1 1 1 1 1 1 1 1 1 1 1 1 1 1 1 1 1 1 1 1 1 1 1 1 1 1 1 1 1 0.05249133610953953 0.056465386814767329 0.043786194786571475 1 1 0.063889228241456916 1 1 1 0.050505158552839463 1 0.050057892455412895 1 1 1 1 1 0.050100448133997895 1 1 1 1 1 1 1 0.067320292558825795 1 1 1 1 1 1 1 1 1 1 1 1 1 1 0.053361489524173404 1 1 1 0.050043325732095571 1 0.070462615451727356 1 1 1 1 1 1 1 1 0.048369325295176825 1 1 1 1 1 1 1 0.049997337539150109 1 0.050104017353088816 1 0.057632904123073876 1 1 1 1 1 1 1 1 0.046899208718021841 1 1 0.048575782643346423 0.051087774610407741 0.045849933900956333 1 0.068312876703843783 1 0.040350192699542244 1 1 1 1 1 1 1 1 1 1 1 1 1 1 1 1 1 1 1 1 1 0.035315959943096435 1 1 0.054544384916029698 0.04304680690897178 1 1 1 0.04992490577320223 1 1 1 1 1 1 1 0.051015880797746903 1 0.050361513494071891 1 1 1 1 0.04999234263533027 1 1 0.052221568777637964 1 1 1 1 1 1 1 0.060650860723640718 1 1 0.061028380630746115 1 1 1 0.060946894613997708 1 1 1 1 1 1 1 1 1 0.051139390703476499 1 1 1 1 1 1 0.052867442313875412 1 1 0.066538081689639206 1 1 1 1 0.074905996605771241 1 1 1 1 1 1 0.047812049084203036 0.046829282293734655 0.055757248303027536 1 1 1 0.049914332620845436 1 0.049987527085767945 1 0.052230524619853821 1 1 1 1 1 1 0.057164147307173466 1 1 1 0.059768803398861856 1 1 1 0.051581981883620481 1 1 1 1 1 1 1 1 1 1 1 1 0.049813218043936972 1 1 1 0.050141327038408935 1 1 1 1 1 0.049443399401920454 0.058777339329938352 1 1 0.050219824491422239 1 0.058670940620712028 0.055044833104944582 0.043557600764464702 1 1 1 0.04986500105726166 1 1 1 1 1 0.067914628810158972 1 1 1 1 1 1 1 1 1 1 1 1 0.050052724970846146 1 1 1 1 1 1 0.042448632299594849 1 1 0.043204965182866997 1 1 0.050088351173645081 1 1 1 1 1 0.049667967376374217 1 1 0.051531247121965558 1 0.049883644643097566 1 0.050104066248173665 1 1 1 1 1 1 0.050156791219019808 1 1 1 1 0.049642127191854846 1 1 1 1 1 1 1 1 1 1 0.048924116134362178 1 1 1 1 1 0.048950428896152795 1 1 1 1 1 1 1 1 1 1 1 1 1 1 1 0.049230336084326407 1 1 1 1 1 0.047583960156235464 1 0.047847942541808769 1 1 1 1 1 0.051221667672916665 1 1 1 1 1 0.053145057916242078 1 1 1 1 1 0.049267000299617281 1 1 1 1 1 1 1 1 1 1 0.046520784322951633 1 0.049992656937312537 1 0.069579622528042034 1 1 0.041733293684470249 1 1 1 1 1 1 1 1 0.0527436290720672 1 0.046536593650479879 1 1 1 1 1 1 1 1 1 1 0.045611014106414799 1 1 1 1 1 1 1 1 1 1 0.049296688419676368 1 1 1 0.062548649497455283 1 0.047158405915464718 0.071178327905682057 1 1 1 0.052200015997512297 1 1 1 0.059374875000503369 0.049950455059760791 1 1 1 1 1 1 1 1 1 1 0.049996208997007019 0.049928052231779443 1 1 1 1 1 0.050053823030072858 1 1 1 1 1 1 1 1 1 1 0.059505080382700679 1 0.046718011044751359 0.052077004038990501 0.053410998450855646 1 1 1 1 1 1 1 1 0.051180798488451626 1 1 1 1 1 1 1 1 1 1 1 1 1 1 1 1 1 1 1 1 1 1 1 1 1 1 1 1 1 0.048085076729929302 1 1 1 1 0.049294029574798739 1 1 1 1 1 1 1 1 0.05083430561317126 1 1 1 1 1 1 1 1 0.048790534366338803 1 1 1 1 1 1 1 1 1 1 1 1 1 1 1 1 1 1 1 1 1 1 1 1 1 1 0.045639602464322207 1 1 1 1 1 1 0.037278721924626855 1 0.066300374712794555 1 1 0.048535486517836221 1 1 1 0.069207478539238296 1 0.045972399541315698 1 1 1 0.05015609214440217 1 1 1 0.061069668776131687 1 1 1 1 1 1 0.052996160794515954 1 1 1 1 1 1 1 1 1 1 1 1 1 1 1 1 1 1 1 1 1 1 1 1 1 1 1 0.053573063248225611 1 0.058578159808814353 1 1 1 1 0.055005096560588787 1 1 1 1 1 1 1 1 1 1 1 1 1 0.052284067870352266 1 1 0.053118373483523447 1 1 0.054098642448147993 1 1 1 1 1 0.061056919732773905 1 1 1 1 1 1 1 1 0.051314203260348926 1 0.054015465937019405 1 1 1 1 1 0.04953423161382689 0.047508748648203064 1 1 0.050467331423593484 1 1 1 0.057731616693575731 1 1 1 1 1 1 1 0.049532040302246116 1 1 1 1 1 1 1 1 1 1 1 1 1 1 1 1 0.05300043142896603 1 1 1 1 1 0.05610109873571352 1 0.053351375247249297 1 1 1 1 1 1 1 1 1 1 1 1 0.053652070798023463 1 0.053897699762069269 1 1 1 1 1 1 0.059255011511161929 0.050902347309559226 1 1 1 1 1 1 1 1 1 1 1 1 1 1 1 1 1 1 1 1 1 0.049708177670819531 1 1 0.049203538715864359 1 1 1 1 1 0.051696559798058275 1 1 1 1 1 1 0.049906440312165207 1 1 1 1 1 1 1 1 1 1 1 1 1 1 1 1 0.050595183541431124 1 1 0.055422167271681269 1 1 1 1 0.047403964086001144 1 1 1 1 1 1 1 1 1 1 1 0.04880391709785567 1 1 1 1 1 1 1 1 1 1 1 1 1 1 1 1 1 1 1 0.055357311749092648 1 1 1 1 1 1 1 1 1 1 1 1 0.050372739055044885 1 1 1 1 1 1 1 1 1 1 1 1 1 0.049784120256929271 0.091265863488486046 1 1 1 1 1 1 0.069096725891245186 1 1 1 1 1 1 1 1 1 1 1 1 1 1 1 1 1 1 1 1 1 1 1 1 1 1 1 1 1 1 1 1 1 1 1 0.049669531826193151 1 1 1 1 1 1 1 1 0.049707345314642465 1 1 1 1 1 1 1 1 1 1 1 1 0.050302528856073572 1 1 1 1 0.067059693862679431 1 0.07950767291105057 1 1 1 1 1 1 1 1 0.048559960321969367 1 1 1 1 1 1 1 1 1 1 0.047160007310114813 1 1 1 0.039189167215702841 1 1 0.047888011001671213 1 1 1 1 0.033894975127355093 1 1 0.031222463399140657 1 1 1 1 1 1 1 1 0.043480730171773493 1 1 1 0.038806598185207403 1 1 1 1 1 1 1 0.060618187806514567 1 0.050167390467579023 1 0.074507289414886851 1 0.069656545357574706 0.079296822055503147 1 1 1 0.050268999497835386 0.049823801326535036 0.044548613924086156 1 1 0.073812833206683193 1 1 1 0.030031672399843251 1 1 1 1 0.050818744924341817 1 1 1 1 1 1 1 1 1 1 1 1 1 1 1 1 1 1 1 1 1 1 1 1 1 1 1 1 1 1 1 1 1 1 1 1 1 1 0.050385583354103251 1 1 1 1 1 1 1 1 0.046542884197762355 1 1 1 1 0.045808660203623196 1 1 0.048664802945748029 1 1 0.047083125275310632 1 1 1 1 0.048811014425717975 1 1 1 1 1 0.048454785441215127 1 1 1 1 1 1 1 1 1 1 1 1 1 0.044005566666959303 0.049567775092520819 1 1 1 0.047533119318928951 1 1 1 1 1 1 1 1 1 1 1 1 1 1 0.050847454323989828 1 1 1 1 1 1 0.050503091855052057 1 1 0.050875830910096918 1 1 1 1 1 1 1 1 1 1 0.05271672293094086 1 1 1 1 1 0.054736146878675181 1 1 1 1 1 1 1 1 1 1 0.043305770475475867 1 1 1 1 1 1 1 1 1 1 1 1 1 1 1 0.049955615629085785 1 1 1 1 1 1 1 1 1 1 1 1 1 1 1 1 1 1 1 1 1 1 1 0.050092633843514964 1 0.046276349431272804 1 1 1 0.050478217197618212 1 1 1 1 1 1 1 1 1 0.04899502651876339 1 1 1 0.043548075554433907 1 1 1 1 1 1 1 1 1 1 1 1 1 1 1 1 0.066723354258455936 1 1 1 1 1 0.0420175922689024 1 1 1 0.067925269382503414 1 0.050021618509609275 1 1 1 1 1 1 0.065040012544680337 1 1 1 1 1 1 1 1 1 1 1 1 1 1 1 1 1 1 1 1 1 1 1 1 1 1 1 0.045373777422830386 1 1 0.048532574138016954 1 1 1 1 1 1 1 0.050591497357170431 1 1 1 1 0.049699995564288751 1 1 0.049700974293431358 1 1 1 1 1 1 0.050163448882623113 1 1 1 0.050079147036724295 1 1 1 0.050079360147874535 1 1 1 1 1 0.052866675766520335 1 1 1 1 1 0.057322389400293272 1 1 1 1 1 1 1 1 0.062977208107946603 1 1 0.049476553342385335 1 1 1 1 0.048411312500563033 1 1 1 1 0.047251117970208145 1 1 1 1 0.065529307830885813 1 1 1 0.061255746702095423 1 0.050110853464836715 1 1 1 1 1 1 1 1 1 1 0.050220762398286267 1 1 1 1 1 1 1 0.050399874012269308 0.064264264485414446 1 1 1 1 1 0.067390748633102501 1 1 1 1 1 0.062536855988391982 1 1 1 0.051281027735579202 1 1 0.049914004457044213 1 1 0.048009263474630567 1 1 1 0.068608241376431359 1 1 1 1 1 1 0.050897008847830216 1 1 1 1 1 0.050141477025764061 1 1 1 1 1 0.050059256434027685 1 1 1 1 1 1 0.050519034188734109 1 1 1 1 0.043332332878819546 1 1 1 1 1 0.049519089460631271 1 1 1 1 1 1 1 1 1 1 0.042877909570533362 1 1 1 1 1 1 1 0.046588948730222249 1 1 1 1 0.049060591054294701 0.047325116838814012 1 1 0.06002752703969827 1 1 1 1 1 1 1 0.053453761267233946 1 1 1 1 1 1 1 0.044864278989076543 1 0.048847779572081272 1 1 0.047170648026623366 1 1 1 1 0.051456576609893397 1 0.047180107942293395 1 1 1 1 1 1 1 1 1 1 0.04981714111106305 1 1 1 1 1 0.049803352622829145 1 1 1 0.044149873377123186 1 1 1 1 0.049900572493556783 1 1 0.065226295483884811 1 1 1 1 1 0.058510810850932876 1 0.038138019842567282 1 0.049992518630193501 0.055754299547337703 1 1 1 1 0.043346693196544363 0.050886421965148212 1 1 1 1 1 1 1 1 1 1 1 1 1 0.050296145265364613 1 1 1 1 1 1 0.048970660524948736 0.049833045822556057 1 1 1 1 1 1 1 1 1 1 1 1 1 0.049356785717363238 1 1 1 1 1 1 1 1 1 1 1 1 1 1 1 1 1 1 1 1 1 1 1 1 1 1 1 1 1 1 1 1 1 0.049870528944834111 1 1 0.049571921675426588 1 1 1 1 1 1 1 0.049269167823113337 1 1 1 0.050205778309737312 1 1 0.060531279078829839 1 1 1 0.046940039462002398 0.049984704314236253 1 1 1 1 0.041106264666771884 0.049454666282251931 1 1 1 1 1 1 1 1 1 1 1 1 1 1 0.038441462797495163 1 1 0.049996864703744426 1 1 1 0.037053451547358042 1 1 1 1 0.050231617867820294 1 1 0.02456149582548476 1 1 1 1 1 1 1 1 1 1 1 0.010278625495020035 1 1 1 1 1 1 1 -3.4694469519536142e-17 1 1 1 1 1 1 1 1 1 1 1 1 1 1 1 1 1 1 0.051626285863018366 1 1 1 1 1 1 0.056950888722378586 1 0.048853095410952951 1 1 1 1 1 0.051814690241593062 1 1 0.055769686833506936 1 1 1 0.021149514620827477 1 1 1 0.05072137151306462 1 1 1 1 1 1 1 1 1 1 1 1 1 1 0.050639888510482019 1 1 1 1 0.051852038335195069 0.055280709811629469 1 1 1 1 1 1 1 1 1 1 1 1 1 1 1 1 1 1 1 0.049318209808135678 1 1 1 1 1 1 1 1 0.046497524184580162 1 0.048233980655205413 1 1 1 1 1 1 1 0.049992226199140476 1 0.049640541672214988 1 1 1 1 1 0.044689705973360312 1 1 1 1 1 1 0.049731367722426187 1 1 1 1 1 0.054659407073122904 0.058463108759760379 1 1 1 0.062624418749935837 0.039535776955623894 0.042298937917265626 1 1 1 1 1 0.062794117279895242 1 1 1 1 1 0.035703036805689932 1 1 1 1 0.041248565148122487 1 0.062823614115017093 0.055725059961673012 1 0.041374858306396776 0.047788289408685847 1 1 1 0.046300643857196358 1 1 1 0.040059214364618817 1 1 1 0.044695146938608446 1 1 1 0.042547865764378884 1 1 1 1 1 1 1 1 0.048510745264372226 1 1 1 0.046333425110652554 1 1 1 1 1 1 0.050453180322392613 1 1 1 1 1 1 0.04306164273705456 1 1 1 1 1 1 1 1 1 1 1 1 1 1 0.049628994232560127 1 0.062084853526380712 1 1 1 0.044042005844189873 1 1 0.050203607653412051 1 0.056522499622050415 1 0.052631733267399505 1 1 0.042849832620938597 1 1 1 1 1 1 0.054029846001920664 1 1 1 1 0.049863248527836704 1 1 1 1 1 1 0.051390285520672062 1 1 1 1 1 1 1 1 1 1 0.050858899580681037 1 1 1 1 1 1 1 1 1 1 1 1 1 1 1 1 1 1 1 0.073334151396980365 0.053113112111061983 1 1 1 0.067364470963198614 1 1 0.062495857036415713 1 1 0.063628854190534267 1 1 0.044397515197919804 1 1 0.055071398715001482 0.047554865461779734 1 1 1 1 0.067856962308783977 1 1 1 1 1 1 1 1 1 1 1 0.063821507945464678 0.043391056910787165 1 1 1 0.06034020071046918 1 0.050027320073541715 1 0.050025807114677093 1 1 1 1 1 0.05021886500611817 1 1 0.052585196122126754 1 0.055275423179039419 1 1 0.050019270634431456 0.054844862136395757 0.054531648955013612 1 1 1 1 0.05269842919723286 1 1 0.053289801219117 1 0.05941335270445984 1 1 0.044545650634528887 1 1 1 1 1 1 1 1 0.058487516147199999 1 0.0582787802530986 0.053423412110183026 1 1 1 1 1 0.05013180777205415 0.056390060926312782 1 1 1 0.065403223385089693 0.060134980117077193 1 1 1 1 1 1 1 1 0.050059752229677255 1 0.054544452120929079 1 1 1 1 1 1 1 1 1 1 1 1 1 1 1 1 1 1 1 1 1 1 1 1 1 1 1 1 1 0.050275322479933632 1 1 1 1 1 1 1 1 1 1 1 1 1 1 1 0.05124437661472938 1 1 0.050053846509885778 1 1 1 1 1 0.050101132632144517 1 1 1 1 1 1 1 1 1 1 1 1 1 0.049952713877741292 1 1 1 1 1 1 1 1 1 0.049369570040640742 1 1 0.056129943063213089 1 1 1 1 0.049998181170716048 0.048804014326649089 0.062915075839309387 1 1 1 1 1 0.053723590465356262 1 1 1 
</DataArray>
</CellData>
</Piece>
</UnstructuredGrid>
</VTKFile>
