<?xml version="1.0"?>
<VTKFile type="UnstructuredGrid" version="0.1" byte_order="LittleEndian">
<UnstructuredGrid>
<Piece NumberOfPoints="31898" NumberOfCells="11152">
<Points>
<DataArray type="Float64" NumberOfComponents="3" format="ascii">
-0.5 -0.5 0 -0.47620991077874902 -0.44978878706170539 0 -0.49999999999999473 -0.42132396840504388 0 -0.5 -0.5 0 -0.47160970827802529 -0.4793630013852106 0 -0.47620991077874902 -0.44978878706170539 0 -0.5 -0.5 0 -0.47160970827802529 -0.4793630013852106 0 -0.44860394795025399 -0.5 0 -0.47160970827802529 -0.4793630013852106 0 -0.44860394795025399 -0.5 0 -0.4490820238307246 -0.45820516232899983 0 -0.44860394795025399 -0.5 0 -0.4490820238307246 -0.45820516232899983 0 -0.42881687682924802 -0.47781464288736519 0 -0.4490820238307246 -0.45820516232899983 0 -0.45555437223955858 -0.42914059360647611 0 -0.4490820238307246 -0.45820516232899983 0 -0.45555437223955858 -0.42914059360647611 0 -0.43867285131603428 -0.4271457417558665 0 -0.4490820238307246 -0.45820516232899983 0 -0.43867285131603428 -0.4271457417558665 0 -0.4263356171060747 -0.44269880333887462 0 -0.47160970827802529 -0.4793630013852106 0 -0.4490820238307246 -0.45820516232899983 0 -0.47620991077874902 -0.44978878706170539 0 -0.4490820238307246 -0.45820516232899983 0 -0.47620991077874902 -0.44978878706170539 0 -0.45555437223955858 -0.42914059360647611 0 -0.47620991077874902 -0.44978878706170539 0 -0.48101336032419229 -0.41069999664450008 0 -0.45555437223955858 -0.42914059360647611 0 -0.47620991077874902 -0.44978878706170539 0 -0.49999999999999473 -0.42132396840504388 0 -0.48101336032419229 -0.41069999664450008 0 -0.49999999999999473 -0.42132396840504388 0 -0.48101336032419229 -0.41069999664450008 0 -0.5 -0.393886241813306 0 -0.49999999999999473 -0.42132396840504388 0 -0.48101336032419229 -0.41069999664450008 0 -0.5 -0.393886241813306 0 -0.47854472220918332 -0.38978458738689759 0 -0.48422759779560409 -0.37130120630367158 0 -0.5 -0.393886241813306 0 -0.5 -0.36644851522156802 0 -0.48422759779560409 -0.37130120630367158 0 -0.48101336032419229 -0.41069999664450008 0 -0.5 -0.393886241813306 0 -0.47854472220918332 -0.38978458738689759 0 -0.48101336032419229 -0.41069999664450008 0 -0.47854472220918332 -0.38978458738689759 0 -0.46202672064839212 -0.40007602488395211 0 -0.48101336032419229 -0.41069999664450008 0 -0.46202672064839212 -0.40007602488395211 0 -0.47854472220918332 -0.38978458738689759 0 -0.46725442735267431 -0.37660061361585562 0 -0.46202672064839212 -0.40007602488395211 0 -0.47854472220918332 -0.38978458738689759 0 -0.46725442735267431 -0.37660061361585562 0 -0.48422759779560409 -0.37130120630367158 0 -0.46725442735267431 -0.37660061361585562 0 -0.46202672064839212 -0.40007602488395211 0 -0.46725442735267431 -0.37660061361585562 0 -0.45645674801697989 -0.38644133236760531 0 -0.46202672064839212 -0.40007602488395211 0 -0.46725442735267431 -0.37660061361585562 0 -0.45645674801697989 -0.38644133236760531 0 -0.4540003998136638 -0.37455519391687309 0 -0.45645674801697989 -0.38644133236760531 0 -0.46202672064839212 -0.40007602488395211 0 -0.44257020456291563 -0.38918913383950271 0 -0.46202672064839212 -0.40007602488395211 0 -0.44257020456291563 -0.38918913383950271 0 -0.44727608925983742 -0.41095911152778891 0 -0.46202672064839212 -0.40007602488395211 0 -0.44257020456291563 -0.38918913383950271 0 -0.44257020456291563 -0.38918913383950271 0 -0.44727608925983742 -0.41095911152778891 0 -0.43479358559901082 -0.4041454901736512 0 -0.44257020456291563 -0.38918913383950271 0 -0.4540003998136638 -0.37455519391687309 0 -0.44172858264042247 -0.37082207246888088 0 -0.45645674801697989 -0.38644133236760531 0 -0.44257020456291563 -0.38918913383950271 0 -0.4540003998136638 -0.37455519391687309 0 -0.46202672064839212 -0.40007602488395211 0 -0.45555437223955858 -0.42914059360647611 0 -0.44727608925983742 -0.41095911152778891 0 -0.46202672064839212 -0.40007602488395211 0 -0.45555437223955858 -0.42914059360647611 0 -0.48101336032419229 -0.41069999664450008 0 -0.46202672064839212 -0.40007602488395211 0 -0.45555437223955858 -0.42914059360647611 0 -0.44727608925983742 -0.41095911152778891 0 -0.43867285131603428 -0.4271457417558665 0 -0.43676601469929588 -0.41441201227470881 0 -0.44727608925983742 -0.41095911152778891 0 -0.43676601469929588 -0.41441201227470881 0 -0.43479358559901082 -0.4041454901736512 0 -0.45555437223955858 -0.42914059360647611 0 -0.44727608925983742 -0.41095911152778891 0 -0.43867285131603428 -0.4271457417558665 0 -0.43867285131603428 -0.4271457417558665 0 -0.42681803064840879 -0.42717069814352421 0 -0.4263356171060747 -0.44269880333887462 0 -0.42681803064840879 -0.42717069814352421 0 -0.41531815884496182 -0.42985383783075998 0 -0.4263356171060747 -0.44269880333887462 0 -0.42681803064840879 -0.42717069814352421 0 -0.42624289495594048 -0.42089725947505818 0 -0.42083332353326591 -0.42146747131641099 0 -0.42681803064840879 -0.42717069814352421 0 -0.43096994786351572 -0.41951492446283251 0 -0.42624289495594048 -0.42089725947505818 0 -0.43867285131603428 -0.4271457417558665 0 -0.42681803064840879 -0.42717069814352421 0 -0.43096994786351572 -0.41951492446283251 0 -0.43867285131603428 -0.4271457417558665 0 -0.43676601469929588 -0.41441201227470881 0 -0.43096994786351572 -0.41951492446283251 0 -0.43676601469929588 -0.41441201227470881 0 -0.43096994786351572 -0.41951492446283251 0 -0.42907264086257813 -0.41311715872526122 0 -0.43676601469929588 -0.41441201227470881 0 -0.42907264086257813 -0.41311715872526122 0 -0.43479358559901082 -0.4041454901736512 0 -0.42907264086257813 -0.41311715872526122 0 -0.43479358559901082 -0.4041454901736512 0 -0.42460885511582858 -0.40417321677700252 0 -0.42907264086257813 -0.41311715872526122 0 -0.41997834854398469 -0.41180534796019508 0 -0.42907264086257813 -0.41311715872526122 0 -0.42635027777857132 -0.41543594397746519 0 -0.41997834854398469 -0.41180534796019508 0 -0.42907264086257813 -0.41311715872526122 0 -0.41997834854398469 -0.41180534796019508 0 -0.42460885511582858 -0.40417321677700252 0 -0.42635027777857132 -0.41543594397746519 0 -0.41997834854398469 -0.41180534796019508 0 -0.42635027777857132 -0.41543594397746519 0 -0.42083332353326591 -0.42146747131641099 0 -0.41997834854398469 -0.41180534796019508 0 -0.43096994786351572 -0.41951492446283251 0 -0.42624289495594048 -0.42089725947505818 0 -0.42635027777857132 -0.41543594397746519 0 -0.43096994786351572 -0.41951492446283251 0 -0.42907264086257813 -0.41311715872526122 0 -0.42635027777857132 -0.41543594397746519 0 -0.42624289495594048 -0.42089725947505818 0 -0.42635027777857132 -0.41543594397746519 0 -0.42083332353326591 -0.42146747131641099 0 -0.42083332353326591 -0.42146747131641099 0 -0.41997834854398469 -0.41180534796019508 0 -0.40992282953163789 -0.42011435591993562 0 -0.41997834854398469 -0.41180534796019508 0 -0.39756877647335259 -0.40857286797681719 0 -0.41997834854398469 -0.41180534796019508 0 -0.40992282953163789 -0.42011435591993562 0 -0.39756877647335259 -0.40857286797681719 0 -0.40992282953163789 -0.42011435591993562 0 -0.41531815884496182 -0.42985383783075998 0 -0.39591554026262499 -0.42887225451549271 0 -0.41531815884496182 -0.42985383783075998 0 -0.39591554026262499 -0.42887225451549271 0 -0.41160927495564159 -0.44339431233754628 0 -0.42083332353326591 -0.42146747131641099 0 -0.40992282953163789 -0.42011435591993562 0 -0.41531815884496182 -0.42985383783075998 0 -0.42681803064840879 -0.42717069814352421 0 -0.42083332353326591 -0.42146747131641099 0 -0.41531815884496182 -0.42985383783075998 0 -0.44257020456291563 -0.38918913383950271 0 -0.42311368847744002 -0.37830224279505142 0 -0.42594061475171041 -0.39368797999533162 0 -0.44257020456291563 -0.38918913383950271 0 -0.42311368847744002 -0.37830224279505142 0 -0.44172858264042247 -0.37082207246888088 0 -0.44257020456291563 -0.38918913383950271 0 -0.42311368847744002 -0.37830224279505142 0 -0.42311368847744002 -0.37830224279505142 0 -0.42594061475171041 -0.39368797999533162 0 -0.416587075656149 -0.38785930376960043 0 -0.44257020456291563 -0.38918913383950271 0 -0.42594061475171041 -0.39368797999533162 0 -0.43479358559901082 -0.4041454901736512 0 -0.42594061475171041 -0.39368797999533162 0 -0.43479358559901082 -0.4041454901736512 0 -0.42460885511582858 -0.40417321677700252 0 -0.41997834854398469 -0.41180534796019508 0 -0.41325908582185972 -0.39811010703057192 0 -0.39770572831670092 -0.39911486077581648 0 -0.41997834854398469 -0.41180534796019508 0 -0.39770572831670092 -0.39911486077581648 0 -0.42594061475171041 -0.39368797999533162 0 -0.42460885511582858 -0.40417321677700252 0 -0.41325908582185972 -0.39811010703057192 0 -0.41997834854398469 -0.41180534796019508 0 -0.42460885511582858 -0.40417321677700252 0 -0.41325908582185972 -0.39811010703057192 0 -0.42594061475171041 -0.39368797999533162 0 -0.41325908582185972 -0.39811010703057192 0 -0.416587075656149 -0.38785930376960043 0 -0.41325908582185972 -0.39811010703057192 0 -0.416587075656149 -0.38785930376960043 0 -0.40403491357358612 -0.38133688525744702 0 -0.42311368847744002 -0.37830224279505142 0 -0.40403491357358612 -0.38133688525744702 0 -0.40365717239196519 -0.36741535175059892 0 -0.42311368847744002 -0.37830224279505142 0 -0.416587075656149 -0.38785930376960043 0 -0.40403491357358612 -0.38133688525744702 0 -0.40403491357358612 -0.38133688525744702 0 -0.39190790742475001 -0.38540387676521748 0 -0.39770572831670092 -0.39911486077581648 0 -0.40403491357358612 -0.38133688525744702 0 -0.39190790742475001 -0.38540387676521748 0 -0.3904578797192948 -0.37473938743617019 0 -0.41325908582185972 -0.39811010703057192 0 -0.40403491357358612 -0.38133688525744702 0 -0.39770572831670092 -0.39911486077581648 0 -0.39770572831670092 -0.39911486077581648 0 -0.37543310808941849 -0.38642437359143528 0 -0.39770572831670092 -0.39911486077581648 0 -0.37515920440272033 -0.40534038799344108 0 -0.37543310808941849 -0.38642437359143528 0 -0.39770572831670092 -0.39911486077581648 0 -0.37515920440272033 -0.40534038799344108 0 -0.39756877647335259 -0.40857286797681719 0 -0.37515920440272033 -0.40534038799344108 0 -0.37543310808941849 -0.38642437359143528 0 -0.37543310808941849 -0.38642437359143528 0 -0.3904578797192948 -0.37473938743617019 0 -0.37568304780698558 -0.36916333065311507 0 -0.39190790742475001 -0.38540387676521748 0 -0.37543310808941849 -0.38642437359143528 0 -0.3904578797192948 -0.37473938743617019 0 -0.37543310808941849 -0.38642437359143528 0 -0.37568304780698558 -0.36916333065311507 0 -0.39190790742475001 -0.38540387676521748 0 -0.39770572831670092 -0.39911486077581648 0 -0.37543310808941849 -0.38642437359143528 0 -0.41997834854398469 -0.41180534796019508 0 -0.39770572831670092 -0.39911486077581648 0 -0.39756877647335259 -0.40857286797681719 0 -0.40992282953163789 -0.42011435591993562 0 -0.39591554026262499 -0.42887225451549271 0 -0.39756877647335259 -0.40857286797681719 0 -0.37515920440272033 -0.40534038799344108 0 -0.39591554026262499 -0.42887225451549271 0 -0.39756877647335259 -0.40857286797681719 0 -0.37515920440272033 -0.40534038799344108 0 -0.39756877647335259 -0.40857286797681719 0 -0.37515920440272033 -0.40534038799344108 0 -0.39591554026262499 -0.42887225451549271 0 -0.37472313619600889 -0.43545561783144832 0 -0.39591554026262499 -0.42887225451549271 0 -0.39301703415267508 -0.44654444244683272 0 -0.37472313619600889 -0.43545561783144832 0 -0.39301703415267508 -0.44654444244683272 0 -0.37428706798929601 -0.46557084766945539 0 -0.37472313619600889 -0.43545561783144832 0 -0.39591554026262499 -0.42887225451549271 0 -0.39301703415267508 -0.44654444244683272 0 -0.41160927495564159 -0.44339431233754628 0 -0.39301703415267508 -0.44654444244683272 0 -0.40396056051613372 -0.45751466911048011 0 -0.41160927495564159 -0.44339431233754628 0 -0.40396056051613372 -0.45751466911048011 0 -0.39245383412573559 -0.47875733455523922 0 -0.41207507163844148 -0.46917161410542801 0 -0.40396056051613372 -0.45751466911048011 0 -0.38912381425271458 -0.46154275838996711 0 -0.39245383412573559 -0.47875733455523922 0 -0.40396056051613372 -0.45751466911048011 0 -0.39245383412573559 -0.47875733455523922 0 -0.40396056051613372 -0.45751466911048011 0 -0.40649676728151513 -0.45682610390212369 0 -0.40396056051613372 -0.45751466911048011 0 -0.38912381425271458 -0.46154275838996711 0 -0.39301703415267508 -0.44654444244683272 0 -0.40396056051613372 -0.45751466911048011 0 -0.38912381425271458 -0.46154275838996711 0 -0.39301703415267508 -0.44654444244683272 0 -0.38912381425271458 -0.46154275838996711 0 -0.37428706798929601 -0.46557084766945539 0 -0.38912381425271458 -0.46154275838996711 0 -0.37428706798929601 -0.46557084766945539 0 -0.38912381425271458 -0.46154275838996711 0 -0.38378714202547332 -0.47159002408209011 0 -0.37428706798929601 -0.46557084766945539 0 -0.38378714202547332 -0.47159002408209011 0 -0.39245383412573559 -0.47875733455523922 0 -0.37411677223754131 -0.47733161267270968 0 -0.39245383412573559 -0.47875733455523922 0 -0.37240076261097882 -0.48974555046165519 0 -0.37411677223754131 -0.47733161267270968 0 -0.38378714202547332 -0.47159002408209011 0 -0.37411677223754131 -0.47733161267270968 0 -0.37428706798929601 -0.46557084766945539 0 -0.38912381425271458 -0.46154275838996711 0 -0.38378714202547332 -0.47159002408209011 0 -0.39245383412573559 -0.47875733455523922 0 -0.38094710773533791 -0.49999999999999839 0 -0.39245383412573559 -0.47875733455523922 0 -0.38094710773533791 -0.49999999999999839 0 -0.39245383412573559 -0.47875733455523922 0 -0.37240076261097882 -0.48974555046165519 0 -0.38094710773533791 -0.49999999999999839 0 -0.39245383412573559 -0.47875733455523922 0 -0.40997732063196057 -0.5 0 -0.39245383412573559 -0.47875733455523922 0 -0.41207507163844148 -0.46917161410542801 0 -0.40997732063196057 -0.5 0 -0.41207507163844148 -0.46917161410542801 0 -0.40997732063196057 -0.5 0 -0.42881687682924802 -0.47781464288736519 0 -0.44860394795025399 -0.5 0 -0.40997732063196057 -0.5 0 -0.42881687682924802 -0.47781464288736519 0 -0.41207507163844148 -0.46917161410542801 0 -0.42881687682924802 -0.47781464288736519 0 -0.42627766738448791 -0.46032764904509182 0 -0.4490820238307246 -0.45820516232899983 0 -0.42881687682924802 -0.47781464288736519 0 -0.42627766738448791 -0.46032764904509182 0 -0.4490820238307246 -0.45820516232899983 0 -0.42627766738448791 -0.46032764904509182 0 -0.4263356171060747 -0.44269880333887462 0 -0.42627766738448791 -0.46032764904509182 0 -0.4263356171060747 -0.44269880333887462 0 -0.41655419253802572 -0.45404861160063659 0 -0.4263356171060747 -0.44269880333887462 0 -0.41160927495564159 -0.44339431233754628 0 -0.41655419253802572 -0.45404861160063659 0 -0.41531815884496182 -0.42985383783075998 0 -0.4263356171060747 -0.44269880333887462 0 -0.41160927495564159 -0.44339431233754628 0 -0.40396056051613372 -0.45751466911048011 0 -0.41160927495564159 -0.44339431233754628 0 -0.40649676728151513 -0.45682610390212369 0 -0.41160927495564159 -0.44339431233754628 0 -0.40649676728151513 -0.45682610390212369 0 -0.41655419253802572 -0.45404861160063659 0 -0.40396056051613372 -0.45751466911048011 0 -0.41160927495564159 -0.44339431233754628 0 -0.41207507163844148 -0.46917161410542801 0 -0.40649676728151513 -0.45682610390212369 0 -0.41655419253802572 -0.45404861160063659 0 -0.40396056051613372 -0.45751466911048011 0 -0.41207507163844148 -0.46917161410542801 0 -0.40649676728151513 -0.45682610390212369 0 -0.41207507163844148 -0.46917161410542801 0 -0.42627766738448791 -0.46032764904509182 0 -0.41655419253802572 -0.45404861160063659 0 -0.45662330498375908 -0.25656877445722759 0 -0.43445882011373449 -0.25478651907497341 0 -0.45662330498375908 -0.25656877445722759 0 -0.43445882011373449 -0.25478651907497341 0 -0.45034617445999431 -0.24335722649563979 0 -0.44999384684511368 -0.2755750489792308 0 -0.45662330498375908 -0.25656877445722759 0 -0.43445882011373449 -0.25478651907497341 0 -0.44999384684511368 -0.2755750489792308 0 -0.43077531442077321 -0.27459050524281542 0 -0.43445882011373449 -0.25478651907497341 0 -0.44999384684511368 -0.2755750489792308 0 -0.441361257405879 -0.29303276451920029 0 -0.43077531442077321 -0.27459050524281542 0 -0.44999384684511368 -0.2755750489792308 0 -0.4670541169931961 -0.26846056693166809 0 -0.46910519348062618 -0.28320526693770848 0 -0.44999384684511368 -0.2755750489792308 0 -0.4670541169931961 -0.26846056693166809 0 -0.45662330498375908 -0.25656877445722759 0 -0.45662330498375908 -0.25656877445722759 0 -0.47878778985378329 -0.25835102983948688 0 -0.4670541169931961 -0.26846056693166809 0 -0.45662330498375908 -0.25656877445722759 0 -0.47878778985378329 -0.25835102983948688 0 -0.45662330498375908 -0.25656877445722759 0 -0.47878778985378329 -0.25835102983948688 0 -0.47142395938804471 -0.23802335247430181 0 -0.47878778985378329 -0.25835102983948688 0 -0.5 -0.25669760885461612 0 -0.48361763707807442 -0.27426406281091331 0 -0.47878778985378329 -0.25835102983948688 0 -0.5 -0.25669760885461612 0 -0.4875835208682564 -0.24248539692068891 0 -0.5 -0.25669760885461612 0 -0.48361763707807442 -0.27426406281091331 0 -0.5 -0.28413533544635422 0 -0.4670541169931961 -0.26846056693166809 0 -0.47878778985378329 -0.25835102983948688 0 -0.48361763707807442 -0.27426406281091331 0 -0.4670541169931961 -0.26846056693166809 0 -0.48361763707807442 -0.27426406281091331 0 -0.46910519348062618 -0.28320526693770848 0 -0.46910519348062618 -0.28320526693770848 0 -0.48580896399913942 -0.29193665231809679 0 -0.47164434439118558 -0.29859902487093259 0 -0.48361763707807442 -0.27426406281091331 0 -0.46910519348062618 -0.28320526693770848 0 -0.48580896399913942 -0.29193665231809679 0 -0.5 -0.28413533544635422 0 -0.48580896399913942 -0.29193665231809679 0 -0.5 -0.3115730620380921 0 -0.48361763707807442 -0.27426406281091331 0 -0.5 -0.28413533544635422 0 -0.48580896399913942 -0.29193665231809679 0 -0.48580896399913942 -0.29193665231809679 0 -0.5 -0.3115730620380921 0 -0.48293754746551898 -0.30617437981156609 0 -0.48293754746551898 -0.30617437981156609 0 -0.47164434439118558 -0.29859902487093259 0 -0.47203566342767839 -0.31514771464943409 0 -0.48580896399913942 -0.29193665231809679 0 -0.48293754746551898 -0.30617437981156609 0 -0.47164434439118558 -0.29859902487093259 0 -0.47164434439118558 -0.29859902487093259 0 -0.46096111539772322 -0.3069557537098867 0 -0.47203566342767839 -0.31514771464943409 0 -0.46096111539772322 -0.3069557537098867 0 -0.44739706002137658 -0.30395698434733032 0 -0.45229582611609759 -0.31444164243390338 0 -0.46096111539772322 -0.3069557537098867 0 -0.45682111422556548 -0.29317658806621089 0 -0.44739706002137658 -0.30395698434733032 0 -0.47164434439118558 -0.29859902487093259 0 -0.46096111539772322 -0.3069557537098867 0 -0.45682111422556548 -0.29317658806621089 0 -0.44999384684511368 -0.2755750489792308 0 -0.46910519348062618 -0.28320526693770848 0 -0.45682111422556548 -0.29317658806621089 0 -0.46910519348062618 -0.28320526693770848 0 -0.47164434439118558 -0.29859902487093259 0 -0.45682111422556548 -0.29317658806621089 0 -0.44999384684511368 -0.2755750489792308 0 -0.45682111422556548 -0.29317658806621089 0 -0.441361257405879 -0.29303276451920029 0 -0.45682111422556548 -0.29317658806621089 0 -0.441361257405879 -0.29303276451920029 0 -0.44739706002137658 -0.30395698434733032 0 -0.441361257405879 -0.29303276451920029 0 -0.44739706002137658 -0.30395698434733032 0 -0.43527018611072049 -0.30465000121327751 0 -0.44739706002137658 -0.30395698434733032 0 -0.44024276041750632 -0.31887045497680111 0 -0.43527018611072049 -0.30465000121327751 0 -0.44739706002137658 -0.30395698434733032 0 -0.45229582611609759 -0.31444164243390338 0 -0.44024276041750632 -0.31887045497680111 0 -0.44024276041750632 -0.31887045497680111 0 -0.45653421084860168 -0.32646185290925811 0 -0.44024276041750632 -0.31887045497680111 0 -0.43930980958642257 -0.33554338078202212 0 -0.45653421084860168 -0.32646185290925811 0 -0.45229582611609759 -0.31444164243390338 0 -0.44024276041750632 -0.31887045497680111 0 -0.45653421084860168 -0.32646185290925811 0 -0.43930980958642257 -0.33554338078202212 0 -0.44966367396753332 -0.33841986907325933 0 -0.46855294336124231 -0.32873531729210143 0 -0.43930980958642257 -0.33554338078202212 0 -0.4507851133594416 -0.34910720111649318 0 -0.43930980958642257 -0.33554338078202212 0 -0.44966367396753332 -0.33841986907325933 0 -0.4507851133594416 -0.34910720111649318 0 -0.44966367396753332 -0.33841986907325933 0 -0.46855294336124231 -0.32873531729210143 0 -0.46386644800117471 -0.33586508895417932 0 -0.43930980958642257 -0.33554338078202212 0 -0.46855294336124231 -0.32873531729210143 0 -0.43930980958642257 -0.33554338078202212 0 -0.46855294336124231 -0.32873531729210143 0 -0.45653421084860168 -0.32646185290925811 0 -0.44966367396753332 -0.33841986907325933 0 -0.4586808436472537 -0.3401528003513713 0 -0.45711636988675219 -0.34547487934353349 0 -0.44966367396753332 -0.33841986907325933 0 -0.4586808436472537 -0.3401528003513713 0 -0.46386644800117471 -0.33586508895417932 0 -0.4586808436472537 -0.3401528003513713 0 -0.46472493826860672 -0.34236766697450172 0 -0.45711636988675219 -0.34547487934353349 0 -0.4586808436472537 -0.3401528003513713 0 -0.46472493826860672 -0.34236766697450172 0 -0.46386644800117471 -0.33586508895417932 0 -0.46855294336124231 -0.32873531729210143 0 -0.46207595183026873 -0.31834845619891672 0 -0.47203566342767839 -0.31514771464943409 0 -0.46855294336124231 -0.32873531729210143 0 -0.45653421084860168 -0.32646185290925811 0 -0.46207595183026873 -0.31834845619891672 0 -0.46096111539772322 -0.3069557537098867 0 -0.45229582611609759 -0.31444164243390338 0 -0.46207595183026873 -0.31834845619891672 0 -0.45229582611609759 -0.31444164243390338 0 -0.45653421084860168 -0.32646185290925811 0 -0.46207595183026873 -0.31834845619891672 0 -0.46096111539772322 -0.3069557537098867 0 -0.46207595183026873 -0.31834845619891672 0 -0.47203566342767839 -0.31514771464943409 0 -0.48293754746551898 -0.30617437981156609 0 -0.47203566342767839 -0.31514771464943409 0 -0.47770984076123751 -0.32964979107966252 0 -0.48293754746551898 -0.30617437981156609 0 -0.47770984076123751 -0.32964979107966252 0 -0.48293754746551898 -0.30617437981156609 0 -0.48763303240419292 -0.31981883507337211 0 -0.47770984076123751 -0.32964979107966252 0 -0.46855294336124231 -0.32873531729210143 0 -0.47203566342767839 -0.31514771464943409 0 -0.47770984076123751 -0.32964979107966252 0 -0.5 -0.3115730620380921 0 -0.5 -0.33901078862982997 0 -0.49048543526404831 -0.32960291085151988 0 -0.5 -0.3115730620380921 0 -0.48763303240419292 -0.31981883507337211 0 -0.49048543526404831 -0.32960291085151988 0 -0.5 -0.3115730620380921 0 -0.48293754746551898 -0.30617437981156609 0 -0.48763303240419292 -0.31981883507337211 0 -0.48763303240419292 -0.31981883507337211 0 -0.49048543526404831 -0.32960291085151988 0 -0.47770984076123751 -0.32964979107966252 0 -0.49048543526404831 -0.32960291085151988 0 -0.47770984076123751 -0.32964979107966252 0 -0.48708430315481122 -0.3479620774366432 0 -0.5 -0.33901078862982997 0 -0.49048543526404831 -0.32960291085151988 0 -0.48708430315481122 -0.3479620774366432 0 -0.47770984076123751 -0.32964979107966252 0 -0.47248213405695583 -0.35312520234775913 0 -0.47770984076123751 -0.32964979107966252 0 -0.47248213405695583 -0.35312520234775913 0 -0.48708430315481122 -0.3479620774366432 0 -0.46472493826860672 -0.34236766697450172 0 -0.47770984076123751 -0.32964979107966252 0 -0.47248213405695583 -0.35312520234775913 0 -0.46855294336124231 -0.32873531729210143 0 -0.46386644800117471 -0.33586508895417932 0 -0.47770984076123751 -0.32964979107966252 0 -0.46472493826860672 -0.34236766697450172 0 -0.46386644800117471 -0.33586508895417932 0 -0.47770984076123751 -0.32964979107966252 0 -0.47248213405695583 -0.35312520234775913 0 -0.48708430315481122 -0.3479620774366432 0 -0.48422759779560409 -0.37130120630367158 0 -0.5 -0.33901078862982997 0 -0.48708430315481122 -0.3479620774366432 0 -0.5 -0.36644851522156802 0 -0.48708430315481122 -0.3479620774366432 0 -0.5 -0.36644851522156802 0 -0.48422759779560409 -0.37130120630367158 0 -0.46725442735267431 -0.37660061361585562 0 -0.47248213405695583 -0.35312520234775913 0 -0.48422759779560409 -0.37130120630367158 0 -0.46725442735267431 -0.37660061361585562 0 -0.47248213405695583 -0.35312520234775913 0 -0.46725442735267431 -0.37660061361585562 0 -0.4540003998136638 -0.37455519391687309 0 -0.46226041713245919 -0.36267102145096558 0 -0.46725442735267431 -0.37660061361585562 0 -0.47248213405695583 -0.35312520234775913 0 -0.46226041713245919 -0.36267102145096558 0 -0.4540003998136638 -0.37455519391687309 0 -0.46226041713245919 -0.36267102145096558 0 -0.45167034254705118 -0.36337553476545958 0 -0.47248213405695583 -0.35312520234775913 0 -0.46226041713245919 -0.36267102145096558 0 -0.46130034509645268 -0.35111989715704561 0 -0.46472493826860672 -0.34236766697450172 0 -0.47248213405695583 -0.35312520234775913 0 -0.46130034509645268 -0.35111989715704561 0 -0.46472493826860672 -0.34236766697450172 0 -0.46130034509645268 -0.35111989715704561 0 -0.45711636988675219 -0.34547487934353349 0 -0.46130034509645268 -0.35111989715704561 0 -0.45711636988675219 -0.34547487934353349 0 -0.4507851133594416 -0.34910720111649318 0 -0.46226041713245919 -0.36267102145096558 0 -0.4507851133594416 -0.34910720111649318 0 -0.45167034254705118 -0.36337553476545958 0 -0.46226041713245919 -0.36267102145096558 0 -0.46130034509645268 -0.35111989715704561 0 -0.4507851133594416 -0.34910720111649318 0 -0.46226041713245919 -0.36267102145096558 0 -0.4507851133594416 -0.34910720111649318 0 -0.4507851133594416 -0.34910720111649318 0 -0.44504098357239391 -0.35771747353496869 0 -0.45167034254705118 -0.36337553476545958 0 -0.44966367396753332 -0.33841986907325933 0 -0.45711636988675219 -0.34547487934353349 0 -0.4507851133594416 -0.34910720111649318 0 -0.4507851133594416 -0.34910720111649318 0 -0.44408457896710762 -0.34741130507322732 0 -0.44504098357239391 -0.35771747353496869 0 -0.43930980958642257 -0.33554338078202212 0 -0.4507851133594416 -0.34910720111649318 0 -0.44408457896710762 -0.34741130507322732 0 -0.44408457896710762 -0.34741130507322732 0 -0.43834809566141358 -0.35386966642967582 0 -0.4310745521241639 -0.35060051531725012 0 -0.44408457896710762 -0.34741130507322732 0 -0.43834809566141358 -0.35386966642967582 0 -0.44504098357239391 -0.35771747353496869 0 -0.43834809566141358 -0.35386966642967582 0 -0.44504098357239391 -0.35771747353496869 0 -0.43256408976529492 -0.36260533289695268 0 -0.44504098357239391 -0.35771747353496869 0 -0.44172858264042247 -0.37082207246888088 0 -0.43256408976529492 -0.36260533289695268 0 -0.4540003998136638 -0.37455519391687309 0 -0.44172858264042247 -0.37082207246888088 0 -0.45167034254705118 -0.36337553476545958 0 -0.44504098357239391 -0.35771747353496869 0 -0.44172858264042247 -0.37082207246888088 0 -0.45167034254705118 -0.36337553476545958 0 -0.42311368847744002 -0.37830224279505142 0 -0.44172858264042247 -0.37082207246888088 0 -0.43256408976529492 -0.36260533289695268 0 -0.42311368847744002 -0.37830224279505142 0 -0.43256408976529492 -0.36260533289695268 0 -0.41867380740831611 -0.36398836527224071 0 -0.43256408976529492 -0.36260533289695268 0 -0.42210656065146929 -0.35476551363046099 0 -0.41867380740831611 -0.36398836527224071 0 -0.44408457896710762 -0.34741130507322732 0 -0.4310745521241639 -0.35060051531725012 0 -0.42443636388738298 -0.3390060521705498 0 -0.43834809566141358 -0.35386966642967582 0 -0.43256408976529492 -0.36260533289695268 0 -0.4310745521241639 -0.35060051531725012 0 -0.4310745521241639 -0.35060051531725012 0 -0.42266042161335821 -0.34652378860874011 0 -0.42210656065146929 -0.35476551363046099 0 -0.4310745521241639 -0.35060051531725012 0 -0.42266042161335821 -0.34652378860874011 0 -0.42443636388738298 -0.3390060521705498 0 -0.43256408976529492 -0.36260533289695268 0 -0.4310745521241639 -0.35060051531725012 0 -0.42210656065146929 -0.35476551363046099 0 -0.42210656065146929 -0.35476551363046099 0 -0.41243440171204931 -0.35621682403100541 0 -0.41867380740831611 -0.36398836527224071 0 -0.41243440171204931 -0.35621682403100541 0 -0.40365717239196519 -0.36741535175059892 0 -0.40302160193259851 -0.3439916005776541 0 -0.42210656065146929 -0.35476551363046099 0 -0.41714587076776338 -0.34786779488983011 0 -0.41243440171204931 -0.35621682403100541 0 -0.42266042161335821 -0.34652378860874011 0 -0.42210656065146929 -0.35476551363046099 0 -0.41714587076776338 -0.34786779488983011 0 -0.42266042161335821 -0.34652378860874011 0 -0.41714587076776338 -0.34786779488983011 0 -0.41853876063601031 -0.34037906703560689 0 -0.41714587076776338 -0.34786779488983011 0 -0.41853876063601031 -0.34037906703560689 0 -0.41714587076776338 -0.34786779488983011 0 -0.41243440171204931 -0.35621682403100541 0 -0.40302160193259851 -0.3439916005776541 0 -0.41714587076776338 -0.34786779488983011 0 -0.40302160193259851 -0.3439916005776541 0 -0.41853876063601031 -0.34037906703560689 0 -0.42311368847744002 -0.37830224279505142 0 -0.41867380740831611 -0.36398836527224071 0 -0.40365717239196519 -0.36741535175059892 0 -0.42311368847744002 -0.37830224279505142 0 -0.40365717239196519 -0.36741535175059892 0 -0.41243440171204931 -0.35621682403100541 0 -0.41867380740831611 -0.36398836527224071 0 -0.40365717239196519 -0.36741535175059892 0 -0.40403491357358612 -0.38133688525744702 0 -0.40365717239196519 -0.36741535175059892 0 -0.40403491357358612 -0.38133688525744702 0 -0.40365717239196519 -0.36741535175059892 0 -0.3904578797192948 -0.37473938743617019 0 -0.40365717239196519 -0.36741535175059892 0 -0.38979507995825918 -0.35965881973269581 0 -0.40365717239196519 -0.36741535175059892 0 -0.3904578797192948 -0.37473938743617019 0 -0.38979507995825918 -0.35965881973269581 0 -0.3904578797192948 -0.37473938743617019 0 -0.38979507995825918 -0.35965881973269581 0 -0.37568304780698558 -0.36916333065311507 0 -0.37568304780698558 -0.36916333065311507 0 -0.37593298752455201 -0.35190228771479481 0 -0.38979507995825918 -0.35965881973269581 0 -0.37568304780698558 -0.36916333065311507 0 -0.37593298752455201 -0.35190228771479481 0 -0.38979507995825918 -0.35965881973269581 0 -0.37595629511297179 -0.35029264644438168 0 -0.40302160193259851 -0.3439916005776541 0 -0.37595629511297179 -0.35029264644438168 0 -0.40302160193259851 -0.3439916005776541 0 -0.38842354837557669 -0.33756560667471242 0 -0.37595629511297179 -0.35029264644438168 0 -0.40302160193259851 -0.3439916005776541 0 -0.37595629511297179 -0.35029264644438168 0 -0.37607676276689278 -0.3419730509543204 0 -0.37390838074359528 -0.35076941925389299 0 -0.37595629511297179 -0.35029264644438168 0 -0.37607676276689278 -0.3419730509543204 0 -0.37595629511297179 -0.35029264644438168 0 -0.37593298752455201 -0.35190228771479481 0 -0.37390838074359528 -0.35076941925389299 0 -0.37595629511297179 -0.35029264644438168 0 -0.37593298752455201 -0.35190228771479481 0 -0.38979507995825918 -0.35965881973269581 0 -0.37595629511297179 -0.35029264644438168 0 -0.37593298752455201 -0.35190228771479481 0 -0.38979507995825918 -0.35965881973269581 0 -0.37593298752455201 -0.35190228771479481 0 -0.40365717239196519 -0.36741535175059892 0 -0.40302160193259851 -0.3439916005776541 0 -0.40365717239196519 -0.36741535175059892 0 -0.38979507995825918 -0.35965881973269581 0 -0.40302160193259851 -0.3439916005776541 0 -0.40302160193259851 -0.3439916005776541 0 -0.40263324863316441 -0.32967896077653092 0 -0.40263324863316441 -0.32967896077653092 0 -0.38842354837557669 -0.33756560667471242 0 -0.38442983343225828 -0.32189177462067481 0 -0.40302160193259851 -0.3439916005776541 0 -0.40263324863316441 -0.32967896077653092 0 -0.38842354837557669 -0.33756560667471242 0 -0.37607676276689278 -0.3419730509543204 0 -0.37641717267996733 -0.3184640617331177 0 -0.38842354837557669 -0.33756560667471242 0 -0.37607676276689278 -0.3419730509543204 0 -0.38442983343225828 -0.32189177462067481 0 -0.37607676276689278 -0.3419730509543204 0 -0.38442983343225828 -0.32189177462067481 0 -0.37595629511297179 -0.35029264644438168 0 -0.38842354837557669 -0.33756560667471242 0 -0.37607676276689278 -0.3419730509543204 0 -0.37607676276689278 -0.3419730509543204 0 -0.37641717267996733 -0.3184640617331177 0 -0.38442983343225828 -0.32189177462067481 0 -0.37641717267996733 -0.3184640617331177 0 -0.38442983343225828 -0.32189177462067481 0 -0.3841914044669909 -0.30132118344037401 0 -0.37641717267996733 -0.3184640617331177 0 -0.38442983343225828 -0.32189177462067481 0 -0.40263324863316441 -0.32967896077653092 0 -0.38442983343225828 -0.32189177462067481 0 -0.40185461233875269 -0.30098256284660307 0 -0.40263324863316441 -0.32967896077653092 0 -0.38442983343225828 -0.32189177462067481 0 -0.40263324863316441 -0.32967896077653092 0 -0.40185461233875269 -0.30098256284660307 0 -0.40263324863316441 -0.32967896077653092 0 -0.41242695344044827 -0.31820451366256841 0 -0.40185461233875269 -0.30098256284660307 0 -0.41242695344044827 -0.31820451366256841 0 -0.41920998916455232 -0.33677027649670849 0 -0.42301959421646518 -0.31628833020920039 0 -0.41920998916455232 -0.33677027649670849 0 -0.42301959421646518 -0.31628833020920039 0 -0.41242695344044827 -0.31820451366256841 0 -0.42301959421646518 -0.31628833020920039 0 -0.41541732284930832 -0.30730243798379953 0 -0.40302160193259851 -0.3439916005776541 0 -0.41920998916455232 -0.33677027649670849 0 -0.41853876063601031 -0.34037906703560689 0 -0.40302160193259851 -0.3439916005776541 0 -0.40263324863316441 -0.32967896077653092 0 -0.41920998916455232 -0.33677027649670849 0 -0.40263324863316441 -0.32967896077653092 0 -0.41920998916455232 -0.33677027649670849 0 -0.40263324863316441 -0.32967896077653092 0 -0.41242695344044827 -0.31820451366256841 0 -0.41920998916455232 -0.33677027649670849 0 -0.40302160193259851 -0.3439916005776541 0 -0.41853876063601031 -0.34037906703560689 0 -0.41853876063601031 -0.34037906703560689 0 -0.42443636388738298 -0.3390060521705498 0 -0.41920998916455232 -0.33677027649670849 0 -0.42443636388738298 -0.3390060521705498 0 -0.41920998916455232 -0.33677027649670849 0 -0.41853876063601031 -0.34037906703560689 0 -0.42443636388738298 -0.3390060521705498 0 -0.41920998916455232 -0.33677027649670849 0 -0.41853876063601031 -0.34037906703560689 0 -0.43930980958642257 -0.33554338078202212 0 -0.44408457896710762 -0.34741130507322732 0 -0.42443636388738298 -0.3390060521705498 0 -0.43930980958642257 -0.33554338078202212 0 -0.42443636388738298 -0.3390060521705498 0 -0.42301959421646518 -0.31628833020920039 0 -0.41920998916455232 -0.33677027649670849 0 -0.42443636388738298 -0.3390060521705498 0 -0.42301959421646518 -0.31628833020920039 0 -0.44408457896710762 -0.34741130507322732 0 -0.42443636388738298 -0.3390060521705498 0 -0.42266042161335821 -0.34652378860874011 0 -0.41853876063601031 -0.34037906703560689 0 -0.42443636388738298 -0.3390060521705498 0 -0.43930980958642257 -0.33554338078202212 0 -0.42443636388738298 -0.3390060521705498 0 -0.43930980958642257 -0.33554338078202212 0 -0.42301959421646518 -0.31628833020920039 0 -0.44024276041750632 -0.31887045497680111 0 -0.42395130998641067 -0.31127905704434472 0 -0.44024276041750632 -0.31887045497680111 0 -0.43930980958642257 -0.33554338078202212 0 -0.42301959421646518 -0.31628833020920039 0 -0.44024276041750632 -0.31887045497680111 0 -0.42301959421646518 -0.31628833020920039 0 -0.42395130998641067 -0.31127905704434472 0 -0.42301959421646518 -0.31628833020920039 0 -0.42395130998641067 -0.31127905704434472 0 -0.42395130998641067 -0.31127905704434472 0 -0.42709180872781188 -0.29439449141065738 0 -0.44024276041750632 -0.31887045497680111 0 -0.42395130998641067 -0.31127905704434472 0 -0.43527018611072049 -0.30465000121327751 0 -0.42395130998641067 -0.31127905704434472 0 -0.42709180872781188 -0.29439449141065738 0 -0.41541732284930832 -0.30730243798379953 0 -0.42395130998641067 -0.31127905704434472 0 -0.43527018611072049 -0.30465000121327751 0 -0.42709180872781188 -0.29439449141065738 0 -0.441361257405879 -0.29303276451920029 0 -0.43527018611072049 -0.30465000121327751 0 -0.42709180872781188 -0.29439449141065738 0 -0.42709180872781188 -0.29439449141065738 0 -0.43077531442077321 -0.27459050524281542 0 -0.42709180872781188 -0.29439449141065738 0 -0.41684225135067149 -0.28376244362903152 0 -0.43077531442077321 -0.27459050524281542 0 -0.441361257405879 -0.29303276451920029 0 -0.42709180872781188 -0.29439449141065738 0 -0.441361257405879 -0.29303276451920029 0 -0.42709180872781188 -0.29439449141065738 0 -0.43077531442077321 -0.27459050524281542 0 -0.42709180872781188 -0.29439449141065738 0 -0.41684225135067149 -0.28376244362903152 0 -0.40618483967714292 -0.29638963380315841 0 -0.42709180872781188 -0.29439449141065738 0 -0.40618483967714292 -0.29638963380315841 0 -0.41684225135067149 -0.28376244362903152 0 -0.40690107601488551 -0.28490397733270861 0 -0.40618483967714292 -0.29638963380315841 0 -0.41541732284930832 -0.30730243798379953 0 -0.40185461233875269 -0.30098256284660307 0 -0.40618483967714292 -0.29638963380315841 0 -0.42709180872781188 -0.29439449141065738 0 -0.41541732284930832 -0.30730243798379953 0 -0.40618483967714292 -0.29638963380315841 0 -0.41541732284930832 -0.30730243798379953 0 -0.40618483967714292 -0.29638963380315841 0 -0.41242695344044827 -0.31820451366256841 0 -0.41541732284930832 -0.30730243798379953 0 -0.40185461233875269 -0.30098256284660307 0 -0.41541732284930832 -0.30730243798379953 0 -0.40185461233875269 -0.30098256284660307 0 -0.42301959421646518 -0.31628833020920039 0 -0.41541732284930832 -0.30730243798379953 0 -0.42395130998641067 -0.31127905704434472 0 -0.41541732284930832 -0.30730243798379953 0 -0.42301959421646518 -0.31628833020920039 0 -0.42395130998641067 -0.31127905704434472 0 -0.41541732284930832 -0.30730243798379953 0 -0.38442983343225828 -0.32189177462067481 0 -0.40185461233875269 -0.30098256284660307 0 -0.39448508010510541 -0.297525044214214 0 -0.40185461233875269 -0.30098256284660307 0 -0.40174149504185092 -0.29681366012781812 0 -0.40618483967714292 -0.29638963380315841 0 -0.40185461233875269 -0.30098256284660307 0 -0.40174149504185092 -0.29681366012781812 0 -0.40185461233875269 -0.30098256284660307 0 -0.39448508010510541 -0.297525044214214 0 -0.40174149504185092 -0.29681366012781812 0 -0.40185461233875269 -0.30098256284660307 0 -0.39448508010510541 -0.297525044214214 0 -0.39448508010510541 -0.297525044214214 0 -0.40174149504185092 -0.29681366012781812 0 -0.37641717267996733 -0.3184640617331177 0 -0.37669606201677502 -0.29920373422444158 0 -0.38442983343225828 -0.32189177462067481 0 -0.39448508010510541 -0.297525044214214 0 -0.38442983343225828 -0.32189177462067481 0 -0.39448508010510541 -0.297525044214214 0 -0.3841914044669909 -0.30132118344037401 0 -0.37641717267996733 -0.3184640617331177 0 -0.3841914044669909 -0.30132118344037401 0 -0.37669606201677502 -0.29920373422444158 0 -0.39448508010510541 -0.297525044214214 0 -0.3841914044669909 -0.30132118344037401 0 -0.37928718982873688 -0.29895646409505849 0 -0.39448508010510541 -0.297525044214214 0 -0.37928718982873688 -0.29895646409505849 0 -0.3841914044669909 -0.30132118344037401 0 -0.37928718982873688 -0.29895646409505849 0 -0.3841914044669909 -0.30132118344037401 0 -0.37928718982873688 -0.29895646409505849 0 -0.37669606201677502 -0.29920373422444158 0 -0.37928718982873688 -0.29895646409505849 0 -0.37669606201677502 -0.29920373422444158 0 -0.37671758341694961 -0.29771744858697219 0 -0.37928718982873688 -0.29895646409505849 0 -0.37671758341694961 -0.29771744858697219 0 -0.37928718982873688 -0.29895646409505849 0 -0.37669606201677502 -0.29920373422444158 0 -0.37669606201677502 -0.29920373422444158 0 -0.37671758341694961 -0.29771744858697219 0 -0.37671758341694961 -0.29771744858697219 0 -0.38607699004493318 -0.28757386461908069 0 -0.38483052758877101 -0.28123782127595193 0 -0.37671758341694961 -0.29771744858697219 0 -0.3770412393053626 -0.27536550612006683 0 -0.37671758341694961 -0.29771744858697219 0 -0.38483052758877101 -0.28123782127595193 0 -0.3770412393053626 -0.27536550612006683 0 -0.37928718982873688 -0.29895646409505849 0 -0.37671758341694961 -0.29771744858697219 0 -0.38467000758835601 -0.29297497791584359 0 -0.37671758341694961 -0.29771744858697219 0 -0.38467000758835601 -0.29297497791584359 0 -0.38607699004493318 -0.28757386461908069 0 -0.39448508010510541 -0.297525044214214 0 -0.37928718982873688 -0.29895646409505849 0 -0.38467000758835601 -0.29297497791584359 0 -0.39448508010510541 -0.297525044214214 0 -0.38467000758835601 -0.29297497791584359 0 -0.39448508010510541 -0.297525044214214 0 -0.38467000758835601 -0.29297497791584359 0 -0.39217701296355612 -0.28987936211692023 0 -0.38467000758835601 -0.29297497791584359 0 -0.38607699004493318 -0.28757386461908069 0 -0.39217701296355612 -0.28987936211692023 0 -0.38607699004493318 -0.28757386461908069 0 -0.39049541959166939 -0.28414526237041138 0 -0.39217701296355612 -0.28987936211692023 0 -0.39049541959166939 -0.28414526237041138 0 -0.39420405367365152 -0.27853706101481662 0 -0.38483052758877101 -0.28123782127595193 0 -0.38607699004493318 -0.28757386461908069 0 -0.39049541959166939 -0.28414526237041138 0 -0.38483052758877101 -0.28123782127595193 0 -0.39597078832761667 -0.28551153658085893 0 -0.40174149504185092 -0.29681366012781812 0 -0.40123596036735593 -0.27818233727432817 0 -0.39049541959166939 -0.28414526237041138 0 -0.39597078832761667 -0.28551153658085893 0 -0.39420405367365152 -0.27853706101481662 0 -0.40174149504185092 -0.29681366012781812 0 -0.40123596036735593 -0.27818233727432817 0 -0.40174149504185092 -0.29681366012781812 0 -0.40322207619149192 -0.29288764445213411 0 -0.40123596036735593 -0.27818233727432817 0 -0.39049541959166939 -0.28414526237041138 0 -0.39597078832761667 -0.28551153658085893 0 -0.39217701296355612 -0.28987936211692023 0 -0.39597078832761667 -0.28551153658085893 0 -0.39217701296355612 -0.28987936211692023 0 -0.40174149504185092 -0.29681366012781812 0 -0.39448508010510541 -0.297525044214214 0 -0.39217701296355612 -0.28987936211692023 0 -0.40174149504185092 -0.29681366012781812 0 -0.40690107601488551 -0.28490397733270861 0 -0.40322207619149192 -0.29288764445213411 0 -0.40618483967714292 -0.29638963380315841 0 -0.40174149504185092 -0.29681366012781812 0 -0.40322207619149192 -0.29288764445213411 0 -0.40618483967714292 -0.29638963380315841 0 -0.40174149504185092 -0.29681366012781812 0 -0.40618483967714292 -0.29638963380315841 0 -0.40322207619149192 -0.29288764445213411 0 -0.40618483967714292 -0.29638963380315841 0 -0.40690107601488551 -0.28490397733270861 0 -0.40322207619149192 -0.29288764445213411 0 -0.40123596036735593 -0.27818233727432817 0 -0.39420405367365152 -0.27853706101481662 0 -0.37710287173325818 -0.2711091198417086 0 -0.40073042569286338 -0.25955101442083811 0 -0.40123596036735593 -0.27818233727432817 0 -0.39420405367365152 -0.27853706101481662 0 -0.40073042569286338 -0.25955101442083811 0 -0.40123596036735593 -0.27818233727432817 0 -0.40073042569286338 -0.25955101442083811 0 -0.40123596036735593 -0.27818233727432817 0 -0.40073042569286338 -0.25955101442083811 0 -0.41341650638623911 -0.27076301679274262 0 -0.39597078832761667 -0.28551153658085893 0 -0.40123596036735593 -0.27818233727432817 0 -0.39420405367365152 -0.27853706101481662 0 -0.39420405367365152 -0.27853706101481662 0 -0.37710287173325818 -0.2711091198417086 0 -0.3770412393053626 -0.27536550612006683 0 -0.39420405367365152 -0.27853706101481662 0 -0.3770412393053626 -0.27536550612006683 0 -0.39420405367365152 -0.27853706101481662 0 -0.38483052758877101 -0.28123782127595193 0 -0.3770412393053626 -0.27536550612006683 0 -0.37710287173325818 -0.2711091198417086 0 -0.3770412393053626 -0.27536550612006683 0 -0.37710287173325818 -0.2711091198417086 0 -0.38543722149146659 -0.25821727905458303 0 -0.40073042569286338 -0.25955101442083811 0 -0.37710287173325818 -0.2711091198417086 0 -0.37747963509906429 -0.24508953120583671 0 -0.37710287173325818 -0.2711091198417086 0 -0.40073042569286338 -0.25955101442083811 0 -0.37710287173325818 -0.2711091198417086 0 -0.38543722149146659 -0.25821727905458303 0 -0.37747963509906429 -0.24508953120583671 0 -0.38543722149146659 -0.25821727905458303 0 -0.3938256931015453 -0.25037754026629511 0 -0.37747963509906429 -0.24508953120583671 0 -0.38543722149146659 -0.25821727905458303 0 -0.3938256931015453 -0.25037754026629511 0 -0.40073042569286338 -0.25955101442083811 0 -0.40073042569286338 -0.25955101442083811 0 -0.40282532782868952 -0.25224285689579767 0 -0.40022281387448849 -0.24084313907701979 0 -0.40073042569286338 -0.25955101442083811 0 -0.40022281387448849 -0.24084313907701979 0 -0.3938256931015453 -0.25037754026629511 0 -0.40073042569286338 -0.25955101442083811 0 -0.40022281387448849 -0.24084313907701979 0 -0.40073042569286338 -0.25955101442083811 0 -0.40282532782868952 -0.25224285689579767 0 -0.41385673751816382 -0.25312989710486528 0 -0.40073042569286338 -0.25955101442083811 0 -0.41385673751816382 -0.25312989710486528 0 -0.40073042569286338 -0.25955101442083811 0 -0.41385673751816382 -0.25312989710486528 0 -0.41341650638623911 -0.27076301679274262 0 -0.41385673751816382 -0.25312989710486528 0 -0.41341650638623911 -0.27076301679274262 0 -0.42312684460972783 -0.26331748455384929 0 -0.41385673751816382 -0.25312989710486528 0 -0.41679144862722167 -0.25169429778568547 0 -0.43445882011373449 -0.25478651907497341 0 -0.40282532782868952 -0.25224285689579767 0 -0.41385673751816382 -0.25312989710486528 0 -0.4086566941719203 -0.24778871483445111 0 -0.40282532782868952 -0.25224285689579767 0 -0.41385673751816382 -0.25312989710486528 0 -0.41385673751816382 -0.25312989710486528 0 -0.41679144862722167 -0.25169429778568547 0 -0.41627810448972868 -0.24641300060905449 0 -0.41385673751816382 -0.25312989710486528 0 -0.41679144862722167 -0.25169429778568547 0 -0.41684225135067149 -0.28376244362903152 0 -0.41341650638623911 -0.27076301679274262 0 -0.43077531442077321 -0.27459050524281542 0 -0.40690107601488551 -0.28490397733270861 0 -0.40123596036735593 -0.27818233727432817 0 -0.41341650638623911 -0.27076301679274262 0 -0.41684225135067149 -0.28376244362903152 0 -0.40690107601488551 -0.28490397733270861 0 -0.41341650638623911 -0.27076301679274262 0 -0.41341650638623911 -0.27076301679274262 0 -0.43077531442077321 -0.27459050524281542 0 -0.42312684460972783 -0.26331748455384929 0 -0.43077531442077321 -0.27459050524281542 0 -0.42312684460972783 -0.26331748455384929 0 -0.43445882011373449 -0.25478651907497341 0 -0.41385673751816382 -0.25312989710486528 0 -0.43445882011373449 -0.25478651907497341 0 -0.43077531442077321 -0.27459050524281542 0 -0.43445882011373449 -0.25478651907497341 0 -0.41385673751816382 -0.25312989710486528 0 -0.42312684460972783 -0.26331748455384929 0 -0.43445882011373449 -0.25478651907497341 0 -0.41679144862722167 -0.25169429778568547 0 -0.43445882011373449 -0.25478651907497341 0 -0.42335340856967768 -0.24893549408922019 0 -0.32580796388430833 -0.26195871891040218 0 -0.34139866608006603 -0.2687790352098644 0 -0.31202674084989918 -0.26335133138269068 0 -0.32580796388430833 -0.26195871891040218 0 -0.33345250408021371 -0.25331871279766999 0 -0.32023222063025569 -0.2489608815952247 0 -0.32580796388430833 -0.26195871891040218 0 -0.31664960680882542 -0.25714232151458272 0 -0.32023222063025569 -0.2489608815952247 0 -0.31664960680882542 -0.25714232151458272 0 -0.30853150187083839 -0.25429835417001312 0 -0.32023222063025569 -0.2489608815952247 0 -0.32580796388430833 -0.26195871891040218 0 -0.31664960680882542 -0.25714232151458272 0 -0.31202674084989918 -0.26335133138269068 0 -0.33223611708196649 -0.27626932861073827 0 -0.31972670239926188 -0.28454160199560091 0 -0.31187737399160442 -0.27618124236115132 0 -0.34139866608006603 -0.2687790352098644 0 -0.31202674084989918 -0.26335133138269068 0 -0.33223611708196649 -0.27626932861073827 0 -0.31202674084989918 -0.26335133138269068 0 -0.3062135479255173 -0.26372173898871692 0 -0.33223611708196649 -0.27626932861073827 0 -0.31187737399160442 -0.27618124236115132 0 -0.3062135479255173 -0.26372173898871692 0 -0.33260241140844943 -0.2743168067351805 0 -0.33223611708196649 -0.27626932861073827 0 -0.31202674084989918 -0.26335133138269068 0 -0.33223611708196649 -0.27626932861073827 0 -0.3062135479255173 -0.26372173898871692 0 -0.33260241140844943 -0.2743168067351805 0 -0.34139866608006603 -0.2687790352098644 0 -0.31202674084989918 -0.26335133138269068 0 -0.33223611708196649 -0.27626932861073827 0 -0.34139866608006603 -0.2687790352098644 0 -0.34951875912658742 -0.28460269103381453 0 -0.33223611708196649 -0.27626932861073827 0 -0.34951875912658742 -0.28460269103381453 0 -0.33260241140844943 -0.2743168067351805 0 -0.33223611708196649 -0.27626932861073827 0 -0.34139866608006603 -0.2687790352098644 0 -0.33260241140844943 -0.2743168067351805 0 -0.33223611708196649 -0.27626932861073827 0 -0.34139866608006603 -0.2687790352098644 0 -0.3363084638556994 -0.26041051377605268 0 -0.34457472137820933 -0.25758558818627408 0 -0.32580796388430833 -0.26195871891040218 0 -0.34139866608006603 -0.2687790352098644 0 -0.3363084638556994 -0.26041051377605268 0 -0.32580796388430833 -0.26195871891040218 0 -0.3363084638556994 -0.26041051377605268 0 -0.33345250408021371 -0.25331871279766999 0 -0.3363084638556994 -0.26041051377605268 0 -0.33345250408021371 -0.25331871279766999 0 -0.34457472137820933 -0.25758558818627408 0 -0.33345250408021371 -0.25331871279766999 0 -0.34457472137820933 -0.25758558818627408 0 -0.34395992200845399 -0.24382677409400949 0 -0.34139866608006603 -0.2687790352098644 0 -0.34457472137820933 -0.25758558818627408 0 -0.35733732661955131 -0.26288598862094092 0 -0.34457472137820933 -0.25758558818627408 0 -0.35872453044413888 -0.25078889886649508 0 -0.34395992200845399 -0.24382677409400949 0 -0.34457472137820933 -0.25758558818627408 0 -0.35733732661955131 -0.26288598862094092 0 -0.35872453044413888 -0.25078889886649508 0 -0.37710287173325818 -0.2711091198417086 0 -0.36828299104124951 -0.26081605551440462 0 -0.37747963509906429 -0.24508953120583671 0 -0.35872453044413888 -0.25078889886649508 0 -0.36828299104124951 -0.26081605551440462 0 -0.37747963509906429 -0.24508953120583671 0 -0.35733732661955131 -0.26288598862094092 0 -0.35872453044413888 -0.25078889886649508 0 -0.36828299104124951 -0.26081605551440462 0 -0.37077059131023282 -0.27420673903703829 0 -0.34951875912658742 -0.28460269103381453 0 -0.37710287173325818 -0.2711091198417086 0 -0.3770412393053626 -0.27536550612006683 0 -0.37077059131023282 -0.27420673903703829 0 -0.3770412393053626 -0.27536550612006683 0 -0.37077059131023282 -0.27420673903703829 0 -0.37710287173325818 -0.2711091198417086 0 -0.36828299104124951 -0.26081605551440462 0 -0.37077059131023282 -0.27420673903703829 0 -0.37710287173325818 -0.2711091198417086 0 -0.37077059131023282 -0.27420673903703829 0 -0.35733732661955131 -0.26288598862094092 0 -0.36828299104124951 -0.26081605551440462 0 -0.37077059131023282 -0.27420673903703829 0 -0.34139866608006603 -0.2687790352098644 0 -0.35733732661955131 -0.26288598862094092 0 -0.37077059131023282 -0.27420673903703829 0 -0.34139866608006603 -0.2687790352098644 0 -0.37077059131023282 -0.27420673903703829 0 -0.34951875912658742 -0.28460269103381453 0 -0.34139866608006603 -0.2687790352098644 0 -0.37077059131023282 -0.27420673903703829 0 -0.34951875912658742 -0.28460269103381453 0 -0.3581763596052473 -0.30097106086504849 0 -0.34010739644885768 -0.2892065328944351 0 -0.34951875912658742 -0.28460269103381453 0 -0.34010739644885768 -0.2892065328944351 0 -0.37671758341694961 -0.29771744858697219 0 -0.37077059131023282 -0.27420673903703829 0 -0.34951875912658742 -0.28460269103381453 0 -0.37671758341694961 -0.29771744858697219 0 -0.34951875912658742 -0.28460269103381453 0 -0.37671758341694961 -0.29771744858697219 0 -0.3770412393053626 -0.27536550612006683 0 -0.37077059131023282 -0.27420673903703829 0 -0.37671758341694961 -0.29771744858697219 0 -0.34951875912658742 -0.28460269103381453 0 -0.3581763596052473 -0.30097106086504849 0 -0.37669606201677502 -0.29920373422444158 0 -0.37671758341694961 -0.29771744858697219 0 -0.3581763596052473 -0.30097106086504849 0 -0.37641717267996733 -0.3184640617331177 0 -0.37669606201677502 -0.29920373422444158 0 -0.36799370156123501 -0.30592930732763762 0 -0.37641717267996733 -0.3184640617331177 0 -0.36799370156123501 -0.30592930732763762 0 -0.35803691493684492 -0.31060122461938489 0 -0.37669606201677502 -0.29920373422444158 0 -0.36799370156123501 -0.30592930732763762 0 -0.3581763596052473 -0.30097106086504849 0 -0.37669606201677502 -0.29920373422444158 0 -0.3581763596052473 -0.30097106086504849 0 -0.36799370156123501 -0.30592930732763762 0 -0.35803691493684492 -0.31060122461938489 0 -0.3581763596052473 -0.30097106086504849 0 -0.35803691493684492 -0.31060122461938489 0 -0.33965665719371979 -0.30273838750565862 0 -0.35803691493684492 -0.31060122461938489 0 -0.33965665719371979 -0.30273838750565862 0 -0.34514704515453298 -0.31300544250539297 0 -0.3581763596052473 -0.30097106086504849 0 -0.33965665719371979 -0.30273838750565862 0 -0.34010739644885768 -0.2892065328944351 0 -0.35803691493684492 -0.31060122461938489 0 -0.3581763596052473 -0.30097106086504849 0 -0.33965665719371979 -0.30273838750565862 0 -0.3581763596052473 -0.30097106086504849 0 -0.33965665719371979 -0.30273838750565862 0 -0.33676996251121621 -0.31158184422573892 0 -0.33965665719371979 -0.30273838750565862 0 -0.34514704515453298 -0.31300544250539297 0 -0.33676996251121621 -0.31158184422573892 0 -0.33965665719371979 -0.30273838750565862 0 -0.32704471803945162 -0.30394193902942662 0 -0.33676996251121621 -0.31158184422573892 0 -0.32594772137393307 -0.30978944971135602 0 -0.32704471803945162 -0.30394193902942662 0 -0.33965665719371979 -0.30273838750565862 0 -0.32704471803945162 -0.30394193902942662 0 -0.32819068517220462 -0.29783339261299951 0 -0.33965665719371979 -0.30273838750565862 0 -0.32704471803945162 -0.30394193902942662 0 -0.32819068517220462 -0.29783339261299951 0 -0.33965665719371979 -0.30273838750565862 0 -0.33223611708196649 -0.27626932861073827 0 -0.32819068517220462 -0.29783339261299951 0 -0.33223611708196649 -0.27626932861073827 0 -0.32819068517220462 -0.29783339261299951 0 -0.34010739644885768 -0.2892065328944351 0 -0.33223611708196649 -0.27626932861073827 0 -0.34951875912658742 -0.28460269103381453 0 -0.34010739644885768 -0.2892065328944351 0 -0.32819068517220462 -0.29783339261299951 0 -0.33965665719371979 -0.30273838750565862 0 -0.34010739644885768 -0.2892065328944351 0 -0.32819068517220462 -0.29783339261299951 0 -0.31972670239926188 -0.28454160199560091 0 -0.31332574866090718 -0.291474364566292 0 -0.32819068517220462 -0.29783339261299951 0 -0.31332574866090718 -0.291474364566292 0 -0.33223611708196649 -0.27626932861073827 0 -0.32819068517220462 -0.29783339261299951 0 -0.31972670239926188 -0.28454160199560091 0 -0.31972670239926188 -0.28454160199560091 0 -0.31332574866090718 -0.291474364566292 0 -0.30937392239009109 -0.28339120160471948 0 -0.31972670239926188 -0.28454160199560091 0 -0.30937392239009109 -0.28339120160471948 0 -0.31187737399160442 -0.27618124236115132 0 -0.31992409361072222 -0.30462145692723192 0 -0.32594772137393307 -0.30978944971135602 0 -0.31307430431717392 -0.31869978567557272 0 -0.31992409361072222 -0.30462145692723192 0 -0.32594772137393307 -0.30978944971135602 0 -0.32594772137393307 -0.30978944971135602 0 -0.32704471803945162 -0.30394193902942662 0 -0.31992409361072222 -0.30462145692723192 0 -0.32594772137393307 -0.30978944971135602 0 -0.32704471803945162 -0.30394193902942662 0 -0.32819068517220462 -0.29783339261299951 0 -0.31332574866090718 -0.291474364566292 0 -0.31992409361072222 -0.30462145692723192 0 -0.32819068517220462 -0.29783339261299951 0 -0.32704471803945162 -0.30394193902942662 0 -0.32819068517220462 -0.29783339261299951 0 -0.31992409361072222 -0.30462145692723192 0 -0.32704471803945162 -0.30394193902942662 0 -0.31992409361072222 -0.30462145692723192 0 -0.32704471803945162 -0.30394193902942662 0 -0.32594772137393307 -0.30978944971135602 0 -0.31307430431717392 -0.31869978567557272 0 -0.32184288384298337 -0.33167017375041419 0 -0.32594772137393307 -0.30978944971135602 0 -0.32184288384298337 -0.33167017375041419 0 -0.32184288384298337 -0.33167017375041419 0 -0.31773804631203251 -0.35355089778947202 0 -0.32184288384298337 -0.33167017375041419 0 -0.34475024534571441 -0.34586667392980902 0 -0.31773804631203251 -0.35355089778947202 0 -0.32184288384298337 -0.33167017375041419 0 -0.34612464597635118 -0.32710031367078812 0 -0.34475024534571441 -0.34586667392980902 0 -0.33676996251121621 -0.31158184422573892 0 -0.32594772137393307 -0.30978944971135602 0 -0.34612464597635118 -0.32710031367078812 0 -0.32594772137393307 -0.30978944971135602 0 -0.34612464597635118 -0.32710031367078812 0 -0.32594772137393307 -0.30978944971135602 0 -0.32184288384298337 -0.33167017375041419 0 -0.34612464597635118 -0.32710031367078812 0 -0.33676996251121621 -0.31158184422573892 0 -0.34514704515453298 -0.31300544250539297 0 -0.34612464597635118 -0.32710031367078812 0 -0.35803691493684492 -0.31060122461938489 0 -0.34514704515453298 -0.31300544250539297 0 -0.34612464597635118 -0.32710031367078812 0 -0.35803691493684492 -0.31060122461938489 0 -0.34612464597635118 -0.32710031367078812 0 -0.35600230731325749 -0.33324145173106873 0 -0.37641717267996733 -0.3184640617331177 0 -0.35803691493684492 -0.31060122461938489 0 -0.37641717267996733 -0.3184640617331177 0 -0.35803691493684492 -0.31060122461938489 0 -0.36719759625642318 -0.33008752154143739 0 -0.35803691493684492 -0.31060122461938489 0 -0.36719759625642318 -0.33008752154143739 0 -0.35600230731325749 -0.33324145173106873 0 -0.37607676276689278 -0.3419730509543204 0 -0.37641717267996733 -0.3184640617331177 0 -0.36719759625642318 -0.33008752154143739 0 -0.37607676276689278 -0.3419730509543204 0 -0.3688763256213185 -0.34309961767568647 0 -0.36719759625642318 -0.33008752154143739 0 -0.36719759625642318 -0.33008752154143739 0 -0.36118874601324108 -0.3436521492952741 0 -0.35600230731325749 -0.33324145173106873 0 -0.3688763256213185 -0.34309961767568647 0 -0.36719759625642318 -0.33008752154143739 0 -0.36118874601324108 -0.3436521492952741 0 -0.34612464597635118 -0.32710031367078812 0 -0.35600230731325749 -0.33324145173106873 0 -0.34475024534571441 -0.34586667392980902 0 -0.36118874601324108 -0.3436521492952741 0 -0.35600230731325749 -0.33324145173106873 0 -0.34475024534571441 -0.34586667392980902 0 -0.36118874601324108 -0.3436521492952741 0 -0.34475024534571441 -0.34586667392980902 0 -0.35925477447714671 -0.35134479444962452 0 -0.34475024534571441 -0.34586667392980902 0 -0.35480891830463612 -0.3592101017575729 0 -0.33937201587241012 -0.36587749477948078 0 -0.34475024534571441 -0.34586667392980902 0 -0.35480891830463612 -0.3592101017575729 0 -0.35925477447714671 -0.35134479444962452 0 -0.36118874601324108 -0.3436521492952741 0 -0.37225797237559449 -0.35115364910559932 0 -0.36118874601324108 -0.3436521492952741 0 -0.35925477447714671 -0.35134479444962452 0 -0.36985982957495511 -0.35171195823109852 0 -0.37568304780698558 -0.36916333065311507 0 -0.37593298752455201 -0.35190228771479481 0 -0.37225797237559449 -0.35115364910559932 0 -0.35480891830463612 -0.3592101017575729 0 -0.35925477447714671 -0.35134479444962452 0 -0.36985982957495511 -0.35171195823109852 0 -0.37607676276689278 -0.3419730509543204 0 -0.3688763256213185 -0.34309961767568647 0 -0.37225797237559449 -0.35115364910559932 0 -0.37607676276689278 -0.3419730509543204 0 -0.37225797237559449 -0.35115364910559932 0 -0.37607676276689278 -0.3419730509543204 0 -0.37390838074359528 -0.35076941925389299 0 -0.37225797237559449 -0.35115364910559932 0 -0.37593298752455201 -0.35190228771479481 0 -0.37390838074359528 -0.35076941925389299 0 -0.37225797237559449 -0.35115364910559932 0 -0.3688763256213185 -0.34309961767568647 0 -0.36118874601324108 -0.3436521492952741 0 -0.37225797237559449 -0.35115364910559932 0 -0.37593298752455201 -0.35190228771479481 0 -0.37390838074359528 -0.35076941925389299 0 -0.36118874601324108 -0.3436521492952741 0 -0.36985982957495511 -0.35171195823109852 0 -0.37225797237559449 -0.35115364910559932 0 -0.37595629511297179 -0.35029264644438168 0 -0.37390838074359528 -0.35076941925389299 0 -0.37390838074359528 -0.35076941925389299 0 -0.37225797237559449 -0.35115364910559932 0 -0.36985982957495511 -0.35171195823109852 0 -0.37225797237559449 -0.35115364910559932 0 -0.37568304780698558 -0.36916333065311507 0 -0.37225797237559449 -0.35115364910559932 0 -0.36100598543278789 -0.37820409176948921 0 -0.35480891830463612 -0.3592101017575729 0 -0.36985982957495511 -0.35171195823109852 0 -0.36100598543278789 -0.37820409176948921 0 -0.36985982957495511 -0.35171195823109852 0 -0.37225797237559449 -0.35115364910559932 0 -0.36100598543278789 -0.37820409176948921 0 -0.37225797237559449 -0.35115364910559932 0 -0.36100598543278789 -0.37820409176948921 0 -0.33937201587241012 -0.36587749477948078 0 -0.36100598543278789 -0.37820409176948921 0 -0.35480891830463612 -0.3592101017575729 0 -0.33937201587241012 -0.36587749477948078 0 -0.36100598543278789 -0.37820409176948921 0 -0.33937201587241012 -0.36587749477948078 0 -0.31773804631203251 -0.35355089778947202 0 -0.33937201587241012 -0.36587749477948078 0 -0.31773804631203251 -0.35355089778947202 0 -0.32803705280137402 -0.37447550275240871 0 -0.34475024534571441 -0.34586667392980902 0 -0.33937201587241012 -0.36587749477948078 0 -0.31773804631203251 -0.35355089778947202 0 -0.31773804631203251 -0.35355089778947202 0 -0.31381007312398762 -0.37448885129246268 0 -0.31773804631203251 -0.35355089778947202 0 -0.31381007312398762 -0.37448885129246268 0 -0.32803705280137402 -0.37447550275240871 0 -0.31381007312398762 -0.37448885129246268 0 -0.29871455833571747 -0.36148408621311728 0 -0.29196992941862432 -0.3825632544476108 0 -0.31773804631203251 -0.35355089778947202 0 -0.31381007312398762 -0.37448885129246268 0 -0.29871455833571747 -0.36148408621311728 0 -0.31773804631203251 -0.35355089778947202 0 -0.29871455833571747 -0.36148408621311728 0 -0.29282778547957722 -0.33935753649529382 0 -0.31773804631203251 -0.35355089778947202 0 -0.29282778547957722 -0.33935753649529382 0 -0.29871455833571747 -0.36148408621311728 0 -0.27675503022224163 -0.36681377825091099 0 -0.29282778547957722 -0.33935753649529382 0 -0.29871455833571747 -0.36148408621311728 0 -0.27675503022224163 -0.36681377825091099 0 -0.29196992941862432 -0.3825632544476108 0 -0.27675503022224163 -0.36681377825091099 0 -0.25757508569408222 -0.36424633604315798 0 -0.26546808025963542 -0.34847395767735678 0 -0.27675503022224163 -0.36681377825091099 0 -0.25757508569408222 -0.36424633604315798 0 -0.25812358553267323 -0.37605355791306738 0 -0.25757508569408222 -0.36424633604315798 0 -0.24839247009954951 -0.37292447016044328 0 -0.24532753696728959 -0.36501789644951049 0 -0.25757508569408222 -0.36424633604315798 0 -0.25812358553267323 -0.37605355791306738 0 -0.24839247009954951 -0.37292447016044328 0 -0.25757508569408222 -0.36424633604315798 0 -0.26546808025963542 -0.34847395767735678 0 -0.24650166737573331 -0.3569693529562265 0 -0.26546808025963542 -0.34847395767735678 0 -0.24650166737573331 -0.3569693529562265 0 -0.24881121389389799 -0.33838995723746451 0 -0.27675503022224163 -0.36681377825091099 0 -0.26546808025963542 -0.34847395767735678 0 -0.29282778547957722 -0.33935753649529382 0 -0.26791752464712137 -0.32516417520111718 0 -0.27544300416693679 -0.31995488319631832 0 -0.29282778547957722 -0.33935753649529382 0 -0.26546808025963542 -0.34847395767735678 0 -0.26791752464712137 -0.32516417520111718 0 -0.29282778547957722 -0.33935753649529382 0 -0.26791752464712137 -0.32516417520111718 0 -0.29282778547957722 -0.33935753649529382 0 -0.26791752464712137 -0.32516417520111718 0 -0.24881121389389799 -0.33838995723746451 0 -0.26546808025963542 -0.34847395767735678 0 -0.26791752464712137 -0.32516417520111718 0 -0.24881121389389799 -0.33838995723746451 0 -0.26791752464712137 -0.32516417520111718 0 -0.24881121389389799 -0.33838995723746451 0 -0.2441082332202735 -0.32380704628422963 0 -0.26791752464712137 -0.32516417520111718 0 -0.2444966906846206 -0.31181945912301329 0 -0.26791752464712137 -0.32516417520111718 0 -0.26963915832665503 -0.30942012505775762 0 -0.2444966906846206 -0.31181945912301329 0 -0.26791752464712137 -0.32516417520111718 0 -0.2441082332202735 -0.32380704628422963 0 -0.2444966906846206 -0.31181945912301329 0 -0.26791752464712137 -0.32516417520111718 0 -0.27544300416693679 -0.31995488319631832 0 -0.26963915832665503 -0.30942012505775762 0 -0.26791752464712137 -0.32516417520111718 0 -0.27544300416693679 -0.31995488319631832 0 -0.27544300416693679 -0.31995488319631832 0 -0.29403167998309421 -0.32125824908992018 0 -0.29478162596868879 -0.30702079099249591 0 -0.27544300416693679 -0.31995488319631832 0 -0.29403167998309421 -0.32125824908992018 0 -0.29282778547957722 -0.33935753649529382 0 -0.31307430431717392 -0.31869978567557272 0 -0.32184288384298337 -0.33167017375041419 0 -0.29282778547957722 -0.33935753649529382 0 -0.32184288384298337 -0.33167017375041419 0 -0.31773804631203251 -0.35355089778947202 0 -0.29282778547957722 -0.33935753649529382 0 -0.31307430431717392 -0.31869978567557272 0 -0.29403167998309421 -0.32125824908992018 0 -0.29282778547957722 -0.33935753649529382 0 -0.31307430431717392 -0.31869978567557272 0 -0.29403167998309421 -0.32125824908992018 0 -0.29478162596868879 -0.30702079099249591 0 -0.31992409361072222 -0.30462145692723192 0 -0.29478162596868879 -0.30702079099249591 0 -0.31992409361072222 -0.30462145692723192 0 -0.31307430431717392 -0.31869978567557272 0 -0.29478162596868879 -0.30702079099249591 0 -0.31992409361072222 -0.30462145692723192 0 -0.30687808727867438 -0.29770175581860719 0 -0.29478162596868879 -0.30702079099249591 0 -0.30687808727867438 -0.29770175581860719 0 -0.29813438661480679 -0.29530641477552327 0 -0.29478162596868879 -0.30702079099249591 0 -0.31992409361072222 -0.30462145692723192 0 -0.2984608121496099 -0.28511533651958437 0 -0.31992409361072222 -0.30462145692723192 0 -0.30687808727867438 -0.29770175581860719 0 -0.2984608121496099 -0.28511533651958437 0 -0.31332574866090718 -0.291474364566292 0 -0.31992409361072222 -0.30462145692723192 0 -0.2984608121496099 -0.28511533651958437 0 -0.31332574866090718 -0.291474364566292 0 -0.30937392239009109 -0.28339120160471948 0 -0.2984608121496099 -0.28511533651958437 0 -0.31332574866090718 -0.291474364566292 0 -0.2984608121496099 -0.28511533651958437 0 -0.30937392239009109 -0.28339120160471948 0 -0.2984608121496099 -0.28511533651958437 0 -0.30347897474907187 -0.279643462580969 0 -0.30687808727867438 -0.29770175581860719 0 -0.29951482580247829 -0.29240083595456018 0 -0.29813438661480679 -0.29530641477552327 0 -0.30687808727867438 -0.29770175581860719 0 -0.2984608121496099 -0.28511533651958437 0 -0.29951482580247829 -0.29240083595456018 0 -0.29951482580247829 -0.29240083595456018 0 -0.29813438661480679 -0.29530641477552327 0 -0.29499124589990039 -0.29073588210889412 0 -0.2984608121496099 -0.28511533651958437 0 -0.29951482580247829 -0.29240083595456018 0 -0.29499124589990039 -0.29073588210889412 0 -0.29499124589990039 -0.29073588210889412 0 -0.29148170063899659 -0.29460773718781319 0 -0.28586576089235322 -0.28577101837165192 0 -0.29813438661480679 -0.29530641477552327 0 -0.29499124589990039 -0.29073588210889412 0 -0.29148170063899659 -0.29460773718781319 0 -0.2984608121496099 -0.28511533651958437 0 -0.29499124589990039 -0.29073588210889412 0 -0.28586576089235322 -0.28577101837165192 0 -0.29148170063899659 -0.29460773718781319 0 -0.28586576089235322 -0.28577101837165192 0 -0.2798353156189245 -0.29508903771003908 0 -0.29148170063899659 -0.29460773718781319 0 -0.29478162596868879 -0.30702079099249591 0 -0.2798353156189245 -0.29508903771003908 0 -0.29478162596868879 -0.30702079099249591 0 -0.26963915832665503 -0.30942012505775762 0 -0.2798353156189245 -0.29508903771003908 0 -0.29478162596868879 -0.30702079099249591 0 -0.26963915832665503 -0.30942012505775762 0 -0.29813438661480679 -0.29530641477552327 0 -0.29148170063899659 -0.29460773718781319 0 -0.29478162596868879 -0.30702079099249591 0 -0.27544300416693679 -0.31995488319631832 0 -0.29478162596868879 -0.30702079099249591 0 -0.26963915832665503 -0.30942012505775762 0 -0.26963915832665503 -0.30942012505775762 0 -0.26057201890547982 -0.29344093798311832 0 -0.2798353156189245 -0.29508903771003908 0 -0.26963915832665503 -0.30942012505775762 0 -0.2444966906846206 -0.31181945912301329 0 -0.26963915832665503 -0.30942012505775762 0 -0.26057201890547982 -0.29344093798311832 0 -0.2444966906846206 -0.31181945912301329 0 -0.26057201890547982 -0.29344093798311832 0 -0.27108878797196961 -0.28331686931735522 0 -0.25298377122075039 -0.27518622721876451 0 -0.26057201890547982 -0.29344093798311832 0 -0.25298377122075039 -0.27518622721876451 0 -0.2435111179254994 -0.29490773243705071 0 -0.26057201890547982 -0.29344093798311832 0 -0.27108878797196961 -0.28331686931735522 0 -0.2798353156189245 -0.29508903771003908 0 -0.28586576089235322 -0.28577101837165192 0 -0.27108878797196961 -0.28331686931735522 0 -0.2798353156189245 -0.29508903771003908 0 -0.27108878797196961 -0.28331686931735522 0 -0.27618707322233982 -0.26709712530320262 0 -0.25298377122075039 -0.27518622721876451 0 -0.28586576089235322 -0.28577101837165192 0 -0.27108878797196961 -0.28331686931735522 0 -0.27618707322233982 -0.26709712530320262 0 -0.27618707322233982 -0.26709712530320262 0 -0.25431856302814809 -0.24833495949118861 0 -0.27618707322233982 -0.26709712530320262 0 -0.25298377122075039 -0.27518622721876451 0 -0.25431856302814809 -0.24833495949118861 0 -0.27618707322233982 -0.26709712530320262 0 -0.27309361240676189 -0.24179026653703889 0 -0.25431856302814809 -0.24833495949118861 0 -0.27618707322233982 -0.26709712530320262 0 -0.2907170577323625 -0.25177677077710309 0 -0.27309361240676189 -0.24179026653703889 0 -0.27618707322233982 -0.26709712530320262 0 -0.2907170577323625 -0.25177677077710309 0 -0.29477899871119112 -0.26293378760569941 0 -0.2984608121496099 -0.28511533651958437 0 -0.28586576089235322 -0.28577101837165192 0 -0.27618707322233982 -0.26709712530320262 0 -0.2984608121496099 -0.28511533651958437 0 -0.27618707322233982 -0.26709712530320262 0 -0.27618707322233982 -0.26709712530320262 0 -0.29477899871119112 -0.26293378760569941 0 -0.29948479845841441 -0.27338487519771032 0 -0.2984608121496099 -0.28511533651958437 0 -0.27618707322233982 -0.26709712530320262 0 -0.29948479845841441 -0.27338487519771032 0 -0.29477899871119112 -0.26293378760569941 0 -0.29948479845841441 -0.27338487519771032 0 -0.30156079933714469 -0.26765617134954151 0 -0.30156079933714469 -0.26765617134954151 0 -0.30403476516136241 -0.27459464834518948 0 -0.30588444940973558 -0.27063474712059482 0 -0.29948479845841441 -0.27338487519771032 0 -0.30156079933714469 -0.26765617134954151 0 -0.30403476516136241 -0.27459464834518948 0 -0.30156079933714469 -0.26765617134954151 0 -0.30588444940973558 -0.27063474712059482 0 -0.3062135479255173 -0.26372173898871692 0 -0.2984608121496099 -0.28511533651958437 0 -0.29948479845841441 -0.27338487519771032 0 -0.30347897474907187 -0.279643462580969 0 -0.29948479845841441 -0.27338487519771032 0 -0.30403476516136241 -0.27459464834518948 0 -0.30347897474907187 -0.279643462580969 0 -0.30937392239009109 -0.28339120160471948 0 -0.30347897474907187 -0.279643462580969 0 -0.31187737399160442 -0.27618124236115132 0 -0.30403476516136241 -0.27459464834518948 0 -0.30347897474907187 -0.279643462580969 0 -0.31187737399160442 -0.27618124236115132 0 -0.30403476516136241 -0.27459464834518948 0 -0.31187737399160442 -0.27618124236115132 0 -0.30588444940973558 -0.27063474712059482 0 -0.31187737399160442 -0.27618124236115132 0 -0.30588444940973558 -0.27063474712059482 0 -0.3062135479255173 -0.26372173898871692 0 -0.31664960680882542 -0.25714232151458272 0 -0.31202674084989918 -0.26335133138269068 0 -0.30853150187083839 -0.25429835417001312 0 -0.2907170577323625 -0.25177677077710309 0 -0.29477899871119112 -0.26293378760569941 0 -0.30853150187083839 -0.25429835417001312 0 -0.31202674084989918 -0.26335133138269068 0 -0.3062135479255173 -0.26372173898871692 0 -0.30853150187083839 -0.25429835417001312 0 -0.29477899871119112 -0.26293378760569941 0 -0.30156079933714469 -0.26765617134954151 0 -0.3062135479255173 -0.26372173898871692 0 -0.29477899871119112 -0.26293378760569941 0 -0.3062135479255173 -0.26372173898871692 0 -0.30853150187083839 -0.25429835417001312 0 -0.33709504481289931 -0.46474263175187808 0 -0.33075086723682939 -0.45093918684289991 0 -0.35302422329502631 -0.44785824460859458 0 -0.33709504481289931 -0.46474263175187808 0 -0.33075086723682939 -0.45093918684289991 0 -0.32054712240525829 -0.47546959342145068 0 -0.33075086723682939 -0.45093918684289991 0 -0.34095461206840061 -0.42640878026434909 0 -0.33075086723682939 -0.45093918684289991 0 -0.35302422329502631 -0.44785824460859458 0 -0.34095461206840061 -0.42640878026434909 0 -0.33075086723682939 -0.45093918684289991 0 -0.32054706720266329 -0.44859283512714471 0 -0.3206124180200437 -0.43193612962395289 0 -0.33075086723682939 -0.45093918684289991 0 -0.32054706720266329 -0.44859283512714471 0 -0.31571728338184601 -0.45752087103574601 0 -0.32054706720266329 -0.44859283512714471 0 -0.31571728338184601 -0.45752087103574601 0 -0.30706080135445341 -0.45057148265483188 0 -0.33075086723682939 -0.45093918684289991 0 -0.32054712240525829 -0.47546959342145068 0 -0.33075086723682939 -0.45093918684289991 0 -0.31571728338184601 -0.45752087103574601 0 -0.32054712240525829 -0.47546959342145068 0 -0.32054712240525829 -0.47546959342145068 0 -0.32750579650535672 -0.48798687004089669 0 -0.32933965142182292 -0.47777380670114528 0 -0.32054712240525829 -0.47546959342145068 0 -0.31034337757368669 -0.50000000000000133 0 -0.32750579650535672 -0.48798687004089669 0 -0.33387795429423722 -0.5 0 -0.31034337757368669 -0.50000000000000133 0 -0.32054712240525829 -0.47546959342145068 0 -0.32750579650535672 -0.48798687004089669 0 -0.31034337757368669 -0.50000000000000133 0 -0.32750579650535672 -0.48798687004089669 0 -0.34342087683177741 -0.48669095008188618 0 -0.33387795429423722 -0.5 0 -0.33709504481289931 -0.46474263175187808 0 -0.32933965142182292 -0.47777380670114528 0 -0.35181335970555933 -0.47167232718529989 0 -0.34342087683177741 -0.48669095008188618 0 -0.32933965142182292 -0.47777380670114528 0 -0.35181335970555933 -0.47167232718529989 0 -0.32750579650535672 -0.48798687004089669 0 -0.34342087683177741 -0.48669095008188618 0 -0.32933965142182292 -0.47777380670114528 0 -0.33709504481289931 -0.46474263175187808 0 -0.32054712240525829 -0.47546959342145068 0 -0.32933965142182292 -0.47777380670114528 0 -0.32933965142182292 -0.47777380670114528 0 -0.35181335970555933 -0.47167232718529989 0 -0.34342087683177741 -0.48669095008188618 0 -0.35181335970555933 -0.47167232718529989 0 -0.35979455825166368 -0.48519290092039941 0 -0.34342087683177741 -0.48669095008188618 0 -0.35741253101478748 -0.5 0 -0.35979455825166368 -0.48519290092039941 0 -0.34342087683177741 -0.48669095008188618 0 -0.33387795429423722 -0.5 0 -0.35741253101478748 -0.5 0 -0.38094710773533791 -0.49999999999999839 0 -0.35741253101478748 -0.5 0 -0.37240076261097882 -0.48974555046165519 0 -0.35741253101478748 -0.5 0 -0.35979455825166368 -0.48519290092039941 0 -0.37240076261097882 -0.48974555046165519 0 -0.35181335970555933 -0.47167232718529989 0 -0.35979455825166368 -0.48519290092039941 0 -0.37411677223754131 -0.47733161267270968 0 -0.35181335970555933 -0.47167232718529989 0 -0.37411677223754131 -0.47733161267270968 0 -0.37428706798929601 -0.46557084766945539 0 -0.35979455825166368 -0.48519290092039941 0 -0.37240076261097882 -0.48974555046165519 0 -0.37411677223754131 -0.47733161267270968 0 -0.37411677223754131 -0.47733161267270968 0 -0.37428706798929601 -0.46557084766945539 0 -0.35181335970555933 -0.47167232718529989 0 -0.37428706798929601 -0.46557084766945539 0 -0.35302422329502631 -0.44785824460859458 0 -0.35181335970555933 -0.47167232718529989 0 -0.37428706798929601 -0.46557084766945539 0 -0.33709504481289931 -0.46474263175187808 0 -0.35181335970555933 -0.47167232718529989 0 -0.35302422329502631 -0.44785824460859458 0 -0.37428706798929601 -0.46557084766945539 0 -0.35302422329502631 -0.44785824460859458 0 -0.37472313619600889 -0.43545561783144832 0 -0.37428706798929601 -0.46557084766945539 0 -0.37472313619600889 -0.43545561783144832 0 -0.35302422329502631 -0.44785824460859458 0 -0.37472313619600889 -0.43545561783144832 0 -0.36076670325611282 -0.42019275678090617 0 -0.37515920440272033 -0.40534038799344108 0 -0.37472313619600889 -0.43545561783144832 0 -0.36076670325611282 -0.42019275678090617 0 -0.37515920440272033 -0.40534038799344108 0 -0.36076670325611282 -0.42019275678090617 0 -0.35115835689997099 -0.40187837368579798 0 -0.37515920440272033 -0.40534038799344108 0 -0.37472313619600889 -0.43545561783144832 0 -0.36076670325611282 -0.42019275678090617 0 -0.35115835689997099 -0.40187837368579798 0 -0.34095461206840061 -0.42640878026434909 0 -0.34815033243380111 -0.40144447968524521 0 -0.35115835689997099 -0.40187837368579798 0 -0.34095461206840061 -0.42640878026434909 0 -0.35115835689997099 -0.40187837368579798 0 -0.34095461206840061 -0.42640878026434909 0 -0.35302422329502631 -0.44785824460859458 0 -0.36076670325611282 -0.42019275678090617 0 -0.34095461206840061 -0.42640878026434909 0 -0.37543310808941849 -0.38642437359143528 0 -0.36100598543278789 -0.37820409176948921 0 -0.35115835689997099 -0.40187837368579798 0 -0.37543310808941849 -0.38642437359143528 0 -0.37568304780698558 -0.36916333065311507 0 -0.36100598543278789 -0.37820409176948921 0 -0.37543310808941849 -0.38642437359143528 0 -0.36100598543278789 -0.37820409176948921 0 -0.37515920440272033 -0.40534038799344108 0 -0.37543310808941849 -0.38642437359143528 0 -0.35115835689997099 -0.40187837368579798 0 -0.37515920440272033 -0.40534038799344108 0 -0.35115835689997099 -0.40187837368579798 0 -0.35115835689997099 -0.40187837368579798 0 -0.34646966066369161 -0.38533898881774881 0 -0.34316085436749 -0.39382471367395527 0 -0.34815033243380111 -0.40144447968524521 0 -0.35115835689997099 -0.40187837368579798 0 -0.34316085436749 -0.39382471367395527 0 -0.34815033243380111 -0.40144447968524521 0 -0.35115835689997099 -0.40187837368579798 0 -0.33937201587241012 -0.36587749477948078 0 -0.36100598543278789 -0.37820409176948921 0 -0.34646966066369161 -0.38533898881774881 0 -0.36100598543278789 -0.37820409176948921 0 -0.35115835689997099 -0.40187837368579798 0 -0.36100598543278789 -0.37820409176948921 0 -0.35115835689997099 -0.40187837368579798 0 -0.34646966066369161 -0.38533898881774881 0 -0.33937201587241012 -0.36587749477948078 0 -0.32803705280137402 -0.37447550275240871 0 -0.34646966066369161 -0.38533898881774881 0 -0.32803705280137402 -0.37447550275240871 0 -0.34646966066369161 -0.38533898881774881 0 -0.32931529664348408 -0.38869437358142001 0 -0.34646966066369161 -0.38533898881774881 0 -0.32931529664348408 -0.38869437358142001 0 -0.34316085436749 -0.39382471367395527 0 -0.34815033243380111 -0.40144447968524521 0 -0.33486919938690762 -0.39884665705885908 0 -0.32944617452305069 -0.41182817437998842 0 -0.32931529664348408 -0.38869437358142001 0 -0.34316085436749 -0.39382471367395527 0 -0.33486919938690762 -0.39884665705885908 0 -0.32931529664348408 -0.38869437358142001 0 -0.33486919938690762 -0.39884665705885908 0 -0.32365381597648563 -0.39942827076698811 0 -0.34815033243380111 -0.40144447968524521 0 -0.34316085436749 -0.39382471367395527 0 -0.33486919938690762 -0.39884665705885908 0 -0.33486919938690762 -0.39884665705885908 0 -0.32365381597648563 -0.39942827076698811 0 -0.32944617452305069 -0.41182817437998842 0 -0.32931529664348408 -0.38869437358142001 0 -0.32365381597648563 -0.39942827076698811 0 -0.30988209993594379 -0.39542680479545339 0 -0.32365381597648563 -0.39942827076698811 0 -0.30595412674790001 -0.41636475829844438 0 -0.30988209993594379 -0.39542680479545339 0 -0.31381007312398762 -0.37448885129246268 0 -0.32931529664348408 -0.38869437358142001 0 -0.30988209993594379 -0.39542680479545339 0 -0.31381007312398762 -0.37448885129246268 0 -0.32803705280137402 -0.37447550275240871 0 -0.32931529664348408 -0.38869437358142001 0 -0.34095461206840061 -0.42640878026434909 0 -0.32944617452305069 -0.41182817437998842 0 -0.3206124180200437 -0.43193612962395289 0 -0.33075086723682939 -0.45093918684289991 0 -0.34095461206840061 -0.42640878026434909 0 -0.3206124180200437 -0.43193612962395289 0 -0.34815033243380111 -0.40144447968524521 0 -0.34095461206840061 -0.42640878026434909 0 -0.32944617452305069 -0.41182817437998842 0 -0.32944617452305069 -0.41182817437998842 0 -0.3206124180200437 -0.43193612962395289 0 -0.30595412674790001 -0.41636475829844438 0 -0.32365381597648563 -0.39942827076698811 0 -0.32944617452305069 -0.41182817437998842 0 -0.30595412674790001 -0.41636475829844438 0 -0.3206124180200437 -0.43193612962395289 0 -0.30595412674790001 -0.41636475829844438 0 -0.29602166034141808 -0.43748304283089118 0 -0.30595412674790001 -0.41636475829844438 0 -0.28680587137917263 -0.41476105187328532 0 -0.29502227998321778 -0.40112933436643161 0 -0.30595412674790001 -0.41636475829844438 0 -0.28680587137917263 -0.41476105187328532 0 -0.29602166034141808 -0.43748304283089118 0 -0.28680587137917263 -0.41476105187328532 0 -0.29602166034141808 -0.43748304283089118 0 -0.27149625348017281 -0.42637325053463759 0 -0.29602166034141808 -0.43748304283089118 0 -0.27149625348017281 -0.42637325053463759 0 -0.29602166034141808 -0.43748304283089118 0 -0.27149625348017281 -0.42637325053463759 0 -0.27906578537949278 -0.44687665772048962 0 -0.31381007312398762 -0.37448885129246268 0 -0.30988209993594379 -0.39542680479545339 0 -0.31381007312398762 -0.37448885129246268 0 -0.30988209993594379 -0.39542680479545339 0 -0.29196992941862432 -0.3825632544476108 0 -0.30595412674790001 -0.41636475829844438 0 -0.30988209993594379 -0.39542680479545339 0 -0.30595412674790001 -0.41636475829844438 0 -0.30988209993594379 -0.39542680479545339 0 -0.29502227998321778 -0.40112933436643161 0 -0.30988209993594379 -0.39542680479545339 0 -0.29502227998321778 -0.40112933436643161 0 -0.29196992941862432 -0.3825632544476108 0 -0.28680587137917263 -0.41476105187328532 0 -0.29502227998321778 -0.40112933436643161 0 -0.2806661672136338 -0.39648987600255969 0 -0.29502227998321778 -0.40112933436643161 0 -0.29196992941862432 -0.3825632544476108 0 -0.2806661672136338 -0.39648987600255969 0 -0.27675503022224163 -0.36681377825091099 0 -0.29196992941862432 -0.3825632544476108 0 -0.26924588117792803 -0.38334910629271668 0 -0.29196992941862432 -0.3825632544476108 0 -0.26924588117792803 -0.38334910629271668 0 -0.2806661672136338 -0.39648987600255969 0 -0.27675503022224163 -0.36681377825091099 0 -0.26924588117792803 -0.38334910629271668 0 -0.25812358553267323 -0.37605355791306738 0 -0.28680587137917263 -0.41476105187328532 0 -0.2806661672136338 -0.39648987600255969 0 -0.26326431180229581 -0.40282557300305732 0 -0.26924588117792803 -0.38334910629271668 0 -0.2806661672136338 -0.39648987600255969 0 -0.26326431180229581 -0.40282557300305732 0 -0.26326431180229581 -0.40282557300305732 0 -0.2504897110532438 -0.38524934403489181 0 -0.24394706363899241 -0.39877073912243299 0 -0.26326431180229581 -0.40282557300305732 0 -0.24697084661892749 -0.41526345823838401 0 -0.24394706363899241 -0.39877073912243299 0 -0.26924588117792803 -0.38334910629271668 0 -0.26326431180229581 -0.40282557300305732 0 -0.2504897110532438 -0.38524934403489181 0 -0.26924588117792803 -0.38334910629271668 0 -0.2504897110532438 -0.38524934403489181 0 -0.25812358553267323 -0.37605355791306738 0 -0.2504897110532438 -0.38524934403489181 0 -0.25812358553267323 -0.37605355791306738 0 -0.24839247009954951 -0.37292447016044328 0 -0.28680587137917263 -0.41476105187328532 0 -0.26326431180229581 -0.40282557300305732 0 -0.27149625348017281 -0.42637325053463759 0 -0.27149625348017281 -0.42637325053463759 0 -0.24697084661892749 -0.41526345823838401 0 -0.26326431180229581 -0.40282557300305732 0 -0.27149625348017281 -0.42637325053463759 0 -0.24697084661892749 -0.41526345823838401 0 -0.27149625348017281 -0.42637325053463759 0 -0.25687425522332558 -0.44642006451091643 0 -0.24697084661892749 -0.41526345823838401 0 -0.25687425522332558 -0.44642006451091643 0 -0.27607931301277078 -0.46657199895299017 0 -0.25409384940020791 -0.47271975939701871 0 -0.25687425522332558 -0.44642006451091643 0 -0.27607931301277078 -0.46657199895299017 0 -0.27906578537949278 -0.44687665772048962 0 -0.27149625348017281 -0.42637325053463759 0 -0.25687425522332558 -0.44642006451091643 0 -0.27906578537949278 -0.44687665772048962 0 -0.29602166034141808 -0.43748304283089118 0 -0.27906578537949278 -0.44687665772048962 0 -0.29968055871002541 -0.46203125713240301 0 -0.27607931301277078 -0.46657199895299017 0 -0.27906578537949278 -0.44687665772048962 0 -0.29968055871002541 -0.46203125713240301 0 -0.31571728338184601 -0.45752087103574601 0 -0.29968055871002541 -0.46203125713240301 0 -0.30706080135445341 -0.45057148265483188 0 -0.31571728338184601 -0.45752087103574601 0 -0.32054712240525829 -0.47546959342145068 0 -0.29968055871002541 -0.46203125713240301 0 -0.32054706720266329 -0.44859283512714471 0 -0.29602166034141808 -0.43748304283089118 0 -0.32054706720266329 -0.44859283512714471 0 -0.3206124180200437 -0.43193612962395289 0 -0.29602166034141808 -0.43748304283089118 0 -0.32054706720266329 -0.44859283512714471 0 -0.29602166034141808 -0.43748304283089118 0 -0.30706080135445341 -0.45057148265483188 0 -0.29602166034141808 -0.43748304283089118 0 -0.29968055871002541 -0.46203125713240301 0 -0.30706080135445341 -0.45057148265483188 0 -0.32054712240525829 -0.47546959342145068 0 -0.31034337757368669 -0.50000000000000133 0 -0.2941570887960146 -0.48201569375099518 0 -0.32054712240525829 -0.47546959342145068 0 -0.29968055871002541 -0.46203125713240301 0 -0.2941570887960146 -0.48201569375099518 0 -0.27607931301277078 -0.46657199895299017 0 -0.29968055871002541 -0.46203125713240301 0 -0.2941570887960146 -0.48201569375099518 0 -0.2941570887960146 -0.48201569375099518 0 -0.28248249767631262 -0.5 0 -0.27039562620846602 -0.48462576079096858 0 -0.31034337757368669 -0.50000000000000133 0 -0.2941570887960146 -0.48201569375099518 0 -0.28248249767631262 -0.5 0 -0.28248249767631262 -0.5 0 -0.27039562620846602 -0.48462576079096858 0 -0.25462161777893849 -0.5 0 -0.27607931301277078 -0.46657199895299017 0 -0.2941570887960146 -0.48201569375099518 0 -0.27039562620846602 -0.48462576079096858 0 -0.27607931301277078 -0.46657199895299017 0 -0.27039562620846602 -0.48462576079096858 0 -0.25409384940020791 -0.47271975939701871 0 -0.27039562620846602 -0.48462576079096858 0 -0.25409384940020791 -0.47271975939701871 0 -0.25462161777893849 -0.5 0 -0.25462161777893849 -0.5 0 -0.23155232774708009 -0.47932355884050398 0 -0.22676073788156451 -0.5 0 -0.25409384940020791 -0.47271975939701871 0 -0.25462161777893849 -0.5 0 -0.23155232774708009 -0.47932355884050398 0 -0.25409384940020791 -0.47271975939701871 0 -0.23155232774708009 -0.47932355884050398 0 -0.2350399564306665 -0.45937717328673289 0 -0.23155232774708009 -0.47932355884050398 0 -0.2350399564306665 -0.45937717328673289 0 -0.2080224731694312 -0.47403962225972662 0 -0.23155232774708009 -0.47932355884050398 0 -0.22676073788156451 -0.5 0 -0.2080224731694312 -0.47403962225972662 0 -0.25687425522332558 -0.44642006451091643 0 -0.2350399564306665 -0.45937717328673289 0 -0.23180750449586429 -0.4343742486430574 0 -0.25687425522332558 -0.44642006451091643 0 -0.25409384940020791 -0.47271975939701871 0 -0.2350399564306665 -0.45937717328673289 0 -0.2350399564306665 -0.45937717328673289 0 -0.21590660946663959 -0.44883644739355771 0 -0.2080224731694312 -0.47403962225972662 0 -0.2350399564306665 -0.45937717328673289 0 -0.21590660946663959 -0.44883644739355771 0 -0.23180750449586429 -0.4343742486430574 0 -0.21590660946663959 -0.44883644739355771 0 -0.1943898331460783 -0.4473597119794826 0 -0.20910912931781811 -0.42543372189632289 0 -0.21590660946663959 -0.44883644739355771 0 -0.1943898331460783 -0.4473597119794826 0 -0.2080224731694312 -0.47403962225972662 0 -0.1943898331460783 -0.4473597119794826 0 -0.2080224731694312 -0.47403962225972662 0 -0.17967053697433849 -0.46928570206264231 0 -0.22676073788156451 -0.5 0 -0.2080224731694312 -0.47403962225972662 0 -0.19889985798419041 -0.5 0 -0.2080224731694312 -0.47403962225972662 0 -0.1821948971586228 -0.48648437486529872 0 -0.17967053697433849 -0.46928570206264231 0 -0.2080224731694312 -0.47403962225972662 0 -0.19889985798419041 -0.5 0 -0.1821948971586228 -0.48648437486529872 0 -0.19889985798419041 -0.5 0 -0.1821948971586228 -0.48648437486529872 0 -0.17103897808681609 -0.49999999999999778 0 -0.1821948971586228 -0.48648437486529872 0 -0.17103897808681609 -0.49999999999999778 0 -0.16495124080259491 -0.49121169214579941 0 -0.17103897808681609 -0.49999999999999778 0 -0.16495124080259491 -0.49121169214579941 0 -0.17103897808681609 -0.49999999999999778 0 -0.16495124080259491 -0.49121169214579941 0 -0.15905149781887321 -0.49999999999999961 0 -0.16495124080259491 -0.49121169214579941 0 -0.15905149781887321 -0.49999999999999961 0 -0.1545750311736096 -0.49062041690426861 0 -0.16495124080259491 -0.49121169214579941 0 -0.15905149781887321 -0.49999999999999961 0 -0.16495124080259491 -0.49121169214579941 0 -0.16530166315622061 -0.47155300009798301 0 -0.17967053697433849 -0.46928570206264231 0 -0.16495124080259491 -0.49121169214579941 0 -0.16530166315622061 -0.47155300009798301 0 -0.15083103946930049 -0.47082765280793248 0 -0.16495124080259491 -0.49121169214579941 0 -0.1545750311736096 -0.49062041690426861 0 -0.15083103946930049 -0.47082765280793248 0 -0.16495124080259491 -0.49121169214579941 0 -0.15083103946930049 -0.47082765280793248 0 -0.16495124080259491 -0.49121169214579941 0 -0.17967053697433849 -0.46928570206264231 0 -0.1821948971586228 -0.48648437486529872 0 -0.16495124080259491 -0.49121169214579941 0 -0.17967053697433849 -0.46928570206264231 0 -0.1943898331460783 -0.4473597119794826 0 -0.17967053697433849 -0.46928570206264231 0 -0.1943898331460783 -0.4473597119794826 0 -0.17967053697433849 -0.46928570206264231 0 -0.1657538353786501 -0.45488695337555668 0 -0.1943898331460783 -0.4473597119794826 0 -0.1657538353786501 -0.45488695337555668 0 -0.1755027511393909 -0.43471579892562301 0 -0.1657538353786501 -0.45488695337555668 0 -0.15761868306950341 -0.43586407366366631 0 -0.1755027511393909 -0.43471579892562301 0 -0.16530166315622061 -0.47155300009798301 0 -0.1657538353786501 -0.45488695337555668 0 -0.15083103946930049 -0.47082765280793248 0 -0.16530166315622061 -0.47155300009798301 0 -0.17967053697433849 -0.46928570206264231 0 -0.1657538353786501 -0.45488695337555668 0 -0.13671083813600751 -0.45044361347006462 0 -0.15083103946930049 -0.47082765280793248 0 -0.13671083813600751 -0.45044361347006462 0 -0.13441782301728619 -0.47175980973682791 0 -0.15083103946930049 -0.47082765280793248 0 -0.1657538353786501 -0.45488695337555668 0 -0.13671083813600751 -0.45044361347006462 0 -0.15083103946930049 -0.47082765280793248 0 -0.13671083813600751 -0.45044361347006462 0 -0.13816776916695811 -0.432543871779144 0 -0.15761868306950341 -0.43586407366366631 0 -0.1657538353786501 -0.45488695337555668 0 -0.13671083813600751 -0.45044361347006462 0 -0.15761868306950341 -0.43586407366366631 0 -0.13671083813600751 -0.45044361347006462 0 -0.13816776916695811 -0.432543871779144 0 -0.1225906368027144 -0.43005957413219659 0 -0.13671083813600751 -0.45044361347006462 0 -0.1225906368027144 -0.43005957413219659 0 -0.13671083813600751 -0.45044361347006462 0 -0.13441782301728619 -0.47175980973682791 0 -0.1201929706126502 -0.46127799294672761 0 -0.13441782301728619 -0.47175980973682791 0 -0.12605423818426559 -0.48707922202292669 0 -0.14429533434837091 -0.48908967660720287 0 -0.13441782301728619 -0.47175980973682791 0 -0.12605423818426559 -0.48707922202292669 0 -0.1201929706126502 -0.46127799294672761 0 -0.1295391708778694 -0.5 0 -0.12605423818426559 -0.48707922202292669 0 -0.14429533434837091 -0.48908967660720287 0 -0.15905149781887321 -0.49999999999999961 0 -0.1295391708778694 -0.5 0 -0.14429533434837091 -0.48908967660720287 0 -0.15905149781887321 -0.49999999999999961 0 -0.14429533434837091 -0.48908967660720287 0 -0.1545750311736096 -0.49062041690426861 0 -0.14429533434837091 -0.48908967660720287 0 -0.1545750311736096 -0.49062041690426861 0 -0.15083103946930049 -0.47082765280793248 0 -0.13441782301728619 -0.47175980973682791 0 -0.14429533434837091 -0.48908967660720287 0 -0.15083103946930049 -0.47082765280793248 0 -0.15345949684661231 -0.4053237642064671 0 -0.15136585988972451 -0.39002590355483568 0 -0.13982663417143551 -0.39933000433158738 0 -0.15136585988972451 -0.39002590355483568 0 -0.1368738238800834 -0.3880397179408614 0 -0.13982663417143551 -0.39933000433158738 0 -0.15345949684661231 -0.4053237642064671 0 -0.13982663417143551 -0.39933000433158738 0 -0.1398029654186671 -0.41064466143528439 0 -0.15136585988972451 -0.39002590355483568 0 -0.1368738238800834 -0.3880397179408614 0 -0.13959568407155781 -0.37291875636350952 0 -0.15136585988972451 -0.39002590355483568 0 -0.15951650330528561 -0.37856285477961621 0 -0.13959568407155781 -0.37291875636350952 0 -0.1368738238800834 -0.3880397179408614 0 -0.12625141541498519 -0.38197991289387551 0 -0.13959568407155781 -0.37291875636350952 0 -0.1368738238800834 -0.3880397179408614 0 -0.12625141541498519 -0.38197991289387551 0 -0.1273295258527142 -0.39594401256049883 0 -0.1368738238800834 -0.3880397179408614 0 -0.1273295258527142 -0.39594401256049883 0 -0.13982663417143551 -0.39933000433158738 0 -0.13982663417143551 -0.39933000433158738 0 -0.1295768038857959 -0.40463739140698729 0 -0.1398029654186671 -0.41064466143528439 0 -0.1273295258527142 -0.39594401256049883 0 -0.13982663417143551 -0.39933000433158738 0 -0.1295768038857959 -0.40463739140698729 0 -0.1273295258527142 -0.39594401256049883 0 -0.1295768038857959 -0.40463739140698729 0 -0.1219584454402414 -0.40406961642135292 0 -0.1295768038857959 -0.40463739140698729 0 -0.1296119374269841 -0.41417592727859581 0 -0.1225700411049412 -0.40994677461386392 0 -0.1296119374269841 -0.41417592727859581 0 -0.12315425937001 -0.41747458531602638 0 -0.1225700411049412 -0.40994677461386392 0 -0.1296119374269841 -0.41417592727859581 0 -0.13713184062407599 -0.42036644340313623 0 -0.12908399078123631 -0.42243277819987513 0 -0.1296119374269841 -0.41417592727859581 0 -0.12908399078123631 -0.42243277819987513 0 -0.12315425937001 -0.41747458531602638 0 -0.1296119374269841 -0.41417592727859581 0 -0.13713184062407599 -0.42036644340313623 0 -0.1398029654186671 -0.41064466143528439 0 -0.1295768038857959 -0.40463739140698729 0 -0.1296119374269841 -0.41417592727859581 0 -0.1398029654186671 -0.41064466143528439 0 -0.12908399078123631 -0.42243277819987513 0 -0.13816776916695811 -0.432543871779144 0 -0.1225906368027144 -0.43005957413219659 0 -0.13713184062407599 -0.42036644340313623 0 -0.12908399078123631 -0.42243277819987513 0 -0.13816776916695811 -0.432543871779144 0 -0.13816776916695811 -0.432543871779144 0 -0.14921107955709881 -0.42003443798493328 0 -0.15761868306950341 -0.43586407366366631 0 -0.13713184062407599 -0.42036644340313623 0 -0.13816776916695811 -0.432543871779144 0 -0.14921107955709881 -0.42003443798493328 0 -0.15345949684661231 -0.4053237642064671 0 -0.1398029654186671 -0.41064466143528439 0 -0.14921107955709881 -0.42003443798493328 0 -0.13713184062407599 -0.42036644340313623 0 -0.1398029654186671 -0.41064466143528439 0 -0.14921107955709881 -0.42003443798493328 0 -0.15345949684661231 -0.4053237642064671 0 -0.14921107955709881 -0.42003443798493328 0 -0.17009787391258249 -0.41611158199907422 0 -0.14921107955709881 -0.42003443798493328 0 -0.17009787391258249 -0.41611158199907422 0 -0.15761868306950341 -0.43586407366366631 0 -0.17009787391258249 -0.41611158199907422 0 -0.15761868306950341 -0.43586407366366631 0 -0.1755027511393909 -0.43471579892562301 0 -0.1943898331460783 -0.4473597119794826 0 -0.1755027511393909 -0.43471579892562301 0 -0.18951413900105801 -0.42212105940109063 0 -0.17009787391258249 -0.41611158199907422 0 -0.1755027511393909 -0.43471579892562301 0 -0.18951413900105801 -0.42212105940109063 0 -0.17009787391258249 -0.41611158199907422 0 -0.18562609472684241 -0.40161550393767448 0 -0.18951413900105801 -0.42212105940109063 0 -0.18562609472684241 -0.40161550393767448 0 -0.16863204450281991 -0.39380366607865908 0 -0.18254917963999329 -0.38971973427100182 0 -0.17009787391258249 -0.41611158199907422 0 -0.18562609472684241 -0.40161550393767448 0 -0.16863204450281991 -0.39380366607865908 0 -0.18562609472684241 -0.40161550393767448 0 -0.18254917963999329 -0.38971973427100182 0 -0.19364364155811911 -0.391297223908462 0 -0.15345949684661231 -0.4053237642064671 0 -0.17009787391258249 -0.41611158199907422 0 -0.16863204450281991 -0.39380366607865908 0 -0.15345949684661231 -0.4053237642064671 0 -0.15136585988972451 -0.39002590355483568 0 -0.16863204450281991 -0.39380366607865908 0 -0.15951650330528561 -0.37856285477961621 0 -0.17625218554490921 -0.38180729220612769 0 -0.1663610822414904 -0.3702523776444529 0 -0.16863204450281991 -0.39380366607865908 0 -0.15951650330528561 -0.37856285477961621 0 -0.17625218554490921 -0.38180729220612769 0 -0.15136585988972451 -0.39002590355483568 0 -0.16863204450281991 -0.39380366607865908 0 -0.15951650330528561 -0.37856285477961621 0 -0.17625218554490921 -0.38180729220612769 0 -0.1663610822414904 -0.3702523776444529 0 -0.18579747934449059 -0.37379744869579251 0 -0.16863204450281991 -0.39380366607865908 0 -0.17625218554490921 -0.38180729220612769 0 -0.18254917963999329 -0.38971973427100182 0 -0.17625218554490921 -0.38180729220612769 0 -0.18254917963999329 -0.38971973427100182 0 -0.18859193186727599 -0.38007498522408562 0 -0.17625218554490921 -0.38180729220612769 0 -0.18859193186727599 -0.38007498522408562 0 -0.18579747934449059 -0.37379744869579251 0 -0.18859193186727599 -0.38007498522408562 0 -0.2014200033848125 -0.37119512976538899 0 -0.18859193186727599 -0.38007498522408562 0 -0.2014200033848125 -0.37119512976538899 0 -0.18579747934449059 -0.37379744869579251 0 -0.18859193186727599 -0.38007498522408562 0 -0.1989719328316337 -0.38216032023399737 0 -0.2014200033848125 -0.37119512976538899 0 -0.1989719328316337 -0.38216032023399737 0 -0.20694960464083431 -0.38128159833907621 0 -0.2014200033848125 -0.37119512976538899 0 -0.1989719328316337 -0.38216032023399737 0 -0.19364364155811911 -0.391297223908462 0 -0.20620014074293039 -0.39180645285032889 0 -0.18859193186727599 -0.38007498522408562 0 -0.1989719328316337 -0.38216032023399737 0 -0.19364364155811911 -0.391297223908462 0 -0.18254917963999329 -0.38971973427100182 0 -0.18859193186727599 -0.38007498522408562 0 -0.19364364155811911 -0.391297223908462 0 -0.18562609472684241 -0.40161550393767448 0 -0.19364364155811911 -0.391297223908462 0 -0.20208872018367391 -0.4070926974887904 0 -0.19364364155811911 -0.391297223908462 0 -0.20620014074293039 -0.39180645285032889 0 -0.20208872018367391 -0.4070926974887904 0 -0.20620014074293039 -0.39180645285032889 0 -0.21479853281951461 -0.38638530273916921 0 -0.22382842548955789 -0.4035077318131633 0 -0.20620014074293039 -0.39180645285032889 0 -0.20208872018367391 -0.4070926974887904 0 -0.22382842548955789 -0.4035077318131633 0 -0.21479853281951461 -0.38638530273916921 0 -0.20694960464083431 -0.38128159833907621 0 -0.21335741342528061 -0.3748607861064962 0 -0.21479853281951461 -0.38638530273916921 0 -0.22412886374227589 -0.38235217247817599 0 -0.21335741342528061 -0.3748607861064962 0 -0.20694960464083431 -0.38128159833907621 0 -0.2014200033848125 -0.37119512976538899 0 -0.21335741342528061 -0.3748607861064962 0 -0.20620014074293039 -0.39180645285032889 0 -0.21479853281951461 -0.38638530273916921 0 -0.20694960464083431 -0.38128159833907621 0 -0.1989719328316337 -0.38216032023399737 0 -0.20620014074293039 -0.39180645285032889 0 -0.20694960464083431 -0.38128159833907621 0 -0.1943898331460783 -0.4473597119794826 0 -0.20910912931781811 -0.42543372189632289 0 -0.1943898331460783 -0.4473597119794826 0 -0.18951413900105801 -0.42212105940109063 0 -0.20910912931781811 -0.42543372189632289 0 -0.18951413900105801 -0.42212105940109063 0 -0.20208872018367391 -0.4070926974887904 0 -0.20910912931781811 -0.42543372189632289 0 -0.18562609472684241 -0.40161550393767448 0 -0.18951413900105801 -0.42212105940109063 0 -0.20208872018367391 -0.4070926974887904 0 -0.20208872018367391 -0.4070926974887904 0 -0.20910912931781811 -0.42543372189632289 0 -0.22382842548955789 -0.4035077318131633 0 -0.20910912931781811 -0.42543372189632289 0 -0.22382842548955789 -0.4035077318131633 0 -0.21590660946663959 -0.44883644739355771 0 -0.20910912931781811 -0.42543372189632289 0 -0.23180750449586429 -0.4343742486430574 0 -0.20910912931781811 -0.42543372189632289 0 -0.23180750449586429 -0.4343742486430574 0 -0.22382842548955789 -0.4035077318131633 0 -0.23180750449586429 -0.4343742486430574 0 -0.24697084661892749 -0.41526345823838401 0 -0.22382842548955789 -0.4035077318131633 0 -0.25687425522332558 -0.44642006451091643 0 -0.23180750449586429 -0.4343742486430574 0 -0.24697084661892749 -0.41526345823838401 0 -0.22412886374227589 -0.38235217247817599 0 -0.2351820232309369 -0.38700758852266848 0 -0.22952037500089251 -0.37311519752493849 0 -0.22412886374227589 -0.38235217247817599 0 -0.22186900287429051 -0.37074082218821958 0 -0.21335741342528061 -0.3748607861064962 0 -0.22412886374227589 -0.38235217247817599 0 -0.22952037500089251 -0.37311519752493849 0 -0.22186900287429051 -0.37074082218821958 0 -0.22382842548955789 -0.4035077318131633 0 -0.24394706363899241 -0.39877073912243299 0 -0.2351820232309369 -0.38700758852266848 0 -0.21479853281951461 -0.38638530273916921 0 -0.22412886374227589 -0.38235217247817599 0 -0.22382842548955789 -0.4035077318131633 0 -0.22412886374227589 -0.38235217247817599 0 -0.22382842548955789 -0.4035077318131633 0 -0.2351820232309369 -0.38700758852266848 0 -0.24697084661892749 -0.41526345823838401 0 -0.22382842548955789 -0.4035077318131633 0 -0.24394706363899241 -0.39877073912243299 0 -0.2504897110532438 -0.38524934403489181 0 -0.24394706363899241 -0.39877073912243299 0 -0.2351820232309369 -0.38700758852266848 0 -0.2504897110532438 -0.38524934403489181 0 -0.2351820232309369 -0.38700758852266848 0 -0.24036284435674521 -0.37772398595485779 0 -0.2351820232309369 -0.38700758852266848 0 -0.24036284435674521 -0.37772398595485779 0 -0.22952037500089251 -0.37311519752493849 0 -0.2504897110532438 -0.38524934403489181 0 -0.24036284435674521 -0.37772398595485779 0 -0.24839247009954951 -0.37292447016044328 0 -0.24839247009954951 -0.37292447016044328 0 -0.24532753696728959 -0.36501789644951049 0 -0.23861636880082099 -0.36955921174380651 0 -0.24036284435674521 -0.37772398595485779 0 -0.24839247009954951 -0.37292447016044328 0 -0.23861636880082099 -0.36955921174380651 0 -0.25757508569408222 -0.36424633604315798 0 -0.24532753696728959 -0.36501789644951049 0 -0.24650166737573331 -0.3569693529562265 0 -0.24532753696728959 -0.36501789644951049 0 -0.24234943749700691 -0.36154613291017651 0 -0.24650166737573331 -0.3569693529562265 0 -0.24532753696728959 -0.36501789644951049 0 -0.24234943749700691 -0.36154613291017651 0 -0.23928568589256061 -0.36455139619594779 0 -0.24234943749700691 -0.36154613291017651 0 -0.23928568589256061 -0.36455139619594779 0 -0.23696933381926599 -0.3585493042599866 0 -0.24532753696728959 -0.36501789644951049 0 -0.23928568589256061 -0.36455139619594779 0 -0.23861636880082099 -0.36955921174380651 0 -0.23928568589256061 -0.36455139619594779 0 -0.23861636880082099 -0.36955921174380651 0 -0.23345080570298909 -0.36409891217005902 0 -0.23928568589256061 -0.36455139619594779 0 -0.23345080570298909 -0.36409891217005902 0 -0.23696933381926599 -0.3585493042599866 0 -0.24036284435674521 -0.37772398595485779 0 -0.23861636880082099 -0.36955921174380651 0 -0.22952037500089251 -0.37311519752493849 0 -0.23345080570298909 -0.36409891217005902 0 -0.22186900287429051 -0.37074082218821958 0 -0.21424807490234879 -0.36231527430669241 0 -0.22952037500089251 -0.37311519752493849 0 -0.23345080570298909 -0.36409891217005902 0 -0.22186900287429051 -0.37074082218821958 0 -0.23696933381926599 -0.3585493042599866 0 -0.21424807490234879 -0.36231527430669241 0 -0.23861636880082099 -0.36955921174380651 0 -0.22952037500089251 -0.37311519752493849 0 -0.23345080570298909 -0.36409891217005902 0 -0.23345080570298909 -0.36409891217005902 0 -0.23696933381926599 -0.3585493042599866 0 -0.21424807490234879 -0.36231527430669241 0 -0.22913587473404851 -0.35200963246311751 0 -0.2097464541822805 -0.33582260124732738 0 -0.22913587473404851 -0.35200963246311751 0 -0.23696933381926599 -0.3585493042599866 0 -0.21424807490234879 -0.36231527430669241 0 -0.22913587473404851 -0.35200963246311751 0 -0.21998707993494029 -0.33959044394559312 0 -0.22913587473404851 -0.35200963246311751 0 -0.21424807490234879 -0.36231527430669241 0 -0.22913587473404851 -0.35200963246311751 0 -0.23696933381926599 -0.3585493042599866 0 -0.22913587473404851 -0.35200963246311751 0 -0.24881121389389799 -0.33838995723746451 0 -0.22913587473404851 -0.35200963246311751 0 -0.23696933381926599 -0.3585493042599866 0 -0.24650166737573331 -0.3569693529562265 0 -0.22913587473404851 -0.35200963246311751 0 -0.24650166737573331 -0.3569693529562265 0 -0.24881121389389799 -0.33838995723746451 0 -0.23696933381926599 -0.3585493042599866 0 -0.24650166737573331 -0.3569693529562265 0 -0.24234943749700691 -0.36154613291017651 0 -0.23696933381926599 -0.3585493042599866 0 -0.24650166737573331 -0.3569693529562265 0 -0.22913587473404851 -0.35200963246311751 0 -0.24881121389389799 -0.33838995723746451 0 -0.2325545649384867 -0.33453283978227571 0 -0.24881121389389799 -0.33838995723746451 0 -0.2441082332202735 -0.32380704628422963 0 -0.2325545649384867 -0.33453283978227571 0 -0.23613058105125781 -0.31890710479075163 0 -0.2279063026952847 -0.3135077128279592 0 -0.2444966906846206 -0.31181945912301329 0 -0.2441082332202735 -0.32380704628422963 0 -0.23498207165859719 -0.32537142019391418 0 -0.23613058105125781 -0.31890710479075163 0 -0.2441082332202735 -0.32380704628422963 0 -0.23498207165859719 -0.32537142019391418 0 -0.2325545649384867 -0.33453283978227571 0 -0.2441082332202735 -0.32380704628422963 0 -0.23613058105125781 -0.31890710479075163 0 -0.2444966906846206 -0.31181945912301329 0 -0.2279063026952847 -0.3135077128279592 0 -0.2193464910840433 -0.31976030368968739 0 -0.21134622408423179 -0.310554889255794 0 -0.23613058105125781 -0.31890710479075163 0 -0.2279063026952847 -0.3135077128279592 0 -0.22829430606921119 -0.32293804105388452 0 -0.23498207165859719 -0.32537142019391418 0 -0.22829430606921119 -0.32293804105388452 0 -0.2325545649384867 -0.33453283978227571 0 -0.23498207165859719 -0.32537142019391418 0 -0.23613058105125781 -0.31890710479075163 0 -0.22829430606921119 -0.32293804105388452 0 -0.22829430606921119 -0.32293804105388452 0 -0.2193464910840433 -0.31976030368968739 0 -0.22209033975117781 -0.32887735541776358 0 -0.2279063026952847 -0.3135077128279592 0 -0.22829430606921119 -0.32293804105388452 0 -0.2193464910840433 -0.31976030368968739 0 -0.22913587473404851 -0.35200963246311751 0 -0.2325545649384867 -0.33453283978227571 0 -0.21998707993494029 -0.33959044394559312 0 -0.22913587473404851 -0.35200963246311751 0 -0.21998707993494029 -0.33959044394559312 0 -0.2097464541822805 -0.33582260124732738 0 -0.22829430606921119 -0.32293804105388452 0 -0.2325545649384867 -0.33453283978227571 0 -0.22209033975117781 -0.32887735541776358 0 -0.2325545649384867 -0.33453283978227571 0 -0.22209033975117781 -0.32887735541776358 0 -0.21998707993494029 -0.33959044394559312 0 -0.21998707993494029 -0.33959044394559312 0 -0.21026925672920721 -0.32756514861737779 0 -0.22209033975117781 -0.32887735541776358 0 -0.21998707993494029 -0.33959044394559312 0 -0.21026925672920721 -0.32756514861737779 0 -0.21998707993494029 -0.33959044394559312 0 -0.2097464541822805 -0.33582260124732738 0 -0.21026925672920721 -0.32756514861737779 0 -0.2097464541822805 -0.33582260124732738 0 -0.21026925672920721 -0.32756514861737779 0 -0.21026925672920721 -0.32756514861737779 0 -0.21134622408423179 -0.310554889255794 0 -0.19267178705524021 -0.30578920503631912 0 -0.21026925672920721 -0.32756514861737779 0 -0.21134622408423179 -0.310554889255794 0 -0.2097464541822805 -0.33582260124732738 0 -0.21026925672920721 -0.32756514861737779 0 -0.19254159852174429 -0.31996122112867409 0 -0.2193464910840433 -0.31976030368968739 0 -0.21026925672920721 -0.32756514861737779 0 -0.21134622408423179 -0.310554889255794 0 -0.2193464910840433 -0.31976030368968739 0 -0.22209033975117781 -0.32887735541776358 0 -0.21026925672920721 -0.32756514861737779 0 -0.2097464541822805 -0.33582260124732738 0 -0.1943588054861482 -0.32297640251143073 0 -0.19254159852174429 -0.31996122112867409 0 -0.21026925672920721 -0.32756514861737779 0 -0.19267178705524021 -0.30578920503631912 0 -0.21026925672920721 -0.32756514861737779 0 -0.19254159852174429 -0.31996122112867409 0 -0.19267178705524021 -0.30578920503631912 0 -0.2097464541822805 -0.33582260124732738 0 -0.19254159852174429 -0.31996122112867409 0 -0.1943588054861482 -0.32297640251143073 0 -0.18737083868624629 -0.33075534874643497 0 -0.18479650728396149 -0.32227615663527998 0 -0.1943588054861482 -0.32297640251143073 0 -0.19254159852174429 -0.31996122112867409 0 -0.1789711567900161 -0.3101302037755338 0 -0.2097464541822805 -0.33582260124732738 0 -0.19466829689393059 -0.33824472710720138 0 -0.19565175395430129 -0.3512554891803924 0 -0.2097464541822805 -0.33582260124732738 0 -0.1943588054861482 -0.32297640251143073 0 -0.19466829689393059 -0.33824472710720138 0 -0.2097464541822805 -0.33582260124732738 0 -0.1943588054861482 -0.32297640251143073 0 -0.1943588054861482 -0.32297640251143073 0 -0.19466829689393059 -0.33824472710720138 0 -0.18737083868624629 -0.33075534874643497 0 -0.19466829689393059 -0.33824472710720138 0 -0.18164424501215659 -0.34621916084723381 0 -0.18737083868624629 -0.33075534874643497 0 -0.19466829689393059 -0.33824472710720138 0 -0.19565175395430129 -0.3512554891803924 0 -0.18164424501215659 -0.34621916084723381 0 -0.20800359978069241 -0.36335027445133922 0 -0.18480326185087809 -0.36719565018674682 0 -0.19565175395430129 -0.3512554891803924 0 -0.20800359978069241 -0.36335027445133922 0 -0.18480326185087809 -0.36719565018674682 0 -0.2014200033848125 -0.37119512976538899 0 -0.18480326185087809 -0.36719565018674682 0 -0.18579747934449059 -0.37379744869579251 0 -0.2014200033848125 -0.37119512976538899 0 -0.20800359978069241 -0.36335027445133922 0 -0.18480326185087809 -0.36719565018674682 0 -0.2014200033848125 -0.37119512976538899 0 -0.20800359978069241 -0.36335027445133922 0 -0.20803809997708481 -0.36661394692190907 0 -0.20800359978069241 -0.36335027445133922 0 -0.20803809997708481 -0.36661394692190907 0 -0.21424807490234879 -0.36231527430669241 0 -0.20800359978069241 -0.36335027445133922 0 -0.20803809997708481 -0.36661394692190907 0 -0.2014200033848125 -0.37119512976538899 0 -0.20803809997708481 -0.36661394692190907 0 -0.21335741342528061 -0.3748607861064962 0 -0.2014200033848125 -0.37119512976538899 0 -0.20803809997708481 -0.36661394692190907 0 -0.20803809997708481 -0.36661394692190907 0 -0.21335741342528061 -0.3748607861064962 0 -0.21424807490234879 -0.36231527430669241 0 -0.22186900287429051 -0.37074082218821958 0 -0.21335741342528061 -0.3748607861064962 0 -0.21424807490234879 -0.36231527430669241 0 -0.20800359978069241 -0.36335027445133922 0 -0.21424807490234879 -0.36231527430669241 0 -0.20803809997708481 -0.36661394692190907 0 -0.21424807490234879 -0.36231527430669241 0 -0.2097464541822805 -0.33582260124732738 0 -0.19565175395430129 -0.3512554891803924 0 -0.20800359978069241 -0.36335027445133922 0 -0.2097464541822805 -0.33582260124732738 0 -0.20800359978069241 -0.36335027445133922 0 -0.2097464541822805 -0.33582260124732738 0 -0.20800359978069241 -0.36335027445133922 0 -0.21424807490234879 -0.36231527430669241 0 -0.22913587473404851 -0.35200963246311751 0 -0.2097464541822805 -0.33582260124732738 0 -0.21424807490234879 -0.36231527430669241 0 -0.2335542019388327 -0.26090262277066528 0 -0.21472073189145299 -0.25725591714607071 0 -0.22837296648480071 -0.23789375384220129 0 -0.2335542019388327 -0.26090262277066528 0 -0.21357196166535461 -0.27540027352014051 0 -0.21472073189145299 -0.25725591714607071 0 -0.25298377122075039 -0.27518622721876451 0 -0.2335542019388327 -0.26090262277066528 0 -0.25431856302814809 -0.24833495949118861 0 -0.25298377122075039 -0.27518622721876451 0 -0.2335542019388327 -0.26090262277066528 0 -0.23093648268818689 -0.28342115129973 0 -0.2335542019388327 -0.26090262277066528 0 -0.23093648268818689 -0.28342115129973 0 -0.21357196166535461 -0.27540027352014051 0 -0.23093648268818689 -0.28342115129973 0 -0.21242319143925911 -0.29354462989421048 0 -0.21357196166535461 -0.27540027352014051 0 -0.23093648268818689 -0.28342115129973 0 -0.2435111179254994 -0.29490773243705071 0 -0.2284599410619414 -0.30268204450860919 0 -0.23093648268818689 -0.28342115129973 0 -0.2284599410619414 -0.30268204450860919 0 -0.21242319143925911 -0.29354462989421048 0 -0.25298377122075039 -0.27518622721876451 0 -0.23093648268818689 -0.28342115129973 0 -0.2435111179254994 -0.29490773243705071 0 -0.2444966906846206 -0.31181945912301329 0 -0.2284599410619414 -0.30268204450860919 0 -0.2435111179254994 -0.29490773243705071 0 -0.2444966906846206 -0.31181945912301329 0 -0.2284599410619414 -0.30268204450860919 0 -0.26057201890547982 -0.29344093798311832 0 -0.2435111179254994 -0.29490773243705071 0 -0.2444966906846206 -0.31181945912301329 0 -0.2279063026952847 -0.3135077128279592 0 -0.2444966906846206 -0.31181945912301329 0 -0.2284599410619414 -0.30268204450860919 0 -0.2284599410619414 -0.30268204450860919 0 -0.21242319143925911 -0.29354462989421048 0 -0.2279063026952847 -0.3135077128279592 0 -0.2284599410619414 -0.30268204450860919 0 -0.21134622408423179 -0.310554889255794 0 -0.2284599410619414 -0.30268204450860919 0 -0.21134622408423179 -0.310554889255794 0 -0.21242319143925911 -0.29354462989421048 0 -0.21134622408423179 -0.310554889255794 0 -0.19267178705524021 -0.30578920503631912 0 -0.21242319143925911 -0.29354462989421048 0 -0.21134622408423179 -0.310554889255794 0 -0.21242319143925911 -0.29354462989421048 0 -0.19267178705524021 -0.30578920503631912 0 -0.19410774352861071 -0.2831088592208712 0 -0.21242319143925911 -0.29354462989421048 0 -0.19410774352861071 -0.2831088592208712 0 -0.21242319143925911 -0.29354462989421048 0 -0.21357196166535461 -0.27540027352014051 0 -0.19410774352861071 -0.2831088592208712 0 -0.21242319143925911 -0.29354462989421048 0 -0.21242319143925911 -0.29354462989421048 0 -0.21357196166535461 -0.27540027352014051 0 -0.21357196166535461 -0.27540027352014051 0 -0.21472073189145299 -0.25725591714607071 0 -0.19410774352861071 -0.2831088592208712 0 -0.21357196166535461 -0.27540027352014051 0 -0.1965391795889786 -0.26204425282134669 0 -0.19410774352861071 -0.2831088592208712 0 -0.1965391795889786 -0.26204425282134669 0 -0.17579229561796161 -0.27267308854753308 0 -0.1965391795889786 -0.26204425282134669 0 -0.20565562739327201 -0.24334207984173631 0 -0.18863044441395099 -0.24733650333174401 0 -0.1965391795889786 -0.26204425282134669 0 -0.18340152769721799 -0.25642831405215172 0 -0.18863044441395099 -0.24733650333174401 0 -0.1965391795889786 -0.26204425282134669 0 -0.21472073189145299 -0.25725591714607071 0 -0.20565562739327201 -0.24334207984173631 0 -0.21357196166535461 -0.27540027352014051 0 -0.1965391795889786 -0.26204425282134669 0 -0.21472073189145299 -0.25725591714607071 0 -0.15747684770731041 -0.26223731787419863 0 -0.16344648285301799 -0.25937253054906129 0 -0.17579229561796161 -0.27267308854753308 0 -0.1593809120407062 -0.25278805690175971 0 -0.16344648285301799 -0.25937253054906129 0 -0.1534429259631987 -0.25724555178864622 0 -0.1593809120407062 -0.25278805690175971 0 -0.16344648285301799 -0.25937253054906129 0 -0.16709258238786229 -0.25188408856254202 0 -0.1593809120407062 -0.25278805690175971 0 -0.16709258238786229 -0.25188408856254202 0 -0.1601832428566283 -0.24550858739866141 0 -0.15747684770731041 -0.26223731787419863 0 -0.16344648285301799 -0.25937253054906129 0 -0.1534429259631987 -0.25724555178864622 0 -0.16344648285301799 -0.25937253054906129 0 -0.1534429259631987 -0.25724555178864622 0 -0.16344648285301799 -0.25937253054906129 0 -0.17379217291466831 -0.25992581321180469 0 -0.17579229561796161 -0.27267308854753308 0 -0.16344648285301799 -0.25937253054906129 0 -0.16709258238786229 -0.25188408856254202 0 -0.17379217291466831 -0.25992581321180469 0 -0.16709258238786229 -0.25188408856254202 0 -0.17679077873490559 -0.25046109420941731 0 -0.17379217291466831 -0.25992581321180469 0 -0.1965391795889786 -0.26204425282134669 0 -0.18340152769721799 -0.25642831405215172 0 -0.17579229561796161 -0.27267308854753308 0 -0.17679077873490559 -0.25046109420941731 0 -0.18340152769721799 -0.25642831405215172 0 -0.17379217291466831 -0.25992581321180469 0 -0.18340152769721799 -0.25642831405215172 0 -0.17379217291466831 -0.25992581321180469 0 -0.17579229561796161 -0.27267308854753308 0 -0.17679077873490559 -0.25046109420941731 0 -0.18340152769721799 -0.25642831405215172 0 -0.18863044441395099 -0.24733650333174401 0 -0.19410774352861071 -0.2831088592208712 0 -0.17579229561796161 -0.27267308854753308 0 -0.17507431738127369 -0.28401326145526029 0 -0.19410774352861071 -0.2831088592208712 0 -0.17579229561796161 -0.27267308854753308 0 -0.15747684770731041 -0.26223731787419863 0 -0.17507431738127369 -0.28401326145526029 0 -0.15747684770731041 -0.26223731787419863 0 -0.17579229561796161 -0.27267308854753308 0 -0.15747684770731041 -0.26223731787419863 0 -0.17579229561796161 -0.27267308854753308 0 -0.17507431738127369 -0.28401326145526029 0 -0.15747684770731041 -0.26223731787419863 0 -0.1596399504195592 -0.27820623095404468 0 -0.17507431738127369 -0.28401326145526029 0 -0.1596399504195592 -0.27820623095404468 0 -0.1624028041075358 -0.29248408411088062 0 -0.1494793968803598 -0.28070198605355251 0 -0.1624028041075358 -0.29248408411088062 0 -0.15973767967650701 -0.30493196891575292 0 -0.15108397830665751 -0.29236825921418419 0 -0.1624028041075358 -0.29248408411088062 0 -0.17507431738127369 -0.28401326145526029 0 -0.17391538329452061 -0.29489800819007239 0 -0.1596399504195592 -0.27820623095404468 0 -0.1624028041075358 -0.29248408411088062 0 -0.17507431738127369 -0.28401326145526029 0 -0.19267178705524021 -0.30578920503631912 0 -0.19410774352861071 -0.2831088592208712 0 -0.17507431738127369 -0.28401326145526029 0 -0.19267178705524021 -0.30578920503631912 0 -0.17507431738127369 -0.28401326145526029 0 -0.17391538329452061 -0.29489800819007239 0 -0.19267178705524021 -0.30578920503631912 0 -0.17507431738127369 -0.28401326145526029 0 -0.17391538329452061 -0.29489800819007239 0 -0.17532621133471249 -0.30426618216820789 0 -0.19254159852174429 -0.31996122112867409 0 -0.19267178705524021 -0.30578920503631912 0 -0.17532621133471249 -0.30426618216820789 0 -0.19267178705524021 -0.30578920503631912 0 -0.17391538329452061 -0.29489800819007239 0 -0.17532621133471249 -0.30426618216820789 0 -0.19254159852174429 -0.31996122112867409 0 -0.17532621133471249 -0.30426618216820789 0 -0.1789711567900161 -0.3101302037755338 0 -0.19254159852174429 -0.31996122112867409 0 -0.17532621133471249 -0.30426618216820789 0 -0.17532621133471249 -0.30426618216820789 0 -0.15973767967650701 -0.30493196891575292 0 -0.16582550601247259 -0.31644195918285489 0 -0.1624028041075358 -0.29248408411088062 0 -0.17532621133471249 -0.30426618216820789 0 -0.15973767967650701 -0.30493196891575292 0 -0.1624028041075358 -0.29248408411088062 0 -0.17532621133471249 -0.30426618216820789 0 -0.1624028041075358 -0.29248408411088062 0 -0.17391538329452061 -0.29489800819007239 0 -0.17532621133471249 -0.30426618216820789 0 -0.144593184228827 -0.30237793828586917 0 -0.15261731536399281 -0.31699983390472031 0 -0.1327552185807534 -0.31482398186879779 0 -0.15973767967650701 -0.30493196891575292 0 -0.144593184228827 -0.30237793828586917 0 -0.15261731536399281 -0.31699983390472031 0 -0.15973767967650701 -0.30493196891575292 0 -0.144593184228827 -0.30237793828586917 0 -0.15108397830665751 -0.29236825921418419 0 -0.144593184228827 -0.30237793828586917 0 -0.1304175251842298 -0.30012492429455973 0 -0.1327552185807534 -0.31482398186879779 0 -0.1304175251842298 -0.30012492429455973 0 -0.1327552185807534 -0.31482398186879779 0 -0.11567190875339491 -0.3081878681979589 0 -0.1304175251842298 -0.30012492429455973 0 -0.13697378053928061 -0.28594316463020741 0 -0.11725087491461519 -0.29108504565108578 0 -0.144593184228827 -0.30237793828586917 0 -0.1304175251842298 -0.30012492429455973 0 -0.13697378053928061 -0.28594316463020741 0 -0.13697378053928061 -0.28594316463020741 0 -0.15108397830665751 -0.29236825921418419 0 -0.1494793968803598 -0.28070198605355251 0 -0.144593184228827 -0.30237793828586917 0 -0.13697378053928061 -0.28594316463020741 0 -0.15108397830665751 -0.29236825921418419 0 -0.1624028041075358 -0.29248408411088062 0 -0.15108397830665751 -0.29236825921418419 0 -0.1494793968803598 -0.28070198605355251 0 -0.1624028041075358 -0.29248408411088062 0 -0.1494793968803598 -0.28070198605355251 0 -0.15747684770731041 -0.26223731787419863 0 -0.1596399504195592 -0.27820623095404468 0 -0.1503927610565664 -0.27179087804580171 0 -0.1596399504195592 -0.27820623095404468 0 -0.1494793968803598 -0.28070198605355251 0 -0.1503927610565664 -0.27179087804580171 0 -0.15747684770731041 -0.26223731787419863 0 -0.1503927610565664 -0.27179087804580171 0 -0.1469785187108 -0.2635474229235048 0 -0.1503927610565664 -0.27179087804580171 0 -0.13966748117377659 -0.26847157538705668 0 -0.1469785187108 -0.2635474229235048 0 -0.1503927610565664 -0.27179087804580171 0 -0.14153524490660671 -0.2763029116229278 0 -0.13966748117377659 -0.26847157538705668 0 -0.1494793968803598 -0.28070198605355251 0 -0.1503927610565664 -0.27179087804580171 0 -0.14153524490660671 -0.2763029116229278 0 -0.13697378053928061 -0.28594316463020741 0 -0.1494793968803598 -0.28070198605355251 0 -0.14153524490660671 -0.2763029116229278 0 -0.13697378053928061 -0.28594316463020741 0 -0.14153524490660671 -0.2763029116229278 0 -0.13219795163187159 -0.27110871778552531 0 -0.13697378053928061 -0.28594316463020741 0 -0.1173011125765811 -0.2721428964285707 0 -0.13697378053928061 -0.28594316463020741 0 -0.13219795163187159 -0.27110871778552531 0 -0.1173011125765811 -0.2721428964285707 0 -0.13219795163187159 -0.27110871778552531 0 -0.1333337708168415 -0.26377523499205202 0 -0.12600056203783161 -0.26301541000095829 0 -0.13219795163187159 -0.27110871778552531 0 -0.12600056203783161 -0.26301541000095829 0 -0.1173011125765811 -0.2721428964285707 0 -0.13219795163187159 -0.27110871778552531 0 -0.13966748117377659 -0.26847157538705668 0 -0.1333337708168415 -0.26377523499205202 0 -0.14153524490660671 -0.2763029116229278 0 -0.13219795163187159 -0.27110871778552531 0 -0.13966748117377659 -0.26847157538705668 0 -0.13966748117377659 -0.26847157538705668 0 -0.13807993829988649 -0.25979154560904222 0 -0.1333337708168415 -0.26377523499205202 0 -0.13807993829988649 -0.25979154560904222 0 -0.1333337708168415 -0.26377523499205202 0 -0.13072292094084129 -0.25648892617767749 0 -0.12600056203783161 -0.26301541000095829 0 -0.13072292094084129 -0.25648892617767749 0 -0.1187556211832122 -0.25814451816493872 0 -0.1333337708168415 -0.26377523499205202 0 -0.12600056203783161 -0.26301541000095829 0 -0.13072292094084129 -0.25648892617767749 0 -0.13072292094084129 -0.25648892617767749 0 -0.13218950310710981 -0.25272660122947088 0 -0.1187556211832122 -0.25814451816493872 0 -0.13072292094084129 -0.25648892617767749 0 -0.13218950310710981 -0.25272660122947088 0 -0.13218950310710981 -0.25272660122947088 0 -0.1459019403517107 -0.25564217047089421 0 -0.13375162957080131 -0.24871916986845621 0 -0.13218950310710981 -0.25272660122947088 0 -0.1459019403517107 -0.25564217047089421 0 -0.13218950310710981 -0.25272660122947088 0 -0.13375162957080131 -0.24871916986845621 0 -0.1459019403517107 -0.25564217047089421 0 -0.13375162957080131 -0.24871916986845621 0 -0.13807993829988649 -0.25979154560904222 0 -0.13218950310710981 -0.25272660122947088 0 -0.1459019403517107 -0.25564217047089421 0 -0.13807993829988649 -0.25979154560904222 0 -0.13072292094084129 -0.25648892617767749 0 -0.13218950310710981 -0.25272660122947088 0 -0.1459019403517107 -0.25564217047089421 0 -0.1534429259631987 -0.25724555178864622 0 -0.1378886282313006 -0.2381062402767252 0 -0.13966748117377659 -0.26847157538705668 0 -0.13807993829988649 -0.25979154560904222 0 -0.1469785187108 -0.2635474229235048 0 -0.13807993829988649 -0.25979154560904222 0 -0.1459019403517107 -0.25564217047089421 0 -0.1469785187108 -0.2635474229235048 0 -0.15747684770731041 -0.26223731787419863 0 -0.1459019403517107 -0.25564217047089421 0 -0.1534429259631987 -0.25724555178864622 0 -0.15747684770731041 -0.26223731787419863 0 -0.1459019403517107 -0.25564217047089421 0 -0.1469785187108 -0.2635474229235048 0 -0.15747684770731041 -0.26223731787419863 0 -0.1459019403517107 -0.25564217047089421 0 -0.15747684770731041 -0.26223731787419863 0 -0.1534429259631987 -0.25724555178864622 0 -0.1593809120407062 -0.25278805690175971 0 -0.1534429259631987 -0.25724555178864622 0 -0.15289321433053751 -0.246830478479277 0 -0.1459019403517107 -0.25564217047089421 0 -0.1534429259631987 -0.25724555178864622 0 -0.17143624801538501 -0.35840063883308271 0 -0.1580141783998408 -0.34710035810185619 0 -0.15489216358121211 -0.36256913283011211 0 -0.17143624801538501 -0.35840063883308271 0 -0.1580141783998408 -0.34710035810185619 0 -0.18164424501215659 -0.34621916084723381 0 -0.17143624801538501 -0.35840063883308271 0 -0.1663610822414904 -0.3702523776444529 0 -0.15489216358121211 -0.36256913283011211 0 -0.15951650330528561 -0.37856285477961621 0 -0.1663610822414904 -0.3702523776444529 0 -0.15489216358121211 -0.36256913283011211 0 -0.17143624801538501 -0.35840063883308271 0 -0.1663610822414904 -0.3702523776444529 0 -0.18480326185087809 -0.36719565018674682 0 -0.1663610822414904 -0.3702523776444529 0 -0.18480326185087809 -0.36719565018674682 0 -0.1663610822414904 -0.3702523776444529 0 -0.18480326185087809 -0.36719565018674682 0 -0.18579747934449059 -0.37379744869579251 0 -0.18480326185087809 -0.36719565018674682 0 -0.18579747934449059 -0.37379744869579251 0 -0.18480326185087809 -0.36719565018674682 0 -0.18164424501215659 -0.34621916084723381 0 -0.19565175395430129 -0.3512554891803924 0 -0.18480326185087809 -0.36719565018674682 0 -0.18164424501215659 -0.34621916084723381 0 -0.17143624801538501 -0.35840063883308271 0 -0.18480326185087809 -0.36719565018674682 0 -0.18164424501215659 -0.34621916084723381 0 -0.18164424501215659 -0.34621916084723381 0 -0.17848522817343529 -0.32524267150772068 0 -0.1629610955137164 -0.33076913941787212 0 -0.18164424501215659 -0.34621916084723381 0 -0.17848522817343529 -0.32524267150772068 0 -0.18164424501215659 -0.34621916084723381 0 -0.18737083868624629 -0.33075534874643497 0 -0.17848522817343529 -0.32524267150772068 0 -0.17532621133471249 -0.30426618216820789 0 -0.17848522817343529 -0.32524267150772068 0 -0.17532621133471249 -0.30426618216820789 0 -0.1789711567900161 -0.3101302037755338 0 -0.17848522817343529 -0.32524267150772068 0 -0.17532621133471249 -0.30426618216820789 0 -0.17848522817343529 -0.32524267150772068 0 -0.16582550601247259 -0.31644195918285489 0 -0.1943588054861482 -0.32297640251143073 0 -0.1789711567900161 -0.3101302037755338 0 -0.18479650728396149 -0.32227615663527998 0 -0.1789711567900161 -0.3101302037755338 0 -0.18479650728396149 -0.32227615663527998 0 -0.17848522817343529 -0.32524267150772068 0 -0.1943588054861482 -0.32297640251143073 0 -0.1789711567900161 -0.3101302037755338 0 -0.18737083868624629 -0.33075534874643497 0 -0.18479650728396149 -0.32227615663527998 0 -0.17848522817343529 -0.32524267150772068 0 -0.17848522817343529 -0.32524267150772068 0 -0.16582550601247259 -0.31644195918285489 0 -0.1629610955137164 -0.33076913941787212 0 -0.16582550601247259 -0.31644195918285489 0 -0.1629610955137164 -0.33076913941787212 0 -0.15261731536399281 -0.31699983390472031 0 -0.15973767967650701 -0.30493196891575292 0 -0.16582550601247259 -0.31644195918285489 0 -0.15261731536399281 -0.31699983390472031 0 -0.1580141783998408 -0.34710035810185619 0 -0.18164424501215659 -0.34621916084723381 0 -0.1629610955137164 -0.33076913941787212 0 -0.1580141783998408 -0.34710035810185619 0 -0.1629610955137164 -0.33076913941787212 0 -0.14559484309128301 -0.3331209990743299 0 -0.14559484309128301 -0.3331209990743299 0 -0.15261731536399281 -0.31699983390472031 0 -0.1327552185807534 -0.31482398186879779 0 -0.1629610955137164 -0.33076913941787212 0 -0.14559484309128301 -0.3331209990743299 0 -0.15261731536399281 -0.31699983390472031 0 -0.14559484309128301 -0.3331209990743299 0 -0.1327552185807534 -0.31482398186879779 0 -0.12678352480283511 -0.3369129194106073 0 -0.14559484309128301 -0.3331209990743299 0 -0.12678352480283511 -0.3369129194106073 0 -0.14043772588655989 -0.35211976174212622 0 -0.12678352480283511 -0.3369129194106073 0 -0.14043772588655989 -0.35211976174212622 0 -0.1203130985899742 -0.35955571918490481 0 -0.1580141783998408 -0.34710035810185619 0 -0.14043772588655989 -0.35211976174212622 0 -0.15489216358121211 -0.36256913283011211 0 -0.1580141783998408 -0.34710035810185619 0 -0.14559484309128301 -0.3331209990743299 0 -0.14043772588655989 -0.35211976174212622 0 -0.14043772588655989 -0.35211976174212622 0 -0.15489216358121211 -0.36256913283011211 0 -0.13959568407155781 -0.37291875636350952 0 -0.15951650330528561 -0.37856285477961621 0 -0.15489216358121211 -0.36256913283011211 0 -0.13959568407155781 -0.37291875636350952 0 -0.12625141541498519 -0.38197991289387551 0 -0.13959568407155781 -0.37291875636350952 0 -0.1203130985899742 -0.35955571918490481 0 -0.14043772588655989 -0.35211976174212622 0 -0.13959568407155781 -0.37291875636350952 0 -0.1203130985899742 -0.35955571918490481 0 -0.1203130985899742 -0.35955571918490481 0 -0.11384267237711319 -0.38219851895920232 0 -0.1203130985899742 -0.35955571918490481 0 -0.10849363524981311 -0.36442991456039969 0 -0.11384267237711319 -0.38219851895920232 0 -0.12625141541498519 -0.38197991289387551 0 -0.1203130985899742 -0.35955571918490481 0 -0.11384267237711319 -0.38219851895920232 0 -0.10849363524981311 -0.36442991456039969 0 -0.096157591159299352 -0.35547454281719221 0 -0.10176491866177829 -0.38015793077534599 0 -0.096157591159299352 -0.35547454281719221 0 -0.10176491866177829 -0.38015793077534599 0 -0.096157591159299352 -0.35547454281719221 0 -0.10176491866177829 -0.38015793077534599 0 -0.085276019388031976 -0.37619188405436782 0 -0.096157591159299352 -0.35547454281719221 0 -0.10964553082547281 -0.34513317088572909 0 -0.090550263656820479 -0.33079115485903843 0 -0.10849363524981311 -0.36442991456039969 0 -0.096157591159299352 -0.35547454281719221 0 -0.10964553082547281 -0.34513317088572909 0 -0.1203130985899742 -0.35955571918490481 0 -0.10849363524981311 -0.36442991456039969 0 -0.10964553082547281 -0.34513317088572909 0 -0.12678352480283511 -0.3369129194106073 0 -0.1203130985899742 -0.35955571918490481 0 -0.10964553082547281 -0.34513317088572909 0 -0.12678352480283511 -0.3369129194106073 0 -0.1203130985899742 -0.35955571918490481 0 -0.12678352480283511 -0.3369129194106073 0 -0.10964553082547281 -0.34513317088572909 0 -0.1112875311940303 -0.32576775904759792 0 -0.1327552185807534 -0.31482398186879779 0 -0.12678352480283511 -0.3369129194106073 0 -0.1112875311940303 -0.32576775904759792 0 -0.1327552185807534 -0.31482398186879779 0 -0.1112875311940303 -0.32576775904759792 0 -0.11567190875339491 -0.3081878681979589 0 -0.1112875311940303 -0.32576775904759792 0 -0.1011365257202933 -0.31403431577096802 0 -0.11567190875339491 -0.3081878681979589 0 -0.1112875311940303 -0.32576775904759792 0 -0.1011365257202933 -0.31403431577096802 0 -0.090550263656820479 -0.33079115485903843 0 -0.10964553082547281 -0.34513317088572909 0 -0.1112875311940303 -0.32576775904759792 0 -0.090550263656820479 -0.33079115485903843 0 -0.096157591159299352 -0.35547454281719221 0 -0.090550263656820479 -0.33079115485903843 0 -0.096157591159299352 -0.35547454281719221 0 -0.090550263656820479 -0.33079115485903843 0 -0.073144777225565616 -0.33606175945158517 0 -0.090550263656820479 -0.33079115485903843 0 -0.084942936154341619 -0.30610776690088481 0 -0.090550263656820479 -0.33079115485903843 0 -0.073144777225565616 -0.33606175945158517 0 -0.084942936154341619 -0.30610776690088481 0 -0.1011365257202933 -0.31403431577096802 0 -0.090550263656820479 -0.33079115485903843 0 -0.084942936154341619 -0.30610776690088481 0 -0.073144777225565616 -0.33606175945158517 0 -0.084942936154341619 -0.30610776690088481 0 -0.060613113796085999 -0.32288269869712272 0 -0.073144777225565616 -0.33606175945158517 0 -0.076755031766953086 -0.35884624094615858 0 -0.063306301319701316 -0.35299520754669739 0 -0.076755031766953086 -0.35884624094615858 0 -0.063306301319701316 -0.35299520754669739 0 -0.065890469742167113 -0.37350781086095058 0 -0.076755031766953086 -0.35884624094615858 0 -0.065890469742167113 -0.37350781086095058 0 -0.085276019388031976 -0.37619188405436782 0 -0.096157591159299352 -0.35547454281719221 0 -0.076755031766953086 -0.35884624094615858 0 -0.085276019388031976 -0.37619188405436782 0 -0.096157591159299352 -0.35547454281719221 0 -0.073144777225565616 -0.33606175945158517 0 -0.076755031766953086 -0.35884624094615858 0 -0.097628444613881649 -0.25834262822693399 0 -0.1173011125765811 -0.2721428964285707 0 -0.097628444613881649 -0.25834262822693399 0 -0.1187556211832122 -0.25814451816493872 0 -0.1098930818979398 -0.24798588601512411 0 -0.13218950310710981 -0.25272660122947088 0 -0.1187556211832122 -0.25814451816493872 0 -0.1098930818979398 -0.24798588601512411 0 -0.097628444613881649 -0.25834262822693399 0 -0.1187556211832122 -0.25814451816493872 0 -0.1173011125765811 -0.2721428964285707 0 -0.13218950310710981 -0.25272660122947088 0 -0.1098930818979398 -0.24798588601512411 0 -0.12600056203783161 -0.26301541000095829 0 -0.1187556211832122 -0.25814451816493872 0 -0.1173011125765811 -0.2721428964285707 0 -0.097628444613881649 -0.25834262822693399 0 -0.1173011125765811 -0.2721428964285707 0 -0.090762408808148426 -0.27102181932101072 0 -0.1173011125765811 -0.2721428964285707 0 -0.096655829275762523 -0.28444542957314378 0 -0.090762408808148426 -0.27102181932101072 0 -0.096655829275762523 -0.28444542957314378 0 -0.10322998884287909 -0.29931702984935987 0 -0.084942936154341619 -0.30610776690088481 0 -0.096655829275762523 -0.28444542957314378 0 -0.11725087491461519 -0.29108504565108578 0 -0.10322998884287909 -0.29931702984935987 0 -0.13697378053928061 -0.28594316463020741 0 -0.1173011125765811 -0.2721428964285707 0 -0.11725087491461519 -0.29108504565108578 0 -0.1173011125765811 -0.2721428964285707 0 -0.096655829275762523 -0.28444542957314378 0 -0.11725087491461519 -0.29108504565108578 0 -0.11725087491461519 -0.29108504565108578 0 -0.11567190875339491 -0.3081878681979589 0 -0.10322998884287909 -0.29931702984935987 0 -0.1304175251842298 -0.30012492429455973 0 -0.11725087491461519 -0.29108504565108578 0 -0.11567190875339491 -0.3081878681979589 0 -0.1011365257202933 -0.31403431577096802 0 -0.10322998884287909 -0.29931702984935987 0 -0.084942936154341619 -0.30610776690088481 0 -0.1011365257202933 -0.31403431577096802 0 -0.11567190875339491 -0.3081878681979589 0 -0.10322998884287909 -0.29931702984935987 0 -0.084942936154341619 -0.30610776690088481 0 -0.066237696895848033 -0.30175990202967712 0 -0.078368201618682937 -0.28822753231137022 0 -0.084942936154341619 -0.30610776690088481 0 -0.066237696895848033 -0.30175990202967712 0 -0.060613113796085999 -0.32288269869712272 0 -0.066237696895848033 -0.30175990202967712 0 -0.078368201618682937 -0.28822753231137022 0 -0.057136779716869042 -0.28712205926022771 0 -0.078368201618682937 -0.28822753231137022 0 -0.072744725061100565 -0.27289296274949931 0 -0.057136779716869042 -0.28712205926022771 0 -0.096655829275762523 -0.28444542957314378 0 -0.084942936154341619 -0.30610776690088481 0 -0.078368201618682937 -0.28822753231137022 0 -0.096655829275762523 -0.28444542957314378 0 -0.078368201618682937 -0.28822753231137022 0 -0.090762408808148426 -0.27102181932101072 0 -0.078368201618682937 -0.28822753231137022 0 -0.090762408808148426 -0.27102181932101072 0 -0.072744725061100565 -0.27289296274949931 0 -0.090762408808148426 -0.27102181932101072 0 -0.072744725061100565 -0.27289296274949931 0 -0.081281336266817772 -0.26097832242812891 0 -0.072744725061100565 -0.27289296274949931 0 -0.067161912638977472 -0.25903173736147111 0 -0.055745381016590281 -0.2682223094504298 0 -0.072744725061100565 -0.27289296274949931 0 -0.067161912638977472 -0.25903173736147111 0 -0.081281336266817772 -0.26097832242812891 0 -0.067161912638977472 -0.25903173736147111 0 -0.081281336266817772 -0.26097832242812891 0 -0.077955776651182085 -0.24454236002529731 0 -0.067161912638977472 -0.25903173736147111 0 -0.056939497423126581 -0.24878681181634871 0 -0.077955776651182085 -0.24454236002529731 0 -0.097628444613881649 -0.25834262822693399 0 -0.081281336266817772 -0.26097832242812891 0 -0.077955776651182085 -0.24454236002529731 0 -0.097628444613881649 -0.25834262822693399 0 -0.090762408808148426 -0.27102181932101072 0 -0.081281336266817772 -0.26097832242812891 0 -0.097628444613881649 -0.25834262822693399 0 -0.077955776651182085 -0.24454236002529731 0 -0.025857267464119819 -0.25506418495113531 0 -0.050191684441297867 -0.2485850187836515 0 -0.034199021844566052 -0.25740496373097072 0 -0.056939497423126581 -0.24878681181634871 0 -0.034199021844566052 -0.25740496373097072 0 -0.041398382443623198 -0.25192549838374201 0 -0.056939497423126581 -0.24878681181634871 0 -0.041398382443623198 -0.25192549838374201 0 -0.025857267464119819 -0.25506418495113531 0 -0.050191684441297867 -0.2485850187836515 0 -0.034199021844566052 -0.25740496373097072 0 -0.048255079716108998 -0.25800015923011232 0 -0.056939497423126581 -0.24878681181634871 0 -0.034199021844566052 -0.25740496373097072 0 -0.041398382443623198 -0.25192549838374201 0 -0.025857267464119819 -0.25506418495113531 0 -0.041398382443623198 -0.25192549838374201 0 -0.025857267464119819 -0.25506418495113531 0 -0.034199021844566052 -0.25740496373097072 0 -0.037307574571523318 -0.26201401924185519 0 -0.024854767991187229 -0.26705994663832661 0 -0.037307574571523318 -0.26201401924185519 0 -0.048255079716108998 -0.25800015923011232 0 -0.046606779304586107 -0.26584835010199509 0 -0.034199021844566052 -0.25740496373097072 0 -0.037307574571523318 -0.26201401924185519 0 -0.048255079716108998 -0.25800015923011232 0 -0.05702546769870083 -0.25851025446459042 0 -0.048255079716108998 -0.25800015923011232 0 -0.056939497423126581 -0.24878681181634871 0 -0.041398382443623198 -0.25192549838374201 0 -0.056939497423126581 -0.24878681181634871 0 -0.067161912638977472 -0.25903173736147111 0 -0.05702546769870083 -0.25851025446459042 0 -0.056939497423126581 -0.24878681181634871 0 -0.067161912638977472 -0.25903173736147111 0 -0.05702546769870083 -0.25851025446459042 0 -0.055745381016590281 -0.2682223094504298 0 -0.05702546769870083 -0.25851025446459042 0 -0.048255079716108998 -0.25800015923011232 0 -0.055745381016590281 -0.2682223094504298 0 -0.048255079716108998 -0.25800015923011232 0 -0.055745381016590281 -0.2682223094504298 0 -0.046606779304586107 -0.26584835010199509 0 -0.055745381016590281 -0.2682223094504298 0 -0.045119081914121867 -0.27515691248558288 0 -0.046606779304586107 -0.26584835010199509 0 -0.055745381016590281 -0.2682223094504298 0 -0.045119081914121867 -0.27515691248558288 0 -0.057136779716869042 -0.28712205926022771 0 -0.072744725061100565 -0.27289296274949931 0 -0.055745381016590281 -0.2682223094504298 0 -0.057136779716869042 -0.28712205926022771 0 -0.037307574571523318 -0.26201401924185519 0 -0.034478529498429812 -0.28951379058442123 0 -0.037307574571523318 -0.26201401924185519 0 -0.034478529498429812 -0.28951379058442123 0 -0.024854767991187229 -0.26705994663832661 0 -0.037307574571523318 -0.26201401924185519 0 -0.045119081914121867 -0.27515691248558288 0 -0.034478529498429812 -0.28951379058442123 0 -0.037307574571523318 -0.26201401924185519 0 -0.045119081914121867 -0.27515691248558288 0 -0.046606779304586107 -0.26584835010199509 0 -0.045119081914121867 -0.27515691248558288 0 -0.034478529498429812 -0.28951379058442123 0 -0.057136779716869042 -0.28712205926022771 0 -0.034478529498429812 -0.28951379058442123 0 -0.057136779716869042 -0.28712205926022771 0 -0.05012745319326059 -0.30445945297878008 0 -0.066237696895848033 -0.30175990202967712 0 -0.05012745319326059 -0.30445945297878008 0 -0.060613113796085999 -0.32288269869712272 0 -0.066237696895848033 -0.30175990202967712 0 -0.057136779716869042 -0.28712205926022771 0 -0.05012745319326059 -0.30445945297878008 0 -0.034478529498429812 -0.28951379058442123 0 -0.05012745319326059 -0.30445945297878008 0 -0.031649484425336299 -0.31701356192698721 0 -0.034478529498429812 -0.28951379058442123 0 -0.031649484425336299 -0.31701356192698721 0 -0.034478529498429812 -0.28951379058442123 0 -0.020284114256294641 -0.29759304008048471 0 -0.031649484425336299 -0.31701356192698721 0 -0.020284114256294641 -0.29759304008048471 0 -0.01007927323019326 -0.3103345258507364 0 -0.031649484425336299 -0.31701356192698721 0 -0.020284114256294641 -0.29759304008048471 0 -0.01007927323019326 -0.3103345258507364 0 -0.0080748459131490501 -0.2914060437848453 0 -0.01007927323019326 -0.3103345258507364 0 -0.0080748459131490501 -0.2914060437848453 0 0.0017563221397047381 -0.2997067901486577 0 -0.020284114256294641 -0.29759304008048471 0 -0.0080748459131490501 -0.2914060437848453 0 -0.017138438214364771 -0.27969727825543328 0 -0.0080748459131490501 -0.2914060437848453 0 -0.002848760243290064 -0.27761611820401882 0 0.0066437179820165657 -0.2861171845936395 0 -0.0080748459131490501 -0.2914060437848453 0 -0.017138438214364771 -0.27969727825543328 0 -0.002848760243290064 -0.27761611820401882 0 -0.034478529498429812 -0.28951379058442123 0 -0.020284114256294641 -0.29759304008048471 0 -0.017138438214364771 -0.27969727825543328 0 -0.034478529498429812 -0.28951379058442123 0 -0.024854767991187229 -0.26705994663832661 0 -0.017138438214364771 -0.27969727825543328 0 -0.024854767991187229 -0.26705994663832661 0 -0.01588915841142927 -0.27169793716392882 0 -0.01145854626600548 -0.26602311564559261 0 -0.024854767991187229 -0.26705994663832661 0 -0.01588915841142927 -0.27169793716392882 0 -0.017138438214364771 -0.27969727825543328 0 -0.017138438214364771 -0.27969727825543328 0 -0.011833725783772399 -0.27375861231724341 0 -0.002848760243290064 -0.27761611820401882 0 -0.01145854626600548 -0.26602311564559261 0 0.01128192931255503 -0.27464126756021451 0 -0.002848760243290064 -0.27761611820401882 0 -0.01145854626600548 -0.26602311564559261 0 0.01128192931255503 -0.27464126756021451 0 -0.01588915841142927 -0.27169793716392882 0 -0.017138438214364771 -0.27969727825543328 0 -0.011833725783772399 -0.27375861231724341 0 -0.011833725783772399 -0.27375861231724341 0 -0.002848760243290064 -0.27761611820401882 0 -0.01145854626600548 -0.26602311564559261 0 -0.01588915841142927 -0.27169793716392882 0 -0.011833725783772399 -0.27375861231724341 0 -0.01145854626600548 -0.26602311564559261 0 -0.01269776775011346 -0.25850600500130039 0 -0.0051360078472848583 -0.25701396995817721 0 0.0057158633005241696 -0.26337829885565528 0 -0.01145854626600548 -0.26602311564559261 0 -0.01269776775011346 -0.25850600500130039 0 0.0057158633005241696 -0.26337829885565528 0 -0.01269776775011346 -0.25850600500130039 0 0.0057158633005241696 -0.26337829885565528 0 -0.0009620894167222515 -0.25496392916579452 0 -0.0051360078472848583 -0.25701396995817721 0 0.0057158633005241696 -0.26337829885565528 0 -0.0071971320314794382 -0.2528457057960789 0 -0.01082738352359053 -0.24876902592697839 0 -0.0029313858115674811 -0.24854412401401971 0 -0.0009620894167222515 -0.25496392916579452 0 -0.0071971320314794382 -0.2528457057960789 0 -0.0029313858115674811 -0.24854412401401971 0 -0.0009620894167222515 -0.25496392916579452 0 -0.0051360078472848583 -0.25701396995817721 0 -0.0071971320314794382 -0.2528457057960789 0 -0.0051360078472848583 -0.25701396995817721 0 -0.0071971320314794382 -0.2528457057960789 0 -0.0094143843739788544 -0.25459574361389747 0 -0.0071971320314794382 -0.2528457057960789 0 -0.0094143843739788544 -0.25459574361389747 0 -0.01082738352359053 -0.24876902592697839 0 -0.01269776775011346 -0.25850600500130039 0 -0.0094143843739788544 -0.25459574361389747 0 -0.01082738352359053 -0.24876902592697839 0 -0.01269776775011346 -0.25850600500130039 0 -0.0051360078472848583 -0.25701396995817721 0 -0.0094143843739788544 -0.25459574361389747 0 -0.01269776775011346 -0.25850600500130039 0 -0.025857267464119819 -0.25506418495113531 0 -0.034199021844566052 -0.25740496373097072 0 -0.01145854626600548 -0.26602311564559261 0 -0.025857267464119819 -0.25506418495113531 0 -0.01269776775011346 -0.25850600500130039 0 -0.025857267464119819 -0.25506418495113531 0 -0.02368513365757598 -0.23851275990414511 0 -0.034199021844566052 -0.25740496373097072 0 -0.024854767991187229 -0.26705994663832661 0 -0.01145854626600548 -0.26602311564559261 0 -0.034199021844566052 -0.25740496373097072 0 -0.01145854626600548 -0.26602311564559261 0 -0.01145854626600548 -0.26602311564559261 0 -0.01269776775011346 -0.25850600500130039 0 -0.025857267464119819 -0.25506418495113531 0 -0.046940286889098168 -0.35955036210978841 0 -0.050269733973634309 -0.3392354021108881 0 -0.02882043935224279 -0.34451333326955308 0 -0.046940286889098168 -0.35955036210978841 0 -0.02882043935224279 -0.34451333326955308 0 -0.026419717968229769 -0.36867473508972981 0 -0.046940286889098168 -0.35955036210978841 0 -0.026419717968229769 -0.36867473508972981 0 -0.046935058978613817 -0.3783756837809118 0 -0.065890469742167113 -0.37350781086095058 0 -0.046940286889098168 -0.35955036210978841 0 -0.046935058978613817 -0.3783756837809118 0 -0.063306301319701316 -0.35299520754669739 0 -0.065890469742167113 -0.37350781086095058 0 -0.046940286889098168 -0.35955036210978841 0 -0.063306301319701316 -0.35299520754669739 0 -0.046940286889098168 -0.35955036210978841 0 -0.050269733973634309 -0.3392354021108881 0 -0.073144777225565616 -0.33606175945158517 0 -0.063306301319701316 -0.35299520754669739 0 -0.050269733973634309 -0.3392354021108881 0 -0.073144777225565616 -0.33606175945158517 0 -0.050269733973634309 -0.3392354021108881 0 -0.060613113796085999 -0.32288269869712272 0 -0.050269733973634309 -0.3392354021108881 0 -0.060613113796085999 -0.32288269869712272 0 -0.031649484425336299 -0.31701356192698721 0 -0.05012745319326059 -0.30445945297878008 0 -0.060613113796085999 -0.32288269869712272 0 -0.031649484425336299 -0.31701356192698721 0 -0.050269733973634309 -0.3392354021108881 0 -0.031649484425336299 -0.31701356192698721 0 -0.02882043935224279 -0.34451333326955308 0 -0.031649484425336299 -0.31701356192698721 0 -0.02882043935224279 -0.34451333326955308 0 -0.031649484425336299 -0.31701356192698721 0 -0.0038616663111063101 -0.33241552487502413 0 -0.02882043935224279 -0.34451333326955308 0 -0.01007927323019326 -0.3103345258507364 0 -0.031649484425336299 -0.31701356192698721 0 -0.0038616663111063101 -0.33241552487502413 0 -0.01007927323019326 -0.3103345258507364 0 -0.0038616663111063101 -0.33241552487502413 0 0.0094652366165251054 -0.31053241408104548 0 -0.0038616663111063101 -0.33241552487502413 0 -0.0043130761299947744 -0.35643483176966217 0 -0.02882043935224279 -0.34451333326955308 0 -0.0043130761299947744 -0.35643483176966217 0 -0.02882043935224279 -0.34451333326955308 0 -0.026419717968229769 -0.36867473508972981 0 -0.0043130761299947744 -0.35643483176966217 0 -0.026419717968229769 -0.36867473508972981 0 -0.0064694903547723136 -0.38059021958606692 0 -0.0064694903547723136 -0.38059021958606692 0 -0.0080625817845775948 -0.40608726553411861 0 -0.026496984295852101 -0.39226102623928111 0 -0.0064694903547723136 -0.38059021958606692 0 -0.0080625817845775948 -0.40608726553411861 0 0.009690974369139977 -0.39295199195252922 0 -0.0080625817845775948 -0.40608726553411861 0 -0.026496984295852101 -0.39226102623928111 0 -0.029852467816379728 -0.41236872525256307 0 -0.026419717968229769 -0.36867473508972981 0 -0.0064694903547723136 -0.38059021958606692 0 -0.026496984295852101 -0.39226102623928111 0 -0.026496984295852101 -0.39226102623928111 0 -0.048213792324517578 -0.39768762776665978 0 -0.046935058978613817 -0.3783756837809118 0 -0.026419717968229769 -0.36867473508972981 0 -0.026496984295852101 -0.39226102623928111 0 -0.046935058978613817 -0.3783756837809118 0 -0.026496984295852101 -0.39226102623928111 0 -0.048213792324517578 -0.39768762776665978 0 -0.029852467816379728 -0.41236872525256307 0 -0.048213792324517578 -0.39768762776665978 0 -0.065379196062645584 -0.39052657147488062 0 -0.06528413140028641 -0.40548789039177052 0 -0.048213792324517578 -0.39768762776665978 0 -0.046935058978613817 -0.3783756837809118 0 -0.065379196062645584 -0.39052657147488062 0 -0.065890469742167113 -0.37350781086095058 0 -0.046935058978613817 -0.3783756837809118 0 -0.065379196062645584 -0.39052657147488062 0 -0.052630130657334448 -0.42871109396582502 0 -0.036803499053157718 -0.43392585985635063 0 -0.055908543568221357 -0.44353945242809251 0 -0.052630130657334448 -0.42871109396582502 0 -0.048282499091199083 -0.41684649723306111 0 -0.065713266975248902 -0.42040157794015642 0 -0.052630130657334448 -0.42871109396582502 0 -0.055908543568221357 -0.44353945242809251 0 -0.077753046024815156 -0.43509142098737241 0 -0.048282499091199083 -0.41684649723306111 0 -0.06528413140028641 -0.40548789039177052 0 -0.065713266975248902 -0.42040157794015642 0 -0.048213792324517578 -0.39768762776665978 0 -0.048282499091199083 -0.41684649723306111 0 -0.06528413140028641 -0.40548789039177052 0 -0.048213792324517578 -0.39768762776665978 0 -0.048282499091199083 -0.41684649723306111 0 -0.029852467816379728 -0.41236872525256307 0 -0.048282499091199083 -0.41684649723306111 0 -0.036803499053157718 -0.43392585985635063 0 -0.029852467816379728 -0.41236872525256307 0 -0.052630130657334448 -0.42871109396582502 0 -0.048282499091199083 -0.41684649723306111 0 -0.036803499053157718 -0.43392585985635063 0 -0.036803499053157718 -0.43392585985635063 0 -0.01686747062211669 -0.42668809062348251 0 -0.022482277956740859 -0.44034230556013138 0 -0.036803499053157718 -0.43392585985635063 0 -0.01686747062211669 -0.42668809062348251 0 -0.029852467816379728 -0.41236872525256307 0 -0.0080625817845775948 -0.40608726553411861 0 -0.01686747062211669 -0.42668809062348251 0 -0.029852467816379728 -0.41236872525256307 0 -0.0080625817845775948 -0.40608726553411861 0 -0.01686747062211669 -0.42668809062348251 0 0.01224976062295041 -0.42183763890738629 0 -0.01686747062211669 -0.42668809062348251 0 -0.008216644178786571 -0.4466179140804285 0 0.01224976062295041 -0.42183763890738629 0 -0.008216644178786571 -0.4466179140804285 0 -0.0021957942935651631 -0.46571035637089769 0 -0.016151777162071251 -0.46269316979172348 0 -0.0021957942935651631 -0.46571035637089769 0 -0.016151777162071251 -0.46269316979172348 0 -0.01292321871024151 -0.47600360382280887 0 -0.008216644178786571 -0.4466179140804285 0 -0.016151777162071251 -0.46269316979172348 0 -0.028753682251359231 -0.45370767630375852 0 -0.016151777162071251 -0.46269316979172348 0 -0.030722049445265721 -0.46513815794063051 0 -0.025757536927686689 -0.47561542944709773 0 -0.016151777162071251 -0.46269316979172348 0 -0.030722049445265721 -0.46513815794063051 0 -0.028753682251359231 -0.45370767630375852 0 -0.036803499053157718 -0.43392585985635063 0 -0.028753682251359231 -0.45370767630375852 0 -0.022482277956740859 -0.44034230556013138 0 -0.01686747062211669 -0.42668809062348251 0 -0.008216644178786571 -0.4466179140804285 0 -0.022482277956740859 -0.44034230556013138 0 -0.008216644178786571 -0.4466179140804285 0 -0.028753682251359231 -0.45370767630375852 0 -0.022482277956740859 -0.44034230556013138 0 -0.011489863113854141 -0.5 0 -0.010144146689038991 -0.48941639725935437 0 0.012735562036971701 -0.48508522326900949 0 -0.010144146689038991 -0.48941639725935437 0 -0.00065605929082254884 -0.47874224407546379 0 -0.01292321871024151 -0.47600360382280887 0 -0.010144146689038991 -0.48941639725935437 0 -0.01292321871024151 -0.47600360382280887 0 -0.022633997898264431 -0.48384402599231691 0 -0.0021957942935651631 -0.46571035637089769 0 -0.00065605929082254884 -0.47874224407546379 0 -0.01292321871024151 -0.47600360382280887 0 -0.016151777162071251 -0.46269316979172348 0 -0.01292321871024151 -0.47600360382280887 0 -0.025757536927686689 -0.47561542944709773 0 -0.025757536927686689 -0.47561542944709773 0 -0.022633997898264431 -0.48384402599231691 0 -0.032724513000240443 -0.48384135401243772 0 -0.01292321871024151 -0.47600360382280887 0 -0.025757536927686689 -0.47561542944709773 0 -0.022633997898264431 -0.48384402599231691 0 -0.011489863113854141 -0.5 0 -0.010144146689038991 -0.48941639725935437 0 -0.033023855415049652 -0.49374757124969931 0 -0.010144146689038991 -0.48941639725935437 0 -0.022633997898264431 -0.48384402599231691 0 -0.033023855415049652 -0.49374757124969931 0 -0.011489863113854141 -0.5 0 -0.041002190054857779 -0.5 0 -0.033023855415049652 -0.49374757124969931 0 -0.010144146689038991 -0.48941639725935437 0 -0.033023855415049652 -0.49374757124969931 0 -0.022633997898264431 -0.48384402599231691 0 -0.033023855415049652 -0.49374757124969931 0 -0.032724513000240443 -0.48384135401243772 0 -0.041002190054857779 -0.5 0 -0.040644419244316249 -0.48874723383863622 0 -0.055758353525359711 -0.48944453406372251 0 -0.041002190054857779 -0.5 0 -0.033023855415049652 -0.49374757124969931 0 -0.040644419244316249 -0.48874723383863622 0 -0.033023855415049652 -0.49374757124969931 0 -0.040644419244316249 -0.48874723383863622 0 -0.032724513000240443 -0.48384135401243772 0 -0.040644419244316249 -0.48874723383863622 0 -0.040713184226073652 -0.47670270986732172 0 -0.055758353525359711 -0.48944453406372251 0 -0.040644419244316249 -0.48874723383863622 0 -0.040713184226073652 -0.47670270986732172 0 -0.032724513000240443 -0.48384135401243772 0 -0.025757536927686689 -0.47561542944709773 0 -0.040713184226073652 -0.47670270986732172 0 -0.032724513000240443 -0.48384135401243772 0 -0.030722049445265721 -0.46513815794063051 0 -0.025757536927686689 -0.47561542944709773 0 -0.040713184226073652 -0.47670270986732172 0 -0.040713184226073652 -0.47670270986732172 0 -0.05604151524233808 -0.47085547185542692 0 -0.042137987481662489 -0.46199998676314519 0 -0.040713184226073652 -0.47670270986732172 0 -0.05604151524233808 -0.47085547185542692 0 -0.055758353525359711 -0.48944453406372251 0 -0.05604151524233808 -0.47085547185542692 0 -0.055758353525359711 -0.48944453406372251 0 -0.068357021366280857 -0.47830767763467641 0 -0.041002190054857779 -0.5 0 -0.055758353525359711 -0.48944453406372251 0 -0.070514516995861642 -0.5 0 -0.036803499053157718 -0.43392585985635063 0 -0.028753682251359231 -0.45370767630375852 0 -0.042591220718736618 -0.44931976272637059 0 -0.036803499053157718 -0.43392585985635063 0 -0.042591220718736618 -0.44931976272637059 0 -0.055908543568221357 -0.44353945242809251 0 -0.028753682251359231 -0.45370767630375852 0 -0.042591220718736618 -0.44931976272637059 0 -0.042137987481662489 -0.46199998676314519 0 -0.030722049445265721 -0.46513815794063051 0 -0.028753682251359231 -0.45370767630375852 0 -0.042137987481662489 -0.46199998676314519 0 -0.030722049445265721 -0.46513815794063051 0 -0.040713184226073652 -0.47670270986732172 0 -0.042137987481662489 -0.46199998676314519 0 -0.042591220718736618 -0.44931976272637059 0 -0.042137987481662489 -0.46199998676314519 0 -0.054601469153056192 -0.45704509188174619 0 -0.05604151524233808 -0.47085547185542692 0 -0.054601469153056192 -0.45704509188174619 0 -0.071896784036839162 -0.45711427830285839 0 -0.05604151524233808 -0.47085547185542692 0 -0.042137987481662489 -0.46199998676314519 0 -0.054601469153056192 -0.45704509188174619 0 -0.054601469153056192 -0.45704509188174619 0 -0.055908543568221357 -0.44353945242809251 0 -0.071896784036839162 -0.45711427830285839 0 -0.042591220718736618 -0.44931976272637059 0 -0.054601469153056192 -0.45704509188174619 0 -0.055908543568221357 -0.44353945242809251 0 -0.055908543568221357 -0.44353945242809251 0 -0.071896784036839162 -0.45711427830285839 0 -0.077753046024815156 -0.43509142098737241 0 -0.071896784036839162 -0.45711427830285839 0 -0.087573937031005744 -0.47412410395137422 0 -0.093954286744555499 -0.45179652052777369 0 -0.087573937031005744 -0.47412410395137422 0 -0.093954286744555499 -0.45179652052777369 0 -0.071896784036839162 -0.45711427830285839 0 -0.093954286744555499 -0.45179652052777369 0 -0.077753046024815156 -0.43509142098737241 0 -0.093954286744555499 -0.45179652052777369 0 -0.10033463645810529 -0.42946893710417328 0 -0.077753046024815156 -0.43509142098737241 0 -0.055758353525359711 -0.48944453406372251 0 -0.070514516995861642 -0.5 0 -0.068357021366280857 -0.47830767763467641 0 -0.05604151524233808 -0.47085547185542692 0 -0.071896784036839162 -0.45711427830285839 0 -0.068357021366280857 -0.47830767763467641 0 -0.071896784036839162 -0.45711427830285839 0 -0.068357021366280857 -0.47830767763467641 0 -0.087573937031005744 -0.47412410395137422 0 -0.070514516995861642 -0.5 0 -0.068357021366280857 -0.47830767763467641 0 -0.087573937031005744 -0.47412410395137422 0 -0.070514516995861642 -0.5 0 -0.087573937031005744 -0.47412410395137422 0 -0.10002684393686551 -0.5 0 -0.087573937031005744 -0.47412410395137422 0 -0.10002684393686551 -0.5 0 -0.10780494223314389 -0.47765854937150709 0 -0.087573937031005744 -0.47412410395137422 0 -0.10780494223314389 -0.47765854937150709 0 -0.1029954147344513 -0.46359439800738522 0 -0.12605423818426559 -0.48707922202292669 0 -0.10780494223314389 -0.47765854937150709 0 -0.1201929706126502 -0.46127799294672761 0 -0.12605423818426559 -0.48707922202292669 0 -0.1201929706126502 -0.46127799294672761 0 -0.12605423818426559 -0.48707922202292669 0 -0.10002684393686551 -0.5 0 -0.10780494223314389 -0.47765854937150709 0 -0.1295391708778694 -0.5 0 -0.12605423818426559 -0.48707922202292669 0 -0.10002684393686551 -0.5 0 -0.093954286744555499 -0.45179652052777369 0 -0.10033463645810529 -0.42946893710417328 0 -0.10636180231815941 -0.44832292249131772 0 -0.11433170304103479 -0.43547676387052858 0 -0.10033463645810529 -0.42946893710417328 0 -0.10636180231815941 -0.44832292249131772 0 -0.093954286744555499 -0.45179652052777369 0 -0.10033463645810529 -0.42946893710417328 0 -0.087573937031005744 -0.47412410395137422 0 -0.093954286744555499 -0.45179652052777369 0 -0.1029954147344513 -0.46359439800738522 0 -0.10636180231815941 -0.44832292249131772 0 -0.093954286744555499 -0.45179652052777369 0 -0.1029954147344513 -0.46359439800738522 0 -0.10780494223314389 -0.47765854937150709 0 -0.1029954147344513 -0.46359439800738522 0 -0.1201929706126502 -0.46127799294672761 0 -0.10636180231815941 -0.44832292249131772 0 -0.1029954147344513 -0.46359439800738522 0 -0.1201929706126502 -0.46127799294672761 0 -0.13671083813600751 -0.45044361347006462 0 -0.1201929706126502 -0.46127799294672761 0 -0.11433170304103479 -0.43547676387052858 0 -0.10636180231815941 -0.44832292249131772 0 -0.1201929706126502 -0.46127799294672761 0 -0.11433170304103479 -0.43547676387052858 0 -0.13671083813600751 -0.45044361347006462 0 -0.1225906368027144 -0.43005957413219659 0 -0.11433170304103479 -0.43547676387052858 0 -0.1201929706126502 -0.46127799294672761 0 -0.11433170304103479 -0.43547676387052858 0 -0.1225906368027144 -0.43005957413219659 0 -0.11433170304103479 -0.43547676387052858 0 -0.10847043546942051 -0.40967553479432928 0 -0.11433170304103479 -0.43547676387052858 0 -0.10847043546942051 -0.40967553479432928 0 -0.12908399078123631 -0.42243277819987513 0 -0.1225906368027144 -0.43005957413219659 0 -0.12315425937001 -0.41747458531602638 0 -0.11433170304103479 -0.43547676387052858 0 -0.10033463645810529 -0.42946893710417328 0 -0.10847043546942051 -0.40967553479432928 0 -0.10033463645810529 -0.42946893710417328 0 -0.094107383989168333 -0.41562629379671062 0 -0.1067149861716557 -0.40714135368057303 0 -0.10033463645810529 -0.42946893710417328 0 -0.1067149861716557 -0.40714135368057303 0 -0.10847043546942051 -0.40967553479432928 0 -0.10033463645810529 -0.42946893710417328 0 -0.1067149861716557 -0.40714135368057303 0 -0.094107383989168333 -0.41562629379671062 0 -0.1067149861716557 -0.40714135368057303 0 -0.093615658715422545 -0.40476526464288082 0 -0.10847043546942051 -0.40967553479432928 0 -0.1105756132387118 -0.40676785322215941 0 -0.1073722461642546 -0.40484131873350049 0 -0.10847043546942051 -0.40967553479432928 0 -0.1073722461642546 -0.40484131873350049 0 -0.1067149861716557 -0.40714135368057303 0 -0.10847043546942051 -0.40967553479432928 0 -0.1073722461642546 -0.40484131873350049 0 -0.1067149861716557 -0.40714135368057303 0 -0.10847043546942051 -0.40967553479432928 0 -0.1225906368027144 -0.43005957413219659 0 -0.1163272184937543 -0.41351727508190028 0 -0.12315425937001 -0.41747458531602638 0 -0.10847043546942051 -0.40967553479432928 0 -0.1125412123036873 -0.40894162881917728 0 -0.1163272184937543 -0.41351727508190028 0 -0.1125412123036873 -0.40894162881917728 0 -0.1105756132387118 -0.40676785322215941 0 -0.1147915820128618 -0.40580585217832088 0 -0.1225906368027144 -0.43005957413219659 0 -0.10847043546942051 -0.40967553479432928 0 -0.1163272184937543 -0.41351727508190028 0 -0.10847043546942051 -0.40967553479432928 0 -0.1125412123036873 -0.40894162881917728 0 -0.1105756132387118 -0.40676785322215941 0 -0.1225906368027144 -0.43005957413219659 0 -0.10847043546942051 -0.40967553479432928 0 -0.1125412123036873 -0.40894162881917728 0 -0.1163272184937543 -0.41351727508190028 0 -0.1147915820128618 -0.40580585217832088 0 -0.1225700411049412 -0.40994677461386392 0 -0.1219584454402414 -0.40406961642135292 0 -0.1147915820128618 -0.40580585217832088 0 -0.1163272184937543 -0.41351727508190028 0 -0.1225700411049412 -0.40994677461386392 0 -0.1147915820128618 -0.40580585217832088 0 -0.1163272184937543 -0.41351727508190028 0 -0.12315425937001 -0.41747458531602638 0 -0.1225700411049412 -0.40994677461386392 0 -0.1273295258527142 -0.39594401256049883 0 -0.1219584454402414 -0.40406961642135292 0 -0.1190781430676657 -0.39944145851713192 0 -0.11305295545189779 -0.39895005080087959 0 -0.11384267237711319 -0.38219851895920232 0 -0.1073722461642546 -0.40484131873350049 0 -0.1295768038857959 -0.40463739140698729 0 -0.1225700411049412 -0.40994677461386392 0 -0.1219584454402414 -0.40406961642135292 0 -0.1182582065806136 -0.392437760624607 0 -0.11305295545189779 -0.39895005080087959 0 -0.11384267237711319 -0.38219851895920232 0 -0.11384267237711319 -0.38219851895920232 0 -0.1073722461642546 -0.40484131873350049 0 -0.1219584454402414 -0.40406961642135292 0 -0.1190781430676657 -0.39944145851713192 0 -0.1147915820128618 -0.40580585217832088 0 -0.1273295258527142 -0.39594401256049883 0 -0.1190781430676657 -0.39944145851713192 0 -0.1182582065806136 -0.392437760624607 0 -0.1190781430676657 -0.39944145851713192 0 -0.1182582065806136 -0.392437760624607 0 -0.11305295545189779 -0.39895005080087959 0 -0.1105756132387118 -0.40676785322215941 0 -0.1114480992169309 -0.40409126873371493 0 -0.1073722461642546 -0.40484131873350049 0 -0.1105756132387118 -0.40676785322215941 0 -0.1114480992169309 -0.40409126873371493 0 -0.1147915820128618 -0.40580585217832088 0 -0.11305295545189779 -0.39895005080087959 0 -0.1114480992169309 -0.40409126873371493 0 -0.1147915820128618 -0.40580585217832088 0 -0.11305295545189779 -0.39895005080087959 0 -0.1114480992169309 -0.40409126873371493 0 -0.1073722461642546 -0.40484131873350049 0 -0.1190781430676657 -0.39944145851713192 0 -0.11305295545189779 -0.39895005080087959 0 -0.1147915820128618 -0.40580585217832088 0 -0.12625141541498519 -0.38197991289387551 0 -0.1182582065806136 -0.392437760624607 0 -0.11384267237711319 -0.38219851895920232 0 -0.12625141541498519 -0.38197991289387551 0 -0.1273295258527142 -0.39594401256049883 0 -0.1182582065806136 -0.392437760624607 0 -0.11384267237711319 -0.38219851895920232 0 -0.10176491866177829 -0.38015793077534599 0 -0.1073722461642546 -0.40484131873350049 0 -0.10176491866177829 -0.38015793077534599 0 -0.095995502779844255 -0.39166661886747001 0 -0.085276019388031976 -0.37619188405436782 0 -0.10849363524981311 -0.36442991456039969 0 -0.11384267237711319 -0.38219851895920232 0 -0.10176491866177829 -0.38015793077534599 0 -0.10176491866177829 -0.38015793077534599 0 -0.1073722461642546 -0.40484131873350049 0 -0.095995502779844255 -0.39166661886747001 0 -0.10176491866177829 -0.38015793077534599 0 -0.1073722461642546 -0.40484131873350049 0 -0.1067149861716557 -0.40714135368057303 0 -0.1073722461642546 -0.40484131873350049 0 -0.095995502779844255 -0.39166661886747001 0 -0.1067149861716557 -0.40714135368057303 0 -0.1073722461642546 -0.40484131873350049 0 -0.1067149861716557 -0.40714135368057303 0 -0.095995502779844255 -0.39166661886747001 0 -0.1067149861716557 -0.40714135368057303 0 -0.095995502779844255 -0.39166661886747001 0 -0.093615658715422545 -0.40476526464288082 0 -0.093615658715422545 -0.40476526464288082 0 -0.081664681120336771 -0.39582842074610342 0 -0.082451352827770552 -0.41163664718976212 0 -0.095995502779844255 -0.39166661886747001 0 -0.093615658715422545 -0.40476526464288082 0 -0.081664681120336771 -0.39582842074610342 0 -0.095995502779844255 -0.39166661886747001 0 -0.081664681120336771 -0.39582842074610342 0 -0.085276019388031976 -0.37619188405436782 0 -0.081664681120336771 -0.39582842074610342 0 -0.085276019388031976 -0.37619188405436782 0 -0.074552591578295357 -0.38401367178407558 0 -0.095995502779844255 -0.39166661886747001 0 -0.085276019388031976 -0.37619188405436782 0 -0.081664681120336771 -0.39582842074610342 0 -0.065379196062645584 -0.39052657147488062 0 -0.074552591578295357 -0.38401367178407558 0 -0.065890469742167113 -0.37350781086095058 0 -0.085276019388031976 -0.37619188405436782 0 -0.074552591578295357 -0.38401367178407558 0 -0.065890469742167113 -0.37350781086095058 0 -0.065379196062645584 -0.39052657147488062 0 -0.074552591578295357 -0.38401367178407558 0 -0.081664681120336771 -0.39582842074610342 0 -0.06528413140028641 -0.40548789039177052 0 -0.082451352827770552 -0.41163664718976212 0 -0.081664681120336771 -0.39582842074610342 0 -0.065379196062645584 -0.39052657147488062 0 -0.06528413140028641 -0.40548789039177052 0 -0.065713266975248902 -0.42040157794015642 0 -0.085028608260126398 -0.42320905853578622 0 -0.082451352827770552 -0.41163664718976212 0 -0.06528413140028641 -0.40548789039177052 0 -0.065713266975248902 -0.42040157794015642 0 -0.082451352827770552 -0.41163664718976212 0 -0.065713266975248902 -0.42040157794015642 0 -0.077753046024815156 -0.43509142098737241 0 -0.085028608260126398 -0.42320905853578622 0 -0.052630130657334448 -0.42871109396582502 0 -0.065713266975248902 -0.42040157794015642 0 -0.077753046024815156 -0.43509142098737241 0 -0.10033463645810529 -0.42946893710417328 0 -0.077753046024815156 -0.43509142098737241 0 -0.085028608260126398 -0.42320905853578622 0 -0.10033463645810529 -0.42946893710417328 0 -0.094107383989168333 -0.41562629379671062 0 -0.085028608260126398 -0.42320905853578622 0 -0.094107383989168333 -0.41562629379671062 0 -0.085028608260126398 -0.42320905853578622 0 -0.082451352827770552 -0.41163664718976212 0 -0.094107383989168333 -0.41562629379671062 0 -0.093615658715422545 -0.40476526464288082 0 -0.082451352827770552 -0.41163664718976212 0 -0.080832567710134945 -0.085265223789800185 0 -0.09573268077664969 -0.090624673380050064 0 -0.094924188455715333 -0.074372309221374736 0 -0.080832567710134945 -0.085265223789800185 0 -0.0944050220014645 -0.1050702242089397 0 -0.09573268077664969 -0.090624673380050064 0 -0.094924188455715333 -0.074372309221374736 0 -0.077079431972146645 -0.050953682142663811 0 -0.080832567710134945 -0.085265223789800185 0 -0.077460787511610923 -0.070469280456870842 0 -0.094924188455715333 -0.074372309221374736 0 -0.077460787511610923 -0.070469280456870842 0 -0.094924188455715333 -0.074372309221374736 0 -0.078535685693175539 -0.061573663464548622 0 -0.080832567710134945 -0.085265223789800185 0 -0.072736864716213656 -0.076885636419884412 0 -0.077460787511610923 -0.070469280456870842 0 -0.072736864716213656 -0.076885636419884412 0 -0.077460787511610923 -0.070469280456870842 0 -0.067174029152377468 -0.071022972744677337 0 -0.077460787511610923 -0.070469280456870842 0 -0.067174029152377468 -0.071022972744677337 0 -0.070308423821052124 -0.061023041189074957 0 -0.077460787511610923 -0.070469280456870842 0 -0.078535685693175539 -0.061573663464548622 0 -0.070308423821052124 -0.061023041189074957 0 -0.067174029152377468 -0.071022972744677337 0 -0.070308423821052124 -0.061023041189074957 0 -0.060830035872249492 -0.064558057335980773 0 -0.072736864716213656 -0.076885636419884412 0 -0.067174029152377468 -0.071022972744677337 0 -0.063732237529271596 -0.080733089011810297 0 -0.067174029152377468 -0.071022972744677337 0 -0.063732237529271596 -0.080733089011810297 0 -0.058000192015007383 -0.073011667883306972 0 -0.080832567710134945 -0.085265223789800185 0 -0.063732237529271596 -0.080733089011810297 0 -0.066023591375222151 -0.09957098179305135 0 -0.080832567710134945 -0.085265223789800185 0 -0.072736864716213656 -0.076885636419884412 0 -0.063732237529271596 -0.080733089011810297 0 -0.066023591375222151 -0.09957098179305135 0 -0.069466171350113709 -0.1135628440840601 0 -0.0944050220014645 -0.1050702242089397 0 -0.066023591375222151 -0.09957098179305135 0 -0.069466171350113709 -0.1135628440840601 0 -0.054384952187449757 -0.110609208962567 0 -0.077516787342341589 -0.1242022911324857 0 -0.069466171350113709 -0.1135628440840601 0 -0.059238207921678762 -0.13024384051707169 0 -0.077516787342341589 -0.1242022911324857 0 -0.093262550211769629 -0.1231040070079162 0 -0.0944050220014645 -0.1050702242089397 0 -0.077516787342341589 -0.1242022911324857 0 -0.069466171350113709 -0.1135628440840601 0 -0.0944050220014645 -0.1050702242089397 0 -0.066023591375222151 -0.09957098179305135 0 -0.0944050220014645 -0.1050702242089397 0 -0.080832567710134945 -0.085265223789800185 0 -0.066023591375222151 -0.09957098179305135 0 -0.0944050220014645 -0.1050702242089397 0 -0.0944050220014645 -0.1050702242089397 0 -0.1071147179002416 -0.1244919901550422 0 -0.11276894493928399 -0.097790936300085646 0 -0.0944050220014645 -0.1050702242089397 0 -0.11276894493928399 -0.097790936300085646 0 -0.09573268077664969 -0.090624673380050064 0 -0.093262550211769629 -0.1231040070079162 0 -0.0944050220014645 -0.1050702242089397 0 -0.1071147179002416 -0.1244919901550422 0 -0.1071147179002416 -0.1244919901550422 0 -0.11276894493928399 -0.097790936300085646 0 -0.1306137014228527 -0.1212095633787966 0 -0.11276894493928399 -0.097790936300085646 0 -0.1306137014228527 -0.1212095633787966 0 -0.112702195828283 -0.076339248342475546 0 -0.13438499311011279 -0.096174695905308166 0 -0.11276894493928399 -0.097790936300085646 0 -0.112702195828283 -0.076339248342475546 0 -0.13438499311011279 -0.096174695905308166 0 -0.11276894493928399 -0.097790936300085646 0 -0.094924188455715333 -0.074372309221374736 0 -0.112702195828283 -0.076339248342475546 0 -0.11276894493928399 -0.097790936300085646 0 -0.094924188455715333 -0.074372309221374736 0 -0.11276894493928399 -0.097790936300085646 0 -0.09573268077664969 -0.090624673380050064 0 -0.094924188455715333 -0.074372309221374736 0 -0.094924188455715333 -0.074372309221374736 0 -0.1026030192468113 -0.064894788769428779 0 -0.112702195828283 -0.076339248342475546 0 -0.094924188455715333 -0.074372309221374736 0 -0.1026030192468113 -0.064894788769428779 0 -0.090333769324138391 -0.059362086744932152 0 -0.1026030192468113 -0.064894788769428779 0 -0.112702195828283 -0.076339248342475546 0 -0.1158705629695205 -0.060236298698018297 0 -0.112702195828283 -0.076339248342475546 0 -0.1158705629695205 -0.060236298698018297 0 -0.13497135686491851 -0.078315161523928284 0 -0.1158705629695205 -0.060236298698018297 0 -0.1150956899200111 -0.045830426672337207 0 -0.1070798181065768 -0.041876824406217303 0 -0.1158705629695205 -0.060236298698018297 0 -0.1150956899200111 -0.045830426672337207 0 -0.12809376798702951 -0.047905065599393698 0 -0.1163329610324388 -0.034474533447810513 0 -0.12530131535501859 -0.034952786400489197 0 -0.12809376798702951 -0.047905065599393698 0 -0.11023593420079281 -0.033339602888773932 0 -0.1150956899200111 -0.045830426672337207 0 -0.12809376798702951 -0.047905065599393698 0 -0.11023593420079281 -0.033339602888773932 0 -0.1163329610324388 -0.034474533447810513 0 -0.12809376798702951 -0.047905065599393698 0 -0.11023593420079281 -0.033339602888773932 0 -0.12809376798702951 -0.047905065599393698 0 -0.1163329610324388 -0.034474533447810513 0 -0.1221370268088495 -0.025998648103035 0 -0.12530131535501859 -0.034952786400489197 0 -0.11023593420079281 -0.033339602888773932 0 -0.1150956899200111 -0.045830426672337207 0 -0.1070798181065768 -0.041876824406217303 0 -0.11023593420079281 -0.033339602888773932 0 -0.1163329610324388 -0.034474533447810513 0 -0.097427134368436918 -0.027820357899848831 0 -0.11023593420079281 -0.033339602888773932 0 -0.1070798181065768 -0.041876824406217303 0 -0.097427134368436918 -0.027820357899848831 0 -0.1070798181065768 -0.041876824406217303 0 -0.096769769074122519 -0.04215743587210824 0 -0.097427134368436918 -0.027820357899848831 0 -0.1158705629695205 -0.060236298698018297 0 -0.1070798181065768 -0.041876824406217303 0 -0.096769769074122519 -0.04215743587210824 0 -0.1026030192468113 -0.064894788769428779 0 -0.1158705629695205 -0.060236298698018297 0 -0.099264754381345577 -0.055060356505970513 0 -0.1158705629695205 -0.060236298698018297 0 -0.096769769074122519 -0.04215743587210824 0 -0.099264754381345577 -0.055060356505970513 0 -0.096769769074122519 -0.04215743587210824 0 -0.099264754381345577 -0.055060356505970513 0 -0.090746651292135133 -0.048651172445365112 0 -0.1158705629695205 -0.060236298698018297 0 -0.096769769074122519 -0.04215743587210824 0 -0.1026030192468113 -0.064894788769428779 0 -0.099264754381345577 -0.055060356505970513 0 -0.090333769324138391 -0.059362086744932152 0 -0.1029392013539359 -0.0085751277431150782 0 -0.12735709500343681 0.004015926865657337 0 -0.1236693299605585 -0.0137973575501921 0 -0.1110604598185659 -0.0207882196779367 0 -0.1029392013539359 -0.0085751277431150782 0 -0.1236693299605585 -0.0137973575501921 0 -0.1029392013539359 -0.0085751277431150782 0 -0.12735709500343681 0.004015926865657337 0 -0.1236693299605585 -0.0137973575501921 0 -0.1110604598185659 -0.0207882196779367 0 -0.1221370268088495 -0.025998648103035 0 -0.1163329610324388 -0.034474533447810513 0 -0.1221370268088495 -0.025998648103035 0 -0.11173939550707281 -0.027270439782157759 0 -0.1110604598185659 -0.0207882196779367 0 -0.1221370268088495 -0.025998648103035 0 -0.11173939550707281 -0.027270439782157759 0 -0.1163329610324388 -0.034474533447810513 0 -0.097427134368436918 -0.027820357899848831 0 -0.1110604598185659 -0.0207882196779367 0 -0.097427134368436918 -0.027820357899848831 0 -0.1029392013539359 -0.0085751277431150782 0 -0.1163329610324388 -0.034474533447810513 0 -0.11173939550707281 -0.027270439782157759 0 -0.097427134368436918 -0.027820357899848831 0 -0.1110604598185659 -0.0207882196779367 0 -0.11173939550707281 -0.027270439782157759 0 -0.097427134368436918 -0.027820357899848831 0 -0.1029392013539359 -0.0085751277431150782 0 -0.086097875964997059 -0.0058870606910941042 0 -0.078521307704434995 -0.021166182351887271 0 -0.1029392013539359 -0.0085751277431150782 0 -0.078521307704434995 -0.021166182351887271 0 -0.1029392013539359 -0.0085751277431150782 0 -0.086097875964997059 -0.0058870606910941042 0 -0.091682611010439896 0.0063963380850077774 0 -0.086097875964997059 -0.0058870606910941042 0 -0.073830544796709738 -0.0078542708917730738 0 -0.078933949510919491 0.00072378658541613432 0 -0.086097875964997059 -0.0058870606910941042 0 -0.078521307704434995 -0.021166182351887271 0 -0.073830544796709738 -0.0078542708917730738 0 -0.097427134368436918 -0.027820357899848831 0 -0.078521307704434995 -0.021166182351887271 0 -0.097427134368436918 -0.027820357899848831 0 -0.078521307704434995 -0.021166182351887271 0 -0.077668975178724509 -0.024078573046198169 0 -0.097427134368436918 -0.027820357899848831 0 -0.1029392013539359 -0.0085751277431150782 0 -0.078521307704434995 -0.021166182351887271 0 -0.078521307704434995 -0.021166182351887271 0 -0.055132092173872667 -0.033226800447327051 0 -0.05822397002114936 -0.01402224463886402 0 -0.078521307704434995 -0.021166182351887271 0 -0.055132092173872667 -0.033226800447327051 0 -0.077668975178724509 -0.024078573046198169 0 -0.075465350998538308 -0.032772608828030472 0 -0.055132092173872667 -0.033226800447327051 0 -0.078521307704434995 -0.021166182351887271 0 -0.077668975178724509 -0.024078573046198169 0 -0.055132092173872667 -0.033226800447327051 0 -0.078521307704434995 -0.021166182351887271 0 -0.05822397002114936 -0.01402224463886402 0 -0.078521307704434995 -0.021166182351887271 0 -0.073830544796709738 -0.0078542708917730738 0 -0.05822397002114936 -0.01402224463886402 0 -0.073830544796709738 -0.0078542708917730738 0 -0.05822397002114936 -0.01402224463886402 0 -0.068462160169621672 0.0025537029525893409 0 -0.073830544796709738 -0.0078542708917730738 0 -0.078933949510919491 0.00072378658541613432 0 -0.068462160169621672 0.0025537029525893409 0 -0.094924188455715333 -0.074372309221374736 0 -0.090333769324138391 -0.059362086744932152 0 -0.077079431972146645 -0.050953682142663811 0 -0.094924188455715333 -0.074372309221374736 0 -0.078535685693175539 -0.061573663464548622 0 -0.077079431972146645 -0.050953682142663811 0 -0.084868245962835154 -0.053326759561897898 0 -0.090333769324138391 -0.059362086744932152 0 -0.077079431972146645 -0.050953682142663811 0 -0.084868245962835154 -0.053326759561897898 0 -0.080876314157704687 -0.04955372347343575 0 -0.082849096915408454 -0.045583035938281863 0 -0.080876314157704687 -0.04955372347343575 0 -0.078708481780428496 -0.048351416250899462 0 -0.082849096915408454 -0.045583035938281863 0 -0.080876314157704687 -0.04955372347343575 0 -0.078708481780428496 -0.048351416250899462 0 -0.077079431972146645 -0.050953682142663811 0 -0.084868245962835154 -0.053326759561897898 0 -0.080876314157704687 -0.04955372347343575 0 -0.077079431972146645 -0.050953682142663811 0 -0.084868245962835154 -0.053326759561897898 0 -0.090746651292135133 -0.048651172445365112 0 -0.082849096915408454 -0.045583035938281863 0 -0.084868245962835154 -0.053326759561897898 0 -0.090333769324138391 -0.059362086744932152 0 -0.090746651292135133 -0.048651172445365112 0 -0.099264754381345577 -0.055060356505970513 0 -0.090333769324138391 -0.059362086744932152 0 -0.090746651292135133 -0.048651172445365112 0 -0.096769769074122519 -0.04215743587210824 0 -0.088481073739883592 -0.043344290748051233 0 -0.083558777677868248 -0.036985518736449702 0 -0.096769769074122519 -0.04215743587210824 0 -0.097427134368436918 -0.027820357899848831 0 -0.077668975178724509 -0.024078573046198169 0 -0.096769769074122519 -0.04215743587210824 0 -0.077668975178724509 -0.024078573046198169 0 -0.083558777677868248 -0.036985518736449702 0 -0.096769769074122519 -0.04215743587210824 0 -0.077668975178724509 -0.024078573046198169 0 -0.090746651292135133 -0.048651172445365112 0 -0.088481073739883592 -0.043344290748051233 0 -0.082849096915408454 -0.045583035938281863 0 -0.096769769074122519 -0.04215743587210824 0 -0.090746651292135133 -0.048651172445365112 0 -0.088481073739883592 -0.043344290748051233 0 -0.077668975178724509 -0.024078573046198169 0 -0.083558777677868248 -0.036985518736449702 0 -0.075465350998538308 -0.032772608828030472 0 -0.083558777677868248 -0.036985518736449702 0 -0.082849096915408454 -0.045583035938281863 0 -0.075062618692292638 -0.040325846155841297 0 -0.088481073739883592 -0.043344290748051233 0 -0.083558777677868248 -0.036985518736449702 0 -0.082849096915408454 -0.045583035938281863 0 -0.082849096915408454 -0.045583035938281863 0 -0.078067002861142085 -0.04575568247049161 0 -0.075062618692292638 -0.040325846155841297 0 -0.078708481780428496 -0.048351416250899462 0 -0.082849096915408454 -0.045583035938281863 0 -0.078067002861142085 -0.04575568247049161 0 -0.075647814056438792 -0.048762431536943832 0 -0.055132092173872667 -0.033226800447327051 0 -0.078067002861142085 -0.04575568247049161 0 -0.075062618692292638 -0.040325846155841297 0 -0.075647814056438792 -0.048762431536943832 0 -0.075062618692292638 -0.040325846155841297 0 -0.075465350998538308 -0.032772608828030472 0 -0.055132092173872667 -0.033226800447327051 0 -0.075647814056438792 -0.048762431536943832 0 -0.061428605263776047 -0.046553119166432878 0 -0.055132092173872667 -0.033226800447327051 0 -0.075062618692292638 -0.040325846155841297 0 -0.075647814056438792 -0.048762431536943832 0 -0.055132092173872667 -0.033226800447327051 0 -0.083558777677868248 -0.036985518736449702 0 -0.075062618692292638 -0.040325846155841297 0 -0.075465350998538308 -0.032772608828030472 0 -0.065722760200719738 -0.052253177456942877 0 -0.075647814056438792 -0.048762431536943832 0 -0.061428605263776047 -0.046553119166432878 0 -0.065722760200719738 -0.052253177456942877 0 -0.07269306068786438 -0.052406879740114577 0 -0.069833853901725543 -0.055329661047837618 0 -0.065722760200719738 -0.052253177456942877 0 -0.07269306068786438 -0.052406879740114577 0 -0.075647814056438792 -0.048762431536943832 0 -0.07269306068786438 -0.052406879740114577 0 -0.073703714626092445 -0.056102563442451223 0 -0.069833853901725543 -0.055329661047837618 0 -0.07269306068786438 -0.052406879740114577 0 -0.077079431972146645 -0.050953682142663811 0 -0.073703714626092445 -0.056102563442451223 0 -0.078708481780428496 -0.048351416250899462 0 -0.077079431972146645 -0.050953682142663811 0 -0.075647814056438792 -0.048762431536943832 0 -0.07269306068786438 -0.052406879740114577 0 -0.077079431972146645 -0.050953682142663811 0 -0.075647814056438792 -0.048762431536943832 0 -0.078708481780428496 -0.048351416250899462 0 -0.078067002861142085 -0.04575568247049161 0 -0.075647814056438792 -0.048762431536943832 0 -0.078535685693175539 -0.061573663464548622 0 -0.073703714626092445 -0.056102563442451223 0 -0.070308423821052124 -0.061023041189074957 0 -0.078535685693175539 -0.061573663464548622 0 -0.077079431972146645 -0.050953682142663811 0 -0.073703714626092445 -0.056102563442451223 0 -0.073703714626092445 -0.056102563442451223 0 -0.070308423821052124 -0.061023041189074957 0 -0.069833853901725543 -0.055329661047837618 0 -0.070308423821052124 -0.061023041189074957 0 -0.064391701294429504 -0.057679717025484439 0 -0.060830035872249492 -0.064558057335980773 0 -0.070308423821052124 -0.061023041189074957 0 -0.069833853901725543 -0.055329661047837618 0 -0.064391701294429504 -0.057679717025484439 0 -0.065722760200719738 -0.052253177456942877 0 -0.069833853901725543 -0.055329661047837618 0 -0.064391701294429504 -0.057679717025484439 0 -0.064391701294429504 -0.057679717025484439 0 -0.055978059279945473 -0.056388284161067823 0 -0.060830035872249492 -0.064558057335980773 0 -0.065722760200719738 -0.052253177456942877 0 -0.064391701294429504 -0.057679717025484439 0 -0.055978059279945473 -0.056388284161067823 0 -0.055978059279945473 -0.056388284161067823 0 -0.041230103293456458 -0.058058117591144771 0 -0.049479852383656611 -0.067543566470139038 0 -0.055978059279945473 -0.056388284161067823 0 -0.049741921456861897 -0.048697412542500033 0 -0.041230103293456458 -0.058058117591144771 0 -0.055978059279945473 -0.056388284161067823 0 -0.049741921456861897 -0.048697412542500033 0 -0.061428605263776047 -0.046553119166432878 0 -0.065722760200719738 -0.052253177456942877 0 -0.055978059279945473 -0.056388284161067823 0 -0.061428605263776047 -0.046553119166432878 0 -0.049741921456861897 -0.048697412542500033 0 -0.061428605263776047 -0.046553119166432878 0 -0.055132092173872667 -0.033226800447327051 0 -0.049741921456861897 -0.048697412542500033 0 -0.055132092173872667 -0.033226800447327051 0 -0.032367863380537598 -0.044965144957206583 0 -0.055132092173872667 -0.033226800447327051 0 -0.032367863380537598 -0.044965144957206583 0 -0.055132092173872667 -0.033226800447327051 0 -0.032367863380537598 -0.044965144957206583 0 -0.031233838643279398 -0.031193199633022049 0 -0.049741921456861897 -0.048697412542500033 0 -0.032367863380537598 -0.044965144957206583 0 -0.041230103293456458 -0.058058117591144771 0 -0.032367863380537598 -0.044965144957206583 0 -0.041230103293456458 -0.058058117591144771 0 -0.026902341230915561 -0.060374551747501753 0 -0.05822397002114936 -0.01402224463886402 0 -0.057836245250817257 0.0062936453779614283 0 -0.044352522143416888 0.0050416822031405977 0 -0.05822397002114936 -0.01402224463886402 0 -0.037926632337863607 -0.0068783069258408786 0 -0.05822397002114936 -0.01402224463886402 0 -0.068462160169621672 0.0025537029525893409 0 -0.057836245250817257 0.0062936453779614283 0 -0.055132092173872667 -0.033226800447327051 0 -0.05822397002114936 -0.01402224463886402 0 -0.036243114184870161 -0.018923029155399909 0 -0.055132092173872667 -0.033226800447327051 0 -0.036243114184870161 -0.018923029155399909 0 -0.031233838643279398 -0.031193199633022049 0 -0.055132092173872667 -0.033226800447327051 0 -0.036243114184870161 -0.018923029155399909 0 -0.05822397002114936 -0.01402224463886402 0 -0.036243114184870161 -0.018923029155399909 0 -0.037926632337863607 -0.0068783069258408786 0 -0.05822397002114936 -0.01402224463886402 0 -0.037926632337863607 -0.0068783069258408786 0 -0.044352522143416888 0.0050416822031405977 0 -0.036243114184870161 -0.018923029155399909 0 -0.037926632337863607 -0.0068783069258408786 0 -0.029121832422534862 -0.0067169982391169078 0 -0.037926632337863607 -0.0068783069258408786 0 -0.029539197120254941 -0.00051038393964639519 0 -0.029121832422534862 -0.0067169982391169078 0 -0.037926632337863607 -0.0068783069258408786 0 -0.029539197120254941 -0.00051038393964639519 0 -0.03614709390981162 0.0015378833132510439 0 -0.037926632337863607 -0.0068783069258408786 0 -0.03614709390981162 0.0015378833132510439 0 -0.044352522143416888 0.0050416822031405977 0 -0.036243114184870161 -0.018923029155399909 0 -0.017354136195868258 -0.0046192578634720229 0 -0.01819617019275287 -0.0061732580868559192 0 -0.036243114184870161 -0.018923029155399909 0 -0.017354136195868258 -0.0046192578634720229 0 -0.029121832422534862 -0.0067169982391169078 0 -0.036243114184870161 -0.018923029155399909 0 -0.01819617019275287 -0.0061732580868559192 0 -0.019637671972121611 -0.02148729346067638 0 -0.036243114184870161 -0.018923029155399909 0 -0.017354136195868258 -0.0046192578634720229 0 -0.017354136195868258 -0.0046192578634720229 0 -0.01819617019275287 -0.0061732580868559192 0 -0.013500839782477779 -0.0058155532537883976 0 -0.017354136195868258 -0.0046192578634720229 0 -0.01819617019275287 -0.0061732580868559192 0 -0.017354136195868258 -0.0046192578634720229 0 -0.024546082273817361 -0.00265401331122534 0 -0.02112675760807068 0.0030512678310729521 0 -0.024546082273817361 -0.00265401331122534 0 -0.029539197120254941 -0.00051038393964639519 0 -0.02112675760807068 0.0030512678310729521 0 -0.017354136195868258 -0.0046192578634720229 0 -0.024546082273817361 -0.00265401331122534 0 -0.029121832422534862 -0.0067169982391169078 0 -0.024546082273817361 -0.00265401331122534 0 -0.029539197120254941 -0.00051038393964639519 0 -0.029121832422534862 -0.0067169982391169078 0 -0.01819617019275287 -0.0061732580868559192 0 -0.019637671972121611 -0.02148729346067638 0 -0.011008321991883009 -0.01057962122923565 0 -0.036243114184870161 -0.018923029155399909 0 -0.019637671972121611 -0.02148729346067638 0 -0.031233838643279398 -0.031193199633022049 0 -0.019637671972121611 -0.02148729346067638 0 -0.031233838643279398 -0.031193199633022049 0 -0.016064986363794779 -0.036441041599790329 0 -0.0077215053668332834 -0.022860670268973711 0 -0.00118246574067416 -0.01324232368796026 0 0.0015263381015913891 -0.033415212413580753 0 -0.0077215053668332834 -0.022860670268973711 0 -0.016064986363794779 -0.036441041599790329 0 0.0015263381015913891 -0.033415212413580753 0 -0.019637671972121611 -0.02148729346067638 0 -0.0077215053668332834 -0.022860670268973711 0 -0.016064986363794779 -0.036441041599790329 0 -0.019637671972121611 -0.02148729346067638 0 -0.0077215053668332834 -0.022860670268973711 0 -0.011008321991883009 -0.01057962122923565 0 -0.011008321991883009 -0.01057962122923565 0 -0.00118246574067416 -0.01324232368796026 0 -0.0072764121498596901 -0.0036325873431357339 0 -0.0077215053668332834 -0.022860670268973711 0 -0.011008321991883009 -0.01057962122923565 0 -0.00118246574067416 -0.01324232368796026 0 -0.00118246574067416 -0.01324232368796026 0 -0.0072764121498596901 -0.0036325873431357339 0 0.0012074066645448821 -0.00065723147797176382 0 -0.0072764121498596901 -0.0036325873431357339 0 -0.013500839782477779 -0.0058155532537883976 0 -0.013607688627124061 -0.00178224205395049 0 -0.011008321991883009 -0.01057962122923565 0 -0.0072764121498596901 -0.0036325873431357339 0 -0.013500839782477779 -0.0058155532537883976 0 -0.01819617019275287 -0.0061732580868559192 0 -0.011008321991883009 -0.01057962122923565 0 -0.013500839782477779 -0.0058155532537883976 0 -0.017354136195868258 -0.0046192578634720229 0 -0.013500839782477779 -0.0058155532537883976 0 -0.013607688627124061 -0.00178224205395049 0 -0.017354136195868258 -0.0046192578634720229 0 -0.013607688627124061 -0.00178224205395049 0 -0.032367863380537598 -0.044965144957206583 0 -0.0096036345872028556 -0.056703489467087059 0 -0.032367863380537598 -0.044965144957206583 0 -0.026902341230915561 -0.060374551747501753 0 -0.0096036345872028556 -0.056703489467087059 0 -0.032367863380537598 -0.044965144957206583 0 -0.031233838643279398 -0.031193199633022049 0 -0.016064986363794779 -0.036441041599790329 0 -0.032367863380537598 -0.044965144957206583 0 -0.016064986363794779 -0.036441041599790329 0 -0.0096036345872028556 -0.056703489467087059 0 -0.0096036345872028556 -0.056703489467087059 0 0.0015263381015913891 -0.033415212413580753 0 -0.016064986363794779 -0.036441041599790329 0 -0.0096036345872028556 -0.056703489467087059 0 0.0015263381015913891 -0.033415212413580753 0 -0.0096036345872028556 -0.056703489467087059 0 0.0015263381015913891 -0.033415212413580753 0 0.007298405735321048 -0.051477207310420908 0 -0.0096036345872028556 -0.056703489467087059 0 0.0052181775422467033 -0.064346337314722044 0 -0.0096036345872028556 -0.056703489467087059 0 -0.0043762627118289626 -0.071729097412358583 0 0.0052181775422467033 -0.064346337314722044 0 -0.0043762627118289626 -0.071729097412358583 0 -0.0092607301227374331 -0.088572496961274561 0 -0.01646375475339092 -0.071057556949349329 0 -0.0096036345872028556 -0.056703489467087059 0 -0.01646375475339092 -0.071057556949349329 0 -0.0096036345872028556 -0.056703489467087059 0 -0.0043762627118289626 -0.071729097412358583 0 -0.01646375475339092 -0.071057556949349329 0 -0.0092607301227374331 -0.088572496961274561 0 -0.00044729776891663488 -0.1011528385718463 0 0.0042106568376920582 -0.081118225430045127 0 -0.0043762627118289626 -0.071729097412358583 0 -0.0092607301227374331 -0.088572496961274561 0 0.0042106568376920582 -0.081118225430045127 0 -0.0092607301227374331 -0.088572496961274561 0 -0.037642160748979789 -0.094071739377162955 0 -0.0092607301227374331 -0.088572496961274561 0 -0.023323874919582349 -0.085411624431610003 0 -0.01646375475339092 -0.071057556949349329 0 -0.0092607301227374331 -0.088572496961274561 0 -0.023323874919582349 -0.085411624431610003 0 -0.037642160748979789 -0.094071739377162955 0 -0.023323874919582349 -0.085411624431610003 0 -0.01646375475339092 -0.071057556949349329 0 -0.023323874919582349 -0.085411624431610003 0 -0.01646375475339092 -0.071057556949349329 0 -0.034846350139989962 -0.07108844977272101 0 -0.026902341230915561 -0.060374551747501753 0 -0.01646375475339092 -0.071057556949349329 0 -0.034846350139989962 -0.07108844977272101 0 -0.026902341230915561 -0.060374551747501753 0 -0.0096036345872028556 -0.056703489467087059 0 -0.01646375475339092 -0.071057556949349329 0 -0.041230103293456458 -0.058058117591144771 0 -0.026902341230915561 -0.060374551747501753 0 -0.034846350139989962 -0.07108844977272101 0 -0.041230103293456458 -0.058058117591144771 0 -0.034846350139989962 -0.07108844977272101 0 -0.049479852383656611 -0.067543566470139038 0 -0.034846350139989962 -0.07108844977272101 0 -0.048784805137481749 -0.081200653853927454 0 -0.049479852383656611 -0.067543566470139038 0 -0.023323874919582349 -0.085411624431610003 0 -0.034846350139989962 -0.07108844977272101 0 -0.036149297736508462 -0.082943116858855345 0 -0.023323874919582349 -0.085411624431610003 0 -0.036149297736508462 -0.082943116858855345 0 -0.037642160748979789 -0.094071739377162955 0 -0.036149297736508462 -0.082943116858855345 0 -0.048784805137481749 -0.081200653853927454 0 -0.037642160748979789 -0.094071739377162955 0 -0.034846350139989962 -0.07108844977272101 0 -0.036149297736508462 -0.082943116858855345 0 -0.048784805137481749 -0.081200653853927454 0 -0.063732237529271596 -0.080733089011810297 0 -0.066023591375222151 -0.09957098179305135 0 -0.048784805137481749 -0.081200653853927454 0 -0.066023591375222151 -0.09957098179305135 0 -0.048784805137481749 -0.081200653853927454 0 -0.037642160748979789 -0.094071739377162955 0 -0.063732237529271596 -0.080733089011810297 0 -0.048784805137481749 -0.081200653853927454 0 -0.058000192015007383 -0.073011667883306972 0 -0.055978059279945473 -0.056388284161067823 0 -0.060830035872249492 -0.064558057335980773 0 -0.049479852383656611 -0.067543566470139038 0 -0.058000192015007383 -0.073011667883306972 0 -0.060830035872249492 -0.064558057335980773 0 -0.049479852383656611 -0.067543566470139038 0 -0.067174029152377468 -0.071022972744677337 0 -0.058000192015007383 -0.073011667883306972 0 -0.060830035872249492 -0.064558057335980773 0 -0.048784805137481749 -0.081200653853927454 0 -0.058000192015007383 -0.073011667883306972 0 -0.049479852383656611 -0.067543566470139038 0 -0.069466171350113709 -0.1135628440840601 0 -0.054384952187449757 -0.110609208962567 0 -0.059238207921678762 -0.13024384051707169 0 -0.054384952187449757 -0.110609208962567 0 -0.059238207921678762 -0.13024384051707169 0 -0.032945469352336033 -0.1293562392835419 0 -0.066023591375222151 -0.09957098179305135 0 -0.054384952187449757 -0.110609208962567 0 -0.037642160748979789 -0.094071739377162955 0 -0.066023591375222151 -0.09957098179305135 0 -0.037642160748979789 -0.094071739377162955 0 -0.054384952187449757 -0.110609208962567 0 -0.037642160748979789 -0.094071739377162955 0 -0.035661083064217503 -0.11124856921529409 0 -0.054384952187449757 -0.110609208962567 0 -0.032945469352336033 -0.1293562392835419 0 -0.054384952187449757 -0.110609208962567 0 -0.035661083064217503 -0.11124856921529409 0 -0.032945469352336033 -0.1293562392835419 0 -0.01767174996810443 -0.1109570892379047 0 -0.012892303975098539 -0.12786221844410239 0 -0.032945469352336033 -0.1293562392835419 0 -0.035661083064217503 -0.11124856921529409 0 -0.01767174996810443 -0.1109570892379047 0 -0.032945469352336033 -0.1293562392835419 0 -0.0092607301227374331 -0.088572496961274561 0 -0.037642160748979789 -0.094071739377162955 0 -0.01767174996810443 -0.1109570892379047 0 -0.037642160748979789 -0.094071739377162955 0 -0.035661083064217503 -0.11124856921529409 0 -0.01767174996810443 -0.1109570892379047 0 -0.01767174996810443 -0.1109570892379047 0 -0.00044729776891663488 -0.1011528385718463 0 0.005085065621477718 -0.1151057880332567 0 -0.0092607301227374331 -0.088572496961274561 0 -0.01767174996810443 -0.1109570892379047 0 -0.00044729776891663488 -0.1011528385718463 0 -0.01767174996810443 -0.1109570892379047 0 -0.012892303975098539 -0.12786221844410239 0 0.005085065621477718 -0.1151057880332567 0 -0.012892303975098539 -0.12786221844410239 0 0.0027021066240326768 -0.1317064378292063 0 0.005085065621477718 -0.1151057880332567 0 -0.011505986517222349 -0.14810326960451681 0 -0.033736789854580403 -0.16402697950055581 0 -0.032945469352336033 -0.1293562392835419 0 -0.012892303975098539 -0.12786221844410239 0 -0.011505986517222349 -0.14810326960451681 0 0.0027021066240326768 -0.1317064378292063 0 -0.011505986517222349 -0.14810326960451681 0 -0.032945469352336033 -0.1293562392835419 0 -0.012892303975098539 -0.12786221844410239 0 -0.011505986517222349 -0.14810326960451681 0 -0.032945469352336033 -0.1293562392835419 0 -0.011505986517222349 -0.14810326960451681 0 0.009933496317892726 -0.16685029992549011 0 -0.011505986517222349 -0.14810326960451681 0 -0.0085976242789068957 -0.177408956520272 0 0.009933496317892726 -0.16685029992549011 0 -0.0085976242789068957 -0.177408956520272 0 -0.003739977245034012 -0.19168309442994089 0 -0.02712874487570623 -0.18796761311505439 0 -0.0085976242789068957 -0.177408956520272 0 -0.003739977245034012 -0.19168309442994089 0 0.0034571977838801569 -0.17702496179755631 0 -0.0085976242789068957 -0.177408956520272 0 -0.02712874487570623 -0.18796761311505439 0 -0.0085976242789068957 -0.177408956520272 0 -0.033736789854580403 -0.16402697950055581 0 -0.02712874487570623 -0.18796761311505439 0 -0.011505986517222349 -0.14810326960451681 0 -0.0085976242789068957 -0.177408956520272 0 -0.033736789854580403 -0.16402697950055581 0 -0.033736789854580403 -0.16402697950055581 0 -0.041678182321736049 -0.18065303021324261 0 -0.02712874487570623 -0.18796761311505439 0 -0.033736789854580403 -0.16402697950055581 0 -0.041678182321736049 -0.18065303021324261 0 -0.060187329084152079 -0.17209125852752319 0 -0.041678182321736049 -0.18065303021324261 0 -0.060187329084152079 -0.17209125852752319 0 -0.045659865472505487 -0.198526269709837 0 -0.060187329084152079 -0.17209125852752319 0 -0.045659865472505487 -0.198526269709837 0 -0.033736789854580403 -0.16402697950055581 0 -0.060187329084152079 -0.17209125852752319 0 -0.051699405537506939 -0.14899167338562519 0 -0.060187329084152079 -0.17209125852752319 0 -0.051699405537506939 -0.14899167338562519 0 -0.072389231474787458 -0.1492400490994332 0 -0.051699405537506939 -0.14899167338562519 0 -0.059238207921678762 -0.13024384051707169 0 -0.072389231474787458 -0.1492400490994332 0 -0.033736789854580403 -0.16402697950055581 0 -0.051699405537506939 -0.14899167338562519 0 -0.032945469352336033 -0.1293562392835419 0 -0.051699405537506939 -0.14899167338562519 0 -0.059238207921678762 -0.13024384051707169 0 -0.032945469352336033 -0.1293562392835419 0 -0.025857267464119819 -0.25506418495113531 0 -0.02368513365757598 -0.23851275990414511 0 -0.036167443228362108 -0.24337299090061551 0 -0.01269776775011346 -0.25850600500130039 0 -0.02368513365757598 -0.23851275990414511 0 -0.01269776775011346 -0.25850600500130039 0 -0.02368513365757598 -0.23851275990414511 0 -0.01082738352359053 -0.24876902592697839 0 -0.02368513365757598 -0.23851275990414511 0 -0.0067432183097289999 -0.239968376336817 0 -0.0090267388034834407 -0.23007068799598671 0 -0.02368513365757598 -0.23851275990414511 0 -0.01082738352359053 -0.24876902592697839 0 -0.0067432183097289999 -0.239968376336817 0 -0.01082738352359053 -0.24876902592697839 0 -0.0029313858115674811 -0.24854412401401971 0 -0.0067432183097289999 -0.239968376336817 0 -0.0029313858115674811 -0.24854412401401971 0 -0.0067432183097289999 -0.239968376336817 0 0.0026199421412959989 -0.2430643023623929 0 -0.0067432183097289999 -0.239968376336817 0 0.0026199421412959989 -0.2430643023623929 0 0.0017465435191736189 -0.23378549097037141 0 -0.0067432183097289999 -0.239968376336817 0 -0.0090267388034834407 -0.23007068799598671 0 0.0017465435191736189 -0.23378549097037141 0 -0.0090267388034834407 -0.23007068799598671 0 -0.00080535468136348092 -0.21995366459000901 0 -0.01839049427805331 -0.2195873775130934 0 -0.0090267388034834407 -0.23007068799598671 0 -0.00080535468136348092 -0.21995366459000901 0 0.0017465435191736189 -0.23378549097037141 0 -0.02368513365757598 -0.23851275990414511 0 -0.0090267388034834407 -0.23007068799598671 0 -0.01839049427805331 -0.2195873775130934 0 -0.02368513365757598 -0.23851275990414511 0 -0.01839049427805331 -0.2195873775130934 0 -0.034672499565036527 -0.2185195148069887 0 -0.02368513365757598 -0.23851275990414511 0 -0.034672499565036527 -0.2185195148069887 0 -0.01839049427805331 -0.2195873775130934 0 -0.027127261386640289 -0.20489204062456881 0 -0.034672499565036527 -0.2185195148069887 0 -0.01839049427805331 -0.2195873775130934 0 -0.027127261386640289 -0.20489204062456881 0 -0.01084996336714465 -0.20584666152463099 0 -0.00080535468136348092 -0.21995366459000901 0 -0.01839049427805331 -0.2195873775130934 0 -0.01084996336714465 -0.20584666152463099 0 -0.00080535468136348092 -0.21995366459000901 0 -0.01084996336714465 -0.20584666152463099 0 0.01016515501406726 -0.20926501301563591 0 -0.01084996336714465 -0.20584666152463099 0 -0.003739977245034012 -0.19168309442994089 0 0.01016515501406726 -0.20926501301563591 0 -0.01084996336714465 -0.20584666152463099 0 -0.003739977245034012 -0.19168309442994089 0 -0.02712874487570623 -0.18796761311505439 0 -0.027127261386640289 -0.20489204062456881 0 -0.01084996336714465 -0.20584666152463099 0 -0.02712874487570623 -0.18796761311505439 0 -0.041678182321736049 -0.18065303021324261 0 -0.02712874487570623 -0.18796761311505439 0 -0.045659865472505487 -0.198526269709837 0 -0.02712874487570623 -0.18796761311505439 0 -0.045659865472505487 -0.198526269709837 0 -0.027127261386640289 -0.20489204062456881 0 -0.02712874487570623 -0.18796761311505439 0 -0.045659865472505487 -0.198526269709837 0 -0.045659865472505487 -0.198526269709837 0 -0.067682806497079445 -0.21107449474949169 0 -0.062708331551170268 -0.19442045911658551 0 -0.060187329084152079 -0.17209125852752319 0 -0.045659865472505487 -0.198526269709837 0 -0.062708331551170268 -0.19442045911658551 0 -0.045659865472505487 -0.198526269709837 0 -0.067682806497079445 -0.21107449474949169 0 -0.045659865472505487 -0.198526269709837 0 -0.054546183461555722 -0.22015285450131489 0 -0.067682806497079445 -0.21107449474949169 0 -0.045659865472505487 -0.198526269709837 0 -0.034672499565036527 -0.2185195148069887 0 -0.054546183461555722 -0.22015285450131489 0 -0.045659865472505487 -0.198526269709837 0 -0.034672499565036527 -0.2185195148069887 0 -0.027127261386640289 -0.20489204062456881 0 -0.045659865472505487 -0.198526269709837 0 -0.034672499565036527 -0.2185195148069887 0 -0.034672499565036527 -0.2185195148069887 0 -0.044145410485190079 -0.23242073182379891 0 -0.054546183461555722 -0.22015285450131489 0 -0.02368513365757598 -0.23851275990414511 0 -0.034672499565036527 -0.2185195148069887 0 -0.044145410485190079 -0.23242073182379891 0 -0.044145410485190079 -0.23242073182379891 0 -0.054546183461555722 -0.22015285450131489 0 -0.061280333386656921 -0.23284462843810469 0 -0.061280333386656921 -0.23284462843810469 0 -0.050191684441297867 -0.2485850187836515 0 -0.071591358857016049 -0.2429226102204386 0 -0.050191684441297867 -0.2485850187836515 0 -0.071591358857016049 -0.2429226102204386 0 -0.056939497423126581 -0.24878681181634871 0 -0.050191684441297867 -0.2485850187836515 0 -0.071591358857016049 -0.2429226102204386 0 -0.044145410485190079 -0.23242073182379891 0 -0.061280333386656921 -0.23284462843810469 0 -0.050191684441297867 -0.2485850187836515 0 -0.041398382443623198 -0.25192549838374201 0 -0.056939497423126581 -0.24878681181634871 0 -0.050191684441297867 -0.2485850187836515 0 -0.044145410485190079 -0.23242073182379891 0 -0.050191684441297867 -0.2485850187836515 0 -0.036167443228362108 -0.24337299090061551 0 -0.02368513365757598 -0.23851275990414511 0 -0.044145410485190079 -0.23242073182379891 0 -0.036167443228362108 -0.24337299090061551 0 -0.025857267464119819 -0.25506418495113531 0 -0.050191684441297867 -0.2485850187836515 0 -0.036167443228362108 -0.24337299090061551 0 -0.097628444613881649 -0.25834262822693399 0 -0.087470553331264578 -0.24262075389877999 0 -0.077955776651182085 -0.24454236002529731 0 -0.087470553331264578 -0.24262075389877999 0 -0.087928467376508473 -0.23859976953689591 0 -0.1005617376665941 -0.23997685579502359 0 -0.087928467376508473 -0.23859976953689591 0 -0.07453604668454375 -0.2421434382925548 0 -0.07383618536286593 -0.22753148747966839 0 -0.087928467376508473 -0.23859976953689591 0 -0.07453604668454375 -0.2421434382925548 0 -0.087928467376508473 -0.23859976953689591 0 -0.077955776651182085 -0.24454236002529731 0 -0.07453604668454375 -0.2421434382925548 0 -0.087470553331264578 -0.24262075389877999 0 -0.087928467376508473 -0.23859976953689591 0 -0.077955776651182085 -0.24454236002529731 0 -0.087470553331264578 -0.24262075389877999 0 -0.077955776651182085 -0.24454236002529731 0 -0.056939497423126581 -0.24878681181634871 0 -0.077955776651182085 -0.24454236002529731 0 -0.071591358857016049 -0.2429226102204386 0 -0.056939497423126581 -0.24878681181634871 0 -0.077955776651182085 -0.24454236002529731 0 -0.077955776651182085 -0.24454236002529731 0 -0.071591358857016049 -0.2429226102204386 0 -0.07453604668454375 -0.2421434382925548 0 -0.077955776651182085 -0.24454236002529731 0 -0.07453604668454375 -0.2421434382925548 0 -0.071591358857016049 -0.2429226102204386 0 -0.07453604668454375 -0.2421434382925548 0 -0.056939497423126581 -0.24878681181634871 0 -0.071591358857016049 -0.2429226102204386 0 -0.061280333386656921 -0.23284462843810469 0 -0.071591358857016049 -0.2429226102204386 0 -0.07453604668454375 -0.2421434382925548 0 -0.061280333386656921 -0.23284462843810469 0 -0.07453604668454375 -0.2421434382925548 0 -0.07383618536286593 -0.22753148747966839 0 -0.089705747521653334 -0.22362271978914661 0 -0.067682806497079445 -0.21107449474949169 0 -0.054546183461555722 -0.22015285450131489 0 -0.061280333386656921 -0.23284462843810469 0 -0.07383618536286593 -0.22753148747966839 0 -0.054546183461555722 -0.22015285450131489 0 -0.07383618536286593 -0.22753148747966839 0 -0.067682806497079445 -0.21107449474949169 0 -0.061280333386656921 -0.23284462843810469 0 -0.07453604668454375 -0.2421434382925548 0 -0.07383618536286593 -0.22753148747966839 0 -0.087928467376508473 -0.23859976953689591 0 -0.07383618536286593 -0.22753148747966839 0 -0.089705747521653334 -0.22362271978914661 0 -0.087928467376508473 -0.23859976953689591 0 -0.089705747521653334 -0.22362271978914661 0 -0.1005617376665941 -0.23997685579502359 0 -0.089705747521653334 -0.22362271978914661 0 -0.067682806497079445 -0.21107449474949169 0 -0.089705747521653334 -0.22362271978914661 0 -0.084027466008495671 -0.20735524824550181 0 -0.09921486728828334 -0.20109800384388701 0 -0.089705747521653334 -0.22362271978914661 0 -0.084027466008495671 -0.20735524824550181 0 -0.067682806497079445 -0.21107449474949169 0 -0.084027466008495671 -0.20735524824550181 0 -0.067682806497079445 -0.21107449474949169 0 -0.079506442726966622 -0.19362577459948219 0 -0.067682806497079445 -0.21107449474949169 0 -0.062708331551170268 -0.19442045911658551 0 -0.079506442726966622 -0.19362577459948219 0 -0.079506442726966622 -0.19362577459948219 0 -0.09921486728828334 -0.20109800384388701 0 -0.089369030920126963 -0.1732707743578942 0 -0.084027466008495671 -0.20735524824550181 0 -0.079506442726966622 -0.19362577459948219 0 -0.09921486728828334 -0.20109800384388701 0 -0.09921486728828334 -0.20109800384388701 0 -0.1156293974943295 -0.1822747327150937 0 -0.1210853022939376 -0.205467400633562 0 -0.1156293974943295 -0.1822747327150937 0 -0.13505851963374399 -0.18906788910329131 0 -0.09921486728828334 -0.20109800384388701 0 -0.1210853022939376 -0.205467400633562 0 -0.1156293974943295 -0.1822747327150937 0 -0.1210853022939376 -0.205467400633562 0 -0.10755849924533691 -0.2178899443088799 0 -0.11989889803527461 -0.22145143588075511 0 -0.1210853022939376 -0.205467400633562 0 -0.11989889803527461 -0.22145143588075511 0 -0.13086176299679239 -0.21746526838305219 0 -0.089705747521653334 -0.22362271978914661 0 -0.09921486728828334 -0.20109800384388701 0 -0.10755849924533691 -0.2178899443088799 0 -0.09921486728828334 -0.20109800384388701 0 -0.1210853022939376 -0.205467400633562 0 -0.10755849924533691 -0.2178899443088799 0 -0.089705747521653334 -0.22362271978914661 0 -0.11172868854622731 -0.23617094482880149 0 -0.1005617376665941 -0.23997685579502359 0 -0.089705747521653334 -0.22362271978914661 0 -0.11172868854622731 -0.23617094482880149 0 -0.089705747521653334 -0.22362271978914661 0 -0.10755849924533691 -0.2178899443088799 0 -0.11172868854622731 -0.23617094482880149 0 -0.11989889803527461 -0.22145143588075511 0 -0.11172868854622731 -0.23617094482880149 0 -0.127825895831608 -0.22987551408160201 0 -0.10755849924533691 -0.2178899443088799 0 -0.11989889803527461 -0.22145143588075511 0 -0.11172868854622731 -0.23617094482880149 0 -0.13218950310710981 -0.25272660122947088 0 -0.1218823470606431 -0.24640061544388489 0 -0.1098930818979398 -0.24798588601512411 0 -0.11172868854622731 -0.23617094482880149 0 -0.13375162957080131 -0.24871916986845621 0 -0.11172868854622731 -0.23617094482880149 0 -0.1218823470606431 -0.24640061544388489 0 -0.13375162957080131 -0.24871916986845621 0 -0.11172868854622731 -0.23617094482880149 0 -0.13375162957080131 -0.24871916986845621 0 -0.127825895831608 -0.22987551408160201 0 -0.11172868854622731 -0.23617094482880149 0 -0.1218823470606431 -0.24640061544388489 0 -0.1098930818979398 -0.24798588601512411 0 -0.097628444613881649 -0.25834262822693399 0 -0.087470553331264578 -0.24262075389877999 0 -0.1098930818979398 -0.24798588601512411 0 -0.087470553331264578 -0.24262075389877999 0 -0.1098930818979398 -0.24798588601512411 0 -0.1005617376665941 -0.23997685579502359 0 -0.087470553331264578 -0.24262075389877999 0 -0.1098930818979398 -0.24798588601512411 0 -0.11172868854622731 -0.23617094482880149 0 -0.1098930818979398 -0.24798588601512411 0 -0.1005617376665941 -0.23997685579502359 0 -0.087470553331264578 -0.24262075389877999 0 -0.1005617376665941 -0.23997685579502359 0 -0.072389231474787458 -0.1492400490994332 0 -0.089369030920126963 -0.1732707743578942 0 -0.096011965921864201 -0.14265464397282879 0 -0.077516787342341589 -0.1242022911324857 0 -0.093262550211769629 -0.1231040070079162 0 -0.096011965921864201 -0.14265464397282879 0 -0.077516787342341589 -0.1242022911324857 0 -0.072389231474787458 -0.1492400490994332 0 -0.096011965921864201 -0.14265464397282879 0 -0.077516787342341589 -0.1242022911324857 0 -0.059238207921678762 -0.13024384051707169 0 -0.072389231474787458 -0.1492400490994332 0 -0.060187329084152079 -0.17209125852752319 0 -0.072389231474787458 -0.1492400490994332 0 -0.089369030920126963 -0.1732707743578942 0 -0.060187329084152079 -0.17209125852752319 0 -0.079506442726966622 -0.19362577459948219 0 -0.089369030920126963 -0.1732707743578942 0 -0.060187329084152079 -0.17209125852752319 0 -0.062708331551170268 -0.19442045911658551 0 -0.079506442726966622 -0.19362577459948219 0 -0.089369030920126963 -0.1732707743578942 0 -0.1107512355661594 -0.16096683979900789 0 -0.096011965921864201 -0.14265464397282879 0 -0.09921486728828334 -0.20109800384388701 0 -0.089369030920126963 -0.1732707743578942 0 -0.1156293974943295 -0.1822747327150937 0 -0.089369030920126963 -0.1732707743578942 0 -0.1156293974943295 -0.1822747327150937 0 -0.1107512355661594 -0.16096683979900789 0 -0.1156293974943295 -0.1822747327150937 0 -0.13204392770037571 -0.1634514615863005 0 -0.1156293974943295 -0.1822747327150937 0 -0.1107512355661594 -0.16096683979900789 0 -0.13204392770037571 -0.1634514615863005 0 -0.1107512355661594 -0.16096683979900789 0 -0.12070185579410091 -0.1431825863629223 0 -0.13204392770037571 -0.1634514615863005 0 -0.1107512355661594 -0.16096683979900789 0 -0.12070185579410091 -0.1431825863629223 0 -0.096011965921864201 -0.14265464397282879 0 -0.1071147179002416 -0.1244919901550422 0 -0.12070185579410091 -0.1431825863629223 0 -0.096011965921864201 -0.14265464397282879 0 -0.093262550211769629 -0.1231040070079162 0 -0.1071147179002416 -0.1244919901550422 0 -0.096011965921864201 -0.14265464397282879 0 -0.1071147179002416 -0.1244919901550422 0 -0.12070185579410091 -0.1431825863629223 0 -0.1306137014228527 -0.1212095633787966 0 -0.12070185579410091 -0.1431825863629223 0 -0.14845845790642179 -0.14462819045750719 0 -0.1306137014228527 -0.1212095633787966 0 -0.14845845790642179 -0.14462819045750719 0 -0.1306137014228527 -0.1212095633787966 0 -0.15036797716661271 -0.14243845987679379 0 -0.14845845790642179 -0.14462819045750719 0 -0.1306137014228527 -0.1212095633787966 0 -0.15406265534163929 -0.1294064941378926 0 -0.15036797716661271 -0.14243845987679379 0 -0.1306137014228527 -0.1212095633787966 0 -0.15406265534163929 -0.1294064941378926 0 -0.15036797716661271 -0.14243845987679379 0 -0.1564494690737798 -0.13971242061594299 0 -0.1543278084257422 -0.1453912472931165 0 -0.14845845790642179 -0.14462819045750719 0 -0.15894149653025619 -0.15184230729274609 0 -0.15519343748037609 -0.14309809199123349 0 -0.15036797716661271 -0.14243845987679379 0 -0.1564494690737798 -0.13971242061594299 0 -0.1543278084257422 -0.1453912472931165 0 -0.15519343748037609 -0.14309809199123349 0 -0.15036797716661271 -0.14243845987679379 0 -0.1543278084257422 -0.1453912472931165 0 -0.15036797716661271 -0.14243845987679379 0 -0.14845845790642179 -0.14462819045750719 0 -0.15036797716661271 -0.14243845987679379 0 -0.14845845790642179 -0.14462819045750719 0 -0.12070185579410091 -0.1431825863629223 0 -0.14845845790642179 -0.14462819045750719 0 -0.13204392770037571 -0.1634514615863005 0 -0.14845845790642179 -0.14462819045750719 0 -0.13204392770037571 -0.1634514615863005 0 -0.13204392770037571 -0.1634514615863005 0 -0.1475860696211248 -0.17640031700015249 0 -0.13505851963374399 -0.18906788910329131 0 -0.1156293974943295 -0.1822747327150937 0 -0.13204392770037571 -0.1634514615863005 0 -0.13505851963374399 -0.18906788910329131 0 -0.1475860696211248 -0.17640031700015249 0 -0.1655722477793394 -0.1670875310098065 0 -0.15496537504316019 -0.19429807729602311 0 -0.1475860696211248 -0.17640031700015249 0 -0.13505851963374399 -0.18906788910329131 0 -0.15496537504316019 -0.19429807729602311 0 -0.1475860696211248 -0.17640031700015249 0 -0.14862352044039201 -0.16347018067920821 0 -0.1655722477793394 -0.1670875310098065 0 -0.14845845790642179 -0.14462819045750719 0 -0.13204392770037571 -0.1634514615863005 0 -0.14862352044039201 -0.16347018067920821 0 -0.14845845790642179 -0.14462819045750719 0 -0.14862352044039201 -0.16347018067920821 0 -0.1655722477793394 -0.1670875310098065 0 -0.13204392770037571 -0.1634514615863005 0 -0.1475860696211248 -0.17640031700015249 0 -0.14862352044039201 -0.16347018067920821 0 -0.1655722477793394 -0.1670875310098065 0 -0.1716614177265566 -0.15146656102038991 0 -0.1655722477793394 -0.1670875310098065 0 -0.15894149653025619 -0.15184230729274609 0 -0.1716614177265566 -0.15146656102038991 0 -0.1655722477793394 -0.1670875310098065 0 -0.17557921295501691 -0.18022020591375351 0 -0.1689483943248192 -0.19264195369377959 0 -0.1655722477793394 -0.1670875310098065 0 -0.15496537504316019 -0.19429807729602311 0 -0.1689483943248192 -0.19264195369377959 0 -0.1655722477793394 -0.1670875310098065 0 -0.15496537504316019 -0.19429807729602311 0 -0.1655722477793394 -0.1670875310098065 0 -0.17557921295501691 -0.18022020591375351 0 -0.17557921295501691 -0.18022020591375351 0 -0.18239484980351819 -0.16464781923938721 0 -0.1907059301477185 -0.18468107337543721 0 -0.1655722477793394 -0.1670875310098065 0 -0.17557921295501691 -0.18022020591375351 0 -0.18239484980351819 -0.16464781923938721 0 -0.1655722477793394 -0.1670875310098065 0 -0.18239484980351819 -0.16464781923938721 0 -0.1716614177265566 -0.15146656102038991 0 -0.18239484980351819 -0.16464781923938721 0 -0.1716614177265566 -0.15146656102038991 0 -0.1894311146879058 -0.1465309504005988 0 -0.17775058767377289 -0.13584559103097291 0 -0.1716614177265566 -0.15146656102038991 0 -0.1894311146879058 -0.1465309504005988 0 -0.17775058767377289 -0.13584559103097291 0 -0.1716614177265566 -0.15146656102038991 0 -0.17775058767377289 -0.13584559103097291 0 -0.1894311146879058 -0.1465309504005988 0 -0.17775058767377289 -0.13584559103097291 0 -0.19823449762692411 -0.13229999761030051 0 -0.18534812722118199 -0.1163550958908785 0 -0.17775058767377289 -0.13584559103097291 0 -0.18534812722118199 -0.1163550958908785 0 -0.15406265534163929 -0.1294064941378926 0 -0.16394560233522651 -0.1386698702264933 0 -0.15606779039194271 -0.1160101434681408 0 -0.17775058767377289 -0.13584559103097291 0 -0.16394560233522651 -0.1386698702264933 0 -0.15606779039194271 -0.1160101434681408 0 -0.17775058767377289 -0.13584559103097291 0 -0.15606779039194271 -0.1160101434681408 0 -0.15406265534163929 -0.1294064941378926 0 -0.16394560233522651 -0.1386698702264933 0 -0.1564494690737798 -0.13971242061594299 0 -0.16394560233522651 -0.1386698702264933 0 -0.1564494690737798 -0.13971242061594299 0 -0.15962849525536979 -0.1448502401790808 0 -0.14845845790642179 -0.14462819045750719 0 -0.1655722477793394 -0.1670875310098065 0 -0.14845845790642179 -0.14462819045750719 0 -0.1655722477793394 -0.1670875310098065 0 -0.15894149653025619 -0.15184230729274609 0 -0.15519343748037609 -0.14309809199123349 0 -0.1564494690737798 -0.13971242061594299 0 -0.15962849525536979 -0.1448502401790808 0 -0.1543278084257422 -0.1453912472931165 0 -0.15519343748037609 -0.14309809199123349 0 -0.15962849525536979 -0.1448502401790808 0 -0.1543278084257422 -0.1453912472931165 0 -0.15962849525536979 -0.1448502401790808 0 -0.15894149653025619 -0.15184230729274609 0 -0.15962849525536979 -0.1448502401790808 0 -0.15894149653025619 -0.15184230729274609 0 -0.1716614177265566 -0.15146656102038991 0 -0.17775058767377289 -0.13584559103097291 0 -0.16394560233522651 -0.1386698702264933 0 -0.1716614177265566 -0.15146656102038991 0 -0.16394560233522651 -0.1386698702264933 0 -0.15962849525536979 -0.1448502401790808 0 -0.1716614177265566 -0.15146656102038991 0 -0.1534429259631987 -0.25724555178864622 0 -0.15289321433053751 -0.246830478479277 0 -0.1378886282313006 -0.2381062402767252 0 -0.1534429259631987 -0.25724555178864622 0 -0.1378886282313006 -0.2381062402767252 0 -0.15348527020851541 -0.23913552791147211 0 -0.1378886282313006 -0.2381062402767252 0 -0.15430752157141919 -0.22794821467022949 0 -0.15289321433053751 -0.246830478479277 0 -0.15348527020851541 -0.23913552791147211 0 -0.1601832428566283 -0.24550858739866141 0 -0.15289321433053751 -0.246830478479277 0 -0.15348527020851541 -0.23913552791147211 0 -0.1378886282313006 -0.2381062402767252 0 -0.1459019403517107 -0.25564217047089421 0 -0.13375162957080131 -0.24871916986845621 0 -0.1378886282313006 -0.2381062402767252 0 -0.13375162957080131 -0.24871916986845621 0 -0.1378886282313006 -0.2381062402767252 0 -0.127825895831608 -0.22987551408160201 0 -0.13375162957080131 -0.24871916986845621 0 -0.1378886282313006 -0.2381062402767252 0 -0.13218950310710981 -0.25272660122947088 0 -0.1218823470606431 -0.24640061544388489 0 -0.13375162957080131 -0.24871916986845621 0 -0.127825895831608 -0.22987551408160201 0 -0.14435850230698141 -0.22150862358223991 0 -0.13086176299679239 -0.21746526838305219 0 -0.1378886282313006 -0.2381062402767252 0 -0.127825895831608 -0.22987551408160201 0 -0.14435850230698141 -0.22150862358223991 0 -0.11989889803527461 -0.22145143588075511 0 -0.127825895831608 -0.22987551408160201 0 -0.13086176299679239 -0.21746526838305219 0 -0.1378886282313006 -0.2381062402767252 0 -0.14435850230698141 -0.22150862358223991 0 -0.14435850230698141 -0.22150862358223991 0 -0.15430752157141919 -0.22794821467022949 0 -0.16410544360365359 -0.21493654602220469 0 -0.1378886282313006 -0.2381062402767252 0 -0.14435850230698141 -0.22150862358223991 0 -0.15430752157141919 -0.22794821467022949 0 -0.14435850230698141 -0.22150862358223991 0 -0.15496537504316019 -0.19429807729602311 0 -0.14435850230698141 -0.22150862358223991 0 -0.1373527607074172 -0.20563907323320921 0 -0.15496537504316019 -0.19429807729602311 0 -0.14435850230698141 -0.22150862358223991 0 -0.15496537504316019 -0.19429807729602311 0 -0.16410544360365359 -0.21493654602220469 0 -0.14435850230698141 -0.22150862358223991 0 -0.1373527607074172 -0.20563907323320921 0 -0.13086176299679239 -0.21746526838305219 0 -0.1210853022939376 -0.205467400633562 0 -0.1373527607074172 -0.20563907323320921 0 -0.13086176299679239 -0.21746526838305219 0 -0.1210853022939376 -0.205467400633562 0 -0.1373527607074172 -0.20563907323320921 0 -0.13505851963374399 -0.18906788910329131 0 -0.1373527607074172 -0.20563907323320921 0 -0.13505851963374399 -0.18906788910329131 0 -0.15496537504316019 -0.19429807729602311 0 -0.1689483943248192 -0.19264195369377959 0 -0.17994482166635981 -0.2014366202218163 0 -0.16410544360365359 -0.21493654602220469 0 -0.15496537504316019 -0.19429807729602311 0 -0.1689483943248192 -0.19264195369377959 0 -0.16410544360365359 -0.21493654602220469 0 -0.17557921295501691 -0.18022020591375351 0 -0.1689483943248192 -0.19264195369377959 0 -0.17994482166635981 -0.2014366202218163 0 -0.17557921295501691 -0.18022020591375351 0 -0.17994482166635981 -0.2014366202218163 0 -0.1907059301477185 -0.18468107337543721 0 -0.17994482166635981 -0.2014366202218163 0 -0.1784102433228649 -0.21681777692650089 0 -0.16410544360365359 -0.21493654602220469 0 -0.17994482166635981 -0.2014366202218163 0 -0.18904495760185211 -0.20873870471059999 0 -0.19252771524915421 -0.19930647688205899 0 -0.17994482166635981 -0.2014366202218163 0 -0.1784102433228649 -0.21681777692650089 0 -0.18904495760185211 -0.20873870471059999 0 -0.1784102433228649 -0.21681777692650089 0 -0.19175951728552271 -0.21959172261586679 0 -0.18904495760185211 -0.20873870471059999 0 -0.15430752157141919 -0.22794821467022949 0 -0.16410544360365359 -0.21493654602220469 0 -0.16877954452522659 -0.2255120540677526 0 -0.15430752157141919 -0.22794821467022949 0 -0.16877954452522659 -0.2255120540677526 0 -0.16324537569009509 -0.2357306359809743 0 -0.15348527020851541 -0.23913552791147211 0 -0.15430752157141919 -0.22794821467022949 0 -0.16324537569009509 -0.2357306359809743 0 -0.16877954452522659 -0.2255120540677526 0 -0.17781387366555559 -0.23090770197000129 0 -0.16324537569009509 -0.2357306359809743 0 -0.1784102433228649 -0.21681777692650089 0 -0.16410544360365359 -0.21493654602220469 0 -0.16877954452522659 -0.2255120540677526 0 -0.1784102433228649 -0.21681777692650089 0 -0.16877954452522659 -0.2255120540677526 0 -0.17781387366555559 -0.23090770197000129 0 -0.1784102433228649 -0.21681777692650089 0 -0.17781387366555559 -0.23090770197000129 0 -0.19175951728552271 -0.21959172261586679 0 -0.17781387366555559 -0.23090770197000129 0 -0.1805311654956796 -0.2411950136452527 0 -0.19410287643929239 -0.23312434657521411 0 -0.17781387366555559 -0.23090770197000129 0 -0.1805311654956796 -0.2411950136452527 0 -0.16955513552828311 -0.24305067226283769 0 -0.17679077873490559 -0.25046109420941731 0 -0.1805311654956796 -0.2411950136452527 0 -0.18863044441395099 -0.24733650333174401 0 -0.17679077873490559 -0.25046109420941731 0 -0.1805311654956796 -0.2411950136452527 0 -0.16955513552828311 -0.24305067226283769 0 -0.16709258238786229 -0.25188408856254202 0 -0.17679077873490559 -0.25046109420941731 0 -0.16955513552828311 -0.24305067226283769 0 -0.16709258238786229 -0.25188408856254202 0 -0.16955513552828311 -0.24305067226283769 0 -0.1601832428566283 -0.24550858739866141 0 -0.17781387366555559 -0.23090770197000129 0 -0.16955513552828311 -0.24305067226283769 0 -0.16324537569009509 -0.2357306359809743 0 -0.16955513552828311 -0.24305067226283769 0 -0.16324537569009509 -0.2357306359809743 0 -0.1601832428566283 -0.24550858739866141 0 -0.15348527020851541 -0.23913552791147211 0 -0.16324537569009509 -0.2357306359809743 0 -0.1601832428566283 -0.24550858739866141 0 -0.1593809120407062 -0.25278805690175971 0 -0.15289321433053751 -0.246830478479277 0 -0.1601832428566283 -0.24550858739866141 0 -0.20565562739327201 -0.24334207984173631 0 -0.19410287643929239 -0.23312434657521411 0 -0.21201774175915139 -0.2290986139018284 0 -0.21472073189145299 -0.25725591714607071 0 -0.20565562739327201 -0.24334207984173631 0 -0.22837296648480071 -0.23789375384220129 0 -0.20565562739327201 -0.24334207984173631 0 -0.21201774175915139 -0.2290986139018284 0 -0.22837296648480071 -0.23789375384220129 0 -0.20565562739327201 -0.24334207984173631 0 -0.18863044441395099 -0.24733650333174401 0 -0.19410287643929239 -0.23312434657521411 0 -0.1805311654956796 -0.2411950136452527 0 -0.18863044441395099 -0.24733650333174401 0 -0.19410287643929239 -0.23312434657521411 0 -0.17781387366555559 -0.23090770197000129 0 -0.19410287643929239 -0.23312434657521411 0 -0.19175951728552271 -0.21959172261586679 0 -0.19410287643929239 -0.23312434657521411 0 -0.19175951728552271 -0.21959172261586679 0 -0.20443040571370949 -0.21985141578154491 0 -0.21201774175915139 -0.2290986139018284 0 -0.20443040571370949 -0.21985141578154491 0 -0.22630383013383959 -0.21240708539258099 0 -0.19410287643929239 -0.23312434657521411 0 -0.21201774175915139 -0.2290986139018284 0 -0.20443040571370949 -0.21985141578154491 0 -0.20157622681128409 -0.2075672839719423 0 -0.21557055542943429 -0.1904257004922347 0 -0.22630383013383959 -0.21240708539258099 0 -0.20157622681128409 -0.2075672839719423 0 -0.22630383013383959 -0.21240708539258099 0 -0.20443040571370949 -0.21985141578154491 0 -0.20157622681128409 -0.2075672839719423 0 -0.22630383013383959 -0.21240708539258099 0 -0.19175951728552271 -0.21959172261586679 0 -0.20443040571370949 -0.21985141578154491 0 -0.20157622681128409 -0.2075672839719423 0 -0.19175951728552271 -0.21959172261586679 0 -0.20157622681128409 -0.2075672839719423 0 -0.19175951728552271 -0.21959172261586679 0 -0.18904495760185211 -0.20873870471059999 0 -0.20157622681128409 -0.2075672839719423 0 -0.18904495760185211 -0.20873870471059999 0 -0.20157622681128409 -0.2075672839719423 0 -0.19252771524915421 -0.19930647688205899 0 -0.17994482166635981 -0.2014366202218163 0 -0.19252771524915421 -0.19930647688205899 0 -0.1907059301477185 -0.18468107337543721 0 -0.20157622681128409 -0.2075672839719423 0 -0.19252771524915421 -0.19930647688205899 0 -0.20187756758401409 -0.19506767240709361 0 -0.19252771524915421 -0.19930647688205899 0 -0.20187756758401409 -0.19506767240709361 0 -0.1907059301477185 -0.18468107337543721 0 -0.20157622681128409 -0.2075672839719423 0 -0.21557055542943429 -0.1904257004922347 0 -0.20187756758401409 -0.19506767240709361 0 -0.21557055542943429 -0.1904257004922347 0 -0.2038146335316797 -0.1820121315948606 0 -0.20157622681128409 -0.2075672839719423 0 -0.20187756758401409 -0.19506767240709361 0 -0.21557055542943429 -0.1904257004922347 0 -0.21557055542943429 -0.1904257004922347 0 -0.23533053747689989 -0.1962925907305976 0 -0.22630383013383959 -0.21240708539258099 0 -0.23533053747689989 -0.1962925907305976 0 -0.25103143345639523 -0.21724688681321891 0 -0.25418198431724581 -0.18809916394242601 0 -0.22630383013383959 -0.21240708539258099 0 -0.25103143345639523 -0.21724688681321891 0 -0.23533053747689989 -0.1962925907305976 0 -0.22630383013383959 -0.21240708539258099 0 -0.25103143345639523 -0.21724688681321891 0 -0.21201774175915139 -0.2290986139018284 0 -0.22630383013383959 -0.21240708539258099 0 -0.22837296648480071 -0.23789375384220129 0 -0.22630383013383959 -0.21240708539258099 0 -0.22837296648480071 -0.23789375384220129 0 -0.25103143345639523 -0.21724688681321891 0 -0.22837296648480071 -0.23789375384220129 0 -0.25431856302814809 -0.24833495949118861 0 -0.25103143345639523 -0.21724688681321891 0 -0.2335542019388327 -0.26090262277066528 0 -0.22837296648480071 -0.23789375384220129 0 -0.25431856302814809 -0.24833495949118861 0 -0.20708483324238849 -0.15128624944667929 0 -0.22647357207813959 -0.15205360930679629 0 -0.2195633859389316 -0.1340578990397249 0 -0.20708483324238849 -0.15128624944667929 0 -0.19823449762692411 -0.13229999761030051 0 -0.2195633859389316 -0.1340578990397249 0 -0.19823449762692411 -0.13229999761030051 0 -0.2195633859389316 -0.1340578990397249 0 -0.21022893699736381 -0.1097241998529486 0 -0.17775058767377289 -0.13584559103097291 0 -0.19823449762692411 -0.13229999761030051 0 -0.1894311146879058 -0.1465309504005988 0 -0.20708483324238849 -0.15128624944667929 0 -0.1894311146879058 -0.1465309504005988 0 -0.19351686899232889 -0.15854259719770419 0 -0.20708483324238849 -0.15128624944667929 0 -0.19823449762692411 -0.13229999761030051 0 -0.1894311146879058 -0.1465309504005988 0 -0.20708483324238849 -0.15128624944667929 0 -0.19351686899232889 -0.15854259719770419 0 -0.19880271024428661 -0.17007658736909009 0 -0.18239484980351819 -0.16464781923938721 0 -0.1894311146879058 -0.1465309504005988 0 -0.19351686899232889 -0.15854259719770419 0 -0.18239484980351819 -0.16464781923938721 0 -0.19351686899232889 -0.15854259719770419 0 -0.19880271024428661 -0.17007658736909009 0 -0.18239484980351819 -0.16464781923938721 0 -0.19880271024428661 -0.17007658736909009 0 -0.1907059301477185 -0.18468107337543721 0 -0.19880271024428661 -0.17007658736909009 0 -0.1907059301477185 -0.18468107337543721 0 -0.2038146335316797 -0.1820121315948606 0 -0.20187756758401409 -0.19506767240709361 0 -0.1907059301477185 -0.18468107337543721 0 -0.2038146335316797 -0.1820121315948606 0 -0.21557055542943429 -0.1904257004922347 0 -0.2038146335316797 -0.1820121315948606 0 -0.21355186476225221 -0.16985639920369799 0 -0.19880271024428661 -0.17007658736909009 0 -0.2038146335316797 -0.1820121315948606 0 -0.21355186476225221 -0.16985639920369799 0 -0.20708483324238849 -0.15128624944667929 0 -0.21355186476225221 -0.16985639920369799 0 -0.22647357207813959 -0.15205360930679629 0 -0.20708483324238849 -0.15128624944667929 0 -0.19880271024428661 -0.17007658736909009 0 -0.21355186476225221 -0.16985639920369799 0 -0.22956488404758479 -0.1732841170125273 0 -0.2435592126657353 -0.1561425335328199 0 -0.22647357207813959 -0.15205360930679629 0 -0.21355186476225221 -0.16985639920369799 0 -0.22956488404758479 -0.1732841170125273 0 -0.22647357207813959 -0.15205360930679629 0 -0.21557055542943429 -0.1904257004922347 0 -0.21355186476225221 -0.16985639920369799 0 -0.22956488404758479 -0.1732841170125273 0 -0.21557055542943429 -0.1904257004922347 0 -0.22956488404758479 -0.1732841170125273 0 -0.21557055542943429 -0.1904257004922347 0 -0.23533053747689989 -0.1962925907305976 0 -0.22956488404758479 -0.1732841170125273 0 -0.23533053747689989 -0.1962925907305976 0 -0.22956488404758479 -0.1732841170125273 0 -0.25418198431724581 -0.18809916394242601 0 -0.22956488404758479 -0.1732841170125273 0 -0.25418198431724581 -0.18809916394242601 0 -0.2565438833259911 -0.1687602707777138 0 -0.22956488404758479 -0.1732841170125273 0 -0.2435592126657353 -0.1561425335328199 0 -0.22956488404758479 -0.1732841170125273 0 -0.2435592126657353 -0.1561425335328199 0 -0.2565438833259911 -0.1687602707777138 0 -0.2435592126657353 -0.1561425335328199 0 -0.22647357207813959 -0.15205360930679629 0 -0.2432602079730701 -0.13485583854350039 0 -0.22647357207813959 -0.15205360930679629 0 -0.2195633859389316 -0.1340578990397249 0 -0.2432602079730701 -0.13485583854350039 0 -0.2195633859389316 -0.1340578990397249 0 -0.2432602079730701 -0.13485583854350039 0 -0.23065476516460279 -0.11957242830579699 0 -0.2432602079730701 -0.13485583854350039 0 -0.2499653418643101 -0.1102460646797562 0 -0.23065476516460279 -0.11957242830579699 0 -0.2499653418643101 -0.1102460646797562 0 -0.2308399038819596 -0.1034577205422559 0 -0.23065476516460279 -0.11957242830579699 0 -0.2308399038819596 -0.1034577205422559 0 -0.25308440776240432 -0.086371671251396109 0 -0.2499653418643101 -0.1102460646797562 0 -0.2308399038819596 -0.1034577205422559 0 -0.25308440776240432 -0.086371671251396109 0 -0.2308399038819596 -0.1034577205422559 0 -0.21022893699736381 -0.1097241998529486 0 -0.21520721362926831 -0.098298511723915558 0 -0.2308399038819596 -0.1034577205422559 0 -0.22013457808717909 -0.089221868029860679 0 -0.21520721362926831 -0.098298511723915558 0 -0.2308399038819596 -0.1034577205422559 0 -0.23065476516460279 -0.11957242830579699 0 -0.21022893699736381 -0.1097241998529486 0 -0.2195633859389316 -0.1340578990397249 0 -0.23065476516460279 -0.11957242830579699 0 -0.21022893699736381 -0.1097241998529486 0 -0.2335598957907816 -0.079883889973887123 0 -0.24475965461883589 -0.059498385283178377 0 -0.2582325144520296 -0.070050845257802419 0 -0.2335598957907816 -0.079883889973887123 0 -0.2582325144520296 -0.070050845257802419 0 -0.25308440776240432 -0.086371671251396109 0 -0.2308399038819596 -0.1034577205422559 0 -0.2335598957907816 -0.079883889973887123 0 -0.25308440776240432 -0.086371671251396109 0 -0.2308399038819596 -0.1034577205422559 0 -0.22013457808717909 -0.089221868029860679 0 -0.2335598957907816 -0.079883889973887123 0 -0.22013457808717909 -0.089221868029860679 0 -0.2335598957907816 -0.079883889973887123 0 -0.21963876375789801 -0.077814354495200549 0 -0.2335598957907816 -0.079883889973887123 0 -0.21595644614104051 -0.065738508165203102 0 -0.24475965461883589 -0.059498385283178377 0 -0.21595644614104051 -0.065738508165203102 0 -0.24475965461883589 -0.059498385283178377 0 -0.2335598957907816 -0.079883889973887123 0 -0.21963876375789801 -0.077814354495200549 0 -0.21595644614104051 -0.065738508165203102 0 -0.20438945881064449 -0.068244458930106389 0 -0.21100771399754009 -0.086966924160961745 0 -0.21595644614104051 -0.065738508165203102 0 -0.21100771399754009 -0.086966924160961745 0 -0.20438945881064449 -0.068244458930106389 0 -0.21595644614104051 -0.065738508165203102 0 -0.21100771399754009 -0.086966924160961745 0 -0.21963876375789801 -0.077814354495200549 0 -0.21595644614104051 -0.065738508165203102 0 -0.21100771399754009 -0.086966924160961745 0 -0.20438945881064449 -0.068244458930106389 0 -0.21595644614104051 -0.065738508165203102 0 -0.20438945881064449 -0.068244458930106389 0 -0.21595644614104051 -0.065738508165203102 0 -0.20711132549122371 -0.057203435059411119 0 -0.20438945881064449 -0.068244458930106389 0 -0.21100771399754009 -0.086966924160961745 0 -0.19851231957361129 -0.085310821531315487 0 -0.22013457808717909 -0.089221868029860679 0 -0.21963876375789801 -0.077814354495200549 0 -0.21100771399754009 -0.086966924160961745 0 -0.22013457808717909 -0.089221868029860679 0 -0.21100771399754009 -0.086966924160961745 0 -0.21520721362926831 -0.098298511723915558 0 -0.21100771399754009 -0.086966924160961745 0 -0.19851231957361129 -0.085310821531315487 0 -0.20550431009004061 -0.095676697317907802 0 -0.21100771399754009 -0.086966924160961745 0 -0.21520721362926831 -0.098298511723915558 0 -0.20550431009004061 -0.095676697317907802 0 -0.19851231957361129 -0.085310821531315487 0 -0.18118326058104209 -0.08825419183970401 0 -0.18409944718507371 -0.07264022497537044 0 -0.19851231957361129 -0.085310821531315487 0 -0.19294566676858971 -0.096864600750783431 0 -0.18118326058104209 -0.08825419183970401 0 -0.19851231957361129 -0.085310821531315487 0 -0.20550431009004061 -0.095676697317907802 0 -0.19294566676858971 -0.096864600750783431 0 -0.20438945881064449 -0.068244458930106389 0 -0.19851231957361129 -0.085310821531315487 0 -0.18409944718507371 -0.07264022497537044 0 -0.20438945881064449 -0.068244458930106389 0 -0.18409944718507371 -0.07264022497537044 0 -0.18769526278089041 -0.057829612445021099 0 -0.20438945881064449 -0.068244458930106389 0 -0.18409944718507371 -0.07264022497537044 0 -0.21022893699736381 -0.1097241998529486 0 -0.21520721362926831 -0.098298511723915558 0 -0.20550431009004061 -0.095676697317907802 0 -0.21022893699736381 -0.1097241998529486 0 -0.20550431009004061 -0.095676697317907802 0 -0.19294566676858971 -0.096864600750783431 0 -0.19294566676858971 -0.096864600750783431 0 -0.18534812722118199 -0.1163550958908785 0 -0.21022893699736381 -0.1097241998529486 0 -0.19294566676858971 -0.096864600750783431 0 -0.18534812722118199 -0.1163550958908785 0 -0.19823449762692411 -0.13229999761030051 0 -0.21022893699736381 -0.1097241998529486 0 -0.18534812722118199 -0.1163550958908785 0 -0.18534812722118199 -0.1163550958908785 0 -0.17423934197139679 -0.1017815859784342 0 -0.15606779039194271 -0.1160101434681408 0 -0.17775058767377289 -0.13584559103097291 0 -0.18534812722118199 -0.1163550958908785 0 -0.15606779039194271 -0.1160101434681408 0 -0.16057304666404501 -0.10079887419961479 0 -0.17423934197139679 -0.1017815859784342 0 -0.15606779039194271 -0.1160101434681408 0 -0.16057304666404501 -0.10079887419961479 0 -0.16746185343044401 -0.091445336260546128 0 -0.1570966781871318 -0.090327755750333361 0 -0.16057304666404501 -0.10079887419961479 0 -0.17423934197139679 -0.1017815859784342 0 -0.16746185343044401 -0.091445336260546128 0 -0.17423934197139679 -0.1017815859784342 0 -0.18118326058104209 -0.08825419183970401 0 -0.16746185343044401 -0.091445336260546128 0 -0.19294566676858971 -0.096864600750783431 0 -0.18534812722118199 -0.1163550958908785 0 -0.17423934197139679 -0.1017815859784342 0 -0.19294566676858971 -0.096864600750783431 0 -0.17423934197139679 -0.1017815859784342 0 -0.18118326058104209 -0.08825419183970401 0 -0.18118326058104209 -0.08825419183970401 0 -0.18409944718507371 -0.07264022497537044 0 -0.16915717098214109 -0.081397787743409861 0 -0.18118326058104209 -0.08825419183970401 0 -0.16746185343044401 -0.091445336260546128 0 -0.16915717098214109 -0.081397787743409861 0 -0.18409944718507371 -0.07264022497537044 0 -0.1702117591297739 -0.06777753321031553 0 -0.16380943555950259 -0.077035991020633382 0 -0.18409944718507371 -0.07264022497537044 0 -0.16380943555950259 -0.077035991020633382 0 -0.16915717098214109 -0.081397787743409861 0 -0.18409944718507371 -0.07264022497537044 0 -0.17187825396406881 -0.057945450019426657 0 -0.18769526278089041 -0.057829612445021099 0 -0.18409944718507371 -0.07264022497537044 0 -0.16380943555950259 -0.077035991020633382 0 -0.18409944718507371 -0.07264022497537044 0 -0.1702117591297739 -0.06777753321031553 0 -0.17187825396406881 -0.057945450019426657 0 -0.16380943555950259 -0.077035991020633382 0 -0.16105989981045041 -0.063488466825831633 0 -0.14595160177326619 -0.062470528310013429 0 -0.1702117591297739 -0.06777753321031553 0 -0.16105989981045041 -0.063488466825831633 0 -0.17187825396406881 -0.057945450019426657 0 -0.1702117591297739 -0.06777753321031553 0 -0.16380943555950259 -0.077035991020633382 0 -0.16105989981045041 -0.063488466825831633 0 -0.16380943555950259 -0.077035991020633382 0 -0.16109871639751261 -0.084134952385501949 0 -0.14796844382834351 -0.080467891152587012 0 -0.16746185343044401 -0.091445336260546128 0 -0.16915717098214109 -0.081397787743409861 0 -0.16109871639751261 -0.084134952385501949 0 -0.16380943555950259 -0.077035991020633382 0 -0.16915717098214109 -0.081397787743409861 0 -0.16109871639751261 -0.084134952385501949 0 -0.16380943555950259 -0.077035991020633382 0 -0.16915717098214109 -0.081397787743409861 0 -0.16746185343044401 -0.091445336260546128 0 -0.16109871639751261 -0.084134952385501949 0 -0.1570966781871318 -0.090327755750333361 0 -0.16380943555950259 -0.077035991020633382 0 -0.14796844382834351 -0.080467891152587012 0 -0.14796844382834351 -0.080467891152587012 0 -0.13497135686491851 -0.078315161523928284 0 -0.1484932433812913 -0.094043062253026791 0 -0.1570966781871318 -0.090327755750333361 0 -0.14796844382834351 -0.080467891152587012 0 -0.1484932433812913 -0.094043062253026791 0 -0.16109871639751261 -0.084134952385501949 0 -0.1570966781871318 -0.090327755750333361 0 -0.14796844382834351 -0.080467891152587012 0 -0.16380943555950259 -0.077035991020633382 0 -0.14796844382834351 -0.080467891152587012 0 -0.14595160177326619 -0.062470528310013429 0 -0.16380943555950259 -0.077035991020633382 0 -0.14595160177326619 -0.062470528310013429 0 -0.14796844382834351 -0.080467891152587012 0 -0.13497135686491851 -0.078315161523928284 0 -0.14595160177326619 -0.062470528310013429 0 -0.1158705629695205 -0.060236298698018297 0 -0.13497135686491851 -0.078315161523928284 0 -0.1158705629695205 -0.060236298698018297 0 -0.13497135686491851 -0.078315161523928284 0 -0.13122182239868371 -0.062231763532838429 0 -0.13497135686491851 -0.078315161523928284 0 -0.13122182239868371 -0.062231763532838429 0 -0.14595160177326619 -0.062470528310013429 0 -0.112702195828283 -0.076339248342475546 0 -0.13497135686491851 -0.078315161523928284 0 -0.13438499311011279 -0.096174695905308166 0 -0.13497135686491851 -0.078315161523928284 0 -0.13438499311011279 -0.096174695905308166 0 -0.1484932433812913 -0.094043062253026791 0 -0.11276894493928399 -0.097790936300085646 0 -0.13438499311011279 -0.096174695905308166 0 -0.1306137014228527 -0.1212095633787966 0 -0.13438499311011279 -0.096174695905308166 0 -0.1306137014228527 -0.1212095633787966 0 -0.15606779039194271 -0.1160101434681408 0 -0.15406265534163929 -0.1294064941378926 0 -0.1306137014228527 -0.1212095633787966 0 -0.15606779039194271 -0.1160101434681408 0 -0.13438499311011279 -0.096174695905308166 0 -0.15606779039194271 -0.1160101434681408 0 -0.1484932433812913 -0.094043062253026791 0 -0.16057304666404501 -0.10079887419961479 0 -0.15606779039194271 -0.1160101434681408 0 -0.1484932433812913 -0.094043062253026791 0 -0.13438499311011279 -0.096174695905308166 0 -0.15606779039194271 -0.1160101434681408 0 -0.16057304666404501 -0.10079887419961479 0 -0.1570966781871318 -0.090327755750333361 0 -0.1484932433812913 -0.094043062253026791 0 -0.14513665439653431 -0.02122229521611602 0 -0.15148395360685291 -0.031475856168514699 0 -0.16129500549156001 -0.024264335985147129 0 -0.14513665439653431 -0.02122229521611602 0 -0.1346415055917565 -0.031432898451717602 0 -0.15148395360685291 -0.031475856168514699 0 -0.14513665439653431 -0.02122229521611602 0 -0.15327979458335059 -0.01391829646419882 0 -0.16129500549156001 -0.024264335985147129 0 -0.1412848112475209 -0.008091449167619497 0 -0.15773416148281841 -0.0035868741371463562 0 -0.14801408494475049 0.0031182785745780331 0 -0.15327979458335059 -0.01391829646419882 0 -0.1412848112475209 -0.008091449167619497 0 -0.15773416148281841 -0.0035868741371463562 0 -0.14513665439653431 -0.02122229521611602 0 -0.15327979458335059 -0.01391829646419882 0 -0.1412848112475209 -0.008091449167619497 0 -0.1236693299605585 -0.0137973575501921 0 -0.1412848112475209 -0.008091449167619497 0 -0.12735709500343681 0.004015926865657337 0 -0.1412848112475209 -0.008091449167619497 0 -0.12735709500343681 0.004015926865657337 0 -0.14801408494475049 0.0031182785745780331 0 -0.1236693299605585 -0.0137973575501921 0 -0.1412848112475209 -0.008091449167619497 0 -0.13426109495296229 -0.02049569832685658 0 -0.1236693299605585 -0.0137973575501921 0 -0.1221370268088495 -0.025998648103035 0 -0.13426109495296229 -0.02049569832685658 0 -0.14513665439653431 -0.02122229521611602 0 -0.1412848112475209 -0.008091449167619497 0 -0.13426109495296229 -0.02049569832685658 0 -0.14513665439653431 -0.02122229521611602 0 -0.13426109495296229 -0.02049569832685658 0 -0.1346415055917565 -0.031432898451717602 0 -0.1221370268088495 -0.025998648103035 0 -0.12530131535501859 -0.034952786400489197 0 -0.1346415055917565 -0.031432898451717602 0 -0.1221370268088495 -0.025998648103035 0 -0.13426109495296229 -0.02049569832685658 0 -0.1346415055917565 -0.031432898451717602 0 -0.12530131535501859 -0.034952786400489197 0 -0.1346415055917565 -0.031432898451717602 0 -0.12809376798702951 -0.047905065599393698 0 -0.1346415055917565 -0.031432898451717602 0 -0.12809376798702951 -0.047905065599393698 0 -0.14629371500633531 -0.042796653234188263 0 -0.12809376798702951 -0.047905065599393698 0 -0.14595160177326619 -0.062470528310013429 0 -0.12809376798702951 -0.047905065599393698 0 -0.14595160177326619 -0.062470528310013429 0 -0.14629371500633531 -0.042796653234188263 0 -0.13122182239868371 -0.062231763532838429 0 -0.12809376798702951 -0.047905065599393698 0 -0.14595160177326619 -0.062470528310013429 0 -0.1158705629695205 -0.060236298698018297 0 -0.13122182239868371 -0.062231763532838429 0 -0.12809376798702951 -0.047905065599393698 0 -0.14595160177326619 -0.062470528310013429 0 -0.14629371500633531 -0.042796653234188263 0 -0.15696853651444401 -0.052603520026387289 0 -0.16105989981045041 -0.063488466825831633 0 -0.14595160177326619 -0.062470528310013429 0 -0.15696853651444401 -0.052603520026387289 0 -0.15148395360685291 -0.031475856168514699 0 -0.14629371500633531 -0.042796653234188263 0 -0.16402488563849801 -0.041062174760887443 0 -0.1346415055917565 -0.031432898451717602 0 -0.15148395360685291 -0.031475856168514699 0 -0.14629371500633531 -0.042796653234188263 0 -0.14629371500633531 -0.042796653234188263 0 -0.16402488563849801 -0.041062174760887443 0 -0.15696853651444401 -0.052603520026387289 0 -0.15148395360685291 -0.031475856168514699 0 -0.16402488563849801 -0.041062174760887443 0 -0.16129500549156001 -0.024264335985147129 0 -0.16402488563849801 -0.041062174760887443 0 -0.17409393016306191 -0.030370879776367592 0 -0.16129500549156001 -0.024264335985147129 0 -0.16402488563849801 -0.041062174760887443 0 -0.15696853651444401 -0.052603520026387289 0 -0.17187825396406881 -0.057945450019426657 0 -0.16105989981045041 -0.063488466825831633 0 -0.15696853651444401 -0.052603520026387289 0 -0.17187825396406881 -0.057945450019426657 0 -0.16402488563849801 -0.041062174760887443 0 -0.17187825396406881 -0.057945450019426657 0 -0.18133558272394029 -0.043618149437272283 0 -0.17187825396406881 -0.057945450019426657 0 -0.18133558272394029 -0.043618149437272283 0 -0.18769526278089041 -0.057829612445021099 0 -0.18133558272394029 -0.043618149437272283 0 -0.17409393016306191 -0.030370879776367592 0 -0.18915768363079971 -0.025155098795753519 0 -0.16402488563849801 -0.041062174760887443 0 -0.18133558272394029 -0.043618149437272283 0 -0.17409393016306191 -0.030370879776367592 0 -0.17409393016306191 -0.030370879776367592 0 -0.17549551533112251 -0.014893414490097231 0 -0.18915768363079971 -0.025155098795753519 0 -0.16129500549156001 -0.024264335985147129 0 -0.16350931143073591 -0.01273440345064396 0 -0.17549551533112251 -0.014893414490097231 0 -0.17409393016306191 -0.030370879776367592 0 -0.16129500549156001 -0.024264335985147129 0 -0.17549551533112251 -0.014893414490097231 0 -0.15327979458335059 -0.01391829646419882 0 -0.16129500549156001 -0.024264335985147129 0 -0.16350931143073591 -0.01273440345064396 0 -0.15773416148281841 -0.0035868741371463562 0 -0.16716832075785379 -0.0032078365625175 0 -0.1619193683370386 0.0066468078375689294 0 -0.15773416148281841 -0.0035868741371463562 0 -0.16350931143073591 -0.01273440345064396 0 -0.16716832075785379 -0.0032078365625175 0 -0.15327979458335059 -0.01391829646419882 0 -0.15773416148281841 -0.0035868741371463562 0 -0.16350931143073591 -0.01273440345064396 0 -0.16350931143073591 -0.01273440345064396 0 -0.16716832075785379 -0.0032078365625175 0 -0.17549551533112251 -0.014893414490097231 0 -0.17549551533112251 -0.014893414490097231 0 -0.18154179604087481 -0.0036104187285780349 0 -0.18915768363079971 -0.025155098795753519 0 -0.18154179604087481 -0.0036104187285780349 0 -0.18915768363079971 -0.025155098795753519 0 -0.17549551533112251 -0.014893414490097231 0 -0.17584419881677341 0.0071523107965592754 0 -0.17549551533112251 -0.014893414490097231 0 -0.18154179604087481 -0.0036104187285780349 0 -0.17584419881677341 0.0071523107965592754 0 -0.16716832075785379 -0.0032078365625175 0 -0.17549551533112251 -0.014893414490097231 0 -0.17584419881677341 0.0071523107965592754 0 -0.18154179604087481 -0.0036104187285780349 0 -0.19066530249761049 -0.0041303576494283751 0 -0.18915768363079971 -0.025155098795753519 0 -0.18154179604087481 -0.0036104187285780349 0 -0.19066530249761049 -0.0041303576494283751 0 -0.18717715497560061 0.0062623078557712403 0 -0.19066530249761049 -0.0041303576494283751 0 -0.1989264366345522 -0.0080023544535597537 0 -0.18915768363079971 -0.025155098795753519 0 -0.19066530249761049 -0.0041303576494283751 0 -0.1989264366345522 -0.0080023544535597537 0 -0.1965234412062255 0.0098537758749781944 0 -0.1989264366345522 -0.0080023544535597537 0 -0.2007918169376324 -0.0191738513677071 0 -0.20680177871376751 -0.0119671669755851 0 -0.18915768363079971 -0.025155098795753519 0 -0.2007918169376324 -0.0191738513677071 0 -0.21013076049929519 -0.028334228638799381 0 -0.1989264366345522 -0.0080023544535597537 0 -0.18915768363079971 -0.025155098795753519 0 -0.2007918169376324 -0.0191738513677071 0 -0.2007918169376324 -0.0191738513677071 0 -0.21013076049929519 -0.028334228638799381 0 -0.20680177871376751 -0.0119671669755851 0 -0.21013076049929519 -0.028334228638799381 0 -0.21702438745170211 -0.0043907958627755336 0 -0.21921501925093501 -0.017985606360015789 0 -0.21013076049929519 -0.028334228638799381 0 -0.21702438745170211 -0.0043907958627755336 0 -0.21013076049929519 -0.028334228638799381 0 -0.22271521407306469 -0.037269361340154371 0 -0.21921501925093501 -0.017985606360015789 0 -0.21013076049929519 -0.028334228638799381 0 -0.21702438745170211 -0.0043907958627755336 0 -0.20680177871376751 -0.0119671669755851 0 -0.1989264366345522 -0.0080023544535597537 0 -0.20680177871376751 -0.0119671669755851 0 -0.20713549204565579 6.5395444916274768e-05 0 -0.21702438745170211 -0.0043907958627755336 0 -0.20680177871376751 -0.0119671669755851 0 -0.20713549204565579 6.5395444916274768e-05 0 -0.20438945881064449 -0.068244458930106389 0 -0.1967735712207245 -0.046699778862929052 0 -0.20438945881064449 -0.068244458930106389 0 -0.18769526278089041 -0.057829612445021099 0 -0.1967735712207245 -0.046699778862929052 0 -0.20438945881064449 -0.068244458930106389 0 -0.1967735712207245 -0.046699778862929052 0 -0.20711132549122371 -0.057203435059411119 0 -0.18133558272394029 -0.043618149437272283 0 -0.18769526278089041 -0.057829612445021099 0 -0.1967735712207245 -0.046699778862929052 0 -0.18133558272394029 -0.043618149437272283 0 -0.18915768363079971 -0.025155098795753519 0 -0.1967735712207245 -0.046699778862929052 0 -0.18915768363079971 -0.025155098795753519 0 -0.1967735712207245 -0.046699778862929052 0 -0.18915768363079971 -0.025155098795753519 0 -0.21013076049929519 -0.028334228638799381 0 -0.1967735712207245 -0.046699778862929052 0 -0.21013076049929519 -0.028334228638799381 0 -0.21132582579248671 -0.048130994279405613 0 -0.22271521407306469 -0.037269361340154371 0 -0.21013076049929519 -0.028334228638799381 0 -0.1967735712207245 -0.046699778862929052 0 -0.21132582579248671 -0.048130994279405613 0 -0.21595644614104051 -0.065738508165203102 0 -0.21132582579248671 -0.048130994279405613 0 -0.22271521407306469 -0.037269361340154371 0 -0.21595644614104051 -0.065738508165203102 0 -0.21132582579248671 -0.048130994279405613 0 -0.20711132549122371 -0.057203435059411119 0 -0.1967735712207245 -0.046699778862929052 0 -0.21132582579248671 -0.048130994279405613 0 -0.20711132549122371 -0.057203435059411119 0 -0.21595644614104051 -0.065738508165203102 0 -0.2284172135094342 -0.053659916570315727 0 -0.24475965461883589 -0.059498385283178377 0 -0.21595644614104051 -0.065738508165203102 0 -0.2284172135094342 -0.053659916570315727 0 -0.22271521407306469 -0.037269361340154371 0 -0.21595644614104051 -0.065738508165203102 0 -0.22271521407306469 -0.037269361340154371 0 -0.2284172135094342 -0.053659916570315727 0 -0.22271521407306469 -0.037269361340154371 0 -0.23903543051913109 -0.043198085603962481 0 -0.22271521407306469 -0.037269361340154371 0 -0.23903543051913109 -0.043198085603962481 0 -0.24161885061771041 -0.026720350447010301 0 -0.23903543051913109 -0.043198085603962481 0 -0.24161885061771041 -0.026720350447010301 0 -0.25766621977661042 -0.038842414379153638 0 -0.23903543051913109 -0.043198085603962481 0 -0.24475965461883589 -0.059498385283178377 0 -0.25766621977661042 -0.038842414379153638 0 -0.2284172135094342 -0.053659916570315727 0 -0.23903543051913109 -0.043198085603962481 0 -0.24475965461883589 -0.059498385283178377 0 -0.22947398200509031 -0.0088002145151058891 0 -0.22867745033346079 0.0038692188645070222 0 -0.2401015516947359 0.00075261550232862703 0 -0.21702438745170211 -0.0043907958627755336 0 -0.22947398200509031 -0.0088002145151058891 0 -0.22867745033346079 0.0038692188645070222 0 -0.21702438745170211 -0.0043907958627755336 0 -0.22947398200509031 -0.0088002145151058891 0 -0.21921501925093501 -0.017985606360015789 0 -0.22271521407306469 -0.037269361340154371 0 -0.22947398200509031 -0.0088002145151058891 0 -0.21921501925093501 -0.017985606360015789 0 -0.22271521407306469 -0.037269361340154371 0 -0.22947398200509031 -0.0088002145151058891 0 -0.22271521407306469 -0.037269361340154371 0 -0.22947398200509031 -0.0088002145151058891 0 -0.24161885061771041 -0.026720350447010301 0 -0.22947398200509031 -0.0088002145151058891 0 -0.24161885061771041 -0.026720350447010301 0 -0.2437457614006571 -0.011962382738850049 0 -0.24161885061771041 -0.026720350447010301 0 -0.2437457614006571 -0.011962382738850049 0 -0.2598032925822476 -0.0188915667982569 0 -0.22947398200509031 -0.0088002145151058891 0 -0.2437457614006571 -0.011962382738850049 0 -0.2401015516947359 0.00075261550232862703 0 -0.2437457614006571 -0.011962382738850049 0 -0.25267499080189931 -0.0034516002120552492 0 -0.2401015516947359 0.00075261550232862703 0 -0.25267499080189931 -0.0034516002120552492 0 -0.2598032925822476 -0.0188915667982569 0 -0.26909988492935111 -0.0018655285383734981 0 -0.2437457614006571 -0.011962382738850049 0 -0.25267499080189931 -0.0034516002120552492 0 -0.2598032925822476 -0.0188915667982569 0 -0.2598032925822476 -0.0188915667982569 0 -0.27267419604841259 -0.026924212746328481 0 -0.25766621977661042 -0.038842414379153638 0 -0.24161885061771041 -0.026720350447010301 0 -0.2598032925822476 -0.0188915667982569 0 -0.25766621977661042 -0.038842414379153638 0 -0.2598032925822476 -0.0188915667982569 0 -0.27267419604841259 -0.026924212746328481 0 -0.27804425228895369 -0.016131696666228459 0 -0.27267419604841259 -0.026924212746328481 0 -0.27804425228895369 -0.016131696666228459 0 -0.28378415359151371 -0.031280105512012511 0 -0.27804425228895369 -0.016131696666228459 0 -0.26909988492935111 -0.0018655285383734981 0 -0.2917254884257266 -0.0017566381736345419 0 -0.2598032925822476 -0.0188915667982569 0 -0.27804425228895369 -0.016131696666228459 0 -0.26909988492935111 -0.0018655285383734981 0 -0.27804425228895369 -0.016131696666228459 0 -0.2917254884257266 -0.0017566381736345419 0 -0.2928870998243559 -0.020527937726781 0 -0.27804425228895369 -0.016131696666228459 0 -0.2928870998243559 -0.020527937726781 0 -0.28378415359151371 -0.031280105512012511 0 -0.2928870998243559 -0.020527937726781 0 -0.29943422057661201 -0.032203920876667472 0 -0.28378415359151371 -0.031280105512012511 0 -0.2928870998243559 -0.020527937726781 0 -0.31144738423897378 -0.02126732740536201 0 -0.29943422057661201 -0.032203920876667472 0 -0.31144738423897378 -0.02126732740536201 0 -0.31110423911055801 -0.035316851109560482 0 -0.29943422057661201 -0.032203920876667472 0 -0.2917254884257266 -0.0017566381736345419 0 -0.31144738423897378 -0.02126732740536201 0 -0.31177688145040278 0.0050359958776742568 0 -0.2917254884257266 -0.0017566381736345419 0 -0.2928870998243559 -0.020527937726781 0 -0.31144738423897378 -0.02126732740536201 0 -0.2917254884257266 -0.0017566381736345419 0 -0.31144738423897378 -0.02126732740536201 0 -0.30323190850646392 -0.052883144282766713 0 -0.3023660715744253 -0.047018139519123002 0 -0.29757341552329353 -0.05219957266967655 0 -0.29931176789370939 -0.061629941742321552 0 -0.30659897303184058 -0.057135789817405573 0 -0.30728911182784302 -0.064893595009923935 0 -0.30323190850646392 -0.052883144282766713 0 -0.29931176789370939 -0.061629941742321552 0 -0.30659897303184058 -0.057135789817405573 0 -0.30323190850646392 -0.052883144282766713 0 -0.29757341552329353 -0.05219957266967655 0 -0.29931176789370939 -0.061629941742321552 0 -0.30659897303184058 -0.057135789817405573 0 -0.30728911182784302 -0.064893595009923935 0 -0.31405483352543062 -0.056831087900065053 0 -0.30323190850646392 -0.052883144282766713 0 -0.3023660715744253 -0.047018139519123002 0 -0.31025625293594222 -0.050033124508212908 0 -0.30659897303184058 -0.057135789817405573 0 -0.31025625293594222 -0.050033124508212908 0 -0.31405483352543062 -0.056831087900065053 0 -0.30323190850646392 -0.052883144282766713 0 -0.30659897303184058 -0.057135789817405573 0 -0.31025625293594222 -0.050033124508212908 0 -0.3023660715744253 -0.047018139519123002 0 -0.31110423911055801 -0.035316851109560482 0 -0.29943422057661201 -0.032203920876667472 0 -0.3023660715744253 -0.047018139519123002 0 -0.29943422057661201 -0.032203920876667472 0 -0.29166722635019171 -0.038853801873014321 0 -0.29943422057661201 -0.032203920876667472 0 -0.29166722635019171 -0.038853801873014321 0 -0.28378415359151371 -0.031280105512012511 0 -0.3023660715744253 -0.047018139519123002 0 -0.29166722635019171 -0.038853801873014321 0 -0.28390051605192418 -0.042754285685484159 0 -0.29166722635019171 -0.038853801873014321 0 -0.28378415359151371 -0.031280105512012511 0 -0.28390051605192418 -0.042754285685484159 0 -0.3023660715744253 -0.047018139519123002 0 -0.28390051605192418 -0.042754285685484159 0 -0.27356286309663053 -0.053258262401150697 0 -0.3023660715744253 -0.047018139519123002 0 -0.27356286309663053 -0.053258262401150697 0 -0.29757341552329353 -0.05219957266967655 0 -0.27356286309663053 -0.053258262401150697 0 -0.27532891164284878 -0.069285621960536392 0 -0.29757341552329353 -0.05219957266967655 0 -0.27532891164284878 -0.069285621960536392 0 -0.3023660715744253 -0.047018139519123002 0 -0.29757341552329353 -0.05219957266967655 0 -0.27356286309663053 -0.053258262401150697 0 -0.29757341552329353 -0.05219957266967655 0 -0.29931176789370939 -0.061629941742321552 0 -0.27532891164284878 -0.069285621960536392 0 -0.27267419604841259 -0.026924212746328481 0 -0.27375437843427658 -0.039043607324579933 0 -0.25766621977661042 -0.038842414379153638 0 -0.27356286309663053 -0.053258262401150697 0 -0.27375437843427658 -0.039043607324579933 0 -0.25766621977661042 -0.038842414379153638 0 -0.28378415359151371 -0.031280105512012511 0 -0.28390051605192418 -0.042754285685484159 0 -0.27375437843427658 -0.039043607324579933 0 -0.27267419604841259 -0.026924212746328481 0 -0.28378415359151371 -0.031280105512012511 0 -0.27375437843427658 -0.039043607324579933 0 -0.28390051605192418 -0.042754285685484159 0 -0.27356286309663053 -0.053258262401150697 0 -0.27375437843427658 -0.039043607324579933 0 -0.24475965461883589 -0.059498385283178377 0 -0.27356286309663053 -0.053258262401150697 0 -0.2582325144520296 -0.070050845257802419 0 -0.24475965461883589 -0.059498385283178377 0 -0.27356286309663053 -0.053258262401150697 0 -0.24475965461883589 -0.059498385283178377 0 -0.27356286309663053 -0.053258262401150697 0 -0.25766621977661042 -0.038842414379153638 0 -0.2582325144520296 -0.070050845257802419 0 -0.25308440776240432 -0.086371671251396109 0 -0.27532891164284878 -0.069285621960536392 0 -0.25308440776240432 -0.086371671251396109 0 -0.27532891164284878 -0.069285621960536392 0 -0.25308440776240432 -0.086371671251396109 0 -0.27361062541114611 -0.085405998149086934 0 -0.26907394573302829 -0.10103393024372311 0 -0.27361062541114611 -0.085405998149086934 0 -0.26907394573302829 -0.10103393024372311 0 -0.28494676303449051 -0.09097811142482605 0 -0.25308440776240432 -0.086371671251396109 0 -0.27361062541114611 -0.085405998149086934 0 -0.27532891164284878 -0.069285621960536392 0 -0.27356286309663053 -0.053258262401150697 0 -0.2582325144520296 -0.070050845257802419 0 -0.27532891164284878 -0.069285621960536392 0 -0.27361062541114611 -0.085405998149086934 0 -0.27532891164284878 -0.069285621960536392 0 -0.28561909888295839 -0.079360655864953042 0 -0.2432602079730701 -0.13485583854350039 0 -0.2499653418643101 -0.1102460646797562 0 -0.26490928006600228 -0.12397715003998409 0 -0.2499653418643101 -0.1102460646797562 0 -0.26490928006600228 -0.12397715003998409 0 -0.26907394573302829 -0.10103393024372311 0 -0.2499653418643101 -0.1102460646797562 0 -0.25308440776240432 -0.086371671251396109 0 -0.26907394573302829 -0.10103393024372311 0 -0.26907394573302829 -0.10103393024372311 0 -0.28789548083438649 -0.11161882002010511 0 -0.28494676303449051 -0.09097811142482605 0 -0.26490928006600228 -0.12397715003998409 0 -0.28789548083438649 -0.11161882002010511 0 -0.28428672055728371 -0.13281235115180859 0 -0.26490928006600228 -0.12397715003998409 0 -0.26907394573302829 -0.10103393024372311 0 -0.28789548083438649 -0.11161882002010511 0 -0.28789548083438649 -0.11161882002010511 0 -0.28428672055728371 -0.13281235115180859 0 -0.30877835781368662 -0.12931532841693749 0 -0.28789548083438649 -0.11161882002010511 0 -0.29765529442092259 -0.094840601490837839 0 -0.28494676303449051 -0.09097811142482605 0 -0.30761934067920371 -0.1042503242997595 0 -0.29765529442092259 -0.094840601490837839 0 -0.30832877355579341 -0.086934752854072747 0 -0.30761934067920371 -0.1042503242997595 0 -0.30832877355579341 -0.086934752854072747 0 -0.31968159473222052 -0.091584555267719248 0 -0.28789548083438649 -0.11161882002010511 0 -0.30761934067920371 -0.1042503242997595 0 -0.29765529442092259 -0.094840601490837839 0 -0.28789548083438649 -0.11161882002010511 0 -0.30761934067920371 -0.1042503242997595 0 -0.30877835781368662 -0.12931532841693749 0 -0.29931176789370939 -0.061629941742321552 0 -0.27532891164284878 -0.069285621960536392 0 -0.29568251685582603 -0.071589435967753134 0 -0.27532891164284878 -0.069285621960536392 0 -0.29568251685582603 -0.071589435967753134 0 -0.28561909888295839 -0.079360655864953042 0 -0.29568251685582603 -0.071589435967753134 0 -0.28561909888295839 -0.079360655864953042 0 -0.29849490204505058 -0.081938345925378783 0 -0.27361062541114611 -0.085405998149086934 0 -0.28561909888295839 -0.079360655864953042 0 -0.28494676303449051 -0.09097811142482605 0 -0.29765529442092259 -0.094840601490837839 0 -0.28494676303449051 -0.09097811142482605 0 -0.29849490204505058 -0.081938345925378783 0 -0.28561909888295839 -0.079360655864953042 0 -0.28494676303449051 -0.09097811142482605 0 -0.29849490204505058 -0.081938345925378783 0 -0.29849490204505058 -0.081938345925378783 0 -0.30832877355579341 -0.086934752854072747 0 -0.3066986514807607 -0.074546990101646726 0 -0.29765529442092259 -0.094840601490837839 0 -0.29849490204505058 -0.081938345925378783 0 -0.30832877355579341 -0.086934752854072747 0 -0.30832877355579341 -0.086934752854072747 0 -0.3066986514807607 -0.074546990101646726 0 -0.31636087034116728 -0.076704125898778439 0 -0.3066986514807607 -0.074546990101646726 0 -0.31411021802290889 -0.069356746280106005 0 -0.31636087034116728 -0.076704125898778439 0 -0.29568251685582603 -0.071589435967753134 0 -0.29849490204505058 -0.081938345925378783 0 -0.3066986514807607 -0.074546990101646726 0 -0.29568251685582603 -0.071589435967753134 0 -0.3066986514807607 -0.074546990101646726 0 -0.30728911182784302 -0.064893595009923935 0 -0.29931176789370939 -0.061629941742321552 0 -0.29568251685582603 -0.071589435967753134 0 -0.30728911182784302 -0.064893595009923935 0 -0.3066986514807607 -0.074546990101646726 0 -0.30728911182784302 -0.064893595009923935 0 -0.31411021802290889 -0.069356746280106005 0 -0.30728911182784302 -0.064893595009923935 0 -0.31630436981946819 -0.062936971351065629 0 -0.31411021802290889 -0.069356746280106005 0 -0.31630436981946819 -0.062936971351065629 0 -0.31411021802290889 -0.069356746280106005 0 -0.32389808664530562 -0.067702049039115322 0 -0.31630436981946819 -0.062936971351065629 0 -0.32389808664530562 -0.067702049039115322 0 -0.32481687078849097 -0.058022226865728103 0 -0.32389808664530562 -0.067702049039115322 0 -0.3259684841043719 -0.075020057435826168 0 -0.31636087034116728 -0.076704125898778439 0 -0.31411021802290889 -0.069356746280106005 0 -0.32389808664530562 -0.067702049039115322 0 -0.31636087034116728 -0.076704125898778439 0 -0.30832877355579341 -0.086934752854072747 0 -0.32608803180755441 -0.084321365842938284 0 -0.30832877355579341 -0.086934752854072747 0 -0.31968159473222052 -0.091584555267719248 0 -0.32608803180755441 -0.084321365842938284 0 -0.30832877355579341 -0.086934752854072747 0 -0.31636087034116728 -0.076704125898778439 0 -0.32608803180755441 -0.084321365842938284 0 -0.31968159473222052 -0.091584555267719248 0 -0.32608803180755441 -0.084321365842938284 0 -0.3259684841043719 -0.075020057435826168 0 -0.31636087034116728 -0.076704125898778439 0 -0.32608803180755441 -0.084321365842938284 0 -0.31968159473222052 -0.091584555267719248 0 -0.32608803180755441 -0.084321365842938284 0 -0.34030971713070318 -0.087052614945596102 0 -0.32608803180755441 -0.084321365842938284 0 -0.34030971713070318 -0.087052614945596102 0 -0.34745734249292459 -0.081176736816750444 0 -0.32608803180755441 -0.084321365842938284 0 -0.33752694762346008 -0.07135268896247253 0 -0.34745734249292459 -0.081176736816750444 0 -0.32608803180755441 -0.084321365842938284 0 -0.34745734249292459 -0.081176736816750444 0 -0.33752694762346008 -0.07135268896247253 0 -0.3489658634393657 -0.058384012082006782 0 -0.33645864726091979 -0.05858208772264157 0 -0.33752694762346008 -0.07135268896247253 0 -0.3489658634393657 -0.058384012082006782 0 -0.32389808664530562 -0.067702049039115322 0 -0.33752694762346008 -0.07135268896247253 0 -0.33645864726091979 -0.05858208772264157 0 -0.3259684841043719 -0.075020057435826168 0 -0.32608803180755441 -0.084321365842938284 0 -0.33752694762346008 -0.07135268896247253 0 -0.32608803180755441 -0.084321365842938284 0 -0.33752694762346008 -0.07135268896247253 0 -0.32389808664530562 -0.067702049039115322 0 -0.3259684841043719 -0.075020057435826168 0 -0.33752694762346008 -0.07135268896247253 0 -0.32454403747219479 -0.1081839716812668 0 -0.30877835781368662 -0.12931532841693749 0 -0.30761934067920371 -0.1042503242997595 0 -0.32454403747219479 -0.1081839716812668 0 -0.30877835781368662 -0.12931532841693749 0 -0.32454403747219479 -0.1081839716812668 0 -0.33570809008837621 -0.11845594114356341 0 -0.30877835781368662 -0.12931532841693749 0 -0.30761934067920371 -0.1042503242997595 0 -0.31968159473222052 -0.091584555267719248 0 -0.32454403747219479 -0.1081839716812668 0 -0.34030971713070318 -0.087052614945596102 0 -0.32454403747219479 -0.1081839716812668 0 -0.34278855512837281 -0.1049294584887832 0 -0.31968159473222052 -0.091584555267719248 0 -0.34030971713070318 -0.087052614945596102 0 -0.32454403747219479 -0.1081839716812668 0 -0.34030971713070318 -0.087052614945596102 0 -0.32454403747219479 -0.1081839716812668 0 -0.32454403747219479 -0.1081839716812668 0 -0.34278855512837281 -0.1049294584887832 0 -0.33570809008837621 -0.11845594114356341 0 -0.33570809008837621 -0.11845594114356341 0 -0.35404294059136687 -0.1217835462641018 0 -0.33688620478323589 -0.13358080389391511 0 -0.34278855512837281 -0.1049294584887832 0 -0.35404294059136687 -0.1217835462641018 0 -0.35932798989652742 -0.1047455147758234 0 -0.34278855512837281 -0.1049294584887832 0 -0.33570809008837621 -0.11845594114356341 0 -0.35404294059136687 -0.1217835462641018 0 -0.34278855512837281 -0.1049294584887832 0 -0.35932798989652742 -0.1047455147758234 0 -0.35079718399447979 -0.093651592615473511 0 -0.34030971713070318 -0.087052614945596102 0 -0.34278855512837281 -0.1049294584887832 0 -0.35079718399447979 -0.093651592615473511 0 -0.35932798989652742 -0.1047455147758234 0 -0.35079718399447979 -0.093651592615473511 0 -0.36132419909701757 -0.091459041133748031 0 -0.35932798989652742 -0.1047455147758234 0 -0.37367929427193591 -0.1014825750548952 0 -0.37212838853434238 -0.11808059788504249 0 -0.35932798989652742 -0.1047455147758234 0 -0.37367929427193591 -0.1014825750548952 0 -0.36132419909701757 -0.091459041133748031 0 -0.35404294059136687 -0.1217835462641018 0 -0.37212838853434238 -0.11808059788504249 0 -0.37028068739271691 -0.13083580994494901 0 -0.35404294059136687 -0.1217835462641018 0 -0.35932798989652742 -0.1047455147758234 0 -0.37212838853434238 -0.11808059788504249 0 -0.35069420168351129 -0.07223638641294812 0 -0.34745734249292459 -0.081176736816750444 0 -0.36882665317829499 -0.078032107790563188 0 -0.36882665317829499 -0.078032107790563188 0 -0.3489658634393657 -0.058384012082006782 0 -0.35069420168351129 -0.07223638641294812 0 -0.36882665317829499 -0.078032107790563188 0 -0.3489658634393657 -0.058384012082006782 0 -0.33752694762346008 -0.07135268896247253 0 -0.35069420168351129 -0.07223638641294812 0 -0.3489658634393657 -0.058384012082006782 0 -0.33752694762346008 -0.07135268896247253 0 -0.35069420168351129 -0.07223638641294812 0 -0.34745734249292459 -0.081176736816750444 0 -0.34745734249292459 -0.081176736816750444 0 -0.36882665317829499 -0.078032107790563188 0 -0.34745734249292459 -0.081176736816750444 0 -0.36132419909701757 -0.091459041133748031 0 -0.36882665317829499 -0.078032107790563188 0 -0.34030971713070318 -0.087052614945596102 0 -0.34745734249292459 -0.081176736816750444 0 -0.35079718399447979 -0.093651592615473511 0 -0.34745734249292459 -0.081176736816750444 0 -0.35079718399447979 -0.093651592615473511 0 -0.36132419909701757 -0.091459041133748031 0 -0.37367929427193591 -0.1014825750548952 0 -0.36132419909701757 -0.091459041133748031 0 -0.36882665317829499 -0.078032107790563188 0 -0.36882665317829499 -0.078032107790563188 0 -0.36862349457690058 -0.057461967220355487 0 -0.3489658634393657 -0.058384012082006782 0 -0.36882665317829499 -0.078032107790563188 0 -0.36862349457690058 -0.057461967220355487 0 -0.37947166312044489 -0.067272628224985004 0 -0.36862349457690058 -0.057461967220355487 0 -0.3489658634393657 -0.058384012082006782 0 -0.36066681755822472 -0.045118253717945672 0 -0.36862349457690058 -0.057461967220355487 0 -0.37355784227175309 -0.045246792894939887 0 -0.3815482533063424 -0.052412606119804542 0 -0.36862349457690058 -0.057461967220355487 0 -0.36066681755822472 -0.045118253717945672 0 -0.37355784227175309 -0.045246792894939887 0 -0.3489658634393657 -0.058384012082006782 0 -0.36066681755822472 -0.045118253717945672 0 -0.3489658634393657 -0.058384012082006782 0 -0.34511111307690212 -0.046137334811030092 0 -0.36066681755822472 -0.045118253717945672 0 -0.35304062521722218 -0.036039659744318157 0 -0.3553139768507978 -0.023567241021099371 0 -0.33371347875736079 -0.040226824134751989 0 -0.34511111307690212 -0.046137334811030092 0 -0.35304062521722218 -0.036039659744318157 0 -0.33371347875736079 -0.040226824134751989 0 -0.34511111307690212 -0.046137334811030092 0 -0.35304062521722218 -0.036039659744318157 0 -0.36066681755822472 -0.045118253717945672 0 -0.36066681755822472 -0.045118253717945672 0 -0.37236777167708351 -0.031852495353884333 0 -0.35304062521722218 -0.036039659744318157 0 -0.37236777167708351 -0.031852495353884333 0 -0.35304062521722218 -0.036039659744318157 0 -0.36066681755822472 -0.045118253717945672 0 -0.37236777167708351 -0.031852495353884333 0 -0.36066681755822472 -0.045118253717945672 0 -0.37355784227175309 -0.045246792894939887 0 -0.37236777167708351 -0.031852495353884333 0 -0.37236777167708351 -0.031852495353884333 0 -0.3739022591900184 -0.02415390189740213 0 -0.36770044175442279 -0.02036669541201027 0 -0.37236777167708351 -0.031852495353884333 0 -0.36770044175442279 -0.02036669541201027 0 -0.3553139768507978 -0.023567241021099371 0 -0.36770044175442279 -0.02036669541201027 0 -0.35847393927256738 -0.010652033510738681 0 -0.38297625517291389 -0.017448943304264108 0 -0.35304062521722218 -0.036039659744318157 0 -0.37236777167708351 -0.031852495353884333 0 -0.3553139768507978 -0.023567241021099371 0 -0.3739022591900184 -0.02415390189740213 0 -0.36770044175442279 -0.02036669541201027 0 -0.38297625517291389 -0.017448943304264108 0 -0.36770044175442279 -0.02036669541201027 0 -0.35847393927256738 -0.010652033510738681 0 -0.3553139768507978 -0.023567241021099371 0 -0.35847393927256738 -0.010652033510738681 0 -0.38297625517291389 -0.017448943304264108 0 -0.37278444596104371 -0.0079457960458173115 0 -0.35847393927256738 -0.010652033510738681 0 -0.38297625517291389 -0.017448943304264108 0 -0.37474494217865062 -0.0022388935110706832 0 -0.37278444596104371 -0.0079457960458173115 0 -0.36307869926690151 -0.00068504054922277494 0 -0.37278444596104371 -0.0079457960458173115 0 -0.36307869926690151 -0.00068504054922277494 0 -0.35847393927256738 -0.010652033510738681 0 -0.36307869926690151 -0.00068504054922277494 0 -0.34718119132474479 -0.01384164818341615 0 -0.36064890389212972 0.0125435277679194 0 -0.36307869926690151 -0.00068504054922277494 0 -0.35847393927256738 -0.010652033510738681 0 -0.34718119132474479 -0.01384164818341615 0 -0.34718119132474479 -0.01384164818341615 0 -0.36064890389212972 0.0125435277679194 0 -0.34718119132474479 -0.01384164818341615 0 -0.3553139768507978 -0.023567241021099371 0 -0.33371347875736079 -0.040226824134751989 0 -0.35847393927256738 -0.010652033510738681 0 -0.34718119132474479 -0.01384164818341615 0 -0.3553139768507978 -0.023567241021099371 0 -0.34718119132474479 -0.01384164818341615 0 -0.33035884889608558 -0.02420969997450095 0 -0.33371347875736079 -0.040226824134751989 0 -0.34718119132474479 -0.01384164818341615 0 -0.33371347875736079 -0.040226824134751989 0 -0.34718119132474479 -0.01384164818341615 0 -0.32828291010712762 -0.0049346835118845543 0 -0.34055428987364128 0.0059527955302196532 0 -0.34718119132474479 -0.01384164818341615 0 -0.33035884889608558 -0.02420969997450095 0 -0.32828291010712762 -0.0049346835118845543 0 -0.31144738423897378 -0.02126732740536201 0 -0.32828291010712762 -0.0049346835118845543 0 -0.31177688145040278 0.0050359958776742568 0 -0.31144738423897378 -0.02126732740536201 0 -0.33116928005221918 -0.040778016637091109 0 -0.31144738423897378 -0.02126732740536201 0 -0.33035884889608558 -0.02420969997450095 0 -0.32828291010712762 -0.0049346835118845543 0 -0.31144738423897378 -0.02126732740536201 0 -0.33035884889608558 -0.02420969997450095 0 -0.33116928005221918 -0.040778016637091109 0 -0.3023660715744253 -0.047018139519123002 0 -0.31110423911055801 -0.035316851109560482 0 -0.33116928005221918 -0.040778016637091109 0 -0.3023660715744253 -0.047018139519123002 0 -0.31025625293594222 -0.050033124508212908 0 -0.33116928005221918 -0.040778016637091109 0 -0.3023660715744253 -0.047018139519123002 0 -0.33116928005221918 -0.040778016637091109 0 -0.31144738423897378 -0.02126732740536201 0 -0.31110423911055801 -0.035316851109560482 0 -0.33116928005221918 -0.040778016637091109 0 -0.31025625293594222 -0.050033124508212908 0 -0.31770057673851387 -0.05020147555903863 0 -0.33116928005221918 -0.040778016637091109 0 -0.31025625293594222 -0.050033124508212908 0 -0.31770057673851387 -0.05020147555903863 0 -0.31405483352543062 -0.056831087900065053 0 -0.31770057673851387 -0.05020147555903863 0 -0.31405483352543062 -0.056831087900065053 0 -0.31936567051967829 -0.054711673150449433 0 -0.31630436981946819 -0.062936971351065629 0 -0.31936567051967829 -0.054711673150449433 0 -0.32481687078849097 -0.058022226865728103 0 -0.30728911182784302 -0.064893595009923935 0 -0.31630436981946819 -0.062936971351065629 0 -0.31405483352543062 -0.056831087900065053 0 -0.31630436981946819 -0.062936971351065629 0 -0.31405483352543062 -0.056831087900065053 0 -0.31936567051967829 -0.054711673150449433 0 -0.31770057673851387 -0.05020147555903863 0 -0.32448711316898249 -0.050622394842538963 0 -0.33116928005221918 -0.040778016637091109 0 -0.31936567051967829 -0.054711673150449433 0 -0.32481687078849097 -0.058022226865728103 0 -0.32448711316898249 -0.050622394842538963 0 -0.31770057673851387 -0.05020147555903863 0 -0.31936567051967829 -0.054711673150449433 0 -0.32448711316898249 -0.050622394842538963 0 -0.32481687078849097 -0.058022226865728103 0 -0.32770904195502032 -0.053173566283506987 0 -0.32448711316898249 -0.050622394842538963 0 -0.32770904195502032 -0.053173566283506987 0 -0.32448711316898249 -0.050622394842538963 0 -0.32972533979495861 -0.048040159006195682 0 -0.3489658634393657 -0.058384012082006782 0 -0.34511111307690212 -0.046137334811030092 0 -0.3326728772282519 -0.042265511425067279 0 -0.32972533979495861 -0.048040159006195682 0 -0.33645864726091979 -0.05858208772264157 0 -0.3326728772282519 -0.042265511425067279 0 -0.3489658634393657 -0.058384012082006782 0 -0.3326728772282519 -0.042265511425067279 0 -0.32770904195502032 -0.053173566283506987 0 -0.32972533979495861 -0.048040159006195682 0 -0.33645864726091979 -0.05858208772264157 0 -0.3489658634393657 -0.058384012082006782 0 -0.33645864726091979 -0.05858208772264157 0 -0.3326728772282519 -0.042265511425067279 0 -0.32389808664530562 -0.067702049039115322 0 -0.32481687078849097 -0.058022226865728103 0 -0.33645864726091979 -0.05858208772264157 0 -0.32481687078849097 -0.058022226865728103 0 -0.32770904195502032 -0.053173566283506987 0 -0.33645864726091979 -0.05858208772264157 0 -0.34511111307690212 -0.046137334811030092 0 -0.33371347875736079 -0.040226824134751989 0 -0.3326728772282519 -0.042265511425067279 0 -0.33035884889608558 -0.02420969997450095 0 -0.33116928005221918 -0.040778016637091109 0 -0.33371347875736079 -0.040226824134751989 0 -0.35304062521722218 -0.036039659744318157 0 -0.33371347875736079 -0.040226824134751989 0 -0.32448711316898249 -0.050622394842538963 0 -0.32972533979495861 -0.048040159006195682 0 -0.33116928005221918 -0.040778016637091109 0 -0.33116928005221918 -0.040778016637091109 0 -0.3326728772282519 -0.042265511425067279 0 -0.32972533979495861 -0.048040159006195682 0 -0.3326728772282519 -0.042265511425067279 0 -0.32972533979495861 -0.048040159006195682 0 -0.33116928005221918 -0.040778016637091109 0 -0.3326728772282519 -0.042265511425067279 0 -0.33116928005221918 -0.040778016637091109 0 -0.33371347875736079 -0.040226824134751989 0 -0.33116928005221918 -0.040778016637091109 0 -0.33371347875736079 -0.040226824134751989 0 -0.3326728772282519 -0.042265511425067279 0 -0.33371347875736079 -0.040226824134751989 0 -0.3326728772282519 -0.042265511425067279 0 -0.2907170577323625 -0.25177677077710309 0 -0.30853150187083839 -0.25429835417001312 0 -0.30748271917561598 -0.2431056607245809 0 -0.30748271917561598 -0.2431056607245809 0 -0.3004866401015065 -0.2269264896544945 0 -0.32066485276457768 -0.2334308190911655 0 -0.2907170577323625 -0.25177677077710309 0 -0.30748271917561598 -0.2431056607245809 0 -0.3004866401015065 -0.2269264896544945 0 -0.30853150187083839 -0.25429835417001312 0 -0.30748271917561598 -0.2431056607245809 0 -0.32023222063025569 -0.2489608815952247 0 -0.3004866401015065 -0.2269264896544945 0 -0.27575903677895092 -0.22208668823385669 0 -0.3004866401015065 -0.2269264896544945 0 -0.27309361240676189 -0.24179026653703889 0 -0.27575903677895092 -0.22208668823385669 0 -0.3004866401015065 -0.2269264896544945 0 -0.27575903677895092 -0.22208668823385669 0 -0.29482007196541532 -0.2089319155152673 0 -0.2907170577323625 -0.25177677077710309 0 -0.3004866401015065 -0.2269264896544945 0 -0.27309361240676189 -0.24179026653703889 0 -0.27309361240676189 -0.24179026653703889 0 -0.25431856302814809 -0.24833495949118861 0 -0.25103143345639523 -0.21724688681321891 0 -0.27575903677895092 -0.22208668823385669 0 -0.25103143345639523 -0.21724688681321891 0 -0.27309361240676189 -0.24179026653703889 0 -0.27575903677895092 -0.22208668823385669 0 -0.25103143345639523 -0.21724688681321891 0 -0.27575903677895092 -0.22208668823385669 0 -0.25103143345639523 -0.21724688681321891 0 -0.27708552823660842 -0.19790031786117671 0 -0.25103143345639523 -0.21724688681321891 0 -0.25418198431724581 -0.18809916394242601 0 -0.27708552823660842 -0.19790031786117671 0 -0.27708552823660842 -0.19790031786117671 0 -0.29482007196541532 -0.2089319155152673 0 -0.30195969341908391 -0.19078830755985379 0 -0.29482007196541532 -0.2089319155152673 0 -0.30195969341908391 -0.19078830755985379 0 -0.32674672588845421 -0.2120308859258328 0 -0.3004866401015065 -0.2269264896544945 0 -0.29482007196541532 -0.2089319155152673 0 -0.32674672588845421 -0.2120308859258328 0 -0.27575903677895092 -0.22208668823385669 0 -0.27708552823660842 -0.19790031786117671 0 -0.29482007196541532 -0.2089319155152673 0 -0.30195969341908391 -0.19078830755985379 0 -0.30674796742087651 -0.1684647150882764 0 -0.32123008678095788 -0.18729232698745699 0 -0.30674796742087651 -0.1684647150882764 0 -0.2930126781551784 -0.15044668515260809 0 -0.3206808779707625 -0.15110047818677941 0 -0.27724699849667023 -0.17157804188827869 0 -0.2930126781551784 -0.15044668515260809 0 -0.30674796742087651 -0.1684647150882764 0 -0.27724699849667023 -0.17157804188827869 0 -0.2930126781551784 -0.15044668515260809 0 -0.27708552823660842 -0.19790031786117671 0 -0.30195969341908391 -0.19078830755985379 0 -0.27724699849667023 -0.17157804188827869 0 -0.30195969341908391 -0.19078830755985379 0 -0.30674796742087651 -0.1684647150882764 0 -0.27724699849667023 -0.17157804188827869 0 -0.25418198431724581 -0.18809916394242601 0 -0.27708552823660842 -0.19790031786117671 0 -0.27724699849667023 -0.17157804188827869 0 -0.25418198431724581 -0.18809916394242601 0 -0.2565438833259911 -0.1687602707777138 0 -0.27724699849667023 -0.17157804188827869 0 -0.2435592126657353 -0.1561425335328199 0 -0.2565438833259911 -0.1687602707777138 0 -0.26683780591716472 -0.14870377212940841 0 -0.27724699849667023 -0.17157804188827869 0 -0.26683780591716472 -0.14870377212940841 0 -0.2930126781551784 -0.15044668515260809 0 -0.2565438833259911 -0.1687602707777138 0 -0.27724699849667023 -0.17157804188827869 0 -0.26683780591716472 -0.14870377212940841 0 -0.2435592126657353 -0.1561425335328199 0 -0.2432602079730701 -0.13485583854350039 0 -0.26683780591716472 -0.14870377212940841 0 -0.2432602079730701 -0.13485583854350039 0 -0.26490928006600228 -0.12397715003998409 0 -0.26683780591716472 -0.14870377212940841 0 -0.26490928006600228 -0.12397715003998409 0 -0.26683780591716472 -0.14870377212940841 0 -0.28428672055728371 -0.13281235115180859 0 -0.28428672055728371 -0.13281235115180859 0 -0.2930126781551784 -0.15044668515260809 0 -0.30877835781368662 -0.12931532841693749 0 -0.26683780591716472 -0.14870377212940841 0 -0.28428672055728371 -0.13281235115180859 0 -0.2930126781551784 -0.15044668515260809 0 -0.2930126781551784 -0.15044668515260809 0 -0.30877835781368662 -0.12931532841693749 0 -0.3206808779707625 -0.15110047818677941 0 -0.2930126781551784 -0.15044668515260809 0 -0.30877835781368662 -0.12931532841693749 0 -0.33570809008837621 -0.11845594114356341 0 -0.30877835781368662 -0.12931532841693749 0 -0.33688620478323589 -0.13358080389391511 0 -0.30877835781368662 -0.12931532841693749 0 -0.3206808779707625 -0.15110047818677941 0 -0.33688620478323589 -0.13358080389391511 0 -0.3206808779707625 -0.15110047818677941 0 -0.33688620478323589 -0.13358080389391511 0 -0.34399943231138669 -0.15408109000358611 0 -0.33688620478323589 -0.13358080389391511 0 -0.35929992868189681 -0.1386942596847188 0 -0.35404294059136687 -0.1217835462641018 0 -0.33688620478323589 -0.13358080389391511 0 -0.35929992868189681 -0.1386942596847188 0 -0.35404294059136687 -0.1217835462641018 0 -0.35929992868189681 -0.1386942596847188 0 -0.37028068739271691 -0.13083580994494901 0 -0.35929992868189681 -0.1386942596847188 0 -0.37028068739271691 -0.13083580994494901 0 -0.3804539816512269 -0.14482329966991631 0 -0.35929992868189681 -0.1386942596847188 0 -0.3804539816512269 -0.14482329966991631 0 -0.35929992868189681 -0.1386942596847188 0 -0.3655172116091886 -0.15688196674787641 0 -0.3804539816512269 -0.14482329966991631 0 -0.3655172116091886 -0.15688196674787641 0 -0.3804539816512269 -0.14482329966991631 0 -0.3655172116091886 -0.15688196674787641 0 -0.37839901512320262 -0.15996290040625341 0 -0.3804539816512269 -0.14482329966991631 0 -0.33688620478323589 -0.13358080389391511 0 -0.35929992868189681 -0.1386942596847188 0 -0.34399943231138669 -0.15408109000358611 0 -0.35929992868189681 -0.1386942596847188 0 -0.34399943231138669 -0.15408109000358611 0 -0.3655172116091886 -0.15688196674787641 0 -0.34399943231138669 -0.15408109000358611 0 -0.35323542112630057 -0.1671812377988513 0 -0.3655172116091886 -0.15688196674787641 0 -0.3655172116091886 -0.15688196674787641 0 -0.37378547386561772 -0.17392500984250869 0 -0.37839901512320262 -0.15996290040625341 0 -0.35323542112630057 -0.1671812377988513 0 -0.3655172116091886 -0.15688196674787641 0 -0.37378547386561772 -0.17392500984250869 0 -0.37378547386561772 -0.17392500984250869 0 -0.35240556330307887 -0.18479875362473361 0 -0.36895563931783232 -0.19259611207654981 0 -0.35323542112630057 -0.1671812377988513 0 -0.37378547386561772 -0.17392500984250869 0 -0.35240556330307887 -0.18479875362473361 0 -0.35323542112630057 -0.1671812377988513 0 -0.35240556330307887 -0.18479875362473361 0 -0.33400288196205857 -0.17193246321376471 0 -0.35240556330307887 -0.18479875362473361 0 -0.33400288196205857 -0.17193246321376471 0 -0.33669316521431608 -0.19324526314955739 0 -0.33400288196205857 -0.17193246321376471 0 -0.32123008678095788 -0.18729232698745699 0 -0.33669316521431608 -0.19324526314955739 0 -0.3206808779707625 -0.15110047818677941 0 -0.34399943231138669 -0.15408109000358611 0 -0.33400288196205857 -0.17193246321376471 0 -0.34399943231138669 -0.15408109000358611 0 -0.35323542112630057 -0.1671812377988513 0 -0.33400288196205857 -0.17193246321376471 0 -0.30674796742087651 -0.1684647150882764 0 -0.3206808779707625 -0.15110047818677941 0 -0.33400288196205857 -0.17193246321376471 0 -0.30674796742087651 -0.1684647150882764 0 -0.33400288196205857 -0.17193246321376471 0 -0.32123008678095788 -0.18729232698745699 0 -0.30195969341908391 -0.19078830755985379 0 -0.32123008678095788 -0.18729232698745699 0 -0.32674672588845421 -0.2120308859258328 0 -0.32674672588845421 -0.2120308859258328 0 -0.35024140450074381 -0.20994798342056251 0 -0.32674672588845421 -0.2120308859258328 0 -0.33669316521431608 -0.19324526314955739 0 -0.35024140450074381 -0.20994798342056251 0 -0.32674672588845421 -0.2120308859258328 0 -0.35024140450074381 -0.20994798342056251 0 -0.3377174746324717 -0.2284461722996495 0 -0.32123008678095788 -0.18729232698745699 0 -0.32674672588845421 -0.2120308859258328 0 -0.33669316521431608 -0.19324526314955739 0 -0.35240556330307887 -0.18479875362473361 0 -0.36895563931783232 -0.19259611207654981 0 -0.35024140450074381 -0.20994798342056251 0 -0.35240556330307887 -0.18479875362473361 0 -0.33669316521431608 -0.19324526314955739 0 -0.35024140450074381 -0.20994798342056251 0 -0.36895563931783232 -0.19259611207654981 0 -0.37373608311303341 -0.20786508091529229 0 -0.35024140450074381 -0.20994798342056251 0 -0.37373608311303341 -0.20786508091529229 0 -0.35024140450074381 -0.20994798342056251 0 -0.37373608311303341 -0.20786508091529229 0 -0.35024140450074381 -0.20994798342056251 0 -0.36602803805366552 -0.21914337572849349 0 -0.37373608311303341 -0.20786508091529229 0 -0.36602803805366552 -0.21914337572849349 0 -0.37785639846487218 -0.21906994256996459 0 -0.35024140450074381 -0.20994798342056251 0 -0.357966965356528 -0.23170644806675769 0 -0.3377174746324717 -0.2284461722996495 0 -0.35024140450074381 -0.20994798342056251 0 -0.357966965356528 -0.23170644806675769 0 -0.36602803805366552 -0.21914337572849349 0 -0.357966965356528 -0.23170644806675769 0 -0.36602803805366552 -0.21914337572849349 0 -0.36983275924353248 -0.22875232439276311 0 -0.36602803805366552 -0.21914337572849349 0 -0.36983275924353248 -0.22875232439276311 0 -0.37785639846487218 -0.21906994256996459 0 -0.357966965356528 -0.23170644806675769 0 -0.36983275924353248 -0.22875232439276311 0 -0.37747963509906429 -0.24508953120583671 0 -0.35872453044413888 -0.25078889886649508 0 -0.357966965356528 -0.23170644806675769 0 -0.37747963509906429 -0.24508953120583671 0 -0.357966965356528 -0.23170644806675769 0 -0.34395992200845399 -0.24382677409400949 0 -0.3377174746324717 -0.2284461722996495 0 -0.35872453044413888 -0.25078889886649508 0 -0.357966965356528 -0.23170644806675769 0 -0.34395992200845399 -0.24382677409400949 0 -0.33345250408021371 -0.25331871279766999 0 -0.34395992200845399 -0.24382677409400949 0 -0.33132333615916232 -0.2411148243472106 0 -0.33345250408021371 -0.25331871279766999 0 -0.33132333615916232 -0.2411148243472106 0 -0.32023222063025569 -0.2489608815952247 0 -0.34395992200845399 -0.24382677409400949 0 -0.33132333615916232 -0.2411148243472106 0 -0.3377174746324717 -0.2284461722996495 0 -0.32674672588845421 -0.2120308859258328 0 -0.3377174746324717 -0.2284461722996495 0 -0.32066485276457768 -0.2334308190911655 0 -0.33132333615916232 -0.2411148243472106 0 -0.3377174746324717 -0.2284461722996495 0 -0.32066485276457768 -0.2334308190911655 0 -0.3004866401015065 -0.2269264896544945 0 -0.32674672588845421 -0.2120308859258328 0 -0.32066485276457768 -0.2334308190911655 0 -0.30748271917561598 -0.2431056607245809 0 -0.32066485276457768 -0.2334308190911655 0 -0.32023222063025569 -0.2489608815952247 0 -0.33132333615916232 -0.2411148243472106 0 -0.32066485276457768 -0.2334308190911655 0 -0.32023222063025569 -0.2489608815952247 0 -0.43445882011373449 -0.25478651907497341 0 -0.43806130733353449 -0.23541812032183559 0 -0.43445882011373449 -0.25478651907497341 0 -0.4258852610480256 -0.24284815888716721 0 -0.43806130733353449 -0.23541812032183559 0 -0.4258852610480256 -0.24284815888716721 0 -0.42538833238501789 -0.2333934851751748 0 -0.41698539980062188 -0.23875950084572559 0 -0.43445882011373449 -0.25478651907497341 0 -0.4258852610480256 -0.24284815888716721 0 -0.42335340856967768 -0.24893549408922019 0 -0.4258852610480256 -0.24284815888716721 0 -0.42538833238501789 -0.2333934851751748 0 -0.43806130733353449 -0.23541812032183559 0 -0.43091611572645672 -0.22699763907763329 0 -0.42538833238501789 -0.2333934851751748 0 -0.43806130733353449 -0.23541812032183559 0 -0.43091611572645672 -0.22699763907763329 0 -0.44166379455333399 -0.21604972156869759 0 -0.43806130733353449 -0.23541812032183559 0 -0.43091611572645672 -0.22699763907763329 0 -0.43133498143110582 -0.21921018883561361 0 -0.44166379455333399 -0.21604972156869759 0 -0.43133498143110582 -0.21921018883561361 0 -0.4232485836513401 -0.22477446532261011 0 -0.4232102070061276 -0.21869015764887889 0 -0.43091611572645672 -0.22699763907763329 0 -0.43133498143110582 -0.21921018883561361 0 -0.4232485836513401 -0.22477446532261011 0 -0.43091611572645672 -0.22699763907763329 0 -0.4232485836513401 -0.22477446532261011 0 -0.42538833238501789 -0.2333934851751748 0 -0.4232485836513401 -0.22477446532261011 0 -0.42538833238501789 -0.2333934851751748 0 -0.41731365953457839 -0.2310953018814938 0 -0.4232485836513401 -0.22477446532261011 0 -0.41731365953457839 -0.2310953018814938 0 -0.4121948509493269 -0.2247325638453028 0 -0.41731365953457839 -0.2310953018814938 0 -0.4080561583250083 -0.23272886934204159 0 -0.41698539980062188 -0.23875950084572559 0 -0.4232485836513401 -0.22477446532261011 0 -0.4121948509493269 -0.2247325638453028 0 -0.41685681033243982 -0.21746512418924929 0 -0.4232485836513401 -0.22477446532261011 0 -0.41685681033243982 -0.21746512418924929 0 -0.4232102070061276 -0.21869015764887889 0 -0.4121948509493269 -0.2247325638453028 0 -0.4080561583250083 -0.23272886934204159 0 -0.39971520205611372 -0.2221352637332015 0 -0.4121948509493269 -0.2247325638453028 0 -0.40807454407470489 -0.21592977391801271 0 -0.41685681033243982 -0.21746512418924929 0 -0.4121948509493269 -0.2247325638453028 0 -0.39971520205611372 -0.2221352637332015 0 -0.40807454407470489 -0.21592977391801271 0 -0.41731365953457839 -0.2310953018814938 0 -0.4121948509493269 -0.2247325638453028 0 -0.4080561583250083 -0.23272886934204159 0 -0.4080561583250083 -0.23272886934204159 0 -0.40983148527785651 -0.24118391776602099 0 -0.41698539980062188 -0.23875950084572559 0 -0.42538833238501789 -0.2333934851751748 0 -0.41731365953457839 -0.2310953018814938 0 -0.41698539980062188 -0.23875950084572559 0 -0.40983148527785651 -0.24118391776602099 0 -0.41698539980062188 -0.23875950084572559 0 -0.41627810448972868 -0.24641300060905449 0 -0.4258852610480256 -0.24284815888716721 0 -0.42335340856967768 -0.24893549408922019 0 -0.41627810448972868 -0.24641300060905449 0 -0.4258852610480256 -0.24284815888716721 0 -0.41698539980062188 -0.23875950084572559 0 -0.41627810448972868 -0.24641300060905449 0 -0.41679144862722167 -0.25169429778568547 0 -0.42335340856967768 -0.24893549408922019 0 -0.41627810448972868 -0.24641300060905449 0 -0.41385673751816382 -0.25312989710486528 0 -0.41627810448972868 -0.24641300060905449 0 -0.4086566941719203 -0.24778871483445111 0 -0.40983148527785651 -0.24118391776602099 0 -0.41627810448972868 -0.24641300060905449 0 -0.4086566941719203 -0.24778871483445111 0 -0.40282532782868952 -0.25224285689579767 0 -0.4086566941719203 -0.24778871483445111 0 -0.40022281387448849 -0.24084313907701979 0 -0.40983148527785651 -0.24118391776602099 0 -0.4086566941719203 -0.24778871483445111 0 -0.40022281387448849 -0.24084313907701979 0 -0.4080561583250083 -0.23272886934204159 0 -0.40983148527785651 -0.24118391776602099 0 -0.40022281387448849 -0.24084313907701979 0 -0.40022281387448849 -0.24084313907701979 0 -0.3903832871219331 -0.2411545733314838 0 -0.38772777019650018 -0.2315142496456449 0 -0.3938256931015453 -0.25037754026629511 0 -0.40022281387448849 -0.24084313907701979 0 -0.3903832871219331 -0.2411545733314838 0 -0.3938256931015453 -0.25037754026629511 0 -0.3903832871219331 -0.2411545733314838 0 -0.37747963509906429 -0.24508953120583671 0 -0.3903832871219331 -0.2411545733314838 0 -0.37747963509906429 -0.24508953120583671 0 -0.38772777019650018 -0.2315142496456449 0 -0.37747963509906429 -0.24508953120583671 0 -0.37785639846487218 -0.21906994256996459 0 -0.37747963509906429 -0.24508953120583671 0 -0.37785639846487218 -0.21906994256996459 0 -0.38772777019650018 -0.2315142496456449 0 -0.36983275924353248 -0.22875232439276311 0 -0.37747963509906429 -0.24508953120583671 0 -0.37785639846487218 -0.21906994256996459 0 -0.37785639846487218 -0.21906994256996459 0 -0.38772777019650018 -0.2315142496456449 0 -0.38790285805175961 -0.2167146319195192 0 -0.4080561583250083 -0.23272886934204159 0 -0.40022281387448849 -0.24084313907701979 0 -0.39971520205611372 -0.2221352637332015 0 -0.40022281387448849 -0.24084313907701979 0 -0.39971520205611372 -0.2221352637332015 0 -0.38772777019650018 -0.2315142496456449 0 -0.39971520205611372 -0.2221352637332015 0 -0.38790285805175961 -0.2167146319195192 0 -0.40022281387448849 -0.24084313907701979 0 -0.38772777019650018 -0.2315142496456449 0 -0.39971520205611372 -0.2221352637332015 0 -0.39971520205611372 -0.2221352637332015 0 -0.39723076172532301 -0.205782178410022 0 -0.40807454407470489 -0.21592977391801271 0 -0.39971520205611372 -0.2221352637332015 0 -0.39723076172532301 -0.205782178410022 0 -0.38790285805175961 -0.2167146319195192 0 -0.39723076172532301 -0.205782178410022 0 -0.41303892827123678 -0.21093405469715851 0 -0.40807454407470489 -0.21592977391801271 0 -0.37373608311303341 -0.20786508091529229 0 -0.39723076172532301 -0.205782178410022 0 -0.38370630256805799 -0.1971119561512929 0 -0.37373608311303341 -0.20786508091529229 0 -0.39723076172532301 -0.205782178410022 0 -0.38790285805175961 -0.2167146319195192 0 -0.37373608311303341 -0.20786508091529229 0 -0.39723076172532301 -0.205782178410022 0 -0.37373608311303341 -0.20786508091529229 0 -0.37785639846487218 -0.21906994256996459 0 -0.38790285805175961 -0.2167146319195192 0 -0.36895563931783232 -0.19259611207654981 0 -0.38370630256805799 -0.1971119561512929 0 -0.3831693110633177 -0.1873742460103984 0 -0.36895563931783232 -0.19259611207654981 0 -0.37373608311303341 -0.20786508091529229 0 -0.38370630256805799 -0.1971119561512929 0 -0.38370630256805799 -0.1971119561512929 0 -0.39543971762078378 -0.19194216334420211 0 -0.3831693110633177 -0.1873742460103984 0 -0.39723076172532301 -0.205782178410022 0 -0.38370630256805799 -0.1971119561512929 0 -0.39543971762078378 -0.19194216334420211 0 -0.39723076172532301 -0.205782178410022 0 -0.39543971762078378 -0.19194216334420211 0 -0.40534117689708921 -0.19634387975323889 0 -0.39543971762078378 -0.19194216334420211 0 -0.40534117689708921 -0.19634387975323889 0 -0.40730162077548249 -0.18407395049314179 0 -0.39723076172532301 -0.205782178410022 0 -0.40534117689708921 -0.19634387975323889 0 -0.42072544033761272 -0.20369927590475301 0 -0.42032122747045741 -0.1927313373696285 0 -0.42072544033761272 -0.20369927590475301 0 -0.40730162077548249 -0.18407395049314179 0 -0.42072544033761272 -0.20369927590475301 0 -0.40730162077548249 -0.18407395049314179 0 -0.40534117689708921 -0.19634387975323889 0 -0.42072544033761272 -0.20369927590475301 0 -0.40730162077548249 -0.18407395049314179 0 -0.39723076172532301 -0.205782178410022 0 -0.41303892827123678 -0.21093405469715851 0 -0.42072544033761272 -0.20369927590475301 0 -0.39723076172532301 -0.205782178410022 0 -0.42072544033761272 -0.20369927590475301 0 -0.41303892827123678 -0.21093405469715851 0 -0.40807454407470489 -0.21592977391801271 0 -0.41685681033243982 -0.21746512418924929 0 -0.41303892827123678 -0.21093405469715851 0 -0.41685681033243982 -0.21746512418924929 0 -0.42140045260962489 -0.21331085224804261 0 -0.41685681033243982 -0.21746512418924929 0 -0.42140045260962489 -0.21331085224804261 0 -0.4232102070061276 -0.21869015764887889 0 -0.41303892827123678 -0.21093405469715851 0 -0.42140045260962489 -0.21331085224804261 0 -0.42072544033761272 -0.20369927590475301 0 -0.42512182626149492 -0.2033095177213731 0 -0.43378961613155448 -0.20908682079381441 0 -0.44184138868315109 -0.20247798044170351 0 -0.42072544033761272 -0.20369927590475301 0 -0.42512182626149492 -0.2033095177213731 0 -0.43133498143110582 -0.21921018883561361 0 -0.42072544033761272 -0.20369927590475301 0 -0.42512182626149492 -0.2033095177213731 0 -0.43133498143110582 -0.21921018883561361 0 -0.42512182626149492 -0.2033095177213731 0 -0.43378961613155448 -0.20908682079381441 0 -0.43133498143110582 -0.21921018883561361 0 -0.42140045260962489 -0.21331085224804261 0 -0.4232102070061276 -0.21869015764887889 0 -0.43133498143110582 -0.21921018883561361 0 -0.42072544033761272 -0.20369927590475301 0 -0.43133498143110582 -0.21921018883561361 0 -0.42140045260962489 -0.21331085224804261 0 -0.42072544033761272 -0.20369927590475301 0 -0.43133498143110582 -0.21921018883561361 0 -0.43378961613155448 -0.20908682079381441 0 -0.44166379455333399 -0.21604972156869759 0 -0.42032122747045741 -0.1927313373696285 0 -0.44184138868315109 -0.20247798044170351 0 -0.42032122747045741 -0.1927313373696285 0 -0.43099962817645188 -0.18319011649723049 0 -0.43833565968517207 -0.19112957676178299 0 -0.42032122747045741 -0.1927313373696285 0 -0.42512182626149492 -0.2033095177213731 0 -0.44184138868315109 -0.20247798044170351 0 -0.42032122747045741 -0.1927313373696285 0 -0.43833565968517207 -0.19112957676178299 0 -0.44184138868315109 -0.20247798044170351 0 -0.42032122747045741 -0.1927313373696285 0 -0.42072544033761272 -0.20369927590475301 0 -0.42512182626149492 -0.2033095177213731 0 -0.42549584187692119 -0.17333418479170171 0 -0.43099962817645188 -0.18319011649723049 0 -0.41834400919125792 -0.18158621355319651 0 -0.42032122747045741 -0.1927313373696285 0 -0.43099962817645188 -0.18319011649723049 0 -0.41834400919125792 -0.18158621355319651 0 -0.43099962817645188 -0.18319011649723049 0 -0.43495901877196291 -0.17485617288990979 0 -0.44455133712372419 -0.18300714728765441 0 -0.42549584187692119 -0.17333418479170171 0 -0.43099962817645188 -0.18319011649723049 0 -0.43495901877196291 -0.17485617288990979 0 -0.42549584187692119 -0.17333418479170171 0 -0.43495901877196291 -0.17485617288990979 0 -0.43155613508544272 -0.1669321437644439 0 -0.43495901877196291 -0.17485617288990979 0 -0.43155613508544272 -0.1669321437644439 0 -0.44219215159727421 -0.16781727210851849 0 -0.43155613508544272 -0.1669321437644439 0 -0.43166640735559808 -0.1552039120346444 0 -0.44219215159727421 -0.16781727210851849 0 -0.43155613508544272 -0.1669321437644439 0 -0.4214232379976206 -0.16216052115063159 0 -0.43166640735559808 -0.1552039120346444 0 -0.42549584187692119 -0.17333418479170171 0 -0.43155613508544272 -0.1669321437644439 0 -0.4214232379976206 -0.16216052115063159 0 -0.42549584187692119 -0.17333418479170171 0 -0.4214232379976206 -0.16216052115063159 0 -0.41110577652129249 -0.1670682470007229 0 -0.4214232379976206 -0.16216052115063159 0 -0.41110577652129249 -0.1670682470007229 0 -0.40669002996807779 -0.1495058137550834 0 -0.41110577652129249 -0.1670682470007229 0 -0.41834400919125792 -0.18158621355319651 0 -0.40730162077548249 -0.18407395049314179 0 -0.42549584187692119 -0.17333418479170171 0 -0.41110577652129249 -0.1670682470007229 0 -0.41834400919125792 -0.18158621355319651 0 -0.42032122747045741 -0.1927313373696285 0 -0.41834400919125792 -0.18158621355319651 0 -0.40730162077548249 -0.18407395049314179 0 -0.39543971762078378 -0.19194216334420211 0 -0.40730162077548249 -0.18407395049314179 0 -0.39267839793348491 -0.17927693187167279 0 -0.40730162077548249 -0.18407395049314179 0 -0.39267839793348491 -0.17927693187167279 0 -0.39387780121335469 -0.16444862508152899 0 -0.40730162077548249 -0.18407395049314179 0 -0.39387780121335469 -0.16444862508152899 0 -0.37378547386561772 -0.17392500984250869 0 -0.36895563931783232 -0.19259611207654981 0 -0.3831693110633177 -0.1873742460103984 0 -0.37378547386561772 -0.17392500984250869 0 -0.39267839793348491 -0.17927693187167279 0 -0.3831693110633177 -0.1873742460103984 0 -0.37378547386561772 -0.17392500984250869 0 -0.39267839793348491 -0.17927693187167279 0 -0.39387780121335469 -0.16444862508152899 0 -0.39543971762078378 -0.19194216334420211 0 -0.39267839793348491 -0.17927693187167279 0 -0.3831693110633177 -0.1873742460103984 0 -0.37378547386561772 -0.17392500984250869 0 -0.37839901512320262 -0.15996290040625341 0 -0.39387780121335469 -0.16444862508152899 0 -0.37839901512320262 -0.15996290040625341 0 -0.39387780121335469 -0.16444862508152899 0 -0.3804539816512269 -0.14482329966991631 0 -0.41110577652129249 -0.1670682470007229 0 -0.39387780121335469 -0.16444862508152899 0 -0.40669002996807779 -0.1495058137550834 0 -0.41110577652129249 -0.1670682470007229 0 -0.40730162077548249 -0.18407395049314179 0 -0.39387780121335469 -0.16444862508152899 0 -0.39387780121335469 -0.16444862508152899 0 -0.3804539816512269 -0.14482329966991631 0 -0.40669002996807779 -0.1495058137550834 0 -0.3804539816512269 -0.14482329966991631 0 -0.39647179587780151 -0.13189450107720049 0 -0.40669002996807779 -0.1495058137550834 0 -0.3804539816512269 -0.14482329966991631 0 -0.40669002996807779 -0.1495058137550834 0 -0.39387780121335469 -0.16444862508152899 0 -0.3804539816512269 -0.14482329966991631 0 -0.3804539816512269 -0.14482329966991631 0 -0.38278168804071749 -0.12940228238898679 0 -0.39647179587780151 -0.13189450107720049 0 -0.3804539816512269 -0.14482329966991631 0 -0.39647179587780151 -0.13189450107720049 0 -0.37212838853434238 -0.11808059788504249 0 -0.37028068739271691 -0.13083580994494901 0 -0.38278168804071749 -0.12940228238898679 0 -0.37028068739271691 -0.13083580994494901 0 -0.3804539816512269 -0.14482329966991631 0 -0.38278168804071749 -0.12940228238898679 0 -0.38278168804071749 -0.12940228238898679 0 -0.39647179587780151 -0.13189450107720049 0 -0.39044023874876249 -0.11757149150947201 0 -0.39647179587780151 -0.13189450107720049 0 -0.40828286160401828 -0.1310364195873514 0 -0.40669002996807779 -0.1495058137550834 0 -0.39647179587780151 -0.13189450107720049 0 -0.40828286160401828 -0.1310364195873514 0 -0.41122993917504558 -0.1199812866788818 0 -0.39647179587780151 -0.13189450107720049 0 -0.41122993917504558 -0.1199812866788818 0 -0.40828286160401828 -0.1310364195873514 0 -0.41930562378398423 -0.12797048681614909 0 -0.41122993917504558 -0.1199812866788818 0 -0.41930562378398423 -0.12797048681614909 0 -0.41533589961201212 -0.13938201891822019 0 -0.4273858072007774 -0.14414008567558009 0 -0.40828286160401828 -0.1310364195873514 0 -0.41533589961201212 -0.13938201891822019 0 -0.40669002996807779 -0.1495058137550834 0 -0.40828286160401828 -0.1310364195873514 0 -0.41930562378398423 -0.12797048681614909 0 -0.41533589961201212 -0.13938201891822019 0 -0.40669002996807779 -0.1495058137550834 0 -0.43166640735559808 -0.1552039120346444 0 -0.4214232379976206 -0.16216052115063159 0 -0.40669002996807779 -0.1495058137550834 0 -0.43166640735559808 -0.1552039120346444 0 -0.41533589961201212 -0.13938201891822019 0 -0.40669002996807779 -0.1495058137550834 0 -0.4273858072007774 -0.14414008567558009 0 -0.40669002996807779 -0.1495058137550834 0 -0.4273858072007774 -0.14414008567558009 0 -0.43166640735559808 -0.1552039120346444 0 -0.43166640735559808 -0.1552039120346444 0 -0.43525592456887258 -0.14374997194848471 0 -0.44410307239699631 -0.15282998285397989 0 -0.4273858072007774 -0.14414008567558009 0 -0.43166640735559808 -0.1552039120346444 0 -0.43525592456887258 -0.14374997194848471 0 -0.41930562378398423 -0.12797048681614909 0 -0.43525592456887258 -0.14374997194848471 0 -0.41930562378398423 -0.12797048681614909 0 -0.4273858072007774 -0.14414008567558009 0 -0.43525592456887258 -0.14374997194848471 0 -0.41930562378398423 -0.12797048681614909 0 -0.4273858072007774 -0.14414008567558009 0 -0.41930562378398423 -0.12797048681614909 0 -0.43525592456887258 -0.14374997194848471 0 -0.43389101300267191 -0.13422730327376839 0 -0.41930562378398423 -0.12797048681614909 0 -0.43389101300267191 -0.13422730327376839 0 -0.4149348530849476 -0.1169905694289516 0 -0.43389101300267191 -0.13422730327376839 0 -0.4149348530849476 -0.1169905694289516 0 -0.43389101300267191 -0.13422730327376839 0 -0.43160182387889101 -0.1187955019330571 0 -0.44085253015216358 -0.1237950587173612 0 -0.43389101300267191 -0.13422730327376839 0 -0.44872577578551592 -0.13320174295465559 0 -0.452847172920396 -0.1514640371185853 0 -0.44872577578551592 -0.13320174295465559 0 -0.45896755277767909 -0.12575633132281341 0 -0.45000974795797011 -0.119430952696417 0 -0.44872577578551592 -0.13320174295465559 0 -0.45000974795797011 -0.119430952696417 0 -0.44085253015216358 -0.1237950587173612 0 -0.43389101300267191 -0.13422730327376839 0 -0.44872577578551592 -0.13320174295465559 0 -0.44085253015216358 -0.1237950587173612 0 -0.43525592456887258 -0.14374997194848471 0 -0.43389101300267191 -0.13422730327376839 0 -0.452847172920396 -0.1514640371185853 0 -0.43525592456887258 -0.14374997194848471 0 -0.44410307239699631 -0.15282998285397989 0 -0.452847172920396 -0.1514640371185853 0 -0.44872577578551592 -0.13320174295465559 0 -0.452847172920396 -0.1514640371185853 0 -0.456386085566235 -0.14096643446963419 0 -0.43389101300267191 -0.13422730327376839 0 -0.452847172920396 -0.1514640371185853 0 -0.44410307239699631 -0.15282998285397989 0 -0.452847172920396 -0.1514640371185853 0 -0.45664278474311831 -0.16090201031420531 0 -0.452847172920396 -0.1514640371185853 0 -0.456386085566235 -0.14096643446963419 0 -0.46738274896045578 -0.15003021006820461 0 -0.452847172920396 -0.1514640371185853 0 -0.46738274896045578 -0.15003021006820461 0 -0.45664278474311831 -0.16090201031420531 0 -0.456386085566235 -0.14096643446963419 0 -0.46738274896045578 -0.15003021006820461 0 -0.47200539146090159 -0.13839174763128981 0 -0.456386085566235 -0.14096643446963419 0 -0.47200539146090159 -0.13839174763128981 0 -0.47750202174635031 -0.1215216316744509 0 -0.456386085566235 -0.14096643446963419 0 -0.45896755277767909 -0.12575633132281341 0 -0.47750202174635031 -0.1215216316744509 0 -0.456386085566235 -0.14096643446963419 0 -0.47750202174635031 -0.1215216316744509 0 -0.44872577578551592 -0.13320174295465559 0 -0.456386085566235 -0.14096643446963419 0 -0.45896755277767909 -0.12575633132281341 0 -0.47200539146090159 -0.13839174763128981 0 -0.48675070957056549 -0.14104871431286931 0 -0.47750202174635031 -0.1215216316744509 0 -0.50000000000000011 -0.12648838757554831 0 -0.48675070957056549 -0.14104871431286931 0 -0.5 -0.15043640832747529 0 -0.50000000000000011 -0.12648838757554831 0 -0.48675070957056549 -0.14104871431286931 0 -0.47750202174635031 -0.1215216316744509 0 -0.48675070957056549 -0.14104871431286931 0 -0.5 -0.15043640832747529 0 -0.48062174440056549 -0.15969986187448909 0 -0.46738274896045578 -0.15003021006820461 0 -0.47200539146090159 -0.13839174763128981 0 -0.48675070957056549 -0.14104871431286931 0 -0.48675070957056549 -0.14104871431286931 0 -0.48062174440056549 -0.15969986187448909 0 -0.46738274896045578 -0.15003021006820461 0 -0.48675070957056549 -0.14104871431286931 0 -0.48062174440056549 -0.15969986187448909 0 -0.48062174440056549 -0.15969986187448909 0 -0.46548313673471758 -0.16971310035941381 0 -0.46753260370971428 -0.1600862956540782 0 -0.46738274896045578 -0.15003021006820461 0 -0.48062174440056549 -0.15969986187448909 0 -0.46753260370971428 -0.1600862956540782 0 -0.48062174440056549 -0.15969986187448909 0 -0.47449277923056221 -0.17835100943610771 0 -0.46548313673471758 -0.16971310035941381 0 -0.48062174440056549 -0.15969986187448909 0 -0.47449277923056221 -0.17835100943610771 0 -0.5 -0.15043640832747529 0 -0.48062174440056549 -0.15969986187448909 0 -0.49999999999999828 -0.17438442907940241 0 -0.48062174440056549 -0.15969986187448909 0 -0.49999999999999828 -0.17438442907940241 0 -0.47449277923056221 -0.17835100943610771 0 -0.49999999999999828 -0.17438442907940241 0 -0.47449277923056221 -0.17835100943610771 0 -0.49999999999999828 -0.17438442907940241 0 -0.47449277923056221 -0.17835100943610771 0 -0.48549376880548989 -0.19132810400505559 0 -0.47449277923056221 -0.17835100943610771 0 -0.46892716456320649 -0.19528781647494389 0 -0.47449277923056221 -0.17835100943610771 0 -0.45952205817714309 -0.18067907836188021 0 -0.46892716456320649 -0.19528781647494389 0 -0.45952205817714309 -0.18067907836188021 0 -0.46548313673471758 -0.16971310035941381 0 -0.45289664290439807 -0.17180374819378549 0 -0.47449277923056221 -0.17835100943610771 0 -0.45952205817714309 -0.18067907836188021 0 -0.47449277923056221 -0.17835100943610771 0 -0.45952205817714309 -0.18067907836188021 0 -0.46548313673471758 -0.16971310035941381 0 -0.46548313673471758 -0.16971310035941381 0 -0.46753260370971428 -0.1600862956540782 0 -0.45664278474311831 -0.16090201031420531 0 -0.46738274896045578 -0.15003021006820461 0 -0.46753260370971428 -0.1600862956540782 0 -0.45664278474311831 -0.16090201031420531 0 -0.46548313673471758 -0.16971310035941381 0 -0.45664278474311831 -0.16090201031420531 0 -0.45289664290439807 -0.17180374819378549 0 -0.45664278474311831 -0.16090201031420531 0 -0.45289664290439807 -0.17180374819378549 0 -0.44219215159727421 -0.16781727210851849 0 -0.43166640735559808 -0.1552039120346444 0 -0.45664278474311831 -0.16090201031420531 0 -0.44219215159727421 -0.16781727210851849 0 -0.43166640735559808 -0.1552039120346444 0 -0.45664278474311831 -0.16090201031420531 0 -0.43166640735559808 -0.1552039120346444 0 -0.44410307239699631 -0.15282998285397989 0 -0.45664278474311831 -0.16090201031420531 0 -0.43495901877196291 -0.17485617288990979 0 -0.44219215159727421 -0.16781727210851849 0 -0.44455133712372419 -0.18300714728765441 0 -0.43099962817645188 -0.18319011649723049 0 -0.44455133712372419 -0.18300714728765441 0 -0.43833565968517207 -0.19112957676178299 0 -0.45952205817714309 -0.18067907836188021 0 -0.44455133712372419 -0.18300714728765441 0 -0.45396471697207569 -0.194241302212698 0 -0.45952205817714309 -0.18067907836188021 0 -0.44455133712372419 -0.18300714728765441 0 -0.45952205817714309 -0.18067907836188021 0 -0.45289664290439807 -0.17180374819378549 0 -0.44455133712372419 -0.18300714728765441 0 -0.45289664290439807 -0.17180374819378549 0 -0.44219215159727421 -0.16781727210851849 0 -0.44455133712372419 -0.18300714728765441 0 -0.44455133712372419 -0.18300714728765441 0 -0.43833565968517207 -0.19112957676178299 0 -0.45396471697207569 -0.194241302212698 0 -0.43833565968517207 -0.19112957676178299 0 -0.44184138868315109 -0.20247798044170351 0 -0.45396471697207569 -0.194241302212698 0 -0.44184138868315109 -0.20247798044170351 0 -0.46336154989584488 -0.2122246235137781 0 -0.45396471697207569 -0.194241302212698 0 -0.44184138868315109 -0.20247798044170351 0 -0.46336154989584488 -0.2122246235137781 0 -0.45338394269579491 -0.2190794284651259 0 -0.43378961613155448 -0.20908682079381441 0 -0.44184138868315109 -0.20247798044170351 0 -0.44166379455333399 -0.21604972156869759 0 -0.44184138868315109 -0.20247798044170351 0 -0.44166379455333399 -0.21604972156869759 0 -0.45338394269579491 -0.2190794284651259 0 -0.44184138868315109 -0.20247798044170351 0 -0.46336154989584488 -0.2122246235137781 0 -0.46336154989584488 -0.2122246235137781 0 -0.46892716456320649 -0.19528781647494389 0 -0.46336154989584488 -0.2122246235137781 0 -0.45396471697207569 -0.194241302212698 0 -0.46892716456320649 -0.19528781647494389 0 -0.45952205817714309 -0.18067907836188021 0 -0.45396471697207569 -0.194241302212698 0 -0.46892716456320649 -0.19528781647494389 0 -0.47449277923056221 -0.17835100943610771 0 -0.46892716456320649 -0.19528781647494389 0 -0.48549376880548989 -0.19132810400505559 0 -0.46892716456320649 -0.19528781647494389 0 -0.48549376880548989 -0.19132810400505559 0 -0.47978640147694102 -0.20418872613165631 0 -0.5 -0.20182215567114031 0 -0.48549376880548989 -0.19132810400505559 0 -0.47978640147694102 -0.20418872613165631 0 -0.49999999999999828 -0.17438442907940241 0 -0.5 -0.20182215567114031 0 -0.48549376880548989 -0.19132810400505559 0 -0.5 -0.20182215567114031 0 -0.48114952412016337 -0.22028093099336349 0 -0.49893749834448198 -0.22833723847294871 0 -0.5 -0.20182215567114031 0 -0.47978640147694102 -0.20418872613165631 0 -0.48114952412016337 -0.22028093099336349 0 -0.46336154989584488 -0.2122246235137781 0 -0.48114952412016337 -0.22028093099336349 0 -0.46336154989584488 -0.2122246235137781 0 -0.47978640147694102 -0.20418872613165631 0 -0.48114952412016337 -0.22028093099336349 0 -0.46336154989584488 -0.2122246235137781 0 -0.46892716456320649 -0.19528781647494389 0 -0.47978640147694102 -0.20418872613165631 0 -0.46336154989584488 -0.2122246235137781 0 -0.48114952412016337 -0.22028093099336349 0 -0.46857810181099829 -0.22486784275082261 0 -0.48114952412016337 -0.22028093099336349 0 -0.48798868478634799 -0.231470988200419 0 -0.47142395938804471 -0.23802335247430181 0 -0.48114952412016337 -0.22028093099336349 0 -0.47142395938804471 -0.23802335247430181 0 -0.46857810181099829 -0.22486784275082261 0 -0.48114952412016337 -0.22028093099336349 0 -0.48798868478634799 -0.231470988200419 0 -0.49893749834448198 -0.22833723847294871 0 -0.48114952412016337 -0.22028093099336349 0 -0.49893749834448198 -0.22833723847294871 0 -0.48798868478634799 -0.231470988200419 0 -0.49893749834448198 -0.22833723847294871 0 -0.4875835208682564 -0.24248539692068891 0 -0.5 -0.25669760885461612 0 -0.49893749834448198 -0.22833723847294871 0 -0.4875835208682564 -0.24248539692068891 0 -0.48798868478634799 -0.231470988200419 0 -0.4875835208682564 -0.24248539692068891 0 -0.47142395938804471 -0.23802335247430181 0 -0.47878778985378329 -0.25835102983948688 0 -0.4875835208682564 -0.24248539692068891 0 -0.47142395938804471 -0.23802335247430181 0 -0.45662330498375908 -0.25656877445722759 0 -0.47142395938804471 -0.23802335247430181 0 -0.45034617445999431 -0.24335722649563979 0 -0.47142395938804471 -0.23802335247430181 0 -0.45735065046854989 -0.23051648340969341 0 -0.45034617445999431 -0.24335722649563979 0 -0.46336154989584488 -0.2122246235137781 0 -0.46857810181099829 -0.22486784275082261 0 -0.45735065046854989 -0.23051648340969341 0 -0.46336154989584488 -0.2122246235137781 0 -0.45735065046854989 -0.23051648340969341 0 -0.47142395938804471 -0.23802335247430181 0 -0.46857810181099829 -0.22486784275082261 0 -0.45735065046854989 -0.23051648340969341 0 -0.46336154989584488 -0.2122246235137781 0 -0.45338394269579491 -0.2190794284651259 0 -0.45735065046854989 -0.23051648340969341 0 -0.45338394269579491 -0.2190794284651259 0 -0.45735065046854989 -0.23051648340969341 0 -0.43806130733353449 -0.23541812032183559 0 -0.44166379455333399 -0.21604972156869759 0 -0.43806130733353449 -0.23541812032183559 0 -0.44166379455333399 -0.21604972156869759 0 -0.45338394269579491 -0.2190794284651259 0 -0.43806130733353449 -0.23541812032183559 0 -0.45735065046854989 -0.23051648340969341 0 -0.45034617445999431 -0.24335722649563979 0 -0.43806130733353449 -0.23541812032183559 0 -0.43445882011373449 -0.25478651907497341 0 -0.45034617445999431 -0.24335722649563979 0 -0.43806130733353449 -0.23541812032183559 0 -0.41324955929443102 -0.038374170610562031 0 -0.41005136228565903 -0.05540387285823338 0 -0.42435348212729052 -0.04457483879584373 0 -0.41324955929443102 -0.038374170610562031 0 -0.41005136228565903 -0.05540387285823338 0 -0.39900851660089293 -0.046429079601448257 0 -0.41324955929443102 -0.038374170610562031 0 -0.40747857107326091 -0.02424585309778798 0 -0.40045416304880688 -0.034240371911693122 0 -0.41005136228565903 -0.05540387285823338 0 -0.4246600563061857 -0.059067830999859447 0 -0.41422906440869389 -0.068128229862373102 0 -0.41005136228565903 -0.05540387285823338 0 -0.4246600563061857 -0.059067830999859447 0 -0.42435348212729052 -0.04457483879584373 0 -0.4246600563061857 -0.059067830999859447 0 -0.42435348212729052 -0.04457483879584373 0 -0.43957367317472601 -0.045089571971719818 0 -0.4246600563061857 -0.059067830999859447 0 -0.43957367317472601 -0.045089571971719818 0 -0.44544580640037118 -0.056213229689383748 0 -0.41324955929443102 -0.038374170610562031 0 -0.42435348212729052 -0.04457483879584373 0 -0.42981912379901888 -0.030443092666165631 0 -0.42435348212729052 -0.04457483879584373 0 -0.42981912379901888 -0.030443092666165631 0 -0.43957367317472601 -0.045089571971719818 0 -0.41302196833726168 -0.01226972299954816 0 -0.4392085005598273 -0.024676348383282701 0 -0.42659341977192161 -0.010103830507352861 0 -0.41302196833726168 -0.01226972299954816 0 -0.4392085005598273 -0.024676348383282701 0 -0.42981912379901888 -0.030443092666165631 0 -0.41673372021425997 -0.022240754673565791 0 -0.4392085005598273 -0.024676348383282701 0 -0.41302196833726168 -0.01226972299954816 0 -0.41673372021425997 -0.022240754673565791 0 -0.4392085005598273 -0.024676348383282701 0 -0.43741768347029059 -0.01288367903972009 0 -0.42659341977192161 -0.010103830507352861 0 -0.4392085005598273 -0.024676348383282701 0 -0.4441818909265971 -0.00998157505946092 0 -0.42578104856505677 0.0031949168855625672 0 -0.43741768347029059 -0.01288367903972009 0 -0.4441818909265971 -0.00998157505946092 0 -0.42578104856505677 0.0031949168855625672 0 -0.43741768347029059 -0.01288367903972009 0 -0.42659341977192161 -0.010103830507352861 0 -0.42578104856505677 0.0031949168855625672 0 -0.43741768347029059 -0.01288367903972009 0 -0.42578104856505677 0.0031949168855625672 0 -0.42659341977192161 -0.010103830507352861 0 -0.41753789792717189 -0.0038843189997757009 0 -0.42578104856505677 0.0031949168855625672 0 -0.42659341977192161 -0.010103830507352861 0 -0.41753789792717189 -0.0038843189997757009 0 -0.41302196833726168 -0.01226972299954816 0 -0.41753789792717189 -0.0038843189997757009 0 -0.41302196833726168 -0.01226972299954816 0 -0.40771050441737638 -0.0035262849216432719 0 -0.41753789792717189 -0.0038843189997757009 0 -0.40771050441737638 -0.0035262849216432719 0 -0.41105156913745711 0.0034129409419674369 0 -0.42981912379901888 -0.030443092666165631 0 -0.40747857107326091 -0.02424585309778798 0 -0.41324955929443102 -0.038374170610562031 0 -0.42981912379901888 -0.030443092666165631 0 -0.40747857107326091 -0.02424585309778798 0 -0.42981912379901888 -0.030443092666165631 0 -0.41673372021425997 -0.022240754673565791 0 -0.40747857107326091 -0.02424585309778798 0 -0.41302196833726168 -0.01226972299954816 0 -0.41673372021425997 -0.022240754673565791 0 -0.40747857107326091 -0.02424585309778798 0 -0.41673372021425997 -0.022240754673565791 0 -0.40747857107326091 -0.02424585309778798 0 -0.40747857107326091 -0.02424585309778798 0 -0.38992317137517202 -0.02804917422583518 0 -0.40747857107326091 -0.02424585309778798 0 -0.38992317137517202 -0.02804917422583518 0 -0.38297625517291389 -0.017448943304264108 0 -0.40747857107326091 -0.02424585309778798 0 -0.38992317137517202 -0.02804917422583518 0 -0.40045416304880688 -0.034240371911693122 0 -0.40747857107326091 -0.02424585309778798 0 -0.39567459441968961 -0.012635194689989219 0 -0.38297625517291389 -0.017448943304264108 0 -0.40747857107326091 -0.02424585309778798 0 -0.38297625517291389 -0.017448943304264108 0 -0.41302196833726168 -0.01226972299954816 0 -0.40747857107326091 -0.02424585309778798 0 -0.39567459441968961 -0.012635194689989219 0 -0.41302196833726168 -0.01226972299954816 0 -0.40771050441737638 -0.0035262849216432719 0 -0.38683543611469601 0.0001369023841863784 0 -0.41302196833726168 -0.01226972299954816 0 -0.39567459441968961 -0.012635194689989219 0 -0.38683543611469601 0.0001369023841863784 0 -0.41302196833726168 -0.01226972299954816 0 -0.38683543611469601 0.0001369023841863784 0 -0.40771050441737638 -0.0035262849216432719 0 -0.38683543611469601 0.0001369023841863784 0 -0.40226596945639398 0.0014711925349297271 0 -0.39567459441968961 -0.012635194689989219 0 -0.38502252263107412 -0.0084426060797158468 0 -0.38683543611469601 0.0001369023841863784 0 -0.39567459441968961 -0.012635194689989219 0 -0.38502252263107412 -0.0084426060797158468 0 -0.38297625517291389 -0.017448943304264108 0 -0.38502252263107412 -0.0084426060797158468 0 -0.38009964520605882 -0.0090403485437739461 0 -0.38297625517291389 -0.017448943304264108 0 -0.37278444596104371 -0.0079457960458173115 0 -0.38009964520605882 -0.0090403485437739461 0 -0.38297625517291389 -0.017448943304264108 0 -0.37474494217865062 -0.0022388935110706832 0 -0.38502252263107412 -0.0084426060797158468 0 -0.38683543611469601 0.0001369023841863784 0 -0.37474494217865062 -0.0022388935110706832 0 -0.38502252263107412 -0.0084426060797158468 0 -0.38009964520605882 -0.0090403485437739461 0 -0.37474494217865062 -0.0022388935110706832 0 -0.37278444596104371 -0.0079457960458173115 0 -0.38009964520605882 -0.0090403485437739461 0 -0.37236777167708351 -0.031852495353884333 0 -0.38992317137517202 -0.02804917422583518 0 -0.37990921189048049 -0.023302515363219579 0 -0.37236777167708351 -0.031852495353884333 0 -0.38992317137517202 -0.02804917422583518 0 -0.38992317137517202 -0.02804917422583518 0 -0.38297625517291389 -0.017448943304264108 0 -0.37990921189048049 -0.023302515363219579 0 -0.3739022591900184 -0.02415390189740213 0 -0.38297625517291389 -0.017448943304264108 0 -0.37990921189048049 -0.023302515363219579 0 -0.37236777167708351 -0.031852495353884333 0 -0.3739022591900184 -0.02415390189740213 0 -0.37990921189048049 -0.023302515363219579 0 -0.37236777167708351 -0.031852495353884333 0 -0.37990921189048049 -0.023302515363219579 0 -0.38458287424021398 -0.039388642062709187 0 -0.39900851660089293 -0.046429079601448257 0 -0.3815482533063424 -0.052412606119804542 0 -0.37355784227175309 -0.045246792894939887 0 -0.37236777167708351 -0.031852495353884333 0 -0.38458287424021398 -0.039388642062709187 0 -0.37236777167708351 -0.031852495353884333 0 -0.38992317137517202 -0.02804917422583518 0 -0.38458287424021398 -0.039388642062709187 0 -0.37355784227175309 -0.045246792894939887 0 -0.38458287424021398 -0.039388642062709187 0 -0.3815482533063424 -0.052412606119804542 0 -0.38458287424021398 -0.039388642062709187 0 -0.39900851660089293 -0.046429079601448257 0 -0.40045416304880688 -0.034240371911693122 0 -0.38992317137517202 -0.02804917422583518 0 -0.38458287424021398 -0.039388642062709187 0 -0.40045416304880688 -0.034240371911693122 0 -0.41324955929443102 -0.038374170610562031 0 -0.39900851660089293 -0.046429079601448257 0 -0.40045416304880688 -0.034240371911693122 0 -0.39900851660089293 -0.046429079601448257 0 -0.39626447370361728 -0.06091275685647668 0 -0.3815482533063424 -0.052412606119804542 0 -0.41005136228565903 -0.05540387285823338 0 -0.39626447370361728 -0.06091275685647668 0 -0.40517181862379281 -0.066558370858305557 0 -0.41005136228565903 -0.05540387285823338 0 -0.39900851660089293 -0.046429079601448257 0 -0.39626447370361728 -0.06091275685647668 0 -0.36862349457690058 -0.057461967220355487 0 -0.3815482533063424 -0.052412606119804542 0 -0.37947166312044489 -0.067272628224985004 0 -0.3815482533063424 -0.052412606119804542 0 -0.37947166312044489 -0.067272628224985004 0 -0.39260231949431601 -0.074533368335879327 0 -0.36882665317829499 -0.078032107790563188 0 -0.39260231949431601 -0.074533368335879327 0 -0.39626447370361728 -0.06091275685647668 0 -0.3815482533063424 -0.052412606119804542 0 -0.39260231949431601 -0.074533368335879327 0 -0.3815482533063424 -0.052412606119804542 0 -0.39260231949431601 -0.074533368335879327 0 -0.36882665317829499 -0.078032107790563188 0 -0.37947166312044489 -0.067272628224985004 0 -0.39260231949431601 -0.074533368335879327 0 -0.36882665317829499 -0.078032107790563188 0 -0.39260231949431601 -0.074533368335879327 0 -0.39002829617667018 -0.099006697234722524 0 -0.36882665317829499 -0.078032107790563188 0 -0.39002829617667018 -0.099006697234722524 0 -0.37367929427193591 -0.1014825750548952 0 -0.36882665317829499 -0.078032107790563188 0 -0.39002829617667018 -0.099006697234722524 0 -0.39260231949431601 -0.074533368335879327 0 -0.39002829617667018 -0.099006697234722524 0 -0.39510370691593599 -0.098958215311000047 0 -0.39260231949431601 -0.074533368335879327 0 -0.40274583300482147 -0.094831984843681591 0 -0.39260231949431601 -0.074533368335879327 0 -0.39510370691593599 -0.098958215311000047 0 -0.40274583300482147 -0.094831984843681591 0 -0.40361170428446441 -0.083317353290434007 0 -0.39260231949431601 -0.074533368335879327 0 -0.40274583300482147 -0.094831984843681591 0 -0.40361170428446441 -0.083317353290434007 0 -0.39867569396630093 -0.073639632925658519 0 -0.40696916935602839 -0.074517235882718885 0 -0.39867569396630093 -0.073639632925658519 0 -0.40517181862379281 -0.066558370858305557 0 -0.40696916935602839 -0.074517235882718885 0 -0.39626447370361728 -0.06091275685647668 0 -0.39867569396630093 -0.073639632925658519 0 -0.40517181862379281 -0.066558370858305557 0 -0.39626447370361728 -0.06091275685647668 0 -0.39867569396630093 -0.073639632925658519 0 -0.39260231949431601 -0.074533368335879327 0 -0.40361170428446441 -0.083317353290434007 0 -0.39867569396630093 -0.073639632925658519 0 -0.39260231949431601 -0.074533368335879327 0 -0.39867569396630093 -0.073639632925658519 0 -0.39260231949431601 -0.074533368335879327 0 -0.37212838853434238 -0.11808059788504249 0 -0.38278168804071749 -0.12940228238898679 0 -0.39044023874876249 -0.11757149150947201 0 -0.37367929427193591 -0.1014825750548952 0 -0.37212838853434238 -0.11808059788504249 0 -0.39044023874876249 -0.11757149150947201 0 -0.37367929427193591 -0.1014825750548952 0 -0.39044023874876249 -0.11757149150947201 0 -0.39002829617667018 -0.099006697234722524 0 -0.39510370691593599 -0.098958215311000047 0 -0.40274583300482147 -0.094831984843681591 0 -0.41288934651532883 -0.11513060135148299 0 -0.39002829617667018 -0.099006697234722524 0 -0.39510370691593599 -0.098958215311000047 0 -0.41122993917504558 -0.1199812866788818 0 -0.39510370691593599 -0.098958215311000047 0 -0.41288934651532883 -0.11513060135148299 0 -0.39647179587780151 -0.13189450107720049 0 -0.39044023874876249 -0.11757149150947201 0 -0.41122993917504558 -0.1199812866788818 0 -0.39002829617667018 -0.099006697234722524 0 -0.41122993917504558 -0.1199812866788818 0 -0.39044023874876249 -0.11757149150947201 0 -0.39002829617667018 -0.099006697234722524 0 -0.41122993917504558 -0.1199812866788818 0 -0.39510370691593599 -0.098958215311000047 0 -0.41122993917504558 -0.1199812866788818 0 -0.41288934651532883 -0.11513060135148299 0 -0.41930562378398423 -0.12797048681614909 0 -0.41122993917504558 -0.1199812866788818 0 -0.4149348530849476 -0.1169905694289516 0 -0.41930562378398423 -0.12797048681614909 0 -0.41122993917504558 -0.1199812866788818 0 -0.41930562378398423 -0.12797048681614909 0 -0.4149348530849476 -0.1169905694289516 0 -0.41122993917504558 -0.1199812866788818 0 -0.41288934651532883 -0.11513060135148299 0 -0.4149348530849476 -0.1169905694289516 0 -0.41122993917504558 -0.1199812866788818 0 -0.4149348530849476 -0.1169905694289516 0 -0.41288934651532883 -0.11513060135148299 0 -0.4149348530849476 -0.1169905694289516 0 -0.41288934651532883 -0.11513060135148299 0 -0.4149348530849476 -0.1169905694289516 0 -0.41458672172207622 -0.10427776634057311 0 -0.40274583300482147 -0.094831984843681591 0 -0.41288934651532883 -0.11513060135148299 0 -0.4149348530849476 -0.1169905694289516 0 -0.41458672172207622 -0.10427776634057311 0 -0.43059848591229039 -0.1043464168163742 0 -0.40274583300482147 -0.094831984843681591 0 -0.41288934651532883 -0.11513060135148299 0 -0.41458672172207622 -0.10427776634057311 0 -0.41458672172207622 -0.10427776634057311 0 -0.41348552386521947 -0.090840815536544176 0 -0.43025813067654672 -0.08737754853092726 0 -0.40274583300482147 -0.094831984843681591 0 -0.41458672172207622 -0.10427776634057311 0 -0.41348552386521947 -0.090840815536544176 0 -0.43059848591229039 -0.1043464168163742 0 -0.43025813067654672 -0.08737754853092726 0 -0.44626211873963212 -0.091702264203795431 0 -0.41458672172207622 -0.10427776634057311 0 -0.43059848591229039 -0.1043464168163742 0 -0.43025813067654672 -0.08737754853092726 0 -0.41458672172207622 -0.10427776634057311 0 -0.43025813067654672 -0.08737754853092726 0 -0.4149348530849476 -0.1169905694289516 0 -0.43059848591229039 -0.1043464168163742 0 -0.43160182387889101 -0.1187955019330571 0 -0.4149348530849476 -0.1169905694289516 0 -0.43059848591229039 -0.1043464168163742 0 -0.43389101300267191 -0.13422730327376839 0 -0.4149348530849476 -0.1169905694289516 0 -0.43160182387889101 -0.1187955019330571 0 -0.43059848591229039 -0.1043464168163742 0 -0.43160182387889101 -0.1187955019330571 0 -0.44003429013576911 -0.11331979272890801 0 -0.43160182387889101 -0.1187955019330571 0 -0.44085253015216358 -0.1237950587173612 0 -0.44003429013576911 -0.11331979272890801 0 -0.41422906440869389 -0.068128229862373102 0 -0.41539885585273961 -0.080089681603359497 0 -0.42594434486026628 -0.073522222089585226 0 -0.4246600563061857 -0.059067830999859447 0 -0.41422906440869389 -0.068128229862373102 0 -0.42594434486026628 -0.073522222089585226 0 -0.41005136228565903 -0.05540387285823338 0 -0.40517181862379281 -0.066558370858305557 0 -0.41422906440869389 -0.068128229862373102 0 -0.40517181862379281 -0.066558370858305557 0 -0.41422906440869389 -0.068128229862373102 0 -0.40696916935602839 -0.074517235882718885 0 -0.41422906440869389 -0.068128229862373102 0 -0.40696916935602839 -0.074517235882718885 0 -0.41539885585273961 -0.080089681603359497 0 -0.41348552386521947 -0.090840815536544176 0 -0.41539885585273961 -0.080089681603359497 0 -0.43025813067654672 -0.08737754853092726 0 -0.40361170428446441 -0.083317353290434007 0 -0.41348552386521947 -0.090840815536544176 0 -0.41539885585273961 -0.080089681603359497 0 -0.40361170428446441 -0.083317353290434007 0 -0.40696916935602839 -0.074517235882718885 0 -0.41539885585273961 -0.080089681603359497 0 -0.40361170428446441 -0.083317353290434007 0 -0.40274583300482147 -0.094831984843681591 0 -0.41348552386521947 -0.090840815536544176 0 -0.41539885585273961 -0.080089681603359497 0 -0.43025813067654672 -0.08737754853092726 0 -0.42594434486026628 -0.073522222089585226 0 -0.4246600563061857 -0.059067830999859447 0 -0.44592953963101739 -0.07047733072128165 0 -0.43025813067654672 -0.08737754853092726 0 -0.42594434486026628 -0.073522222089585226 0 -0.44592953963101739 -0.07047733072128165 0 -0.4246600563061857 -0.059067830999859447 0 -0.42594434486026628 -0.073522222089585226 0 -0.44592953963101739 -0.07047733072128165 0 -0.44592953963101739 -0.07047733072128165 0 -0.45893666683642192 -0.056450303318209168 0 -0.44592953963101739 -0.07047733072128165 0 -0.44626211873963212 -0.091702264203795431 0 -0.46192575156697407 -0.079058111591217034 0 -0.43025813067654672 -0.08737754853092726 0 -0.44592953963101739 -0.07047733072128165 0 -0.43025813067654672 -0.08737754853092726 0 -0.44592953963101739 -0.07047733072128165 0 -0.44626211873963212 -0.091702264203795431 0 -0.44626211873963212 -0.091702264203795431 0 -0.46631049206888459 -0.091444160656324658 0 -0.46192575156697407 -0.079058111591217034 0 -0.44626211873963212 -0.091702264203795431 0 -0.46192575156697407 -0.079058111591217034 0 -0.46631049206888459 -0.091444160656324658 0 -0.46192575156697407 -0.079058111591217034 0 -0.47702460168979111 -0.087157524427869615 0 -0.44592953963101739 -0.07047733072128165 0 -0.46192575156697407 -0.079058111591217034 0 -0.45893666683642192 -0.056450303318209168 0 -0.46192575156697407 -0.079058111591217034 0 -0.47491389520024407 -0.068573693827893439 0 -0.45893666683642192 -0.056450303318209168 0 -0.46192575156697407 -0.079058111591217034 0 -0.47491389520024407 -0.068573693827893439 0 -0.44592953963101739 -0.07047733072128165 0 -0.46192575156697407 -0.079058111591217034 0 -0.45000974795797011 -0.119430952696417 0 -0.44085253015216358 -0.1237950587173612 0 -0.44003429013576911 -0.11331979272890801 0 -0.45000974795797011 -0.119430952696417 0 -0.44003429013576911 -0.11331979272890801 0 -0.44926481423485548 -0.10476542824413421 0 -0.43059848591229039 -0.1043464168163742 0 -0.44626211873963212 -0.091702264203795431 0 -0.43059848591229039 -0.1043464168163742 0 -0.44626211873963212 -0.091702264203795431 0 -0.44926481423485548 -0.10476542824413421 0 -0.43059848591229039 -0.1043464168163742 0 -0.44003429013576911 -0.11331979272890801 0 -0.44926481423485548 -0.10476542824413421 0 -0.44626211873963212 -0.091702264203795431 0 -0.44926481423485548 -0.10476542824413421 0 -0.46153012095291662 -0.1019472767233552 0 -0.44626211873963212 -0.091702264203795431 0 -0.46631049206888459 -0.091444160656324658 0 -0.46153012095291662 -0.1019472767233552 0 -0.46631049206888459 -0.091444160656324658 0 -0.46153012095291662 -0.1019472767233552 0 -0.4710589232177344 -0.098453604121520433 0 -0.46153012095291662 -0.1019472767233552 0 -0.46221413283232399 -0.11366089481890911 0 -0.47430793409480421 -0.10627177682285049 0 -0.44926481423485548 -0.10476542824413421 0 -0.46153012095291662 -0.1019472767233552 0 -0.46221413283232399 -0.11366089481890911 0 -0.45896755277767909 -0.12575633132281341 0 -0.46221413283232399 -0.11366089481890911 0 -0.47750202174635031 -0.1215216316744509 0 -0.45000974795797011 -0.119430952696417 0 -0.44926481423485548 -0.10476542824413421 0 -0.46221413283232399 -0.11366089481890911 0 -0.45896755277767909 -0.12575633132281341 0 -0.45000974795797011 -0.119430952696417 0 -0.46221413283232399 -0.11366089481890911 0 -0.47750202174635031 -0.1215216316744509 0 -0.47430793409480421 -0.10627177682285049 0 -0.48673501487359588 -0.1010237797652184 0 -0.46221413283232399 -0.11366089481890911 0 -0.47750202174635031 -0.1215216316744509 0 -0.47430793409480421 -0.10627177682285049 0 -0.47430793409480421 -0.10627177682285049 0 -0.47745372589702628 -0.099742000537211661 0 -0.48673501487359588 -0.1010237797652184 0 -0.46153012095291662 -0.1019472767233552 0 -0.47430793409480421 -0.10627177682285049 0 -0.4710589232177344 -0.098453604121520433 0 -0.46631049206888459 -0.091444160656324658 0 -0.4710589232177344 -0.098453604121520433 0 -0.47771303140197108 -0.093218841439257433 0 -0.47430793409480421 -0.10627177682285049 0 -0.4710589232177344 -0.098453604121520433 0 -0.47745372589702628 -0.099742000537211661 0 -0.4710589232177344 -0.098453604121520433 0 -0.47745372589702628 -0.099742000537211661 0 -0.47771303140197108 -0.093218841439257433 0 -0.47745372589702628 -0.099742000537211661 0 -0.48673501487359588 -0.1010237797652184 0 -0.47771303140197108 -0.093218841439257433 0 -0.48673501487359588 -0.1010237797652184 0 -0.47771303140197108 -0.093218841439257433 0 -0.47702460168979111 -0.087157524427869615 0 -0.47750202174635031 -0.1215216316744509 0 -0.48673501487359588 -0.1010237797652184 0 -0.4986179579264654 -0.1020768288792674 0 -0.48673501487359588 -0.1010237797652184 0 -0.49842317329231273 -0.098636270432611556 0 -0.47702460168979111 -0.087157524427869615 0 -0.48673501487359588 -0.1010237797652184 0 -0.49842317329231273 -0.098636270432611556 0 -0.4986179579264654 -0.1020768288792674 0 -0.49999999999999939 -0.099482120969144883 0 -0.49842317329231273 -0.098636270432611556 0 -0.4986179579264654 -0.1020768288792674 0 -0.49842317329231273 -0.098636270432611556 0 -0.4986179579264654 -0.1020768288792674 0 -0.49999999999999939 -0.099482120969144883 0 -0.49842317329231273 -0.098636270432611556 0 -0.50000000000000011 -0.12648838757554831 0 -0.47750202174635031 -0.1215216316744509 0 -0.4986179579264654 -0.1020768288792674 0 -0.47750202174635031 -0.1215216316744509 0 -0.4986179579264654 -0.1020768288792674 0 -0.47491389520024407 -0.068573693827893439 0 -0.47702460168979111 -0.087157524427869615 0 -0.4847984782487687 -0.075944598732494498 0 -0.47491389520024407 -0.068573693827893439 0 -0.47702460168979111 -0.087157524427869615 0 -0.47967839073812912 -0.064727650616396362 0 -0.4847984782487687 -0.075944598732494498 0 -0.48794163871831331 -0.064119883023254248 0 -0.47967839073812912 -0.064727650616396362 0 -0.47491389520024407 -0.068573693827893439 0 -0.4847984782487687 -0.075944598732494498 0 -0.47967839073812912 -0.064727650616396362 0 -0.47491389520024407 -0.068573693827893439 0 -0.46192575156697407 -0.079058111591217034 0 -0.47702460168979111 -0.087157524427869615 0 -0.46192575156697407 -0.079058111591217034 0 -0.47491389520024407 -0.068573693827893439 0 -0.47702460168979111 -0.087157524427869615 0 -0.46631049206888459 -0.091444160656324658 0 -0.47771303140197108 -0.093218841439257433 0 -0.47702460168979111 -0.087157524427869615 0 -0.47771303140197108 -0.093218841439257433 0 -0.47702460168979111 -0.087157524427869615 0 -0.49842317329231273 -0.098636270432611556 0 -0.49712708577170861 -0.075742961183477536 0 -0.4847984782487687 -0.075944598732494498 0 -0.49999999999999939 -0.099482120969144883 0 -0.49842317329231273 -0.098636270432611556 0 -0.5 -0.078030389970551228 0 -0.49842317329231273 -0.098636270432611556 0 -0.49712708577170861 -0.075742961183477536 0 -0.49842317329231273 -0.098636270432611556 0 -0.5 -0.078030389970551228 0 -0.49712708577170861 -0.075742961183477536 0 -0.49842317329231273 -0.098636270432611556 0 -0.47702460168979111 -0.087157524427869615 0 -0.4847984782487687 -0.075944598732494498 0 -0.49842317329231273 -0.098636270432611556 0 -0.47702460168979111 -0.087157524427869615 0 -0.5 -0.078030389970551228 0 -0.49712708577170861 -0.075742961183477536 0 -0.49999999999999928 -0.056578658971957581 0 -0.49712708577170861 -0.075742961183477536 0 -0.49583099825110311 -0.052849651934343489 0 -0.49712708577170861 -0.075742961183477536 0 -0.48794163871831331 -0.064119883023254248 0 -0.49583099825110311 -0.052849651934343489 0 -0.49712708577170861 -0.075742961183477536 0 -0.4847984782487687 -0.075944598732494498 0 -0.48794163871831331 -0.064119883023254248 0 -0.49712708577170861 -0.075742961183477536 0 -0.49999999999999928 -0.056578658971957581 0 -0.49583099825110311 -0.052849651934343489 0 -0.49583099825110311 -0.052849651934343489 0 -0.47748890114140963 -0.036443372127734748 0 -0.48227324058185622 -0.051334552649559453 0 -0.49999999999999928 -0.056578658971957581 0 -0.49583099825110311 -0.052849651934343489 0 -0.49999999999999928 -0.056578658971957581 0 -0.50000000000000144 -0.053559852644015388 0 -0.49583099825110311 -0.052849651934343489 0 -0.48794163871831331 -0.064119883023254248 0 -0.49583099825110311 -0.052849651934343489 0 -0.48227324058185622 -0.051334552649559453 0 -0.50000000000000144 -0.053559852644015388 0 -0.49583099825110311 -0.052849651934343489 0 -0.48598145264485831 -0.02728491224803695 0 -0.49583099825110311 -0.052849651934343489 0 -0.47748890114140963 -0.036443372127734748 0 -0.48598145264485831 -0.02728491224803695 0 -0.50000000000000144 -0.053559852644015388 0 -0.48598145264485831 -0.02728491224803695 0 -0.50000000000000144 -0.053559852644015388 0 -0.48598145264485831 -0.02728491224803695 0 -0.5 -0.025161366008633609 0 -0.49583099825110311 -0.052849651934343489 0 -0.47748890114140963 -0.036443372127734748 0 -0.47748890114140963 -0.036443372127734748 0 -0.48598145264485831 -0.02728491224803695 0 -0.47748890114140963 -0.036443372127734748 0 -0.47194379404182718 -0.042423275915137587 0 -0.48227324058185622 -0.051334552649559453 0 -0.47748890114140963 -0.036443372127734748 0 -0.47194379404182718 -0.042423275915137587 0 -0.47748890114140963 -0.036443372127734748 0 -0.47194379404182718 -0.042423275915137587 0 -0.47056077858213702 -0.03024644074295027 0 -0.47194379404182718 -0.042423275915137587 0 -0.46539503278239303 -0.037082973767017267 0 -0.47056077858213702 -0.03024644074295027 0 -0.47194379404182718 -0.042423275915137587 0 -0.47056077858213702 -0.03024644074295027 0 -0.47748890114140963 -0.036443372127734748 0 -0.47056077858213702 -0.03024644074295027 0 -0.47748890114140963 -0.036443372127734748 0 -0.47056077858213702 -0.03024644074295027 0 -0.47745882259212458 -0.028728106929589409 0 -0.47967839073812912 -0.064727650616396362 0 -0.47491389520024407 -0.068573693827893439 0 -0.47194379404182718 -0.042423275915137587 0 -0.47967839073812912 -0.064727650616396362 0 -0.47194379404182718 -0.042423275915137587 0 -0.48227324058185622 -0.051334552649559453 0 -0.47491389520024407 -0.068573693827893439 0 -0.47194379404182718 -0.042423275915137587 0 -0.47967839073812912 -0.064727650616396362 0 -0.48794163871831331 -0.064119883023254248 0 -0.48227324058185622 -0.051334552649559453 0 -0.47491389520024407 -0.068573693827893439 0 -0.47194379404182718 -0.042423275915137587 0 -0.45893666683642192 -0.056450303318209168 0 -0.45893666683642192 -0.056450303318209168 0 -0.45743491846808387 -0.04563500224908737 0 -0.44544580640037118 -0.056213229689383748 0 -0.47194379404182718 -0.042423275915137587 0 -0.45893666683642192 -0.056450303318209168 0 -0.45743491846808387 -0.04563500224908737 0 -0.47194379404182718 -0.042423275915137587 0 -0.45893666683642192 -0.056450303318209168 0 -0.46539503278239303 -0.037082973767017267 0 -0.44890774518284438 -0.02927164544362729 0 -0.46539503278239303 -0.037082973767017267 0 -0.45215967652477718 -0.036640332234541717 0 -0.44890774518284438 -0.02927164544362729 0 -0.46539503278239303 -0.037082973767017267 0 -0.44890774518284438 -0.02927164544362729 0 -0.46189821575704781 -0.02986243911986371 0 -0.47194379404182718 -0.042423275915137587 0 -0.46539503278239303 -0.037082973767017267 0 -0.45743491846808387 -0.04563500224908737 0 -0.46539503278239303 -0.037082973767017267 0 -0.46189821575704781 -0.02986243911986371 0 -0.47056077858213702 -0.03024644074295027 0 -0.46539503278239303 -0.037082973767017267 0 -0.45743491846808387 -0.04563500224908737 0 -0.45215967652477718 -0.036640332234541717 0 -0.42981912379901888 -0.030443092666165631 0 -0.45215967652477718 -0.036640332234541717 0 -0.45743491846808387 -0.04563500224908737 0 -0.45215967652477718 -0.036640332234541717 0 -0.43957367317472601 -0.045089571971719818 0 -0.42981912379901888 -0.030443092666165631 0 -0.45215967652477718 -0.036640332234541717 0 -0.43957367317472601 -0.045089571971719818 0 -0.45743491846808387 -0.04563500224908737 0 -0.43957367317472601 -0.045089571971719818 0 -0.44544580640037118 -0.056213229689383748 0 -0.4246600563061857 -0.059067830999859447 0 -0.44592953963101739 -0.07047733072128165 0 -0.44544580640037118 -0.056213229689383748 0 -0.44592953963101739 -0.07047733072128165 0 -0.45893666683642192 -0.056450303318209168 0 -0.44544580640037118 -0.056213229689383748 0 -0.4441818909265971 -0.00998157505946092 0 -0.45588653083934588 0.00041698580085632909 0 -0.44737850259376799 0.0077656591989471307 0 -0.4441818909265971 -0.00998157505946092 0 -0.4570262928383732 -0.018140378997512391 0 -0.45633913854906122 -0.0094275687658610888 0 -0.4441818909265971 -0.00998157505946092 0 -0.45633913854906122 -0.0094275687658610888 0 -0.45588653083934588 0.00041698580085632909 0 -0.43741768347029059 -0.01288367903972009 0 -0.4441818909265971 -0.00998157505946092 0 -0.44890774518284438 -0.02927164544362729 0 -0.42981912379901888 -0.030443092666165631 0 -0.45215967652477718 -0.036640332234541717 0 -0.4392085005598273 -0.024676348383282701 0 -0.4441818909265971 -0.00998157505946092 0 -0.44890774518284438 -0.02927164544362729 0 -0.46258273328813732 -0.023158067004484729 0 -0.43741768347029059 -0.01288367903972009 0 -0.44890774518284438 -0.02927164544362729 0 -0.43741768347029059 -0.01288367903972009 0 -0.4392085005598273 -0.024676348383282701 0 -0.44890774518284438 -0.02927164544362729 0 -0.4392085005598273 -0.024676348383282701 0 -0.44890774518284438 -0.02927164544362729 0 -0.45215967652477718 -0.036640332234541717 0 -0.4392085005598273 -0.024676348383282701 0 -0.44890774518284438 -0.02927164544362729 0 -0.4441818909265971 -0.00998157505946092 0 -0.46258273328813732 -0.023158067004484729 0 -0.46258273328813732 -0.023158067004484729 0 -0.46826183959192841 -0.01000530680732737 0 -0.47056077858213702 -0.03024644074295027 0 -0.4441818909265971 -0.00998157505946092 0 -0.4570262928383732 -0.018140378997512391 0 -0.46258273328813732 -0.023158067004484729 0 -0.4570262928383732 -0.018140378997512391 0 -0.46258273328813732 -0.023158067004484729 0 -0.44890774518284438 -0.02927164544362729 0 -0.46189821575704781 -0.02986243911986371 0 -0.46258273328813732 -0.023158067004484729 0 -0.46258273328813732 -0.023158067004484729 0 -0.47056077858213702 -0.03024644074295027 0 -0.46189821575704781 -0.02986243911986371 0 -0.46258273328813732 -0.023158067004484729 0 -0.47056077858213702 -0.03024644074295027 0 -0.4570262928383732 -0.018140378997512391 0 -0.46258273328813732 -0.023158067004484729 0 -0.46826183959192841 -0.01000530680732737 0 -0.4570262928383732 -0.018140378997512391 0 -0.46826183959192841 -0.01000530680732737 0 -0.45633913854906122 -0.0094275687658610888 0 -0.46826183959192841 -0.01000530680732737 0 -0.45633913854906122 -0.0094275687658610888 0 -0.45588653083934588 0.00041698580085632909 0 -0.46826183959192841 -0.01000530680732737 0 -0.47597217662329228 -0.0085245425598697612 0 -0.4659629006017233 0.010235827128295859 0 -0.46826183959192841 -0.01000530680732737 0 -0.47597217662329228 -0.0085245425598697612 0 -0.47580415800009379 -0.02093770259963601 0 -0.47597217662329228 -0.0085245425598697612 0 -0.48922725890134677 -0.010453537226696331 0 -0.48082517856277007 0.001845263919603602 0 -0.47597217662329228 -0.0085245425598697612 0 -0.47580415800009379 -0.02093770259963601 0 -0.48598145264485831 -0.02728491224803695 0 -0.47597217662329228 -0.0085245425598697612 0 -0.48598145264485831 -0.02728491224803695 0 -0.46826183959192841 -0.01000530680732737 0 -0.47056077858213702 -0.03024644074295027 0 -0.47580415800009379 -0.02093770259963601 0 -0.47597217662329228 -0.0085245425598697612 0 -0.48598145264485831 -0.02728491224803695 0 -0.4893389393206713 -0.02366416211133009 0 -0.46826183959192841 -0.01000530680732737 0 -0.47056077858213702 -0.03024644074295027 0 -0.47056077858213702 -0.03024644074295027 0 -0.47580415800009379 -0.02093770259963601 0 -0.47745882259212458 -0.028728106929589409 0 -0.47580415800009379 -0.02093770259963601 0 -0.47745882259212458 -0.028728106929589409 0 -0.48598145264485831 -0.02728491224803695 0 -0.47748890114140963 -0.036443372127734748 0 -0.47745882259212458 -0.028728106929589409 0 -0.48598145264485831 -0.02728491224803695 0 -0.48598145264485831 -0.02728491224803695 0 -0.4893389393206713 -0.02366416211133009 0 -0.5 -0.025161366008633609 0 -0.48598145264485831 -0.02728491224803695 0 -0.4893389393206713 -0.02366416211133009 0 -0.4893389393206713 -0.02366416211133009 0 -0.5 -0.025161366008633609 0 -0.48922725890134677 -0.010453537226696331 0 -0.48922725890134677 -0.010453537226696331 0 -0.5 0.0032371206267481911 0 -0.48082517856277007 0.001845263919603602 0 -0.5 -0.025161366008633609 0 -0.48922725890134677 -0.010453537226696331 0 -0.5 0.0032371206267481911 0 -0.47597217662329228 -0.0085245425598697612 0 -0.4893389393206713 -0.02366416211133009 0 -0.48922725890134677 -0.010453537226696331 0 -0.5 0.0032371206267481911 0 -0.48596576445654982 0.01457961489688041 0 -0.48082517856277007 0.001845263919603602 0 -0.48596576445654982 0.01457961489688041 0 -0.47541999506787802 0.025418180444172121 0 -0.5 0.031635607262129987 0 -0.5 0.0032371206267481911 0 -0.48596576445654982 0.01457961489688041 0 -0.5 0.031635607262129987 0 -0.48596576445654982 0.01457961489688041 0 -0.47541999506787802 0.025418180444172121 0 -0.47401658579892991 0.013489912392399149 0 -0.47541999506787802 0.025418180444172121 0 -0.46963945276383978 0.01793989872667965 0 -0.47401658579892991 0.013489912392399149 0 -0.47597217662329228 -0.0085245425598697612 0 -0.48082517856277007 0.001845263919603602 0 -0.4659629006017233 0.010235827128295859 0 -0.47401658579892991 0.013489912392399149 0 -0.48082517856277007 0.001845263919603602 0 -0.4659629006017233 0.010235827128295859 0 -0.46963945276383978 0.01793989872667965 0 -0.47401658579892991 0.013489912392399149 0 -0.4659629006017233 0.010235827128295859 0 -0.47597217662329228 -0.0085245425598697612 0 -0.4659629006017233 0.010235827128295859 0 -0.48596576445654982 0.01457961489688041 0 -0.47401658579892991 0.013489912392399149 0 -0.48082517856277007 0.001845263919603602 0 -0.5 0.060034093897511798 0 -0.47816362815030861 0.043832779932641487 0 -0.48068047186290208 0.063626500276227002 0 -0.47541999506787802 0.025418180444172121 0 -0.5 0.031635607262129987 0 -0.47816362815030861 0.043832779932641487 0 -0.5 0.060034093897511798 0 -0.5 0.031635607262129987 0 -0.47816362815030861 0.043832779932641487 0 -0.47541999506787802 0.025418180444172121 0 -0.47816362815030861 0.043832779932641487 0 -0.46442391639916691 0.036471327701905212 0 -0.47816362815030861 0.043832779932641487 0 -0.46119618507356652 0.049359273152949731 0 -0.48068047186290208 0.063626500276227002 0 -0.46119618507356652 0.049359273152949731 0 -0.46103932749027238 0.064238871702306077 0 -0.48068047186290208 0.063626500276227002 0 -0.46119618507356652 0.049359273152949731 0 -0.44286953411296898 0.045255716157198693 0 -0.46103932749027238 0.064238871702306077 0 -0.47816362815030861 0.043832779932641487 0 -0.46119618507356652 0.049359273152949731 0 -0.46442391639916691 0.036471327701905212 0 -0.46119618507356652 0.049359273152949731 0 -0.46442391639916691 0.036471327701905212 0 -0.45082509298125129 0.038608595210277222 0 -0.46442391639916691 0.036471327701905212 0 -0.45082509298125129 0.038608595210277222 0 -0.4583939967914884 0.024422211169287101 0 -0.45082509298125129 0.038608595210277222 0 -0.4583939967914884 0.024422211169287101 0 -0.46119618507356652 0.049359273152949731 0 -0.45082509298125129 0.038608595210277222 0 -0.44286953411296898 0.045255716157198693 0 -0.45082509298125129 0.038608595210277222 0 -0.4405409619944019 0.035432846457562263 0 -0.4458839614772655 0.023387518650519249 0 -0.45082509298125129 0.038608595210277222 0 -0.4405409619944019 0.035432846457562263 0 -0.44286953411296898 0.045255716157198693 0 -0.4405409619944019 0.035432846457562263 0 -0.44286953411296898 0.045255716157198693 0 -0.43229092530358848 0.04451632412921195 0 -0.44286953411296898 0.045255716157198693 0 -0.44282721760043869 0.062046251170956107 0 -0.46103932749027238 0.064238871702306077 0 -0.44286953411296898 0.045255716157198693 0 -0.44282721760043869 0.062046251170956107 0 -0.43188097302969042 0.056955122555226501 0 -0.44286953411296898 0.045255716157198693 0 -0.46103932749027238 0.064238871702306077 0 -0.46826183959192841 -0.01000530680732737 0 -0.45588653083934588 0.00041698580085632909 0 -0.4659629006017233 0.010235827128295859 0 -0.46826183959192841 -0.01000530680732737 0 -0.4659629006017233 0.010235827128295859 0 -0.45609316173783881 0.014082317838893479 0 -0.45588653083934588 0.00041698580085632909 0 -0.4659629006017233 0.010235827128295859 0 -0.46963945276383978 0.01793989872667965 0 -0.4659629006017233 0.010235827128295859 0 -0.4583939967914884 0.024422211169287101 0 -0.4659629006017233 0.010235827128295859 0 -0.4583939967914884 0.024422211169287101 0 -0.47541999506787802 0.025418180444172121 0 -0.46963945276383978 0.01793989872667965 0 -0.4583939967914884 0.024422211169287101 0 -0.47541999506787802 0.025418180444172121 0 -0.46442391639916691 0.036471327701905212 0 -0.4583939967914884 0.024422211169287101 0 -0.45609316173783881 0.014082317838893479 0 -0.4659629006017233 0.010235827128295859 0 -0.4583939967914884 0.024422211169287101 0 -0.45609316173783881 0.014082317838893479 0 -0.4583939967914884 0.024422211169287101 0 -0.4458839614772655 0.023387518650519249 0 -0.45082509298125129 0.038608595210277222 0 -0.4583939967914884 0.024422211169287101 0 -0.4458839614772655 0.023387518650519249 0 -0.4405409619944019 0.035432846457562263 0 -0.4458839614772655 0.023387518650519249 0 -0.43566193494816191 0.02574822372494872 0 -0.4458839614772655 0.023387518650519249 0 -0.4359559447540089 0.01018896392150693 0 -0.43566193494816191 0.02574822372494872 0 -0.4441818909265971 -0.00998157505946092 0 -0.44737850259376799 0.0077656591989471307 0 -0.4359559447540089 0.01018896392150693 0 -0.4458839614772655 0.023387518650519249 0 -0.44737850259376799 0.0077656591989471307 0 -0.4359559447540089 0.01018896392150693 0 -0.45609316173783881 0.014082317838893479 0 -0.4458839614772655 0.023387518650519249 0 -0.44737850259376799 0.0077656591989471307 0 -0.45609316173783881 0.014082317838893479 0 -0.45588653083934588 0.00041698580085632909 0 -0.44737850259376799 0.0077656591989471307 0 -0.4441818909265971 -0.00998157505946092 0 -0.4359559447540089 0.01018896392150693 0 -0.42578104856505677 0.0031949168855625672 0 -0.42578104856505677 0.0031949168855625672 0 -0.41622595309658328 0.016397403714119251 0 -0.42870406893849561 0.019163111370922251 0 -0.4359559447540089 0.01018896392150693 0 -0.42578104856505677 0.0031949168855625672 0 -0.42870406893849561 0.019163111370922251 0 -0.41753789792717189 -0.0038843189997757009 0 -0.42578104856505677 0.0031949168855625672 0 -0.41105156913745711 0.0034129409419674369 0 -0.42578104856505677 0.0031949168855625672 0 -0.40852807671777941 0.0155494406680463 0 -0.41622595309658328 0.016397403714119251 0 -0.42578104856505677 0.0031949168855625672 0 -0.40852807671777941 0.0155494406680463 0 -0.41105156913745711 0.0034129409419674369 0 -0.42578104856505677 0.0031949168855625672 0 -0.40852807671777941 0.0155494406680463 0 -0.42578104856505677 0.0031949168855625672 0 -0.41622595309658328 0.016397403714119251 0 -0.40852807671777941 0.0155494406680463 0 -0.41105156913745711 0.0034129409419674369 0 -0.40262572535869262 0.0089097845909437267 0 -0.40771050441737638 -0.0035262849216432719 0 -0.41105156913745711 0.0034129409419674369 0 -0.40226596945639398 0.0014711925349297271 0 -0.40667085762811028 0.029599890542676258 0 -0.41622595309658328 0.016397403714119251 0 -0.42870406893849561 0.019163111370922251 0 -0.40667085762811028 0.029599890542676258 0 -0.42870406893849561 0.019163111370922251 0 -0.40667085762811028 0.029599890542676258 0 -0.41990433555607742 0.03061685230769556 0 -0.42870406893849561 0.019163111370922251 0 -0.40852807671777941 0.0155494406680463 0 -0.40667085762811028 0.029599890542676258 0 -0.41622595309658328 0.016397403714119251 0 -0.40667085762811028 0.029599890542676258 0 -0.41622595309658328 0.016397403714119251 0 -0.41990433555607742 0.03061685230769556 0 -0.4284463216954002 0.029357354603554459 0 -0.42870406893849561 0.019163111370922251 0 -0.4359559447540089 0.01018896392150693 0 -0.42870406893849561 0.019163111370922251 0 -0.43566193494816191 0.02574822372494872 0 -0.4284463216954002 0.029357354603554459 0 -0.42870406893849561 0.019163111370922251 0 -0.43566193494816191 0.02574822372494872 0 -0.4284463216954002 0.029357354603554459 0 -0.43566193494816191 0.02574822372494872 0 -0.43264023121812112 0.033917661463996759 0 -0.4405409619944019 0.035432846457562263 0 -0.43264023121812112 0.033917661463996759 0 -0.43229092530358848 0.04451632412921195 0 -0.43264023121812112 0.033917661463996759 0 -0.43229092530358848 0.04451632412921195 0 -0.42532103781614489 0.037340924150209003 0 -0.4405409619944019 0.035432846457562263 0 -0.43566193494816191 0.02574822372494872 0 -0.43264023121812112 0.033917661463996759 0 -0.43229092530358848 0.04451632412921195 0 -0.42532103781614489 0.037340924150209003 0 -0.42042490988599091 0.046091327469671317 0 -0.4284463216954002 0.029357354603554459 0 -0.43264023121812112 0.033917661463996759 0 -0.42532103781614489 0.037340924150209003 0 -0.41990433555607742 0.03061685230769556 0 -0.4284463216954002 0.029357354603554459 0 -0.42532103781614489 0.037340924150209003 0 -0.43229092530358848 0.04451632412921195 0 -0.43188097302969042 0.056955122555226501 0 -0.42585725303016408 0.051510102087770737 0 -0.44286953411296898 0.045255716157198693 0 -0.43229092530358848 0.04451632412921195 0 -0.43188097302969042 0.056955122555226501 0 -0.43229092530358848 0.04451632412921195 0 -0.42585725303016408 0.051510102087770737 0 -0.42042490988599091 0.046091327469671317 0 -0.43188097302969042 0.056955122555226501 0 -0.41883220390138681 0.058477634196973202 0 -0.43131469147834472 0.070632617455275076 0 -0.43188097302969042 0.056955122555226501 0 -0.42585725303016408 0.051510102087770737 0 -0.41883220390138681 0.058477634196973202 0 -0.41883220390138681 0.058477634196973202 0 -0.40840220717331749 0.048304634434869917 0 -0.39985653820026013 0.060860810446949978 0 -0.42585725303016408 0.051510102087770737 0 -0.41883220390138681 0.058477634196973202 0 -0.42042490988599091 0.046091327469671317 0 -0.41883220390138681 0.058477634196973202 0 -0.40840220717331749 0.048304634434869917 0 -0.42042490988599091 0.046091327469671317 0 -0.41990433555607742 0.03061685230769556 0 -0.42532103781614489 0.037340924150209003 0 -0.4122967326089878 0.037821593301397609 0 -0.42532103781614489 0.037340924150209003 0 -0.42042490988599091 0.046091327469671317 0 -0.4122967326089878 0.037821593301397609 0 -0.40840220717331749 0.048304634434869917 0 -0.4122967326089878 0.037821593301397609 0 -0.40579981868685489 0.041495006097714962 0 -0.40840220717331749 0.048304634434869917 0 -0.42042490988599091 0.046091327469671317 0 -0.4122967326089878 0.037821593301397609 0 -0.4122967326089878 0.037821593301397609 0 -0.40278544391907911 0.034968452634622761 0 -0.40579981868685489 0.041495006097714962 0 -0.40667085762811028 0.029599890542676258 0 -0.4122967326089878 0.037821593301397609 0 -0.40278544391907911 0.034968452634622761 0 -0.40667085762811028 0.029599890542676258 0 -0.41990433555607742 0.03061685230769556 0 -0.4122967326089878 0.037821593301397609 0 -0.40667085762811028 0.029599890542676258 0 -0.40278544391907911 0.034968452634622761 0 -0.40667085762811028 0.029599890542676258 0 -0.38856614517843069 0.038175802748282091 0 -0.40667085762811028 0.029599890542676258 0 -0.38856614517843069 0.038175802748282091 0 -0.39127510487050182 0.027903964450529759 0 -0.40667085762811028 0.029599890542676258 0 -0.40278544391907911 0.034968452634622761 0 -0.38856614517843069 0.038175802748282091 0 -0.40278544391907911 0.034968452634622761 0 -0.40579981868685489 0.041495006097714962 0 -0.3977250587697031 0.045015474274426849 0 -0.40840220717331749 0.048304634434869917 0 -0.40579981868685489 0.041495006097714962 0 -0.3977250587697031 0.045015474274426849 0 -0.40278544391907911 0.034968452634622761 0 -0.3977250587697031 0.045015474274426849 0 -0.38856614517843069 0.038175802748282091 0 -0.40840220717331749 0.048304634434869917 0 -0.3977250587697031 0.045015474274426849 0 -0.39985653820026013 0.060860810446949978 0 -0.3977250587697031 0.045015474274426849 0 -0.39985653820026013 0.060860810446949978 0 -0.38472691017257071 0.052921849058569698 0 -0.39985653820026013 0.060860810446949978 0 -0.38472691017257071 0.052921849058569698 0 -0.38510762700538009 0.066428587654483159 0 -0.38472691017257071 0.052921849058569698 0 -0.37046143272875132 0.04675171495388801 0 -0.37000681959492809 0.05831264468359916 0 -0.38472691017257071 0.052921849058569698 0 -0.38510762700538009 0.066428587654483159 0 -0.37000681959492809 0.05831264468359916 0 -0.38856614517843069 0.038175802748282091 0 -0.37871402691879819 0.03757115751491092 0 -0.37046143272875132 0.04675171495388801 0 -0.38856614517843069 0.038175802748282091 0 -0.37046143272875132 0.04675171495388801 0 -0.38472691017257071 0.052921849058569698 0 -0.38856614517843069 0.038175802748282091 0 -0.37046143272875132 0.04675171495388801 0 -0.38856614517843069 0.038175802748282091 0 -0.38315308642314733 0.033917821982192238 0 -0.39127510487050182 0.027903964450529759 0 -0.38856614517843069 0.038175802748282091 0 -0.38315308642314733 0.033917821982192238 0 -0.37871402691879819 0.03757115751491092 0 -0.3977250587697031 0.045015474274426849 0 -0.38472691017257071 0.052921849058569698 0 -0.38856614517843069 0.038175802748282091 0 -0.37871402691879819 0.03757115751491092 0 -0.3764786745208083 0.032098692741998169 0 -0.37046143272875132 0.04675171495388801 0 -0.38315308642314733 0.033917821982192238 0 -0.3764786745208083 0.032098692741998169 0 -0.38155727091044611 0.028316364585127811 0 -0.38315308642314733 0.033917821982192238 0 -0.37871402691879819 0.03757115751491092 0 -0.3764786745208083 0.032098692741998169 0 -0.3764786745208083 0.032098692741998169 0 -0.38155727091044611 0.028316364585127811 0 -0.37960108001976323 0.022263106047543741 0 -0.37960108001976323 0.022263106047543741 0 -0.37998819155715241 0.0057865511937031933 0 -0.37123175334181557 0.027162262264614271 0 -0.3764786745208083 0.032098692741998169 0 -0.37960108001976323 0.022263106047543741 0 -0.37123175334181557 0.027162262264614271 0 -0.38155727091044611 0.028316364585127811 0 -0.38533699425949169 0.022674384769296389 0 -0.37960108001976323 0.022263106047543741 0 -0.38155727091044611 0.028316364585127811 0 -0.38533699425949169 0.022674384769296389 0 -0.39127510487050182 0.027903964450529759 0 -0.38315308642314733 0.033917821982192238 0 -0.38155727091044611 0.028316364585127811 0 -0.39127510487050182 0.027903964450529759 0 -0.39054146691731162 0.018060194648231769 0 -0.38533699425949169 0.022674384769296389 0 -0.39127510487050182 0.027903964450529759 0 -0.38533699425949169 0.022674384769296389 0 -0.3837100485794358 0.01682829411504885 0 -0.37960108001976323 0.022263106047543741 0 -0.39054146691731162 0.018060194648231769 0 -0.38533699425949169 0.022674384769296389 0 -0.3837100485794358 0.01682829411504885 0 -0.3837100485794358 0.01682829411504885 0 -0.37960108001976323 0.022263106047543741 0 -0.37998819155715241 0.0057865511937031933 0 -0.37998819155715241 0.0057865511937031933 0 -0.38683543611469601 0.0001369023841863784 0 -0.36064890389212972 0.0125435277679194 0 -0.37998819155715241 0.0057865511937031933 0 -0.38683543611469601 0.0001369023841863784 0 -0.38901012294298121 0.0062908016400105649 0 -0.38683543611469601 0.0001369023841863784 0 -0.38901012294298121 0.0062908016400105649 0 -0.39501457079486157 0.0055715078560810288 0 -0.37998819155715241 0.0057865511937031933 0 -0.38901012294298121 0.0062908016400105649 0 -0.38744744785130802 0.01185902438546781 0 -0.3837100485794358 0.01682829411504885 0 -0.37998819155715241 0.0057865511937031933 0 -0.38744744785130802 0.01185902438546781 0 -0.38901012294298121 0.0062908016400105649 0 -0.38744744785130802 0.01185902438546781 0 -0.39422738021243581 0.01127211946813913 0 -0.39054146691731162 0.018060194648231769 0 -0.3837100485794358 0.01682829411504885 0 -0.38744744785130802 0.01185902438546781 0 -0.39054146691731162 0.018060194648231769 0 -0.39422738021243581 0.01127211946813913 0 -0.39743955081534421 0.016339100765178138 0 -0.39054146691731162 0.018060194648231769 0 -0.38744744785130802 0.01185902438546781 0 -0.39422738021243581 0.01127211946813913 0 -0.39422738021243581 0.01127211946813913 0 -0.39501457079486157 0.0055715078560810288 0 -0.40262572535869262 0.0089097845909437267 0 -0.39422738021243581 0.01127211946813913 0 -0.40262572535869262 0.0089097845909437267 0 -0.39743955081534421 0.016339100765178138 0 -0.38683543611469601 0.0001369023841863784 0 -0.39501457079486157 0.0055715078560810288 0 -0.40226596945639398 0.0014711925349297271 0 -0.38901012294298121 0.0062908016400105649 0 -0.39422738021243581 0.01127211946813913 0 -0.39501457079486157 0.0055715078560810288 0 -0.41105156913745711 0.0034129409419674369 0 -0.40226596945639398 0.0014711925349297271 0 -0.40262572535869262 0.0089097845909437267 0 -0.39501457079486157 0.0055715078560810288 0 -0.40226596945639398 0.0014711925349297271 0 -0.40262572535869262 0.0089097845909437267 0 -0.40852807671777941 0.0155494406680463 0 -0.40262572535869262 0.0089097845909437267 0 -0.39743955081534421 0.016339100765178138 0 -0.40852807671777941 0.0155494406680463 0 -0.39127510487050182 0.027903964450529759 0 -0.40852807671777941 0.0155494406680463 0 -0.40667085762811028 0.029599890542676258 0 -0.39127510487050182 0.027903964450529759 0 -0.40852807671777941 0.0155494406680463 0 -0.39127510487050182 0.027903964450529759 0 -0.39743955081534421 0.016339100765178138 0 -0.39054146691731162 0.018060194648231769 0 -0.39127510487050182 0.027903964450529759 0 -0.39743955081534421 0.016339100765178138 0 -0.39792088922733271 0.1160922105611595 0 -0.40104213778508202 0.092866093853817611 0 -0.41467909406405851 0.1139188519362445 0 -0.39792088922733271 0.1160922105611595 0 -0.3782625711058698 0.101617738696854 0 -0.40104213778508202 0.092866093853817611 0 -0.3782625711058698 0.101617738696854 0 -0.38372255811484618 0.13025780258704611 0 -0.3782625711058698 0.101617738696854 0 -0.38372255811484618 0.13025780258704611 0 -0.36747352968705388 0.12273486311700831 0 -0.39792088922733271 0.1160922105611595 0 -0.3782625711058698 0.101617738696854 0 -0.38372255811484618 0.13025780258704611 0 -0.39792088922733271 0.1160922105611595 0 -0.3782625711058698 0.101617738696854 0 -0.3782625711058698 0.101617738696854 0 -0.40104213778508202 0.092866093853817611 0 -0.37470600383380392 0.082961959162170973 0 -0.39520328107527708 0.075997639864115257 0 -0.40104213778508202 0.092866093853817611 0 -0.37470600383380392 0.082961959162170973 0 -0.3782625711058698 0.101617738696854 0 -0.37470600383380392 0.082961959162170973 0 -0.40104213778508202 0.092866093853817611 0 -0.37470600383380392 0.082961959162170973 0 -0.38510762700538009 0.066428587654483159 0 -0.37000681959492809 0.05831264468359916 0 -0.37470600383380392 0.082961959162170973 0 -0.38510762700538009 0.066428587654483159 0 -0.39520328107527708 0.075997639864115257 0 -0.37470600383380392 0.082961959162170973 0 -0.39985653820026013 0.060860810446949978 0 -0.39520328107527708 0.075997639864115257 0 -0.41322693425173768 0.074694678089132868 0 -0.39985653820026013 0.060860810446949978 0 -0.38510762700538009 0.066428587654483159 0 -0.39520328107527708 0.075997639864115257 0 -0.39520328107527708 0.075997639864115257 0 -0.40104213778508202 0.092866093853817611 0 -0.41322693425173768 0.074694678089132868 0 -0.40104213778508202 0.092866093853817611 0 -0.41322693425173768 0.074694678089132868 0 -0.42957324029363853 0.085693113452461764 0 -0.41883220390138681 0.058477634196973202 0 -0.41322693425173768 0.074694678089132868 0 -0.43131469147834472 0.070632617455275076 0 -0.41883220390138681 0.058477634196973202 0 -0.39985653820026013 0.060860810446949978 0 -0.41322693425173768 0.074694678089132868 0 -0.43131469147834472 0.070632617455275076 0 -0.42957324029363853 0.085693113452461764 0 -0.4470315618909167 0.073148927984774167 0 -0.41322693425173768 0.074694678089132868 0 -0.43131469147834472 0.070632617455275076 0 -0.42957324029363853 0.085693113452461764 0 -0.44282721760043869 0.062046251170956107 0 -0.43188097302969042 0.056955122555226501 0 -0.43131469147834472 0.070632617455275076 0 -0.42957324029363853 0.085693113452461764 0 -0.42737827173636012 0.1027702285454639 0 -0.44343173260412461 0.097571970950778963 0 -0.40104213778508202 0.092866093853817611 0 -0.42737827173636012 0.1027702285454639 0 -0.41467909406405851 0.1139188519362445 0 -0.40104213778508202 0.092866093853817611 0 -0.42737827173636012 0.1027702285454639 0 -0.40104213778508202 0.092866093853817611 0 -0.42957324029363853 0.085693113452461764 0 -0.42737827173636012 0.1027702285454639 0 -0.39792088922733271 0.1160922105611595 0 -0.41467909406405851 0.1139188519362445 0 -0.417579207348795 0.13056668242546571 0 -0.39792088922733271 0.1160922105611595 0 -0.417579207348795 0.13056668242546571 0 -0.41467909406405851 0.1139188519362445 0 -0.42608096723388439 0.1205091241492761 0 -0.417579207348795 0.13056668242546571 0 -0.42737827173636012 0.1027702285454639 0 -0.41467909406405851 0.1139188519362445 0 -0.42608096723388439 0.1205091241492761 0 -0.42737827173636012 0.1027702285454639 0 -0.42608096723388439 0.1205091241492761 0 -0.43826405507869293 0.1195835460605416 0 -0.42608096723388439 0.1205091241492761 0 -0.43826405507869293 0.1195835460605416 0 -0.43293323699752101 0.1317554923945817 0 -0.43826405507869293 0.1195835460605416 0 -0.45371440568763749 0.1126743632371118 0 -0.44901593584904892 0.12912088192892021 0 -0.42737827173636012 0.1027702285454639 0 -0.43826405507869293 0.1195835460605416 0 -0.45371440568763749 0.1126743632371118 0 -0.4523882543875366 0.10983005993361 0 -0.45371440568763749 0.1126743632371118 0 -0.42737827173636012 0.1027702285454639 0 -0.4523882543875366 0.10983005993361 0 -0.44343173260412461 0.097571970950778963 0 -0.42737827173636012 0.1027702285454639 0 -0.4523882543875366 0.10983005993361 0 -0.45371440568763749 0.1126743632371118 0 -0.42737827173636012 0.1027702285454639 0 -0.45371440568763749 0.1126743632371118 0 -0.44343173260412461 0.097571970950778963 0 -0.45084974973894648 0.096020795281878568 0 -0.45306155814551219 0.1028275296158008 0 -0.44343173260412461 0.097571970950778963 0 -0.45084974973894648 0.096020795281878568 0 -0.44733932132275389 0.088290098875458828 0 -0.4523882543875366 0.10983005993361 0 -0.44343173260412461 0.097571970950778963 0 -0.45306155814551219 0.1028275296158008 0 -0.4523882543875366 0.10983005993361 0 -0.45306155814551219 0.1028275296158008 0 -0.45661100561120399 0.109540819014999 0 -0.45306155814551219 0.1028275296158008 0 -0.46084618436187341 0.10490351706993729 0 -0.45661100561120399 0.109540819014999 0 -0.45306155814551219 0.1028275296158008 0 -0.46084618436187341 0.10490351706993729 0 -0.45799439118323759 0.099220837031069903 0 -0.46084618436187341 0.10490351706993729 0 -0.4635407771028337 0.1124237257980706 0 -0.45661100561120399 0.109540819014999 0 -0.45799439118323759 0.099220837031069903 0 -0.46723244863383712 0.097971273043108306 0 -0.45594156200913483 0.091684632610025046 0 -0.45084974973894648 0.096020795281878568 0 -0.45799439118323759 0.099220837031069903 0 -0.45594156200913483 0.091684632610025046 0 -0.45084974973894648 0.096020795281878568 0 -0.45306155814551219 0.1028275296158008 0 -0.45799439118323759 0.099220837031069903 0 -0.46084618436187341 0.10490351706993729 0 -0.45799439118323759 0.099220837031069903 0 -0.46723244863383712 0.097971273043108306 0 -0.46084618436187341 0.10490351706993729 0 -0.46723244863383712 0.097971273043108306 0 -0.46686982756835349 0.1074114054382402 0 -0.46084618436187341 0.10490351706993729 0 -0.46686982756835349 0.1074114054382402 0 -0.4635407771028337 0.1124237257980706 0 -0.45371440568763749 0.1126743632371118 0 -0.46425598871103851 0.13528374379222011 0 -0.4635407771028337 0.1124237257980706 0 -0.45674497769142258 0.1138140594952527 0 -0.46958882025875243 0.12035793204680111 0 -0.46686982756835349 0.1074114054382402 0 -0.4635407771028337 0.1124237257980706 0 -0.47044075898603932 0.11380610730348489 0 -0.4635407771028337 0.1124237257980706 0 -0.46958882025875243 0.12035793204680111 0 -0.47044075898603932 0.11380610730348489 0 -0.45674497769142258 0.1138140594952527 0 -0.45371440568763749 0.1126743632371118 0 -0.46425598871103851 0.13528374379222011 0 -0.45674497769142258 0.1138140594952527 0 -0.46958882025875243 0.12035793204680111 0 -0.46425598871103851 0.13528374379222011 0 -0.4523882543875366 0.10983005993361 0 -0.45661100561120399 0.109540819014999 0 -0.45371440568763749 0.1126743632371118 0 -0.45674497769142258 0.1138140594952527 0 -0.45661100561120399 0.109540819014999 0 -0.45371440568763749 0.1126743632371118 0 -0.45674497769142258 0.1138140594952527 0 -0.45371440568763749 0.1126743632371118 0 -0.4635407771028337 0.1124237257980706 0 -0.45674497769142258 0.1138140594952527 0 -0.45661100561120399 0.109540819014999 0 -0.44282721760043869 0.062046251170956107 0 -0.4470315618909167 0.073148927984774167 0 -0.46103932749027238 0.064238871702306077 0 -0.44282721760043869 0.062046251170956107 0 -0.43131469147834472 0.070632617455275076 0 -0.4470315618909167 0.073148927984774167 0 -0.42957324029363853 0.085693113452461764 0 -0.44343173260412461 0.097571970950778963 0 -0.44733932132275389 0.088290098875458828 0 -0.42957324029363853 0.085693113452461764 0 -0.4470315618909167 0.073148927984774167 0 -0.44733932132275389 0.088290098875458828 0 -0.4470315618909167 0.073148927984774167 0 -0.44733932132275389 0.088290098875458828 0 -0.46047789149500767 0.082617330138573752 0 -0.45084974973894648 0.096020795281878568 0 -0.44733932132275389 0.088290098875458828 0 -0.45594156200913483 0.091684632610025046 0 -0.44733932132275389 0.088290098875458828 0 -0.45594156200913483 0.091684632610025046 0 -0.46047789149500767 0.082617330138573752 0 -0.46723244863383712 0.097971273043108306 0 -0.45594156200913483 0.091684632610025046 0 -0.46047789149500767 0.082617330138573752 0 -0.46047789149500767 0.082617330138573752 0 -0.46103932749027238 0.064238871702306077 0 -0.47920912086757578 0.083222027247413538 0 -0.4470315618909167 0.073148927984774167 0 -0.46047789149500767 0.082617330138573752 0 -0.46103932749027238 0.064238871702306077 0 -0.46103932749027238 0.064238871702306077 0 -0.48068047186290208 0.063626500276227002 0 -0.47920912086757578 0.083222027247413538 0 -0.46103932749027238 0.064238871702306077 0 -0.47920912086757578 0.083222027247413538 0 -0.46723244863383712 0.097971273043108306 0 -0.46047789149500767 0.082617330138573752 0 -0.47920912086757578 0.083222027247413538 0 -0.48068047186290208 0.063626500276227002 0 -0.47920912086757578 0.083222027247413538 0 -0.5 0.088432580532893601 0 -0.47920912086757578 0.083222027247413538 0 -0.49737891424487929 0.102205182792521 0 -0.47920912086757578 0.083222027247413538 0 -0.5 0.088432580532893601 0 -0.49737891424487929 0.102205182792521 0 -0.5 0.060034093897511798 0 -0.48068047186290208 0.063626500276227002 0 -0.5 0.088432580532893601 0 -0.47827810320487629 0.116675775998883 0 -0.48837893466537508 0.1117690854599766 0 -0.4842723158563047 0.1301441798928954 0 -0.47827810320487629 0.116675775998883 0 -0.47512549980118862 0.10796659812409699 0 -0.48837893466537508 0.1117690854599766 0 -0.47827810320487629 0.116675775998883 0 -0.46958882025875243 0.12035793204680111 0 -0.4842723158563047 0.1301441798928954 0 -0.47827810320487629 0.116675775998883 0 -0.47044075898603932 0.11380610730348489 0 -0.47512549980118862 0.10796659812409699 0 -0.46686982756835349 0.1074114054382402 0 -0.47044075898603932 0.11380610730348489 0 -0.47512549980118862 0.10796659812409699 0 -0.47827810320487629 0.116675775998883 0 -0.46958882025875243 0.12035793204680111 0 -0.47044075898603932 0.11380610730348489 0 -0.46723244863383712 0.097971273043108306 0 -0.47512549980118862 0.10796659812409699 0 -0.48162445158666772 0.1005823670901454 0 -0.46723244863383712 0.097971273043108306 0 -0.47920912086757578 0.083222027247413538 0 -0.48162445158666772 0.1005823670901454 0 -0.46723244863383712 0.097971273043108306 0 -0.46686982756835349 0.1074114054382402 0 -0.47512549980118862 0.10796659812409699 0 -0.47512549980118862 0.10796659812409699 0 -0.48162445158666772 0.1005823670901454 0 -0.48837893466537508 0.1117690854599766 0 -0.48162445158666772 0.1005823670901454 0 -0.49737891424487929 0.102205182792521 0 -0.48837893466537508 0.1117690854599766 0 -0.47920912086757578 0.083222027247413538 0 -0.48162445158666772 0.1005823670901454 0 -0.49737891424487929 0.102205182792521 0 -0.5 0.088432580532893601 0 -0.49737891424487929 0.102205182792521 0 -0.5 0.1168310671682755 0 -0.49737891424487929 0.102205182792521 0 -0.5 0.1168310671682755 0 -0.48837893466537508 0.1117690854599766 0 -0.5 0.1168310671682755 0 -0.48837893466537508 0.1117690854599766 0 -0.4842723158563047 0.1301441798928954 0 -0.5 0.1168310671682755 0 -0.4842723158563047 0.1301441798928954 0 -0.5 0.14522955380365729 0 -0.46958882025875243 0.12035793204680111 0 -0.4842723158563047 0.1301441798928954 0 -0.46425598871103851 0.13528374379222011 0 -0.4842723158563047 0.1301441798928954 0 -0.47479757173443998 0.15789312434732811 0 -0.46425598871103851 0.13528374379222011 0 -0.47479757173443998 0.15789312434732811 0 -0.46425598871103851 0.13528374379222011 0 -0.4842723158563047 0.1301441798928954 0 -0.5 0.14522955380365729 0 -0.47479757173443998 0.15789312434732811 0 -0.5 0.14522955380365729 0 -0.49999999999999972 0.17362804043903909 0 -0.47479757173443998 0.15789312434732811 0 -0.49999999999999972 0.17362804043903909 0 -0.47479757173443998 0.15789312434732811 0 -0.49999999999999972 0.17362804043903909 0 -0.49200992699072321 0.1743962810239672 0 -0.47479757173443998 0.15789312434732811 0 -0.48341269367675271 0.17637066895233999 0 -0.49170634683837577 0.1941587336203292 0 -0.49368671912131301 0.1828531969182482 0 -0.49999999999999972 0.17362804043903909 0 -0.5 0.19278741936367841 0 -0.49368671912131301 0.1828531969182482 0 -0.48341269367675271 0.17637066895233999 0 -0.49170634683837577 0.1941587336203292 0 -0.49368671912131301 0.1828531969182482 0 -0.49999999999999972 0.17362804043903909 0 -0.49200992699072321 0.1743962810239672 0 -0.49200992699072321 0.1743962810239672 0 -0.48341269367675271 0.17637066895233999 0 -0.49368671912131301 0.1828531969182482 0 -0.49200992699072321 0.1743962810239672 0 -0.48341269367675271 0.17637066895233999 0 -0.48341269367675271 0.17637066895233999 0 -0.45591042926964898 0.18268667049205081 0 -0.47274380268756999 0.19288508587190861 0 -0.48341269367675271 0.17637066895233999 0 -0.45591042926964898 0.18268667049205081 0 -0.49200992699072321 0.1743962810239672 0 -0.48341269367675271 0.17637066895233999 0 -0.47479757173443998 0.15789312434732811 0 -0.48341269367675271 0.17637066895233999 0 -0.47479757173443998 0.15789312434732811 0 -0.48341269367675271 0.17637066895233999 0 -0.47479757173443998 0.15789312434732811 0 -0.45723956394668003 0.16387676974864759 0 -0.48341269367675271 0.17637066895233999 0 -0.45723956394668003 0.16387676974864759 0 -0.45591042926964898 0.18268667049205081 0 -0.45591042926964898 0.18268667049205081 0 -0.43992511097516529 0.17411109905454999 0 -0.4284081648625454 0.1890026720317621 0 -0.45591042926964898 0.18268667049205081 0 -0.4284081648625454 0.1890026720317621 0 -0.45723956394668003 0.16387676974864759 0 -0.45591042926964898 0.18268667049205081 0 -0.43992511097516529 0.17411109905454999 0 -0.45723956394668003 0.16387676974864759 0 -0.43992511097516529 0.17411109905454999 0 -0.43892522612619872 0.15930650560997939 0 -0.43892522612619872 0.15930650560997939 0 -0.43796764784210812 0.14528805014891141 0 -0.45386540436598038 0.14482430837095511 0 -0.45723956394668003 0.16387676974864759 0 -0.43892522612619872 0.15930650560997939 0 -0.45386540436598038 0.14482430837095511 0 -0.45386540436598038 0.14482430837095511 0 -0.43293323699752101 0.1317554923945817 0 -0.43826405507869293 0.1195835460605416 0 -0.44901593584904892 0.12912088192892021 0 -0.43293323699752101 0.1317554923945817 0 -0.43796764784210812 0.14528805014891141 0 -0.45386540436598038 0.14482430837095511 0 -0.43293323699752101 0.1317554923945817 0 -0.44901593584904892 0.12912088192892021 0 -0.45386540436598038 0.14482430837095511 0 -0.43293323699752101 0.1317554923945817 0 -0.45371440568763749 0.1126743632371118 0 -0.44901593584904892 0.12912088192892021 0 -0.46425598871103851 0.13528374379222011 0 -0.44901593584904892 0.12912088192892021 0 -0.46425598871103851 0.13528374379222011 0 -0.45386540436598038 0.14482430837095511 0 -0.47479757173443998 0.15789312434732811 0 -0.45723956394668003 0.16387676974864759 0 -0.45386540436598038 0.14482430837095511 0 -0.47479757173443998 0.15789312434732811 0 -0.46425598871103851 0.13528374379222011 0 -0.45386540436598038 0.14482430837095511 0 -0.47479757173443998 0.15789312434732811 0 -0.45386540436598038 0.14482430837095511 0 -0.48226153920099157 0.23766317590200001 0 -0.47864167104372218 0.246590621409366 0 -0.48932095354102823 0.25454658797793611 0 -0.47315400564016008 0.2364435414805684 0 -0.47864167104372218 0.246590621409366 0 -0.46938038244821267 0.25133041049185839 0 -0.47315400564016008 0.2364435414805684 0 -0.48226153920099157 0.23766317590200001 0 -0.47864167104372218 0.246590621409366 0 -0.49106398183666961 0.22759324404760359 0 -0.48932095354102823 0.25454658797793611 0 -0.5 0.23810140997737081 0 -0.49106398183666961 0.22759324404760359 0 -0.48932095354102823 0.25454658797793611 0 -0.48226153920099157 0.23766317590200001 0 -0.49106398183666961 0.22759324404760359 0 -0.48932095354102823 0.25454658797793611 0 -0.5 0.23810140997737081 0 -0.49106398183666961 0.22759324404760359 0 -0.50000000000000022 0.21194679828831781 0 -0.49106398183666961 0.22759324404760359 0 -0.47912708394337772 0.2231418845945258 0 -0.48726644121087642 0.21298690825741631 0 -0.48226153920099157 0.23766317590200001 0 -0.49106398183666961 0.22759324404760359 0 -0.47912708394337772 0.2231418845945258 0 -0.47315400564016008 0.2364435414805684 0 -0.48226153920099157 0.23766317590200001 0 -0.47912708394337772 0.2231418845945258 0 -0.47315400564016008 0.2364435414805684 0 -0.47912708394337772 0.2231418845945258 0 -0.46764368341616458 0.22415830119077751 0 -0.47912708394337772 0.2231418845945258 0 -0.47360767850491831 0.20951316246361981 0 -0.46764368341616458 0.22415830119077751 0 -0.47360767850491831 0.20951316246361981 0 -0.48726644121087642 0.21298690825741631 0 -0.49170634683837577 0.1941587336203292 0 -0.47912708394337772 0.2231418845945258 0 -0.47360767850491831 0.20951316246361981 0 -0.48726644121087642 0.21298690825741631 0 -0.49106398183666961 0.22759324404760359 0 -0.50000000000000022 0.21194679828831781 0 -0.48726644121087642 0.21298690825741631 0 -0.50000000000000022 0.21194679828831781 0 -0.48726644121087642 0.21298690825741631 0 -0.49170634683837577 0.1941587336203292 0 -0.50000000000000022 0.21194679828831781 0 -0.49170634683837577 0.1941587336203292 0 -0.50000000000000022 0.21194679828831781 0 -0.5 0.19278741936367841 0 -0.49170634683837577 0.1941587336203292 0 -0.49368671912131301 0.1828531969182482 0 -0.5 0.19278741936367841 0 -0.49170634683837577 0.1941587336203292 0 -0.48341269367675271 0.17637066895233999 0 -0.49170634683837577 0.1941587336203292 0 -0.47274380268756999 0.19288508587190861 0 -0.47360767850491831 0.20951316246361981 0 -0.49170634683837577 0.1941587336203292 0 -0.47274380268756999 0.19288508587190861 0 -0.47360767850491831 0.20951316246361981 0 -0.47274380268756999 0.19288508587190861 0 -0.45820261548712909 0.20353130823034371 0 -0.45591042926964898 0.18268667049205081 0 -0.47274380268756999 0.19288508587190861 0 -0.45820261548712909 0.20353130823034371 0 -0.45591042926964898 0.18268667049205081 0 -0.43516662619925378 0.20614333559983469 0 -0.4284081648625454 0.1890026720317621 0 -0.45591042926964898 0.18268667049205081 0 -0.45820261548712909 0.20353130823034371 0 -0.43516662619925378 0.20614333559983469 0 -0.44192508753596349 0.22328399916790689 0 -0.43516662619925378 0.20614333559983469 0 -0.45032248765871591 0.2151961798839368 0 -0.44192508753596349 0.22328399916790689 0 -0.43516662619925378 0.20614333559983469 0 -0.45032248765871591 0.2151961798839368 0 -0.45820261548712909 0.20353130823034371 0 -0.43516662619925378 0.20614333559983469 0 -0.45032248765871591 0.2151961798839368 0 -0.46109406183397039 0.21551848415653921 0 -0.45620465585954723 0.2251951411450015 0 -0.45032248765871591 0.2151961798839368 0 -0.45820261548712909 0.20353130823034371 0 -0.46109406183397039 0.21551848415653921 0 -0.47360767850491831 0.20951316246361981 0 -0.45820261548712909 0.20353130823034371 0 -0.46109406183397039 0.21551848415653921 0 -0.47360767850491831 0.20951316246361981 0 -0.46109406183397039 0.21551848415653921 0 -0.46764368341616458 0.22415830119077751 0 -0.47315400564016008 0.2364435414805684 0 -0.46764368341616458 0.22415830119077751 0 -0.45925329591452863 0.2407771106774913 0 -0.46764368341616458 0.22415830119077751 0 -0.45620465585954723 0.2251951411450015 0 -0.45925329591452863 0.2407771106774913 0 -0.46109406183397039 0.21551848415653921 0 -0.46764368341616458 0.22415830119077751 0 -0.45620465585954723 0.2251951411450015 0 -0.45032248765871591 0.2151961798839368 0 -0.45620465585954723 0.2251951411450015 0 -0.44192508753596349 0.22328399916790689 0 -0.44192508753596349 0.22328399916790689 0 -0.44062222049055039 0.24203477259657111 0 -0.43146145522804691 0.2313120115293863 0 -0.45620465585954723 0.2251951411450015 0 -0.44062222049055039 0.24203477259657111 0 -0.45620465585954723 0.2251951411450015 0 -0.44192508753596349 0.22328399916790689 0 -0.44062222049055039 0.24203477259657111 0 -0.44062222049055039 0.24203477259657111 0 -0.45046339488490522 0.249057113070103 0 -0.44442574262614493 0.25832327296872359 0 -0.44062222049055039 0.24203477259657111 0 -0.45046339488490522 0.249057113070103 0 -0.45925329591452863 0.2407771106774913 0 -0.45620465585954723 0.2251951411450015 0 -0.44062222049055039 0.24203477259657111 0 -0.45925329591452863 0.2407771106774913 0 -0.45046339488490522 0.249057113070103 0 -0.45925329591452863 0.2407771106774913 0 -0.45807104112411212 0.25534721177055669 0 -0.45925329591452863 0.2407771106774913 0 -0.46938038244821267 0.25133041049185839 0 -0.45807104112411212 0.25534721177055669 0 -0.47315400564016008 0.2364435414805684 0 -0.45925329591452863 0.2407771106774913 0 -0.46938038244821267 0.25133041049185839 0 -0.4198454647722451 0.23985190764030939 0 -0.40081965837488509 0.24074316727492401 0 -0.40585136056822319 0.25674789398696107 0 -0.4198454647722451 0.23985190764030939 0 -0.405480724964072 0.22581663549259839 0 -0.40081965837488509 0.24074316727492401 0 -0.44062222049055039 0.24203477259657111 0 -0.4198454647722451 0.23985190764030939 0 -0.42503978512155383 0.25887440404814072 0 -0.44062222049055039 0.24203477259657111 0 -0.4198454647722451 0.23985190764030939 0 -0.43146145522804691 0.2313120115293863 0 -0.4198454647722451 0.23985190764030939 0 -0.43146145522804691 0.2313120115293863 0 -0.42370673975344808 0.22056464269113771 0 -0.44192508753596349 0.22328399916790689 0 -0.43146145522804691 0.2313120115293863 0 -0.42370673975344808 0.22056464269113771 0 -0.4198454647722451 0.23985190764030939 0 -0.42370673975344808 0.22056464269113771 0 -0.405480724964072 0.22581663549259839 0 -0.42370673975344808 0.22056464269113771 0 -0.40708390191205951 0.20882890034131879 0 -0.405480724964072 0.22581663549259839 0 -0.42370673975344808 0.22056464269113771 0 -0.40708390191205951 0.20882890034131879 0 -0.42107335870595469 0.2022269477122331 0 -0.44192508753596349 0.22328399916790689 0 -0.42370673975344808 0.22056464269113771 0 -0.43516662619925378 0.20614333559983469 0 -0.42370673975344808 0.22056464269113771 0 -0.43516662619925378 0.20614333559983469 0 -0.42107335870595469 0.2022269477122331 0 -0.43516662619925378 0.20614333559983469 0 -0.4284081648625454 0.1890026720317621 0 -0.42107335870595469 0.2022269477122331 0 -0.43516662619925378 0.20614333559983469 0 -0.4284081648625454 0.1890026720317621 0 -0.4284081648625454 0.1890026720317621 0 -0.40915969581062839 0.19342315750049971 0 -0.4284081648625454 0.1890026720317621 0 -0.42107335870595469 0.2022269477122331 0 -0.40915969581062839 0.19342315750049971 0 -0.40708390191205951 0.20882890034131879 0 -0.42107335870595469 0.2022269477122331 0 -0.40915969581062839 0.19342315750049971 0 -0.40708390191205951 0.20882890034131879 0 -0.40915969581062839 0.19342315750049971 0 -0.38991122675871148 0.19784364296923759 0 -0.40915969581062839 0.19342315750049971 0 -0.38991122675871148 0.19784364296923759 0 -0.40915969581062839 0.19342315750049971 0 -0.38991122675871148 0.19784364296923759 0 -0.39569501158598158 0.17813944679546001 0 -0.39158905321283283 0.2136173787495643 0 -0.38435338999826391 0.22831720607051781 0 -0.36414166766971379 0.2074649771098355 0 -0.38991122675871148 0.19784364296923759 0 -0.39158905321283283 0.2136173787495643 0 -0.36414166766971379 0.2074649771098355 0 -0.40708390191205951 0.20882890034131879 0 -0.39158905321283283 0.2136173787495643 0 -0.405480724964072 0.22581663549259839 0 -0.40708390191205951 0.20882890034131879 0 -0.38991122675871148 0.19784364296923759 0 -0.39158905321283283 0.2136173787495643 0 -0.405480724964072 0.22581663549259839 0 -0.38435338999826391 0.22831720607051781 0 -0.40081965837488509 0.24074316727492401 0 -0.39158905321283283 0.2136173787495643 0 -0.405480724964072 0.22581663549259839 0 -0.38435338999826391 0.22831720607051781 0 -0.37619177155740557 0.24036243622333081 0 -0.38790582398472923 0.24962922847932231 0 -0.36318679658289171 0.25196182354824148 0 -0.38435338999826391 0.22831720607051781 0 -0.37619177155740557 0.24036243622333081 0 -0.38790582398472923 0.24962922847932231 0 -0.38435338999826391 0.22831720607051781 0 -0.38790582398472923 0.24962922847932231 0 -0.40081965837488509 0.24074316727492401 0 -0.38790582398472923 0.24962922847932231 0 -0.40081965837488509 0.24074316727492401 0 -0.40585136056822319 0.25674789398696107 0 -0.40926453963391513 0.14045102348790381 0 -0.42614672387873248 0.14526589422012931 0 -0.41883635224822963 0.16472684775983329 0 -0.40926453963391513 0.14045102348790381 0 -0.41883635224822963 0.16472684775983329 0 -0.40926453963391513 0.14045102348790381 0 -0.41883635224822963 0.16472684775983329 0 -0.40029434983296169 0.15790366282291429 0 -0.40926453963391513 0.14045102348790381 0 -0.417579207348795 0.13056668242546571 0 -0.40026410281127539 0.13237877311027449 0 -0.40926453963391513 0.14045102348790381 0 -0.417579207348795 0.13056668242546571 0 -0.42614672387873248 0.14526589422012931 0 -0.417579207348795 0.13056668242546571 0 -0.43293323699752101 0.1317554923945817 0 -0.42614672387873248 0.14526589422012931 0 -0.42608096723388439 0.1205091241492761 0 -0.417579207348795 0.13056668242546571 0 -0.43293323699752101 0.1317554923945817 0 -0.43796764784210812 0.14528805014891141 0 -0.43293323699752101 0.1317554923945817 0 -0.42614672387873248 0.14526589422012931 0 -0.43892522612619872 0.15930650560997939 0 -0.43796764784210812 0.14528805014891141 0 -0.42614672387873248 0.14526589422012931 0 -0.43892522612619872 0.15930650560997939 0 -0.42614672387873248 0.14526589422012931 0 -0.41883635224822963 0.16472684775983329 0 -0.43992511097516529 0.17411109905454999 0 -0.43892522612619872 0.15930650560997939 0 -0.41883635224822963 0.16472684775983329 0 -0.4284081648625454 0.1890026720317621 0 -0.41883635224822963 0.16472684775983329 0 -0.43992511097516529 0.17411109905454999 0 -0.4284081648625454 0.1890026720317621 0 -0.41883635224822963 0.16472684775983329 0 -0.40915969581062839 0.19342315750049971 0 -0.41883635224822963 0.16472684775983329 0 -0.39569501158598158 0.17813944679546001 0 -0.4284081648625454 0.1890026720317621 0 -0.40915969581062839 0.19342315750049971 0 -0.41883635224822963 0.16472684775983329 0 -0.40029434983296169 0.15790366282291429 0 -0.39569501158598158 0.17813944679546001 0 -0.38484252596519369 0.16167484958157691 0 -0.41883635224822963 0.16472684775983329 0 -0.40029434983296169 0.15790366282291429 0 -0.39569501158598158 0.17813944679546001 0 -0.39569501158598158 0.17813944679546001 0 -0.38484252596519369 0.16167484958157691 0 -0.36525228834216061 0.17922160577889321 0 -0.38991122675871148 0.19784364296923759 0 -0.39569501158598158 0.17813944679546001 0 -0.36525228834216061 0.17922160577889321 0 -0.39283331973148827 0.14452614648979731 0 -0.38372255811484618 0.13025780258704611 0 -0.36636290901460722 0.1509782344479508 0 -0.38484252596519369 0.16167484958157691 0 -0.39283331973148827 0.14452614648979731 0 -0.36636290901460722 0.1509782344479508 0 -0.40029434983296169 0.15790366282291429 0 -0.38484252596519369 0.16167484958157691 0 -0.39283331973148827 0.14452614648979731 0 -0.40926453963391513 0.14045102348790381 0 -0.40029434983296169 0.15790366282291429 0 -0.39283331973148827 0.14452614648979731 0 -0.39283331973148827 0.14452614648979731 0 -0.40026410281127539 0.13237877311027449 0 -0.38372255811484618 0.13025780258704611 0 -0.39792088922733271 0.1160922105611595 0 -0.417579207348795 0.13056668242546571 0 -0.40026410281127539 0.13237877311027449 0 -0.39792088922733271 0.1160922105611595 0 -0.40026410281127539 0.13237877311027449 0 -0.38372255811484618 0.13025780258704611 0 -0.40926453963391513 0.14045102348790381 0 -0.39283331973148827 0.14452614648979731 0 -0.40026410281127539 0.13237877311027449 0 -0.38372255811484618 0.13025780258704611 0 -0.36636290901460722 0.1509782344479508 0 -0.36747352968705388 0.12273486311700831 0 -0.36636290901460722 0.1509782344479508 0 -0.36747352968705388 0.12273486311700831 0 -0.35528769071996391 0.12689780186549679 0 -0.36636290901460722 0.1509782344479508 0 -0.36747352968705388 0.12273486311700831 0 -0.35528769071996391 0.12689780186549679 0 -0.33512599087492562 0.1447950320020088 0 -0.35528769071996391 0.12689780186549679 0 -0.35168351666373848 0.14314256241625531 0 -0.33512599087492562 0.1447950320020088 0 -0.35528769071996391 0.12689780186549679 0 -0.33512599087492562 0.1447950320020088 0 -0.34115039425197219 0.12498493974687711 0 -0.35528769071996391 0.12689780186549679 0 -0.35168351666373848 0.14314256241625531 0 -0.36636290901460722 0.1509782344479508 0 -0.35168351666373848 0.14314256241625531 0 -0.36636290901460722 0.1509782344479508 0 -0.34333519974196419 0.16612441953572921 0 -0.38484252596519369 0.16167484958157691 0 -0.36636290901460722 0.1509782344479508 0 -0.36525228834216061 0.17922160577889321 0 -0.36636290901460722 0.1509782344479508 0 -0.36525228834216061 0.17922160577889321 0 -0.36525228834216061 0.17922160577889321 0 -0.34333519974196419 0.16612441953572921 0 -0.34654591437965571 0.19533490523866279 0 -0.36636290901460722 0.1509782344479508 0 -0.36525228834216061 0.17922160577889321 0 -0.34333519974196419 0.16612441953572921 0 -0.34333519974196419 0.16612441953572921 0 -0.31496429102988749 0.16269226213852109 0 -0.33512599087492562 0.1447950320020088 0 -0.34333519974196419 0.16612441953572921 0 -0.34654591437965571 0.19533490523866279 0 -0.32412519241006588 0.1878495682783011 0 -0.31496429102988749 0.16269226213852109 0 -0.32412519241006588 0.1878495682783011 0 -0.34333519974196419 0.16612441953572921 0 -0.31496429102988749 0.16269226213852109 0 -0.32412519241006588 0.1878495682783011 0 -0.31303823693556859 0.17707572181323081 0 -0.31496429102988749 0.16269226213852109 0 -0.32412519241006588 0.1878495682783011 0 -0.31303823693556859 0.17707572181323081 0 -0.32412519241006588 0.1878495682783011 0 -0.3108046026399135 0.18379038091696129 0 -0.31496429102988749 0.16269226213852109 0 -0.31353256245119709 0.1587605055712967 0 -0.31354631638020197 0.13395604467094269 0 -0.33512599087492562 0.1447950320020088 0 -0.3122891553291075 0.14635758184588041 0 -0.31353256245119709 0.1587605055712967 0 -0.33512599087492562 0.1447950320020088 0 -0.3122891553291075 0.14635758184588041 0 -0.31496429102988749 0.16269226213852109 0 -0.31353256245119709 0.1587605055712967 0 -0.33512599087492562 0.1447950320020088 0 -0.31496429102988749 0.16269226213852109 0 -0.33512599087492562 0.1447950320020088 0 -0.31354631638020197 0.13395604467094269 0 -0.32917568526667751 0.12578156900391591 0 -0.33512599087492562 0.1447950320020088 0 -0.31354631638020197 0.13395604467094269 0 -0.32917568526667751 0.12578156900391591 0 -0.32114709127587232 0.11611322513389059 0 -0.32917568526667751 0.12578156900391591 0 -0.33512599087492562 0.1447950320020088 0 -0.34115039425197219 0.12498493974687711 0 -0.35168351666373848 0.14314256241625531 0 -0.34333519974196419 0.16612441953572921 0 -0.33512599087492562 0.1447950320020088 0 -0.36303104699726713 0.23570834844077809 0 -0.34244699517042121 0.23816418055786151 0 -0.36318679658289171 0.25196182354824148 0 -0.34244699517042121 0.23816418055786151 0 -0.36318679658289171 0.25196182354824148 0 -0.33952374355129727 0.25899057541505788 0 -0.37619177155740557 0.24036243622333081 0 -0.36303104699726713 0.23570834844077809 0 -0.36318679658289171 0.25196182354824148 0 -0.38435338999826391 0.22831720607051781 0 -0.37619177155740557 0.24036243622333081 0 -0.36303104699726713 0.23570834844077809 0 -0.38435338999826391 0.22831720607051781 0 -0.36303104699726713 0.23570834844077809 0 -0.36414166766971379 0.2074649771098355 0 -0.36303104699726713 0.23570834844077809 0 -0.36414166766971379 0.2074649771098355 0 -0.36303104699726713 0.23570834844077809 0 -0.35084793517488477 0.2210857468323085 0 -0.34244699517042121 0.23816418055786151 0 -0.36303104699726713 0.23570834844077809 0 -0.35084793517488477 0.2210857468323085 0 -0.36414166766971379 0.2074649771098355 0 -0.35084793517488477 0.2210857468323085 0 -0.36414166766971379 0.2074649771098355 0 -0.34654591437965571 0.19533490523866279 0 -0.36525228834216061 0.17922160577889321 0 -0.36414166766971379 0.2074649771098355 0 -0.38991122675871148 0.19784364296923759 0 -0.36525228834216061 0.17922160577889321 0 -0.36414166766971379 0.2074649771098355 0 -0.36525228834216061 0.17922160577889321 0 -0.36414166766971379 0.2074649771098355 0 -0.34654591437965571 0.19533490523866279 0 -0.32412519241006588 0.1878495682783011 0 -0.33328609379024349 0.2130068744180813 0 -0.34654591437965571 0.19533490523866279 0 -0.32412519241006588 0.1878495682783011 0 -0.33328609379024349 0.2130068744180813 0 -0.32412519241006588 0.1878495682783011 0 -0.33328609379024349 0.2130068744180813 0 -0.31080006153106382 0.20197173666100501 0 -0.32412519241006588 0.1878495682783011 0 -0.31080006153106382 0.20197173666100501 0 -0.3108046026399135 0.18379038091696129 0 -0.33328609379024349 0.2130068744180813 0 -0.31873218963182409 0.22654972870499029 0 -0.31080006153106382 0.20197173666100501 0 -0.35084793517488477 0.2210857468323085 0 -0.34654591437965571 0.19533490523866279 0 -0.33328609379024349 0.2130068744180813 0 -0.35084793517488477 0.2210857468323085 0 -0.33328609379024349 0.2130068744180813 0 -0.34244699517042121 0.23816418055786151 0 -0.33328609379024349 0.2130068744180813 0 -0.34244699517042121 0.23816418055786151 0 -0.33328609379024349 0.2130068744180813 0 -0.31873218963182409 0.22654972870499029 0 -0.34244699517042121 0.23816418055786151 0 -0.31873218963182409 0.22654972870499029 0 -0.32200613725511351 0.24850726385495631 0 -0.34244699517042121 0.23816418055786151 0 -0.31873218963182409 0.22654972870499029 0 -0.32200613725511351 0.24850726385495631 0 -0.30672251365844311 0.23743048015470111 0 -0.32200613725511351 0.24850726385495631 0 -0.34244699517042121 0.23816418055786151 0 -0.33952374355129727 0.25899057541505788 0 -0.29125564533142001 0.24067530578368901 0 -0.30672251365844311 0.23743048015470111 0 -0.30640548876467488 0.25787073169030861 0 -0.32200613725511351 0.24850726385495631 0 -0.30672251365844311 0.23743048015470111 0 -0.30640548876467488 0.25787073169030861 0 -0.29125564533142001 0.24067530578368901 0 -0.30672251365844311 0.23743048015470111 0 -0.29521310730918271 0.21354937073956171 0 -0.31873218963182409 0.22654972870499029 0 -0.30672251365844311 0.23743048015470111 0 -0.29521310730918271 0.21354937073956171 0 -0.29125564533142001 0.24067530578368901 0 -0.29521310730918271 0.21354937073956171 0 -0.29125564533142001 0.24067530578368901 0 -0.29521310730918271 0.21354937073956171 0 -0.27258595833473342 0.22149207507906341 0 -0.29521310730918271 0.21354937073956171 0 -0.28878760701375322 0.1984352968903606 0 -0.27490594785389072 0.20112241201531189 0 -0.31873218963182409 0.22654972870499029 0 -0.29521310730918271 0.21354937073956171 0 -0.31080006153106382 0.20197173666100501 0 -0.29521310730918271 0.21354937073956171 0 -0.29917056928694541 0.1864234356954344 0 -0.29521310730918271 0.21354937073956171 0 -0.31080006153106382 0.20197173666100501 0 -0.29917056928694541 0.1864234356954344 0 -0.31080006153106382 0.20197173666100501 0 -0.3108046026399135 0.18379038091696129 0 -0.29917056928694541 0.1864234356954344 0 -0.28878760701375322 0.1984352968903606 0 -0.29917056928694541 0.1864234356954344 0 -0.28955343229492791 0.1852490896997587 0 -0.29521310730918271 0.21354937073956171 0 -0.28878760701375322 0.1984352968903606 0 -0.29917056928694541 0.1864234356954344 0 -0.28878760701375322 0.1984352968903606 0 -0.27938784373491388 0.18917199981814359 0 -0.28955343229492791 0.1852490896997587 0 -0.27938784373491388 0.18917199981814359 0 -0.27490594785389072 0.20112241201531189 0 -0.26439180367967152 0.18225540552070321 0 -0.28878760701375322 0.1984352968903606 0 -0.27938784373491388 0.18917199981814359 0 -0.27490594785389072 0.20112241201531189 0 -0.27490594785389072 0.20112241201531189 0 -0.25370102580463139 0.2052288024824625 0 -0.26439180367967152 0.18225540552070321 0 -0.25370102580463139 0.2052288024824625 0 -0.26439180367967152 0.18225540552070321 0 -0.23359887481107691 0.1809086922627815 0 -0.27490594785389072 0.20112241201531189 0 -0.25370102580463139 0.2052288024824625 0 -0.27258595833473342 0.22149207507906341 0 -0.29521310730918271 0.21354937073956171 0 -0.27490594785389072 0.20112241201531189 0 -0.27258595833473342 0.22149207507906341 0 -0.29125564533142001 0.24067530578368901 0 -0.27258595833473342 0.22149207507906341 0 -0.26834113505385238 0.23837358332174549 0 -0.27258595833473342 0.22149207507906341 0 -0.25272375818517617 0.22994970808158929 0 -0.26834113505385238 0.23837358332174549 0 -0.25370102580463139 0.2052288024824625 0 -0.27258595833473342 0.22149207507906341 0 -0.25272375818517617 0.22994970808158929 0 -0.25272375818517617 0.22994970808158929 0 -0.25621817608628389 0.2460965770837312 0 -0.26834113505385238 0.23837358332174549 0 -0.25621817608628389 0.2460965770837312 0 -0.26834113505385238 0.23837358332174549 0 -0.26892213733164849 0.25365425058065472 0 -0.29125564533142001 0.24067530578368901 0 -0.26834113505385238 0.23837358332174549 0 -0.26892213733164849 0.25365425058065472 0 -0.29370567785695612 0.15770531643225719 0 -0.28412418886142132 0.16518528890623771 0 -0.28065913062351988 0.14575155473079041 0 -0.30159211447790629 0.14759241864651959 0 -0.29370567785695612 0.15770531643225719 0 -0.28065913062351988 0.14575155473079041 0 -0.29682817834931757 0.13068013418198679 0 -0.30159211447790629 0.14759241864651959 0 -0.28065913062351988 0.14575155473079041 0 -0.29682817834931757 0.13068013418198679 0 -0.28065913062351988 0.14575155473079041 0 -0.28285123447775751 0.1183560919224374 0 -0.31354631638020197 0.13395604467094269 0 -0.29682817834931757 0.13068013418198679 0 -0.30159211447790629 0.14759241864651959 0 -0.31354631638020197 0.13395604467094269 0 -0.3122891553291075 0.14635758184588041 0 -0.30159211447790629 0.14759241864651959 0 -0.31353256245119709 0.1587605055712967 0 -0.3122891553291075 0.14635758184588041 0 -0.30159211447790629 0.14759241864651959 0 -0.31496429102988749 0.16269226213852109 0 -0.31353256245119709 0.1587605055712967 0 -0.30488677357152572 0.1641353808659653 0 -0.30159211447790629 0.14759241864651959 0 -0.30488677357152572 0.1641353808659653 0 -0.29370567785695612 0.15770531643225719 0 -0.31353256245119709 0.1587605055712967 0 -0.30159211447790629 0.14759241864651959 0 -0.30488677357152572 0.1641353808659653 0 -0.31496429102988749 0.16269226213852109 0 -0.30225886166240762 0.17397067591913981 0 -0.31303823693556859 0.17707572181323081 0 -0.31496429102988749 0.16269226213852109 0 -0.30225886166240762 0.17397067591913981 0 -0.31496429102988749 0.16269226213852109 0 -0.30488677357152572 0.1641353808659653 0 -0.30225886166240762 0.17397067591913981 0 -0.30488677357152572 0.1641353808659653 0 -0.30225886166240762 0.17397067591913981 0 -0.29597535979189887 0.1670989905046398 0 -0.30488677357152572 0.1641353808659653 0 -0.29370567785695612 0.15770531643225719 0 -0.29597535979189887 0.1670989905046398 0 -0.31303823693556859 0.17707572181323081 0 -0.3108046026399135 0.18379038091696129 0 -0.30225886166240762 0.17397067591913981 0 -0.30225886166240762 0.17397067591913981 0 -0.29917056928694541 0.1864234356954344 0 -0.28955343229492791 0.1852490896997587 0 -0.3108046026399135 0.18379038091696129 0 -0.30225886166240762 0.17397067591913981 0 -0.29917056928694541 0.1864234356954344 0 -0.30225886166240762 0.17397067591913981 0 -0.28955343229492791 0.1852490896997587 0 -0.30225886166240762 0.17397067591913981 0 -0.28955343229492791 0.1852490896997587 0 -0.29024545837739651 0.173916500811098 0 -0.28955343229492791 0.1852490896997587 0 -0.29024545837739651 0.173916500811098 0 -0.27889874324695868 0.17762520371433099 0 -0.29024545837739651 0.173916500811098 0 -0.28412418886142132 0.16518528890623771 0 -0.27889874324695868 0.17762520371433099 0 -0.27938784373491388 0.18917199981814359 0 -0.28955343229492791 0.1852490896997587 0 -0.27889874324695868 0.17762520371433099 0 -0.29370567785695612 0.15770531643225719 0 -0.29597535979189887 0.1670989905046398 0 -0.28412418886142132 0.16518528890623771 0 -0.30225886166240762 0.17397067591913981 0 -0.29024545837739651 0.173916500811098 0 -0.29597535979189887 0.1670989905046398 0 -0.29024545837739651 0.173916500811098 0 -0.29597535979189887 0.1670989905046398 0 -0.28412418886142132 0.16518528890623771 0 -0.28412418886142132 0.16518528890623771 0 -0.26844272787379447 0.16268744982768751 0 -0.27889874324695868 0.17762520371433099 0 -0.28412418886142132 0.16518528890623771 0 -0.26844272787379447 0.16268744982768751 0 -0.28065913062351988 0.14575155473079041 0 -0.26844272787379447 0.16268744982768751 0 -0.27889874324695868 0.17762520371433099 0 -0.26439180367967152 0.18225540552070321 0 -0.27938784373491388 0.18917199981814359 0 -0.27889874324695868 0.17762520371433099 0 -0.26439180367967152 0.18225540552070321 0 -0.26844272787379447 0.16268744982768751 0 -0.26439180367967152 0.18225540552070321 0 -0.247018622616726 0.15992587597476091 0 -0.26844272787379447 0.16268744982768751 0 -0.25846103874104392 0.14702121199507179 0 -0.247018622616726 0.15992587597476091 0 -0.26844272787379447 0.16268744982768751 0 -0.25846103874104392 0.14702121199507179 0 -0.28065913062351988 0.14575155473079041 0 -0.25846103874104392 0.14702121199507179 0 -0.28065913062351988 0.14575155473079041 0 -0.25922316449870308 0.12628093809151891 0 -0.28065913062351988 0.14575155473079041 0 -0.25922316449870308 0.12628093809151891 0 -0.28285123447775751 0.1183560919224374 0 -0.25846103874104392 0.14702121199507179 0 -0.25922316449870308 0.12628093809151891 0 -0.2369615480924761 0.1404602413506009 0 -0.25922316449870308 0.12628093809151891 0 -0.25136603029008331 0.1103208693098497 0 -0.26687835675477128 0.1014348965859585 0 -0.25136603029008331 0.1103208693098497 0 -0.26687835675477128 0.1014348965859585 0 -0.24377998071086901 0.096378574065869249 0 -0.26687835675477128 0.1014348965859585 0 -0.28737892951993471 0.098967158637655914 0 -0.27569457229827071 0.081243623470509244 0 -0.26687835675477128 0.1014348965859585 0 -0.28285123447775751 0.1183560919224374 0 -0.28737892951993471 0.098967158637655914 0 -0.25922316449870308 0.12628093809151891 0 -0.26687835675477128 0.1014348965859585 0 -0.28285123447775751 0.1183560919224374 0 -0.29682817834931757 0.13068013418198679 0 -0.28285123447775751 0.1183560919224374 0 -0.30549209578720232 0.10774456093924389 0 -0.28285123447775751 0.1183560919224374 0 -0.28737892951993471 0.098967158637655914 0 -0.30549209578720232 0.10774456093924389 0 -0.28737892951993471 0.098967158637655914 0 -0.30549209578720232 0.10774456093924389 0 -0.29743787519420251 0.08153307720754506 0 -0.30549209578720232 0.10774456093924389 0 -0.29743787519420251 0.08153307720754506 0 -0.31354631638020197 0.13395604467094269 0 -0.29682817834931757 0.13068013418198679 0 -0.30549209578720232 0.10774456093924389 0 -0.31354631638020197 0.13395604467094269 0 -0.30549209578720232 0.10774456093924389 0 -0.29926204670725021 0.066629363318123747 0 -0.30931237829482389 0.073252958087475881 0 -0.31697319293959142 0.061410437985649477 0 -0.29926204670725021 0.066629363318123747 0 -0.30931237829482389 0.073252958087475881 0 -0.29743787519420251 0.08153307720754506 0 -0.30549209578720232 0.10774456093924389 0 -0.29743787519420251 0.08153307720754506 0 -0.31312795334666071 0.083579729522452809 0 -0.30931237829482389 0.073252958087475881 0 -0.29743787519420251 0.08153307720754506 0 -0.31312795334666071 0.083579729522452809 0 -0.28737892951993471 0.098967158637655914 0 -0.29743787519420251 0.08153307720754506 0 -0.27569457229827071 0.081243623470509244 0 -0.29743787519420251 0.08153307720754506 0 -0.28743776060402371 0.060458689408765323 0 -0.28938365460120269 0.05532159347584624 0 -0.29743787519420251 0.08153307720754506 0 -0.28938365460120269 0.05532159347584624 0 -0.29926204670725021 0.066629363318123747 0 -0.29743787519420251 0.08153307720754506 0 -0.28938365460120269 0.05532159347584624 0 -0.29743787519420251 0.08153307720754506 0 -0.27569457229827071 0.081243623470509244 0 -0.28743776060402371 0.060458689408765323 0 -0.27569457229827071 0.081243623470509244 0 -0.26257114212692878 0.06573449919026883 0 -0.28743776060402371 0.060458689408765323 0 -0.26257114212692878 0.06573449919026883 0 -0.28743776060402371 0.060458689408765323 0 -0.26687835675477128 0.1014348965859585 0 -0.25261226255175379 0.080423606239198905 0 -0.24377998071086901 0.096378574065869249 0 -0.26687835675477128 0.1014348965859585 0 -0.27569457229827071 0.081243623470509244 0 -0.25261226255175379 0.080423606239198905 0 -0.26257114212692878 0.06573449919026883 0 -0.23770452364983391 0.071010308971772351 0 -0.25261226255175379 0.080423606239198905 0 -0.26257114212692878 0.06573449919026883 0 -0.23770452364983391 0.071010308971772351 0 -0.27569457229827071 0.081243623470509244 0 -0.25261226255175379 0.080423606239198905 0 -0.26257114212692878 0.06573449919026883 0 -0.2522816967992324 0.037264740289820159 0 -0.27263172987273521 0.051913181220590639 0 -0.24906194248509719 0.058488871325365822 0 -0.26257114212692878 0.06573449919026883 0 -0.27263172987273521 0.051913181220590639 0 -0.24906194248509719 0.058488871325365822 0 -0.2522816967992324 0.037264740289820159 0 -0.2684979789729644 0.03593820420606865 0 -0.27263172987273521 0.051913181220590639 0 -0.2684979789729644 0.03593820420606865 0 -0.27263172987273521 0.051913181220590639 0 -0.28132943400820298 0.02911010974414751 0 -0.27263172987273521 0.051913181220590639 0 -0.28132943400820298 0.02911010974414751 0 -0.28938365460120269 0.05532159347584624 0 -0.26257114212692878 0.06573449919026883 0 -0.27263172987273521 0.051913181220590639 0 -0.28743776060402371 0.060458689408765323 0 -0.25267499080189931 -0.0034516002120552492 0 -0.26909988492935111 -0.0018655285383734981 0 -0.25157722050270093 0.012682655753942951 0 -0.26909988492935111 -0.0018655285383734981 0 -0.25157722050270093 0.012682655753942951 0 -0.27200359261247947 0.017754051058092819 0 -0.2522816967992324 0.037264740289820159 0 -0.25157722050270093 0.012682655753942951 0 -0.27200359261247947 0.017754051058092819 0 -0.2522816967992324 0.037264740289820159 0 -0.2684979789729644 0.03593820420606865 0 -0.27200359261247947 0.017754051058092819 0 -0.2522816967992324 0.037264740289820159 0 -0.27200359261247947 0.017754051058092819 0 -0.27200359261247947 0.017754051058092819 0 -0.28831373269731447 0.017122983851404761 0 -0.28132943400820298 0.02911010974414751 0 -0.2684979789729644 0.03593820420606865 0 -0.27200359261247947 0.017754051058092819 0 -0.28132943400820298 0.02911010974414751 0 -0.26909988492935111 -0.0018655285383734981 0 -0.2917254884257266 -0.0017566381736345419 0 -0.27200359261247947 0.017754051058092819 0 -0.2917254884257266 -0.0017566381736345419 0 -0.27200359261247947 0.017754051058092819 0 -0.28831373269731447 0.017122983851404761 0 -0.2917254884257266 -0.0017566381736345419 0 -0.28831373269731447 0.017122983851404761 0 -0.29997880334656019 0.01439552450637107 0 -0.2917254884257266 -0.0017566381736345419 0 -0.27200359261247947 0.017754051058092819 0 -0.28831373269731447 0.017122983851404761 0 -0.29656482898857922 0.02610767777843559 0 -0.29997880334656019 0.01439552450637107 0 -0.28831373269731447 0.017122983851404761 0 -0.28132943400820298 0.02911010974414751 0 -0.29656482898857922 0.02610767777843559 0 -0.28132943400820298 0.02911010974414751 0 -0.29656482898857922 0.02610767777843559 0 -0.29344050585463782 0.03493273697686209 0 -0.29656482898857922 0.02610767777843559 0 -0.31039051656375261 0.022327184027059441 0 -0.30541723396373921 0.038711125382435783 0 -0.31039051656375261 0.022327184027059441 0 -0.30541723396373921 0.038711125382435783 0 -0.32038394146944787 0.031620215762440292 0 -0.29656482898857922 0.02610767777843559 0 -0.31039051656375261 0.022327184027059441 0 -0.29997880334656019 0.01439552450637107 0 -0.31039051656375261 0.022327184027059441 0 -0.31177688145040278 0.0050359958776742568 0 -0.29997880334656019 0.01439552450637107 0 -0.2917254884257266 -0.0017566381736345419 0 -0.31177688145040278 0.0050359958776742568 0 -0.29997880334656019 0.01439552450637107 0 -0.27263172987273521 0.051913181220590639 0 -0.28743776060402371 0.060458689408765323 0 -0.28938365460120269 0.05532159347584624 0 -0.28938365460120269 0.05532159347584624 0 -0.29045052645802971 0.045802035002429492 0 -0.29738278035354182 0.050541329601553678 0 -0.28938365460120269 0.05532159347584624 0 -0.29738278035354182 0.050541329601553678 0 -0.29780899910201009 0.056562827273038227 0 -0.29926204670725021 0.066629363318123747 0 -0.28938365460120269 0.05532159347584624 0 -0.29780899910201009 0.056562827273038227 0 -0.28132943400820298 0.02911010974414751 0 -0.28938365460120269 0.05532159347584624 0 -0.29045052645802971 0.045802035002429492 0 -0.28132943400820298 0.02911010974414751 0 -0.28938365460120269 0.05532159347584624 0 -0.28132943400820298 0.02911010974414751 0 -0.29344050585463782 0.03493273697686209 0 -0.29045052645802971 0.045802035002429492 0 -0.29344050585463782 0.03493273697686209 0 -0.29045052645802971 0.045802035002429492 0 -0.30541723396373921 0.038711125382435783 0 -0.29045052645802971 0.045802035002429492 0 -0.30541723396373921 0.038711125382435783 0 -0.29738278035354182 0.050541329601553678 0 -0.29045052645802971 0.045802035002429492 0 -0.30541723396373921 0.038711125382435783 0 -0.29656482898857922 0.02610767777843559 0 -0.29344050585463782 0.03493273697686209 0 -0.30541723396373921 0.038711125382435783 0 -0.30541723396373921 0.038711125382435783 0 -0.30520751474604563 0.05375902269662923 0 -0.31780711793698518 0.045521831715634557 0 -0.29926204670725021 0.066629363318123747 0 -0.30520751474604563 0.05375902269662923 0 -0.31697319293959142 0.061410437985649477 0 -0.30541723396373921 0.038711125382435783 0 -0.30520751474604563 0.05375902269662923 0 -0.29738278035354182 0.050541329601553678 0 -0.30520751474604563 0.05375902269662923 0 -0.29738278035354182 0.050541329601553678 0 -0.29780899910201009 0.056562827273038227 0 -0.29926204670725021 0.066629363318123747 0 -0.30520751474604563 0.05375902269662923 0 -0.29780899910201009 0.056562827273038227 0 -0.32553678940662539 0.052415823907368687 0 -0.31780711793698518 0.045521831715634557 0 -0.33422422494732851 0.04449049745268327 0 -0.31697319293959142 0.061410437985649477 0 -0.32553678940662539 0.052415823907368687 0 -0.31780711793698518 0.045521831715634557 0 -0.30520751474604563 0.05375902269662923 0 -0.31697319293959142 0.061410437985649477 0 -0.31780711793698518 0.045521831715634557 0 -0.31697319293959142 0.061410437985649477 0 -0.32808937753058609 0.059947696530402161 0 -0.32553678940662539 0.052415823907368687 0 -0.31780711793698518 0.045521831715634557 0 -0.32038394146944787 0.031620215762440292 0 -0.33422422494732851 0.04449049745268327 0 -0.30541723396373921 0.038711125382435783 0 -0.31780711793698518 0.045521831715634557 0 -0.32038394146944787 0.031620215762440292 0 -0.30541723396373921 0.038711125382435783 0 -0.32038394146944787 0.031620215762440292 0 -0.32038394146944787 0.031620215762440292 0 -0.33422422494732851 0.04449049745268327 0 -0.33422422494732851 0.04449049745268327 0 -0.34051642268078958 0.02208187176518148 0 -0.34924074101412461 0.03711639968071382 0 -0.32038394146944787 0.031620215762440292 0 -0.33422422494732851 0.04449049745268327 0 -0.34051642268078958 0.02208187176518148 0 -0.33422422494732851 0.04449049745268327 0 -0.34715076893326918 0.04673829876922056 0 -0.34924074101412461 0.03711639968071382 0 -0.33422422494732851 0.04449049745268327 0 -0.34806450842520742 0.057360779142928031 0 -0.34715076893326918 0.04673829876922056 0 -0.33422422494732851 0.04449049745268327 0 -0.34806450842520742 0.057360779142928031 0 -0.33422422494732851 0.04449049745268327 0 -0.33482930480244999 0.055095026294593591 0 -0.34806450842520742 0.057360779142928031 0 -0.3407399656121517 0.06083029771636933 0 -0.33482930480244999 0.055095026294593591 0 -0.33440717105718593 0.063083878638897639 0 -0.3407399656121517 0.06083029771636933 0 -0.33482930480244999 0.055095026294593591 0 -0.34806450842520742 0.057360779142928031 0 -0.32808937753058609 0.059947696530402161 0 -0.33482930480244999 0.055095026294593591 0 -0.33440717105718593 0.063083878638897639 0 -0.32808937753058609 0.059947696530402161 0 -0.32553678940662539 0.052415823907368687 0 -0.33482930480244999 0.055095026294593591 0 -0.32553678940662539 0.052415823907368687 0 -0.33422422494732851 0.04449049745268327 0 -0.33482930480244999 0.055095026294593591 0 -0.31039051656375261 0.022327184027059441 0 -0.31177688145040278 0.0050359958776742568 0 -0.3261420213634148 0.01391490981329808 0 -0.32828291010712762 -0.0049346835118845543 0 -0.31177688145040278 0.0050359958776742568 0 -0.3261420213634148 0.01391490981329808 0 -0.31039051656375261 0.022327184027059441 0 -0.32038394146944787 0.031620215762440292 0 -0.3261420213634148 0.01391490981329808 0 -0.31039051656375261 0.022327184027059441 0 -0.32038394146944787 0.031620215762440292 0 -0.32038394146944787 0.031620215762440292 0 -0.34051642268078958 0.02208187176518148 0 -0.32038394146944787 0.031620215762440292 0 -0.3261420213634148 0.01391490981329808 0 -0.34051642268078958 0.02208187176518148 0 -0.3261420213634148 0.01391490981329808 0 -0.34051642268078958 0.02208187176518148 0 -0.34055428987364128 0.0059527955302196532 0 -0.32828291010712762 -0.0049346835118845543 0 -0.3261420213634148 0.01391490981329808 0 -0.34055428987364128 0.0059527955302196532 0 -0.34051642268078958 0.02208187176518148 0 -0.34055428987364128 0.0059527955302196532 0 -0.36064890389212972 0.0125435277679194 0 -0.34718119132474479 -0.01384164818341615 0 -0.34055428987364128 0.0059527955302196532 0 -0.36064890389212972 0.0125435277679194 0 -0.34051642268078958 0.02208187176518148 0 -0.36064890389212972 0.0125435277679194 0 -0.34051642268078958 0.02208187176518148 0 -0.35699945364537122 0.027147445145089769 0 -0.34924074101412461 0.03711639968071382 0 -0.34051642268078958 0.02208187176518148 0 -0.35699945364537122 0.027147445145089769 0 -0.36064890389212972 0.0125435277679194 0 -0.35699945364537122 0.027147445145089769 0 -0.36163302121541668 0.029781402687577421 0 -0.35940737946489582 0.035374977024224222 0 -0.37998819155715241 0.0057865511937031933 0 -0.36738966121720701 0.029980518529024301 0 -0.37123175334181557 0.027162262264614271 0 -0.37998819155715241 0.0057865511937031933 0 -0.36738966121720701 0.029980518529024301 0 -0.3645477689834325 0.020181962352102071 0 -0.37998819155715241 0.0057865511937031933 0 -0.36738966121720701 0.029980518529024301 0 -0.36273559053419291 0.026622670051971411 0 -0.36738966121720701 0.029980518529024301 0 -0.3645477689834325 0.020181962352102071 0 -0.35699945364537122 0.027147445145089769 0 -0.36163302121541668 0.029781402687577421 0 -0.36273559053419291 0.026622670051971411 0 -0.35699945364537122 0.027147445145089769 0 -0.36273559053419291 0.026622670051971411 0 -0.3645477689834325 0.020181962352102071 0 -0.36163302121541668 0.029781402687577421 0 -0.36273559053419291 0.026622670051971411 0 -0.36738966121720701 0.029980518529024301 0 -0.35699945364537122 0.027147445145089769 0 -0.3645477689834325 0.020181962352102071 0 -0.36064890389212972 0.0125435277679194 0 -0.3645477689834325 0.020181962352102071 0 -0.36064890389212972 0.0125435277679194 0 -0.37998819155715241 0.0057865511937031933 0 -0.3645477689834325 0.020181962352102071 0 -0.36064890389212972 0.0125435277679194 0 -0.38683543611469601 0.0001369023841863784 0 -0.36064890389212972 0.0125435277679194 0 -0.37474494217865062 -0.0022388935110706832 0 -0.38683543611469601 0.0001369023841863784 0 -0.36064890389212972 0.0125435277679194 0 -0.37474494217865062 -0.0022388935110706832 0 -0.36307869926690151 -0.00068504054922277494 0 -0.36064890389212972 0.0125435277679194 0 -0.35479113087726238 0.05417448586434577 0 -0.34715076893326918 0.04673829876922056 0 -0.35593663516940488 0.04278932274017315 0 -0.35479113087726238 0.05417448586434577 0 -0.35147867423579721 0.06053566178096708 0 -0.3622197730044176 0.060127746183944272 0 -0.35479113087726238 0.05417448586434577 0 -0.35147867423579721 0.06053566178096708 0 -0.35479113087726238 0.05417448586434577 0 -0.34806450842520742 0.057360779142928031 0 -0.35147867423579721 0.06053566178096708 0 -0.35479113087726238 0.05417448586434577 0 -0.34806450842520742 0.057360779142928031 0 -0.34806450842520742 0.057360779142928031 0 -0.35147867423579721 0.06053566178096708 0 -0.3447014191436914 0.063951910484466787 0 -0.34806450842520742 0.057360779142928031 0 -0.35147867423579721 0.06053566178096708 0 -0.3407399656121517 0.06083029771636933 0 -0.34806450842520742 0.057360779142928031 0 -0.3407399656121517 0.06083029771636933 0 -0.34806450842520742 0.057360779142928031 0 -0.3447014191436914 0.063951910484466787 0 -0.35479113087726238 0.05417448586434577 0 -0.34806450842520742 0.057360779142928031 0 -0.34715076893326918 0.04673829876922056 0 -0.34715076893326918 0.04673829876922056 0 -0.34924074101412461 0.03711639968071382 0 -0.35593663516940488 0.04278932274017315 0 -0.36738966121720701 0.029980518529024301 0 -0.35479113087726238 0.05417448586434577 0 -0.35593663516940488 0.04278932274017315 0 -0.35699945364537122 0.027147445145089769 0 -0.34924074101412461 0.03711639968071382 0 -0.35940737946489582 0.035374977024224222 0 -0.34924074101412461 0.03711639968071382 0 -0.35593663516940488 0.04278932274017315 0 -0.35940737946489582 0.035374977024224222 0 -0.36738966121720701 0.029980518529024301 0 -0.35479113087726238 0.05417448586434577 0 -0.36677646394688163 0.041367990420506082 0 -0.37123175334181557 0.027162262264614271 0 -0.37046143272875132 0.04675171495388801 0 -0.36738966121720701 0.029980518529024301 0 -0.35479113087726238 0.05417448586434577 0 -0.37123175334181557 0.027162262264614271 0 -0.36677646394688163 0.041367990420506082 0 -0.37046143272875132 0.04675171495388801 0 -0.3764786745208083 0.032098692741998169 0 -0.37123175334181557 0.027162262264614271 0 -0.37046143272875132 0.04675171495388801 0 -0.36163302121541668 0.029781402687577421 0 -0.36738966121720701 0.029980518529024301 0 -0.35940737946489582 0.035374977024224222 0 -0.36738966121720701 0.029980518529024301 0 -0.35593663516940488 0.04278932274017315 0 -0.35940737946489582 0.035374977024224222 0 -0.36738966121720701 0.029980518529024301 0 -0.37123175334181557 0.027162262264614271 0 -0.36677646394688163 0.041367990420506082 0 -0.36677646394688163 0.041367990420506082 0 -0.37046143272875132 0.04675171495388801 0 -0.36802302346639398 0.047906750352184523 0 -0.36677646394688163 0.041367990420506082 0 -0.36802302346639398 0.047906750352184523 0 -0.37046143272875132 0.04675171495388801 0 -0.37000681959492809 0.05831264468359916 0 -0.36802302346639398 0.047906750352184523 0 -0.37000681959492809 0.05831264468359916 0 -0.37046143272875132 0.04675171495388801 0 -0.36802302346639398 0.047906750352184523 0 -0.37000681959492809 0.05831264468359916 0 -0.37046143272875132 0.04675171495388801 0 -0.36802302346639398 0.047906750352184523 0 -0.35479113087726238 0.05417448586434577 0 -0.36802302346639398 0.047906750352184523 0 -0.35479113087726238 0.05417448586434577 0 -0.36802302346639398 0.047906750352184523 0 -0.3622197730044176 0.060127746183944272 0 -0.35479113087726238 0.05417448586434577 0 -0.36677646394688163 0.041367990420506082 0 -0.36802302346639398 0.047906750352184523 0 -0.36802302346639398 0.047906750352184523 0 -0.3622197730044176 0.060127746183944272 0 -0.37000681959492809 0.05831264468359916 0 -0.35147867423579721 0.06053566178096708 0 -0.36926886504626422 0.077079019973005369 0 -0.3622197730044176 0.060127746183944272 0 -0.37000681959492809 0.05831264468359916 0 -0.36926886504626422 0.077079019973005369 0 -0.37000681959492809 0.05831264468359916 0 -0.36926886504626422 0.077079019973005369 0 -0.37079498002478778 0.078498176574577722 0 -0.36926886504626422 0.077079019973005369 0 -0.34551673285671652 0.071984855543133663 0 -0.36912013352382872 0.080861301107253064 0 -0.37000681959492809 0.05831264468359916 0 -0.37079498002478778 0.078498176574577722 0 -0.37470600383380392 0.082961959162170973 0 -0.35147867423579721 0.06053566178096708 0 -0.3622197730044176 0.060127746183944272 0 -0.36926886504626422 0.077079019973005369 0 -0.37000681959492809 0.05831264468359916 0 -0.37470600383380392 0.082961959162170973 0 -0.37000681959492809 0.05831264468359916 0 -0.36926886504626422 0.077079019973005369 0 -0.36926886504626422 0.077079019973005369 0 -0.37079498002478778 0.078498176574577722 0 -0.34551673285671652 0.071984855543133663 0 -0.34763839367566191 0.079069075487607554 0 -0.36912013352382872 0.080861301107253064 0 -0.34551673285671652 0.071984855543133663 0 -0.36912013352382872 0.080861301107253064 0 -0.35147867423579721 0.06053566178096708 0 -0.36926886504626422 0.077079019973005369 0 -0.34551673285671652 0.071984855543133663 0 -0.34408269824063842 0.074738747125954852 0 -0.34763839367566191 0.079069075487607554 0 -0.34179116264722731 0.080399472229040897 0 -0.34408269824063842 0.074738747125954852 0 -0.34551673285671652 0.071984855543133663 0 -0.34763839367566191 0.079069075487607554 0 -0.34408269824063842 0.074738747125954852 0 -0.34551673285671652 0.071984855543133663 0 -0.35147867423579721 0.06053566178096708 0 -0.34551673285671652 0.071984855543133663 0 -0.3447014191436914 0.063951910484466787 0 -0.35147867423579721 0.06053566178096708 0 -0.34551673285671652 0.071984855543133663 0 -0.34763839367566191 0.079069075487607554 0 -0.36858415035949882 0.094491491786065696 0 -0.34763839367566191 0.079069075487607554 0 -0.36858415035949882 0.094491491786065696 0 -0.35198293914272999 0.094145145766245733 0 -0.34456144318064219 0.08667329674911145 0 -0.34763839367566191 0.079069075487607554 0 -0.35198293914272999 0.094145145766245733 0 -0.34456144318064219 0.08667329674911145 0 -0.35198293914272999 0.094145145766245733 0 -0.34431035454597703 0.093789606507308373 0 -0.34456144318064219 0.08667329674911145 0 -0.34763839367566191 0.079069075487607554 0 -0.34179116264722731 0.080399472229040897 0 -0.3782625711058698 0.101617738696854 0 -0.37470600383380392 0.082961959162170973 0 -0.36858415035949882 0.094491491786065696 0 -0.34763839367566191 0.079069075487607554 0 -0.36912013352382872 0.080861301107253064 0 -0.36858415035949882 0.094491491786065696 0 -0.36926886504626422 0.077079019973005369 0 -0.37079498002478778 0.078498176574577722 0 -0.36912013352382872 0.080861301107253064 0 -0.36926886504626422 0.077079019973005369 0 -0.36912013352382872 0.080861301107253064 0 -0.36912013352382872 0.080861301107253064 0 -0.37470600383380392 0.082961959162170973 0 -0.37079498002478778 0.078498176574577722 0 -0.36912013352382872 0.080861301107253064 0 -0.37470600383380392 0.082961959162170973 0 -0.36912013352382872 0.080861301107253064 0 -0.37470600383380392 0.082961959162170973 0 -0.36858415035949882 0.094491491786065696 0 -0.36912013352382872 0.080861301107253064 0 -0.36858415035949882 0.094491491786065696 0 -0.36858415035949882 0.094491491786065696 0 -0.36747352968705388 0.12273486311700831 0 -0.3782625711058698 0.101617738696854 0 -0.36858415035949882 0.094491491786065696 0 -0.36858415035949882 0.094491491786065696 0 -0.36006702585218792 0.10838608290929221 0 -0.35198293914272999 0.094145145766245733 0 -0.36858415035949882 0.094491491786065696 0 -0.36006702585218792 0.10838608290929221 0 -0.36747352968705388 0.12273486311700831 0 -0.3782625711058698 0.101617738696854 0 -0.36858415035949882 0.094491491786065696 0 -0.36747352968705388 0.12273486311700831 0 -0.36006702585218792 0.10838608290929221 0 -0.36747352968705388 0.12273486311700831 0 -0.35832203275528268 0.1183511860346923 0 -0.35528769071996391 0.12689780186549679 0 -0.36747352968705388 0.12273486311700831 0 -0.35832203275528268 0.1183511860346923 0 -0.35528769071996391 0.12689780186549679 0 -0.35832203275528268 0.1183511860346923 0 -0.35045988476192508 0.115385996246972 0 -0.36006702585218792 0.10838608290929221 0 -0.35832203275528268 0.1183511860346923 0 -0.35045988476192508 0.115385996246972 0 -0.35045988476192508 0.115385996246972 0 -0.34547580274860562 0.10394098399483009 0 -0.33570271963636877 0.11206429961599181 0 -0.35528769071996391 0.12689780186549679 0 -0.35045988476192508 0.115385996246972 0 -0.34115039425197219 0.12498493974687711 0 -0.36006702585218792 0.10838608290929221 0 -0.35198293914272999 0.094145145766245733 0 -0.34547580274860562 0.10394098399483009 0 -0.36006702585218792 0.10838608290929221 0 -0.35045988476192508 0.115385996246972 0 -0.34547580274860562 0.10394098399483009 0 -0.35198293914272999 0.094145145766245733 0 -0.34547580274860562 0.10394098399483009 0 -0.34431035454597703 0.093789606507308373 0 -0.34547580274860562 0.10394098399483009 0 -0.34431035454597703 0.093789606507308373 0 -0.335413749579693 0.097286071719103154 0 -0.34547580274860562 0.10394098399483009 0 -0.335413749579693 0.097286071719103154 0 -0.33570271963636877 0.11206429961599181 0 -0.335413749579693 0.097286071719103154 0 -0.33570271963636877 0.11206429961599181 0 -0.32444247844199348 0.1047035033472971 0 -0.35045988476192508 0.115385996246972 0 -0.34115039425197219 0.12498493974687711 0 -0.33570271963636877 0.11206429961599181 0 -0.32917568526667751 0.12578156900391591 0 -0.33570271963636877 0.11206429961599181 0 -0.32114709127587232 0.11611322513389059 0 -0.32917568526667751 0.12578156900391591 0 -0.34115039425197219 0.12498493974687711 0 -0.33570271963636877 0.11206429961599181 0 -0.31354631638020197 0.13395604467094269 0 -0.30549209578720232 0.10774456093924389 0 -0.32114709127587232 0.11611322513389059 0 -0.30549209578720232 0.10774456093924389 0 -0.32114709127587232 0.11611322513389059 0 -0.32444247844199348 0.1047035033472971 0 -0.33570271963636877 0.11206429961599181 0 -0.32114709127587232 0.11611322513389059 0 -0.32444247844199348 0.1047035033472971 0 -0.30549209578720232 0.10774456093924389 0 -0.32444247844199348 0.1047035033472971 0 -0.32445673593083119 0.090309359328255762 0 -0.30549209578720232 0.10774456093924389 0 -0.32445673593083119 0.090309359328255762 0 -0.31312795334666071 0.083579729522452809 0 -0.335413749579693 0.097286071719103154 0 -0.32444247844199348 0.1047035033472971 0 -0.32445673593083119 0.090309359328255762 0 -0.32445673593083119 0.090309359328255762 0 -0.3275606083710243 0.080211281293741998 0 -0.31312795334666071 0.083579729522452809 0 -0.3275606083710243 0.080211281293741998 0 -0.31312795334666071 0.083579729522452809 0 -0.31976082328641481 0.073112182403608325 0 -0.30931237829482389 0.073252958087475881 0 -0.31312795334666071 0.083579729522452809 0 -0.31976082328641481 0.073112182403608325 0 -0.30931237829482389 0.073252958087475881 0 -0.31697319293959142 0.061410437985649477 0 -0.31976082328641481 0.073112182403608325 0 -0.31697319293959142 0.061410437985649477 0 -0.31976082328641481 0.073112182403608325 0 -0.32886731949388731 0.069155273298144179 0 -0.31697319293959142 0.061410437985649477 0 -0.32808937753058609 0.059947696530402161 0 -0.32886731949388731 0.069155273298144179 0 -0.3275606083710243 0.080211281293741998 0 -0.31976082328641481 0.073112182403608325 0 -0.32886731949388731 0.069155273298144179 0 -0.32886731949388731 0.069155273298144179 0 -0.33770721458858299 0.069047958238937293 0 -0.336378655355973 0.076693290193422539 0 -0.3275606083710243 0.080211281293741998 0 -0.32886731949388731 0.069155273298144179 0 -0.336378655355973 0.076693290193422539 0 -0.33440717105718593 0.063083878638897639 0 -0.32886731949388731 0.069155273298144179 0 -0.33770721458858299 0.069047958238937293 0 -0.32808937753058609 0.059947696530402161 0 -0.33440717105718593 0.063083878638897639 0 -0.32886731949388731 0.069155273298144179 0 -0.3407399656121517 0.06083029771636933 0 -0.33440717105718593 0.063083878638897639 0 -0.33770721458858299 0.069047958238937293 0 -0.3407399656121517 0.06083029771636933 0 -0.3447014191436914 0.063951910484466787 0 -0.33770721458858299 0.069047958238937293 0 -0.34551673285671652 0.071984855543133663 0 -0.3447014191436914 0.063951910484466787 0 -0.33770721458858299 0.069047958238937293 0 -0.34408269824063842 0.074738747125954852 0 -0.33770721458858299 0.069047958238937293 0 -0.336378655355973 0.076693290193422539 0 -0.34408269824063842 0.074738747125954852 0 -0.34551673285671652 0.071984855543133663 0 -0.33770721458858299 0.069047958238937293 0 -0.34551673285671652 0.071984855543133663 0 -0.33770721458858299 0.069047958238937293 0 -0.34408269824063842 0.074738747125954852 0 -0.336378655355973 0.076693290193422539 0 -0.34179116264722731 0.080399472229040897 0 -0.336378655355973 0.076693290193422539 0 -0.34179116264722731 0.080399472229040897 0 -0.33708436589161489 0.085963183755354639 0 -0.34456144318064219 0.08667329674911145 0 -0.34179116264722731 0.080399472229040897 0 -0.33708436589161489 0.085963183755354639 0 -0.34456144318064219 0.08667329674911145 0 -0.34431035454597703 0.093789606507308373 0 -0.33708436589161489 0.085963183755354639 0 -0.34431035454597703 0.093789606507308373 0 -0.335413749579693 0.097286071719103154 0 -0.33708436589161489 0.085963183755354639 0 -0.335413749579693 0.097286071719103154 0 -0.32445673593083119 0.090309359328255762 0 -0.33708436589161489 0.085963183755354639 0 -0.32445673593083119 0.090309359328255762 0 -0.3275606083710243 0.080211281293741998 0 -0.33708436589161489 0.085963183755354639 0 -0.3275606083710243 0.080211281293741998 0 -0.336378655355973 0.076693290193422539 0 -0.33708436589161489 0.085963183755354639 0 -0.38891458820749281 0.47713565504117422 0 -0.42172655890518862 0.5 0 -0.3640375775585698 0.5 0 -0.38891458820749281 0.47713565504117422 0 -0.37103467036260362 0.45695891695805302 0 -0.36943712044780219 0.47475959506207249 0 -0.39694697642853649 0.45370639251272787 0 -0.37103467036260362 0.45695891695805302 0 -0.38891458820749281 0.47713565504117422 0 -0.39694697642853649 0.45370639251272787 0 -0.37103467036260362 0.45695891695805302 0 -0.38249991962136642 0.44345487931465249 0 -0.39694697642853649 0.45370639251272787 0 -0.37103467036260362 0.45695891695805302 0 -0.38249991962136642 0.44345487931465249 0 -0.39694697642853649 0.45370639251272787 0 -0.40464661760035381 0.43350824459614162 0 -0.38891458820749281 0.47713565504117422 0 -0.39694697642853649 0.45370639251272787 0 -0.41631826774707797 0.4711213942969617 0 -0.39694697642853649 0.45370639251272787 0 -0.42285928249446952 0.45045386806740279 0 -0.41631826774707797 0.4711213942969617 0 -0.42285928249446952 0.45045386806740279 0 -0.42501824733507809 0.43459816807542118 0 -0.40464661760035381 0.43350824459614162 0 -0.39694697642853649 0.45370639251272787 0 -0.42285928249446952 0.45045386806740279 0 -0.39694697642853649 0.45370639251272787 0 -0.42285928249446952 0.45045386806740279 0 -0.40464661760035381 0.43350824459614162 0 -0.42285928249446952 0.45045386806740279 0 -0.43521244088076849 0.46107148678855758 0 -0.44877158856040261 0.44720134362207808 0 -0.42285928249446952 0.45045386806740279 0 -0.44877158856040261 0.44720134362207808 0 -0.42285928249446952 0.45045386806740279 0 -0.43592409671607729 0.44045812782560079 0 -0.44877158856040261 0.44720134362207808 0 -0.42285928249446952 0.45045386806740279 0 -0.43592409671607729 0.44045812782560079 0 -0.42501824733507809 0.43459816807542118 0 -0.42285928249446952 0.45045386806740279 0 -0.43521244088076849 0.46107148678855758 0 -0.41631826774707797 0.4711213942969617 0 -0.41631826774707797 0.4711213942969617 0 -0.42172655890518862 0.5 0 -0.43935827984199688 0.47473889959161758 0 -0.43521244088076849 0.46107148678855758 0 -0.41631826774707797 0.4711213942969617 0 -0.43935827984199688 0.47473889959161758 0 -0.38891458820749281 0.47713565504117422 0 -0.41631826774707797 0.4711213942969617 0 -0.42172655890518862 0.5 0 -0.42172655890518862 0.5 0 -0.43935827984199688 0.47473889959161758 0 -0.47784082473980471 0.47626967285504462 0 -0.42172655890518862 0.5 0 -0.5 0.5 0 -0.47784082473980471 0.47626967285504462 0 -0.43935827984199688 0.47473889959161758 0 -0.47784082473980471 0.47626967285504462 0 -0.4487547857598953 0.46184192836472759 0 -0.5 0.5 0 -0.47784082473980471 0.47626967285504462 0 -0.49999999999999589 0.44077113011354369 0 -0.47784082473980471 0.47626967285504462 0 -0.47438579428019922 0.44398623686781052 0 -0.4627013265822788 0.4545376326069438 0 -0.47784082473980471 0.47626967285504462 0 -0.49999999999999589 0.44077113011354369 0 -0.47438579428019922 0.44398623686781052 0 -0.49999999999999589 0.44077113011354369 0 -0.47438579428019922 0.44398623686781052 0 -0.48180565015534738 0.42787197640755792 0 -0.49999999999999589 0.44077113011354369 0 -0.47438579428019922 0.44398623686781052 0 -0.47438579428019922 0.44398623686781052 0 -0.4627013265822788 0.4545376326069438 0 -0.44877158856040261 0.44720134362207808 0 -0.47438579428019922 0.44398623686781052 0 -0.44877158856040261 0.44720134362207808 0 -0.47438579428019922 0.44398623686781052 0 -0.44877158856040261 0.44720134362207808 0 -0.46289485375526918 0.43579199928955081 0 -0.44877158856040261 0.44720134362207808 0 -0.44878504691792248 0.43547483269414872 0 -0.46289485375526918 0.43579199928955081 0 -0.47784082473980471 0.47626967285504462 0 -0.4627013265822788 0.4545376326069438 0 -0.4487547857598953 0.46184192836472759 0 -0.4627013265822788 0.4545376326069438 0 -0.4487547857598953 0.46184192836472759 0 -0.44877158856040261 0.44720134362207808 0 -0.4487547857598953 0.46184192836472759 0 -0.44877158856040261 0.44720134362207808 0 -0.43521244088076849 0.46107148678855758 0 -0.4487547857598953 0.46184192836472759 0 -0.44877158856040261 0.44720134362207808 0 -0.43521244088076849 0.46107148678855758 0 -0.43935827984199688 0.47473889959161758 0 -0.4487547857598953 0.46184192836472759 0 -0.44877158856040261 0.44720134362207808 0 -0.44508566455651338 0.43839632914573512 0 -0.44878504691792248 0.43547483269414872 0 -0.44877158856040261 0.44720134362207808 0 -0.44878504691792248 0.43547483269414872 0 -0.43592409671607729 0.44045812782560079 0 -0.44877158856040261 0.44720134362207808 0 -0.44508566455651338 0.43839632914573512 0 -0.44531233658805403 0.42513554986162888 0 -0.44878504691792248 0.43547483269414872 0 -0.44880957839306629 0.41410011360809668 0 -0.44878504691792248 0.43547483269414872 0 -0.44880957839306629 0.41410011360809668 0 -0.43788570063392329 0.43164093021736671 0 -0.44531233658805403 0.42513554986162888 0 -0.44878504691792248 0.43547483269414872 0 -0.43592409671607729 0.44045812782560079 0 -0.44508566455651338 0.43839632914573512 0 -0.43788570063392329 0.43164093021736671 0 -0.44508566455651338 0.43839632914573512 0 -0.43788570063392329 0.43164093021736671 0 -0.44878504691792248 0.43547483269414872 0 -0.44508566455651338 0.43839632914573512 0 -0.44878504691792248 0.43547483269414872 0 -0.44531233658805403 0.42513554986162888 0 -0.44880957839306629 0.41410011360809668 0 -0.42391867717568832 0.41711337076656618 0 -0.44880957839306629 0.41410011360809668 0 -0.46585669794528167 0.42199291516666237 0 -0.4641229039382897 0.40091036417177778 0 -0.44878504691792248 0.43547483269414872 0 -0.46585669794528167 0.42199291516666237 0 -0.44878504691792248 0.43547483269414872 0 -0.44880957839306629 0.41410011360809668 0 -0.46585669794528167 0.42199291516666237 0 -0.44878504691792248 0.43547483269414872 0 -0.46585669794528167 0.42199291516666237 0 -0.46289485375526918 0.43579199928955081 0 -0.47438579428019922 0.44398623686781052 0 -0.46289485375526918 0.43579199928955081 0 -0.48180565015534738 0.42787197640755792 0 -0.46585669794528167 0.42199291516666237 0 -0.46289485375526918 0.43579199928955081 0 -0.48180565015534738 0.42787197640755792 0 -0.46585669794528167 0.42199291516666237 0 -0.48292834897264081 0.4085109976391762 0 -0.4641229039382897 0.40091036417177778 0 -0.46585669794528167 0.42199291516666237 0 -0.48292834897264081 0.4085109976391762 0 -0.46585669794528167 0.42199291516666237 0 -0.48180565015534738 0.42787197640755792 0 -0.48292834897264081 0.4085109976391762 0 -0.48292834897264081 0.4085109976391762 0 -0.5 0.41790010511261683 0 -0.5 0.39502908011169002 0 -0.48180565015534738 0.42787197640755792 0 -0.48292834897264081 0.4085109976391762 0 -0.5 0.41790010511261683 0 -0.49999999999999589 0.44077113011354369 0 -0.48180565015534738 0.42787197640755792 0 -0.5 0.41790010511261683 0 -0.48850556386005051 0.3766603246979251 0 -0.5 0.39502908011169002 0 -0.47832653283541199 0.38608194873200979 0 -0.48850556386005051 0.3766603246979251 0 -0.5 0.39502908011169002 0 -0.5 0.36887446842263683 0 -0.48292834897264081 0.4085109976391762 0 -0.5 0.39502908011169002 0 -0.47832653283541199 0.38608194873200979 0 -0.48292834897264081 0.4085109976391762 0 -0.5 0.39502908011169002 0 -0.48292834897264081 0.4085109976391762 0 -0.47832653283541199 0.38608194873200979 0 -0.4641229039382897 0.40091036417177778 0 -0.48850556386005051 0.3766603246979251 0 -0.47832653283541199 0.38608194873200979 0 -0.48259334700195489 0.36409898273387958 0 -0.47832653283541199 0.38608194873200979 0 -0.46059005399087027 0.38292215568240928 0 -0.4641229039382897 0.40091036417177778 0 -0.47832653283541199 0.38608194873200979 0 -0.46059005399087027 0.38292215568240928 0 -0.46572599417265398 0.36772482908493609 0 -0.44880957839306629 0.41410011360809668 0 -0.4641229039382897 0.40091036417177778 0 -0.44883410986820999 0.3927253945220448 0 -0.46059005399087027 0.38292215568240928 0 -0.4641229039382897 0.40091036417177778 0 -0.44883410986820999 0.3927253945220448 0 -0.44880957839306629 0.41410011360809668 0 -0.44883410986820999 0.3927253945220448 0 -0.43699833754743561 0.40294499431243458 0 -0.44880957839306629 0.41410011360809668 0 -0.44883410986820999 0.3927253945220448 0 -0.44883410986820999 0.3927253945220448 0 -0.43978391516082421 0.3912231797547942 0 -0.43699833754743561 0.40294499431243458 0 -0.44883410986820999 0.3927253945220448 0 -0.43978391516082421 0.3912231797547942 0 -0.44802713623065987 0.37645115623263098 0 -0.44883410986820999 0.3927253945220448 0 -0.44885864134335329 0.37135067543599282 0 -0.44883410986820999 0.3927253945220448 0 -0.44802713623065987 0.37645115623263098 0 -0.44885864134335329 0.37135067543599282 0 -0.43978391516082421 0.3912231797547942 0 -0.44802713623065987 0.37645115623263098 0 -0.42527607699699133 0.39277117395206662 0 -0.46059005399087027 0.38292215568240928 0 -0.44883410986820999 0.3927253945220448 0 -0.44885864134335329 0.37135067543599282 0 -0.44802713623065987 0.37645115623263098 0 -0.4250431626101242 0.37647010748543319 0 -0.42527607699699133 0.39277117395206662 0 -0.44802713623065987 0.37645115623263098 0 -0.42527607699699133 0.39277117395206662 0 -0.4250431626101242 0.37647010748543319 0 -0.4134887672477453 0.38574914578498593 0 -0.40122768387689522 0.38158953953487368 0 -0.4250431626101242 0.37647010748543319 0 -0.40122768387689522 0.38158953953487368 0 -0.4250431626101242 0.37647010748543319 0 -0.4134887672477453 0.38574914578498593 0 -0.42527607699699133 0.39277117395206662 0 -0.4250431626101242 0.37647010748543319 0 -0.40122768387689522 0.38158953953487368 0 -0.40086489287733429 0.37467411733839928 0 -0.4134887672477453 0.38574914578498593 0 -0.40798835104355652 0.39359067917546098 0 -0.40557429982823212 0.38794008425198068 0 -0.4134887672477453 0.38574914578498593 0 -0.40122768387689522 0.38158953953487368 0 -0.40557429982823212 0.38794008425198068 0 -0.40798835104355652 0.39359067917546098 0 -0.42527607699699133 0.39277117395206662 0 -0.40252501776332311 0.40909119167150271 0 -0.42527607699699133 0.39277117395206662 0 -0.40252501776332311 0.40909119167150271 0 -0.4134887672477453 0.38574914578498593 0 -0.40798835104355652 0.39359067917546098 0 -0.42527607699699133 0.39277117395206662 0 -0.42527607699699133 0.39277117395206662 0 -0.43699833754743561 0.40294499431243458 0 -0.42391867717568832 0.41711337076656618 0 -0.43978391516082421 0.3912231797547942 0 -0.42527607699699133 0.39277117395206662 0 -0.43699833754743561 0.40294499431243458 0 -0.44880957839306629 0.41410011360809668 0 -0.43699833754743561 0.40294499431243458 0 -0.42391867717568832 0.41711337076656618 0 -0.44531233658805403 0.42513554986162888 0 -0.42391867717568832 0.41711337076656618 0 -0.43788570063392329 0.43164093021736671 0 -0.44531233658805403 0.42513554986162888 0 -0.42391867717568832 0.41711337076656618 0 -0.43788570063392329 0.43164093021736671 0 -0.42391867717568832 0.41711337076656618 0 -0.42501824733507809 0.43459816807542118 0 -0.43592409671607729 0.44045812782560079 0 -0.43788570063392329 0.43164093021736671 0 -0.42501824733507809 0.43459816807542118 0 -0.42391867717568832 0.41711337076656618 0 -0.42501824733507809 0.43459816807542118 0 -0.40464661760035381 0.43350824459614162 0 -0.42527607699699133 0.39277117395206662 0 -0.42391867717568832 0.41711337076656618 0 -0.40252501776332311 0.40909119167150271 0 -0.42391867717568832 0.41711337076656618 0 -0.40252501776332311 0.40909119167150271 0 -0.40464661760035381 0.43350824459614162 0 -0.42391867717568832 0.41711337076656618 0 -0.40252501776332311 0.40909119167150271 0 -0.40252501776332311 0.40909119167150271 0 -0.37875820238401509 0.42613984176471847 0 -0.40252501776332311 0.40909119167150271 0 -0.40464661760035381 0.43350824459614162 0 -0.37875820238401509 0.42613984176471847 0 -0.38249991962136642 0.44345487931465249 0 -0.40464661760035381 0.43350824459614162 0 -0.37875820238401509 0.42613984176471847 0 -0.40252501776332311 0.40909119167150271 0 -0.37875820238401509 0.42613984176471847 0 -0.37769092578324193 0.39977892163450779 0 -0.37769092578324193 0.39977892163450779 0 -0.38963770449155072 0.39285491215608792 0 -0.37686086334024771 0.38257038446795849 0 -0.40252501776332311 0.40909119167150271 0 -0.37769092578324193 0.39977892163450779 0 -0.38963770449155072 0.39285491215608792 0 -0.40252501776332311 0.40909119167150271 0 -0.37769092578324193 0.39977892163450779 0 -0.37686086334024771 0.38257038446795849 0 -0.39363670834615189 0.38450398520198442 0 -0.40086489287733429 0.37467411733839928 0 -0.38963770449155072 0.39285491215608792 0 -0.37686086334024771 0.38257038446795849 0 -0.39363670834615189 0.38450398520198442 0 -0.37686086334024771 0.38257038446795849 0 -0.40086489287733429 0.37467411733839928 0 -0.37686086334024771 0.38257038446795849 0 -0.40086489287733429 0.37467411733839928 0 -0.39033592763893787 0.37070590072739279 0 -0.39363670834615189 0.38450398520198442 0 -0.40122768387689522 0.38158953953487368 0 -0.39959239714473138 0.39083097251260251 0 -0.38963770449155072 0.39285491215608792 0 -0.39363670834615189 0.38450398520198442 0 -0.39959239714473138 0.39083097251260251 0 -0.39363670834615189 0.38450398520198442 0 -0.40122768387689522 0.38158953953487368 0 -0.40086489287733429 0.37467411733839928 0 -0.40122768387689522 0.38158953953487368 0 -0.40557429982823212 0.38794008425198068 0 -0.39959239714473138 0.39083097251260251 0 -0.40798835104355652 0.39359067917546098 0 -0.40557429982823212 0.38794008425198068 0 -0.39959239714473138 0.39083097251260251 0 -0.40252501776332311 0.40909119167150271 0 -0.38963770449155072 0.39285491215608792 0 -0.39959239714473138 0.39083097251260251 0 -0.40798835104355652 0.39359067917546098 0 -0.40252501776332311 0.40909119167150271 0 -0.39959239714473138 0.39083097251260251 0 -0.3926828114571661 0.35541775914535301 0 -0.40105078960399698 0.34662517948293931 0 -0.40586906590548888 0.3393029225754271 0 -0.3926828114571661 0.35541775914535301 0 -0.39400561065841477 0.34382680172727831 0 -0.40586906590548888 0.3393029225754271 0 -0.3926828114571661 0.35541775914535301 0 -0.40586906590548888 0.3393029225754271 0 -0.3926828114571661 0.35541775914535301 0 -0.39969836615416421 0.35756427730283669 0 -0.39341808057325789 0.36431669671432632 0 -0.3926828114571661 0.35541775914535301 0 -0.40105078960399698 0.34662517948293931 0 -0.39969836615416421 0.35756427730283669 0 -0.3926828114571661 0.35541775914535301 0 -0.39400561065841477 0.34382680172727831 0 -0.38539473684528258 0.34837828204789067 0 -0.40105078960399698 0.34662517948293931 0 -0.40525205349158999 0.35429039595711992 0 -0.40888688292129022 0.34941903462410451 0 -0.40105078960399698 0.34662517948293931 0 -0.4080564418273247 0.34368885170405422 0 -0.40888688292129022 0.34941903462410451 0 -0.40105078960399698 0.34662517948293931 0 -0.40525205349158999 0.35429039595711992 0 -0.39969836615416421 0.35756427730283669 0 -0.40525205349158999 0.35429039595711992 0 -0.39969836615416421 0.35756427730283669 0 -0.40553625032349627 0.36037170931698131 0 -0.40553625032349627 0.36037170931698131 0 -0.40544017780568847 0.3661562974108753 0 -0.40025021147547779 0.36436392320030081 0 -0.40544017780568847 0.3661562974108753 0 -0.40025021147547779 0.36436392320030081 0 -0.397742957241214 0.36844985128713797 0 -0.39969836615416421 0.35756427730283669 0 -0.40553625032349627 0.36037170931698131 0 -0.40025021147547779 0.36436392320030081 0 -0.40544017780568847 0.3661562974108753 0 -0.40086489287733429 0.37467411733839928 0 -0.397742957241214 0.36844985128713797 0 -0.40086489287733429 0.37467411733839928 0 -0.397742957241214 0.36844985128713797 0 -0.39033592763893787 0.37070590072739279 0 -0.397742957241214 0.36844985128713797 0 -0.39341808057325789 0.36431669671432632 0 -0.39033592763893787 0.37070590072739279 0 -0.39969836615416421 0.35756427730283669 0 -0.40025021147547779 0.36436392320030081 0 -0.39341808057325789 0.36431669671432632 0 -0.40025021147547779 0.36436392320030081 0 -0.397742957241214 0.36844985128713797 0 -0.39341808057325789 0.36431669671432632 0 -0.3926828114571661 0.35541775914535301 0 -0.39341808057325789 0.36431669671432632 0 -0.37949655700884349 0.37153259571527891 0 -0.37949655700884349 0.37153259571527891 0 -0.37823932191431281 0.35548757599615399 0 -0.37024808467873749 0.36543132639488701 0 -0.3926828114571661 0.35541775914535301 0 -0.37949655700884349 0.37153259571527891 0 -0.37823932191431281 0.35548757599615399 0 -0.3926828114571661 0.35541775914535301 0 -0.37949655700884349 0.37153259571527891 0 -0.39341808057325789 0.36431669671432632 0 -0.39033592763893787 0.37070590072739279 0 -0.37949655700884349 0.37153259571527891 0 -0.37686086334024771 0.38257038446795849 0 -0.39033592763893787 0.37070590072739279 0 -0.37949655700884349 0.37153259571527891 0 -0.37823932191431281 0.35548757599615399 0 -0.38539473684528258 0.34837828204789067 0 -0.3787015959315434 0.33902802614693439 0 -0.3926828114571661 0.35541775914535301 0 -0.37823932191431281 0.35548757599615399 0 -0.38539473684528258 0.34837828204789067 0 -0.3787015959315434 0.33902802614693439 0 -0.37816355277066899 0.32985684687273281 0 -0.39158393304450312 0.32769252248945308 0 -0.39400561065841477 0.34382680172727831 0 -0.38539473684528258 0.34837828204789067 0 -0.3787015959315434 0.33902802614693439 0 -0.39158393304450312 0.32769252248945308 0 -0.37442838800096029 0.32044424157556423 0 -0.37816355277066899 0.32985684687273281 0 -0.39158393304450312 0.32769252248945308 0 -0.37442838800096029 0.32044424157556423 0 -0.38613629988198012 0.31665983269396758 0 -0.39158393304450312 0.32769252248945308 0 -0.37442838800096029 0.32044424157556423 0 -0.38613629988198012 0.31665983269396758 0 -0.37442838800096029 0.32044424157556423 0 -0.37415321332832258 0.31386652142517069 0 -0.39158393304450312 0.32769252248945308 0 -0.4039094095666334 0.320812311378052 0 -0.40925887999808552 0.33516025262174892 0 -0.38613629988198012 0.31665983269396758 0 -0.39830358576524327 0.31266849694114901 0 -0.39158393304450312 0.32769252248945308 0 -0.39830358576524327 0.31266849694114901 0 -0.39158393304450312 0.32769252248945308 0 -0.4039094095666334 0.320812311378052 0 -0.39830358576524327 0.31266849694114901 0 -0.4039094095666334 0.320812311378052 0 -0.40826549608127172 0.31275764886218971 0 -0.3787015959315434 0.33902802614693439 0 -0.40777024278950652 0.33697950655941222 0 -0.39158393304450312 0.32769252248945308 0 -0.40925887999808552 0.33516025262174892 0 -0.39158393304450312 0.32769252248945308 0 -0.40777024278950652 0.33697950655941222 0 -0.40925887999808552 0.33516025262174892 0 -0.3787015959315434 0.33902802614693439 0 -0.39158393304450312 0.32769252248945308 0 -0.40777024278950652 0.33697950655941222 0 -0.39400561065841477 0.34382680172727831 0 -0.3787015959315434 0.33902802614693439 0 -0.40777024278950652 0.33697950655941222 0 -0.39400561065841477 0.34382680172727831 0 -0.40586906590548888 0.3393029225754271 0 -0.40777024278950652 0.33697950655941222 0 -0.40105078960399698 0.34662517948293931 0 -0.40586906590548888 0.3393029225754271 0 -0.40105078960399698 0.34662517948293931 0 -0.40586906590548888 0.3393029225754271 0 -0.4080564418273247 0.34368885170405422 0 -0.4080564418273247 0.34368885170405422 0 -0.41125860555200922 0.34134685969384471 0 -0.40895905381070002 0.33957121871677393 0 -0.40586906590548888 0.3393029225754271 0 -0.4080564418273247 0.34368885170405422 0 -0.40895905381070002 0.33957121871677393 0 -0.4080564418273247 0.34368885170405422 0 -0.41125860555200922 0.34134685969384471 0 -0.41366919887348358 0.34576378073699821 0 -0.41125860555200922 0.34134685969384471 0 -0.41273643032526569 0.33662953043248711 0 -0.41433336845197538 0.3415594658204692 0 -0.41125860555200922 0.34134685969384471 0 -0.41433336845197538 0.3415594658204692 0 -0.41366919887348358 0.34576378073699821 0 -0.41125860555200922 0.34134685969384471 0 -0.41273643032526569 0.33662953043248711 0 -0.40895905381070002 0.33957121871677393 0 -0.41273643032526569 0.33662953043248711 0 -0.40777024278950652 0.33697950655941222 0 -0.41273643032526569 0.33662953043248711 0 -0.40895905381070002 0.33957121871677393 0 -0.40777024278950652 0.33697950655941222 0 -0.41273643032526569 0.33662953043248711 0 -0.40777024278950652 0.33697950655941222 0 -0.40925887999808552 0.33516025262174892 0 -0.40777024278950652 0.33697950655941222 0 -0.40925887999808552 0.33516025262174892 0 -0.40586906590548888 0.3393029225754271 0 -0.40895905381070002 0.33957121871677393 0 -0.40777024278950652 0.33697950655941222 0 -0.40586906590548888 0.3393029225754271 0 -0.40777024278950652 0.33697950655941222 0 -0.41273643032526569 0.33662953043248711 0 -0.40925887999808552 0.33516025262174892 0 -0.40925887999808552 0.33516025262174892 0 -0.42024067891477529 0.32173946694831868 0 -0.40925887999808552 0.33516025262174892 0 -0.42071708592719742 0.33131558094746122 0 -0.42024067891477529 0.32173946694831868 0 -0.41273643032526569 0.33662953043248711 0 -0.40925887999808552 0.33516025262174892 0 -0.42071708592719742 0.33131558094746122 0 -0.41273643032526569 0.33662953043248711 0 -0.4199209072431685 0.34318781838679219 0 -0.41433336845197538 0.3415594658204692 0 -0.4199209072431685 0.34318781838679219 0 -0.41433336845197538 0.3415594658204692 0 -0.41366919887348358 0.34576378073699821 0 -0.40925887999808552 0.33516025262174892 0 -0.41892768793075841 0.31754462100172592 0 -0.42141481873501418 0.31567829233095179 0 -0.40925887999808552 0.33516025262174892 0 -0.411263050936583 0.31954773430139438 0 -0.41892768793075841 0.31754462100172592 0 -0.40925887999808552 0.33516025262174892 0 -0.42141481873501418 0.31567829233095179 0 -0.40925887999808552 0.33516025262174892 0 -0.42024067891477529 0.32173946694831868 0 -0.42141481873501418 0.31567829233095179 0 -0.411263050936583 0.31954773430139438 0 -0.40826549608127172 0.31275764886218971 0 -0.41647318301620623 0.31168328686166002 0 -0.4039094095666334 0.320812311378052 0 -0.411263050936583 0.31954773430139438 0 -0.40826549608127172 0.31275764886218971 0 -0.4039094095666334 0.320812311378052 0 -0.40925887999808552 0.33516025262174892 0 -0.411263050936583 0.31954773430139438 0 -0.411263050936583 0.31954773430139438 0 -0.41892768793075841 0.31754462100172592 0 -0.41647318301620623 0.31168328686166002 0 -0.41892768793075841 0.31754462100172592 0 -0.42141481873501418 0.31567829233095179 0 -0.41892768793075841 0.31754462100172592 0 -0.42141481873501418 0.31567829233095179 0 -0.41647318301620623 0.31168328686166002 0 -0.42024067891477529 0.32173946694831868 0 -0.43790895006943947 0.32081412042189511 0 -0.43122247783146522 0.30831868127488848 0 -0.42024067891477529 0.32173946694831868 0 -0.42938605365092247 0.3272194948190838 0 -0.43790895006943947 0.32081412042189511 0 -0.42024067891477529 0.32173946694831868 0 -0.42141481873501418 0.31567829233095179 0 -0.43122247783146522 0.30831868127488848 0 -0.42024067891477529 0.32173946694831868 0 -0.43122247783146522 0.30831868127488848 0 -0.42071708592719742 0.33131558094746122 0 -0.42024067891477529 0.32173946694831868 0 -0.42938605365092247 0.3272194948190838 0 -0.42938605365092247 0.3272194948190838 0 -0.43674098495811231 0.33493788649063261 0 -0.43790895006943947 0.32081412042189511 0 -0.43790895006943947 0.32081412042189511 0 -0.4401847358662575 0.3127477530096977 0 -0.43122247783146522 0.30831868127488848 0 -0.41273643032526569 0.33662953043248711 0 -0.43674098495811231 0.33493788649063261 0 -0.42071708592719742 0.33131558094746122 0 -0.42938605365092247 0.3272194948190838 0 -0.43674098495811231 0.33493788649063261 0 -0.41273643032526569 0.33662953043248711 0 -0.4199209072431685 0.34318781838679219 0 -0.43385085243219867 0.34555045147446217 0 -0.41273643032526569 0.33662953043248711 0 -0.42071708592719742 0.33131558094746122 0 -0.43674098495811231 0.33493788649063261 0 -0.41273643032526569 0.33662953043248711 0 -0.43385085243219867 0.34555045147446217 0 -0.41273643032526569 0.33662953043248711 0 -0.43674098495811231 0.33493788649063261 0 -0.43385085243219867 0.34555045147446217 0 -0.43385085243219867 0.34555045147446217 0 -0.4302486007270056 0.35272204188882378 0 -0.42573384958437638 0.34916959158482058 0 -0.43385085243219867 0.34555045147446217 0 -0.43539550265875948 0.35741731211322858 0 -0.44110397924445488 0.35756373905142852 0 -0.43539550265875948 0.35741731211322858 0 -0.4302486007270056 0.35272204188882378 0 -0.42757171946388478 0.35850981688022993 0 -0.43385085243219867 0.34555045147446217 0 -0.43539550265875948 0.35741731211322858 0 -0.4302486007270056 0.35272204188882378 0 -0.4302486007270056 0.35272204188882378 0 -0.42480748600639012 0.35482075793933809 0 -0.42573384958437638 0.34916959158482058 0 -0.4302486007270056 0.35272204188882378 0 -0.42757171946388478 0.35850981688022993 0 -0.42480748600639012 0.35482075793933809 0 -0.42757171946388478 0.35850981688022993 0 -0.42480748600639012 0.35482075793933809 0 -0.42195212413097077 0.36043988011418487 0 -0.4199209072431685 0.34318781838679219 0 -0.43385085243219867 0.34555045147446217 0 -0.42573384958437638 0.34916959158482058 0 -0.42480748600639012 0.35482075793933809 0 -0.42573384958437638 0.34916959158482058 0 -0.41984140151311927 0.3495668882346864 0 -0.4199209072431685 0.34318781838679219 0 -0.42573384958437638 0.34916959158482058 0 -0.41984140151311927 0.3495668882346864 0 -0.4199209072431685 0.34318781838679219 0 -0.41984140151311927 0.3495668882346864 0 -0.41366919887348358 0.34576378073699821 0 -0.41984140151311927 0.3495668882346864 0 -0.41366919887348358 0.34576378073699821 0 -0.41404230344944593 0.35073751764187411 0 -0.42480748600639012 0.35482075793933809 0 -0.41984140151311927 0.3495668882346864 0 -0.41755863725870102 0.35684421707679032 0 -0.42480748600639012 0.35482075793933809 0 -0.41755863725870102 0.35684421707679032 0 -0.42195212413097077 0.36043988011418487 0 -0.41984140151311927 0.3495668882346864 0 -0.41755863725870102 0.35684421707679032 0 -0.41404230344944593 0.35073751764187411 0 -0.41755863725870102 0.35684421707679032 0 -0.41125051028190041 0.35540848222164118 0 -0.41404230344944593 0.35073751764187411 0 -0.41125051028190041 0.35540848222164118 0 -0.40888688292129022 0.34941903462410451 0 -0.41404230344944593 0.35073751764187411 0 -0.41755863725870102 0.35684421707679032 0 -0.41125051028190041 0.35540848222164118 0 -0.41142088061722581 0.36176204086772412 0 -0.40553625032349627 0.36037170931698131 0 -0.41125051028190041 0.35540848222164118 0 -0.41142088061722581 0.36176204086772412 0 -0.40525205349158999 0.35429039595711992 0 -0.40553625032349627 0.36037170931698131 0 -0.41125051028190041 0.35540848222164118 0 -0.40525205349158999 0.35429039595711992 0 -0.41125051028190041 0.35540848222164118 0 -0.40888688292129022 0.34941903462410451 0 -0.4080564418273247 0.34368885170405422 0 -0.40888688292129022 0.34941903462410451 0 -0.41366919887348358 0.34576378073699821 0 -0.40888688292129022 0.34941903462410451 0 -0.41366919887348358 0.34576378073699821 0 -0.41404230344944593 0.35073751764187411 0 -0.4250431626101242 0.37647010748543319 0 -0.40086489287733429 0.37467411733839928 0 -0.42486892241442098 0.36677785020884007 0 -0.40086489287733429 0.37467411733839928 0 -0.42486892241442098 0.36677785020884007 0 -0.40086489287733429 0.37467411733839928 0 -0.41378193274770297 0.36450427419225789 0 -0.42486892241442098 0.36677785020884007 0 -0.40544017780568847 0.3661562974108753 0 -0.40086489287733429 0.37467411733839928 0 -0.41378193274770297 0.36450427419225789 0 -0.40544017780568847 0.3661562974108753 0 -0.41142088061722581 0.36176204086772412 0 -0.41378193274770297 0.36450427419225789 0 -0.40553625032349627 0.36037170931698131 0 -0.40544017780568847 0.3661562974108753 0 -0.41142088061722581 0.36176204086772412 0 -0.41755863725870102 0.35684421707679032 0 -0.41378193274770297 0.36450427419225789 0 -0.42195212413097077 0.36043988011418487 0 -0.41378193274770297 0.36450427419225789 0 -0.42486892241442098 0.36677785020884007 0 -0.42195212413097077 0.36043988011418487 0 -0.41755863725870102 0.35684421707679032 0 -0.41142088061722581 0.36176204086772412 0 -0.41378193274770297 0.36450427419225789 0 -0.4250431626101242 0.37647010748543319 0 -0.44885864134335329 0.37135067543599282 0 -0.4250431626101242 0.37647010748543319 0 -0.42486892241442098 0.36677785020884007 0 -0.44885864134335329 0.37135067543599282 0 -0.42486892241442098 0.36677785020884007 0 -0.448872951951507 0.35888158307927881 0 -0.43539550265875948 0.35741731211322858 0 -0.42486892241442098 0.36677785020884007 0 -0.44110397924445488 0.35756373905142852 0 -0.43539550265875948 0.35741731211322858 0 -0.42757171946388478 0.35850981688022993 0 -0.42486892241442098 0.36677785020884007 0 -0.42757171946388478 0.35850981688022993 0 -0.42486892241442098 0.36677785020884007 0 -0.42195212413097077 0.36043988011418487 0 -0.42486892241442098 0.36677785020884007 0 -0.44885864134335329 0.37135067543599282 0 -0.448872951951507 0.35888158307927881 0 -0.44802713623065987 0.37645115623263098 0 -0.4250431626101242 0.37647010748543319 0 -0.44885864134335329 0.37135067543599282 0 -0.42486892241442098 0.36677785020884007 0 -0.44110397924445488 0.35756373905142852 0 -0.448872951951507 0.35888158307927881 0 -0.44885864134335329 0.37135067543599282 0 -0.448872951951507 0.35888158307927881 0 -0.44885864134335329 0.37135067543599282 0 -0.448872951951507 0.35888158307927881 0 -0.45634368000688869 0.36512471152292858 0 -0.43385085243219867 0.34555045147446217 0 -0.45496527453913199 0.35447137251643651 0 -0.44889299330712729 0.34242966823447613 0 -0.43385085243219867 0.34555045147446217 0 -0.45496527453913199 0.35447137251643651 0 -0.43385085243219867 0.34555045147446217 0 -0.44887533288597797 0.35680703170406669 0 -0.45496527453913199 0.35447137251643651 0 -0.43385085243219867 0.34555045147446217 0 -0.44110397924445488 0.35756373905142852 0 -0.44887533288597797 0.35680703170406669 0 -0.44110397924445488 0.35756373905142852 0 -0.44887533288597797 0.35680703170406669 0 -0.448872951951507 0.35888158307927881 0 -0.44887533288597797 0.35680703170406669 0 -0.448872951951507 0.35888158307927881 0 -0.44887533288597797 0.35680703170406669 0 -0.448872951951507 0.35888158307927881 0 -0.45496527453913199 0.35447137251643651 0 -0.448872951951507 0.35888158307927881 0 -0.45496527453913199 0.35447137251643651 0 -0.47186707529616939 0.3513175305497272 0 -0.448872951951507 0.35888158307927881 0 -0.47186707529616939 0.3513175305497272 0 -0.448872951951507 0.35888158307927881 0 -0.45634368000688869 0.36512471152292858 0 -0.47186707529616939 0.3513175305497272 0 -0.45911772068334677 0.34536620346235469 0 -0.45496527453913199 0.35447137251643651 0 -0.47186707529616939 0.3513175305497272 0 -0.45911772068334677 0.34536620346235469 0 -0.45496527453913199 0.35447137251643651 0 -0.44889299330712729 0.34242966823447613 0 -0.46572599417265398 0.36772482908493609 0 -0.45634368000688869 0.36512471152292858 0 -0.47186707529616939 0.3513175305497272 0 -0.46059005399087027 0.38292215568240928 0 -0.44885864134335329 0.37135067543599282 0 -0.46572599417265398 0.36772482908493609 0 -0.44885864134335329 0.37135067543599282 0 -0.46572599417265398 0.36772482908493609 0 -0.44885864134335329 0.37135067543599282 0 -0.46572599417265398 0.36772482908493609 0 -0.45634368000688869 0.36512471152292858 0 -0.47832653283541199 0.38608194873200979 0 -0.46572599417265398 0.36772482908493609 0 -0.48259334700195489 0.36409898273387958 0 -0.46572599417265398 0.36772482908493609 0 -0.48259334700195489 0.36409898273387958 0 -0.47186707529616939 0.3513175305497272 0 -0.46572599417265398 0.36772482908493609 0 -0.48259334700195489 0.36409898273387958 0 -0.47186707529616939 0.3513175305497272 0 -0.494861198640831 0.34375347802017348 0 -0.47186707529616939 0.3513175305497272 0 -0.48536711719674469 0.35339641184703091 0 -0.494861198640831 0.34375347802017348 0 -0.48259334700195489 0.36409898273387958 0 -0.47186707529616939 0.3513175305497272 0 -0.48536711719674469 0.35339641184703091 0 -0.48259334700195489 0.36409898273387958 0 -0.49214684784802371 0.35441565608434311 0 -0.48536711719674469 0.35339641184703091 0 -0.49214684784802371 0.35441565608434311 0 -0.5 0.36887446842263683 0 -0.5 0.34271985673358363 0 -0.49214684784802371 0.35441565608434311 0 -0.48536711719674469 0.35339641184703091 0 -0.494861198640831 0.34375347802017348 0 -0.49214684784802371 0.35441565608434311 0 -0.494861198640831 0.34375347802017348 0 -0.5 0.34271985673358363 0 -0.48850556386005051 0.3766603246979251 0 -0.48259334700195489 0.36409898273387958 0 -0.5 0.36887446842263683 0 -0.48259334700195489 0.36409898273387958 0 -0.49214684784802371 0.35441565608434311 0 -0.5 0.36887446842263683 0 -0.485708092488497 0.3189911195031831 0 -0.5 0.31656524504453032 0 -0.48475009422380527 0.3315545986069256 0 -0.485708092488497 0.3189911195031831 0 -0.5 0.31656524504453032 0 -0.48583489694974541 0.30845327583860088 0 -0.5 0.31656524504453032 0 -0.5 0.34271985673358363 0 -0.48475009422380527 0.3315545986069256 0 -0.494861198640831 0.34375347802017348 0 -0.5 0.34271985673358363 0 -0.48475009422380527 0.3315545986069256 0 -0.48475009422380527 0.3315545986069256 0 -0.46074553959095882 0.3332462425487791 0 -0.47186707529616939 0.3513175305497272 0 -0.494861198640831 0.34375347802017348 0 -0.48475009422380527 0.3315545986069256 0 -0.47186707529616939 0.3513175305497272 0 -0.48475009422380527 0.3315545986069256 0 -0.46074553959095882 0.3332462425487791 0 -0.48475009422380527 0.3315545986069256 0 -0.47224737878043732 0.31939135852267558 0 -0.46074553959095882 0.3332462425487791 0 -0.485708092488497 0.3189911195031831 0 -0.48475009422380527 0.3315545986069256 0 -0.47224737878043732 0.31939135852267558 0 -0.485708092488497 0.3189911195031831 0 -0.47224737878043732 0.31939135852267558 0 -0.48583489694974541 0.30845327583860088 0 -0.47224737878043732 0.31939135852267558 0 -0.46258830912673421 0.31343425170936878 0 -0.46074553959095882 0.3332462425487791 0 -0.46258830912673421 0.31343425170936878 0 -0.46074553959095882 0.3332462425487791 0 -0.45107709460752138 0.31557533431346357 0 -0.45911772068334677 0.34536620346235469 0 -0.47186707529616939 0.3513175305497272 0 -0.46074553959095882 0.3332462425487791 0 -0.45911772068334677 0.34536620346235469 0 -0.46074553959095882 0.3332462425487791 0 -0.44889299330712729 0.34242966823447613 0 -0.43674098495811231 0.33493788649063261 0 -0.46074553959095882 0.3332462425487791 0 -0.43674098495811231 0.33493788649063261 0 -0.46074553959095882 0.3332462425487791 0 -0.44889299330712729 0.34242966823447613 0 -0.43674098495811231 0.33493788649063261 0 -0.46074553959095882 0.3332462425487791 0 -0.43790895006943947 0.32081412042189511 0 -0.43674098495811231 0.33493788649063261 0 -0.43385085243219867 0.34555045147446217 0 -0.44889299330712729 0.34242966823447613 0 -0.46074553959095882 0.3332462425487791 0 -0.45107709460752138 0.31557533431346357 0 -0.43790895006943947 0.32081412042189511 0 -0.45107709460752138 0.31557533431346357 0 -0.43790895006943947 0.32081412042189511 0 -0.4401847358662575 0.3127477530096977 0 -0.44444415583193408 0.29216055381020578 0 -0.43122247783146522 0.30831868127488848 0 -0.44810052680614793 0.29565349026271098 0 -0.43122247783146522 0.30831868127488848 0 -0.44368336155109173 0.30649675881006838 0 -0.44810052680614793 0.29565349026271098 0 -0.43122247783146522 0.30831868127488848 0 -0.4401847358662575 0.3127477530096977 0 -0.44368336155109173 0.30649675881006838 0 -0.43122247783146522 0.30831868127488848 0 -0.44444415583193408 0.29216055381020578 0 -0.44810052680614793 0.29565349026271098 0 -0.43122247783146522 0.30831868127488848 0 -0.45107709460752138 0.31557533431346357 0 -0.4401847358662575 0.3127477530096977 0 -0.44368336155109173 0.30649675881006838 0 -0.44368336155109173 0.30649675881006838 0 -0.44996115485610377 0.3015940899144034 0 -0.4551770389262465 0.30483297142504889 0 -0.44368336155109173 0.30649675881006838 0 -0.44996115485610377 0.3015940899144034 0 -0.44810052680614793 0.29565349026271098 0 -0.45288369214092922 0.29939313915978533 0 -0.44996115485610377 0.3015940899144034 0 -0.44810052680614793 0.29565349026271098 0 -0.45288369214092922 0.29939313915978533 0 -0.44996115485610377 0.3015940899144034 0 -0.4551770389262465 0.30483297142504889 0 -0.45107709460752138 0.31557533431346357 0 -0.44368336155109173 0.30649675881006838 0 -0.4551770389262465 0.30483297142504889 0 -0.44702735364695217 0.27675533545947301 0 -0.43422108619098299 0.29621681389521232 0 -0.44444415583193408 0.29216055381020578 0 -0.44702735364695217 0.27675533545947301 0 -0.43422108619098299 0.29621681389521232 0 -0.44702735364695217 0.27675533545947301 0 -0.43274811138672559 0.28469846643612018 0 -0.43422108619098299 0.29621681389521232 0 -0.44810052680614793 0.29565349026271098 0 -0.4493542421043164 0.28919027156790111 0 -0.45395006383388498 0.28587005882998617 0 -0.44444415583193408 0.29216055381020578 0 -0.44810052680614793 0.29565349026271098 0 -0.4493542421043164 0.28919027156790111 0 -0.44444415583193408 0.29216055381020578 0 -0.4493542421043164 0.28919027156790111 0 -0.44702735364695217 0.27675533545947301 0 -0.4493542421043164 0.28919027156790111 0 -0.45395006383388498 0.28587005882998617 0 -0.44702735364695217 0.27675533545947301 0 -0.44810052680614793 0.29565349026271098 0 -0.45395006383388498 0.28587005882998617 0 -0.46497857578083068 0.28298829925053381 0 -0.44810052680614793 0.29565349026271098 0 -0.4593999708052337 0.29480301670676529 0 -0.46497857578083068 0.28298829925053381 0 -0.44810052680614793 0.29565349026271098 0 -0.46497857578083068 0.28298829925053381 0 -0.45288369214092922 0.29939313915978533 0 -0.44810052680614793 0.29565349026271098 0 -0.4593999708052337 0.29480301670676529 0 -0.4593999708052337 0.29480301670676529 0 -0.46827174088950307 0.29409138505043392 0 -0.46497857578083068 0.28298829925053381 0 -0.46258830912673421 0.31343425170936878 0 -0.45107709460752138 0.31557533431346357 0 -0.4551770389262465 0.30483297142504889 0 -0.45288369214092922 0.29939313915978533 0 -0.4593999708052337 0.29480301670676529 0 -0.4551770389262465 0.30483297142504889 0 -0.4593999708052337 0.29480301670676529 0 -0.4551770389262465 0.30483297142504889 0 -0.46625021185001803 0.30380681263807602 0 -0.4593999708052337 0.29480301670676529 0 -0.46827174088950307 0.29409138505043392 0 -0.46625021185001803 0.30380681263807602 0 -0.47224737878043732 0.31939135852267558 0 -0.46258830912673421 0.31343425170936878 0 -0.46625021185001803 0.30380681263807602 0 -0.46258830912673421 0.31343425170936878 0 -0.4551770389262465 0.30483297142504889 0 -0.46625021185001803 0.30380681263807602 0 -0.47551717359816043 0.30301602212345602 0 -0.4769183937012712 0.29196404103452073 0 -0.48583489694974541 0.30845327583860088 0 -0.47224737878043732 0.31939135852267558 0 -0.46625021185001803 0.30380681263807602 0 -0.47551717359816043 0.30301602212345602 0 -0.47224737878043732 0.31939135852267558 0 -0.47551717359816043 0.30301602212345602 0 -0.48583489694974541 0.30845327583860088 0 -0.46827174088950307 0.29409138505043392 0 -0.46625021185001803 0.30380681263807602 0 -0.47551717359816043 0.30301602212345602 0 -0.46827174088950307 0.29409138505043392 0 -0.46497857578083068 0.28298829925053381 0 -0.4769183937012712 0.29196404103452073 0 -0.4769183937012712 0.29196404103452073 0 -0.48757792524538679 0.2814999319082685 0 -0.48583489694974541 0.30845327583860088 0 -0.46827174088950307 0.29409138505043392 0 -0.47551717359816043 0.30301602212345602 0 -0.4769183937012712 0.29196404103452073 0 -0.46497857578083068 0.28298829925053381 0 -0.47783287987075052 0.28169384510791978 0 -0.4769183937012712 0.29196404103452073 0 -0.47783287987075052 0.28169384510791978 0 -0.4769183937012712 0.29196404103452073 0 -0.48757792524538679 0.2814999319082685 0 -0.5 0.29041063335547701 0 -0.48757792524538679 0.2814999319082685 0 -0.48583489694974541 0.30845327583860088 0 -0.48757792524538679 0.2814999319082685 0 -0.48583489694974541 0.30845327583860088 0 -0.5 0.31656524504453032 0 -0.5 0.29041063335547701 0 -0.48583489694974541 0.30845327583860088 0 -0.5 0.23810140997737081 0 -0.5 0.26425602166642381 0 -0.48932095354102823 0.25454658797793611 0 -0.48757792524538679 0.2814999319082685 0 -0.48932095354102823 0.25454658797793611 0 -0.48366697684514259 0.26703881783025729 0 -0.48757792524538679 0.2814999319082685 0 -0.5 0.26425602166642381 0 -0.48932095354102823 0.25454658797793611 0 -0.48757792524538679 0.2814999319082685 0 -0.48932095354102823 0.25454658797793611 0 -0.5 0.29041063335547701 0 -0.48757792524538679 0.2814999319082685 0 -0.5 0.26425602166642381 0 -0.46497857578083068 0.28298829925053381 0 -0.48185662475551339 0.27032310823835648 0 -0.46497857578083068 0.28298829925053381 0 -0.47783287987075052 0.28169384510791978 0 -0.48185662475551339 0.27032310823835648 0 -0.48366697684514259 0.26703881783025729 0 -0.45893043448094739 0.2699305570534084 0 -0.48757792524538679 0.2814999319082685 0 -0.48366697684514259 0.26703881783025729 0 -0.48185662475551339 0.27032310823835648 0 -0.48366697684514259 0.26703881783025729 0 -0.48185662475551339 0.27032310823835648 0 -0.47235815296560851 0.27257019559313889 0 -0.46497857578083068 0.28298829925053381 0 -0.48185662475551339 0.27032310823835648 0 -0.47235815296560851 0.27257019559313889 0 -0.48366697684514259 0.26703881783025729 0 -0.46959483388743167 0.25994315597580908 0 -0.45893043448094739 0.2699305570534084 0 -0.48366697684514259 0.26703881783025729 0 -0.47235815296560851 0.27257019559313889 0 -0.45893043448094739 0.2699305570534084 0 -0.47783287987075052 0.28169384510791978 0 -0.48757792524538679 0.2814999319082685 0 -0.48185662475551339 0.27032310823835648 0 -0.48932095354102823 0.25454658797793611 0 -0.48366697684514259 0.26703881783025729 0 -0.47792533453874358 0.25606878273296479 0 -0.48366697684514259 0.26703881783025729 0 -0.46959483388743167 0.25994315597580908 0 -0.47792533453874358 0.25606878273296479 0 -0.47864167104372218 0.246590621409366 0 -0.48932095354102823 0.25454658797793611 0 -0.47792533453874358 0.25606878273296479 0 -0.47864167104372218 0.246590621409366 0 -0.47792533453874358 0.25606878273296479 0 -0.46938038244821267 0.25133041049185839 0 -0.46959483388743167 0.25994315597580908 0 -0.47792533453874358 0.25606878273296479 0 -0.46938038244821267 0.25133041049185839 0 -0.46959483388743167 0.25994315597580908 0 -0.46938038244821267 0.25133041049185839 0 -0.45807104112411212 0.25534721177055669 0 -0.46959483388743167 0.25994315597580908 0 -0.45807104112411212 0.25534721177055669 0 -0.45893043448094739 0.2699305570534084 0 -0.45807104112411212 0.25534721177055669 0 -0.45893043448094739 0.2699305570534084 0 -0.44442574262614493 0.25832327296872359 0 -0.45395006383388498 0.28587005882998617 0 -0.46497857578083068 0.28298829925053381 0 -0.45893043448094739 0.2699305570534084 0 -0.45395006383388498 0.28587005882998617 0 -0.45893043448094739 0.2699305570534084 0 -0.44702735364695217 0.27675533545947301 0 -0.46497857578083068 0.28298829925053381 0 -0.47235815296560851 0.27257019559313889 0 -0.45893043448094739 0.2699305570534084 0 -0.45893043448094739 0.2699305570534084 0 -0.43419389211675241 0.27282229627655952 0 -0.45893043448094739 0.2699305570534084 0 -0.44442574262614493 0.25832327296872359 0 -0.43419389211675241 0.27282229627655952 0 -0.45893043448094739 0.2699305570534084 0 -0.44702735364695217 0.27675533545947301 0 -0.43419389211675241 0.27282229627655952 0 -0.44702735364695217 0.27675533545947301 0 -0.43419389211675241 0.27282229627655952 0 -0.43274811138672559 0.28469846643612018 0 -0.45046339488490522 0.249057113070103 0 -0.45807104112411212 0.25534721177055669 0 -0.44442574262614493 0.25832327296872359 0 -0.44062222049055039 0.24203477259657111 0 -0.44442574262614493 0.25832327296872359 0 -0.42503978512155383 0.25887440404814072 0 -0.44062222049055039 0.24203477259657111 0 -0.42503978512155383 0.25887440404814072 0 -0.44442574262614493 0.25832327296872359 0 -0.42503978512155383 0.25887440404814072 0 -0.43419389211675241 0.27282229627655952 0 -0.42503978512155383 0.25887440404814072 0 -0.40945734975255721 0.27571403549971041 0 -0.40585136056822319 0.25674789398696107 0 -0.4198454647722451 0.23985190764030939 0 -0.42503978512155383 0.25887440404814072 0 -0.40585136056822319 0.25674789398696107 0 -0.40945734975255721 0.27571403549971041 0 -0.43419389211675241 0.27282229627655952 0 -0.42503978512155383 0.25887440404814072 0 -0.40945734975255721 0.27571403549971041 0 -0.42503978512155383 0.25887440404814072 0 -0.40945734975255721 0.27571403549971041 0 -0.43419389211675241 0.27282229627655952 0 -0.40945734975255721 0.27571403549971041 0 -0.43419389211675241 0.27282229627655952 0 -0.4229835889384117 0.28415291652507912 0 -0.43419389211675241 0.27282229627655952 0 -0.43274811138672559 0.28469846643612018 0 -0.4229835889384117 0.28415291652507912 0 -0.43274811138672559 0.28469846643612018 0 -0.43422108619098299 0.29621681389521232 0 -0.42519236151645012 0.29288975242762622 0 -0.43274811138672559 0.28469846643612018 0 -0.42519236151645012 0.29288975242762622 0 -0.4229835889384117 0.28415291652507912 0 -0.42141481873501418 0.31567829233095179 0 -0.43422108619098299 0.29621681389521232 0 -0.42141481873501418 0.31567829233095179 0 -0.43422108619098299 0.29621681389521232 0 -0.42237726971740519 0.30236741203524931 0 -0.44444415583193408 0.29216055381020578 0 -0.43422108619098299 0.29621681389521232 0 -0.43122247783146522 0.30831868127488848 0 -0.42141481873501418 0.31567829233095179 0 -0.43422108619098299 0.29621681389521232 0 -0.43122247783146522 0.30831868127488848 0 -0.43422108619098299 0.29621681389521232 0 -0.42519236151645012 0.29288975242762622 0 -0.42237726971740519 0.30236741203524931 0 -0.42141481873501418 0.31567829233095179 0 -0.43122247783146522 0.30831868127488848 0 -0.42237726971740519 0.30236741203524931 0 -0.41647318301620623 0.31168328686166002 0 -0.40812109447663159 0.30329838776079099 0 -0.42141481873501418 0.31567829233095179 0 -0.42237726971740519 0.30236741203524931 0 -0.41647318301620623 0.31168328686166002 0 -0.42237726971740519 0.30236741203524931 0 -0.40812109447663159 0.30329838776079099 0 -0.41256551749876041 0.29129965580367562 0 -0.40826549608127172 0.31275764886218971 0 -0.41647318301620623 0.31168328686166002 0 -0.40812109447663159 0.30329838776079099 0 -0.40945734975255721 0.27571403549971041 0 -0.4229835889384117 0.28415291652507912 0 -0.41256551749876041 0.29129965580367562 0 -0.42519236151645012 0.29288975242762622 0 -0.4229835889384117 0.28415291652507912 0 -0.41256551749876041 0.29129965580367562 0 -0.42519236151645012 0.29288975242762622 0 -0.42237726971740519 0.30236741203524931 0 -0.41256551749876041 0.29129965580367562 0 -0.40945734975255721 0.27571403549971041 0 -0.39180528154043992 0.29479027846244049 0 -0.39350738277932218 0.27757861076756318 0 -0.40945734975255721 0.27571403549971041 0 -0.39180528154043992 0.29479027846244049 0 -0.40812109447663159 0.30329838776079099 0 -0.41256551749876041 0.29129965580367562 0 -0.39180528154043992 0.29479027846244049 0 -0.40945734975255721 0.27571403549971041 0 -0.41256551749876041 0.29129965580367562 0 -0.39180528154043992 0.29479027846244049 0 -0.38613629988198012 0.31665983269396758 0 -0.39830358576524327 0.31266849694114901 0 -0.39180528154043992 0.29479027846244049 0 -0.39830358576524327 0.31266849694114901 0 -0.40812109447663159 0.30329838776079099 0 -0.39180528154043992 0.29479027846244049 0 -0.39830358576524327 0.31266849694114901 0 -0.40826549608127172 0.31275764886218971 0 -0.40812109447663159 0.30329838776079099 0 -0.39180528154043992 0.29479027846244049 0 -0.37819889022761238 0.29924868842846319 0 -0.37415321332832258 0.31386652142517069 0 -0.38613629988198012 0.31665983269396758 0 -0.39180528154043992 0.29479027846244049 0 -0.37415321332832258 0.31386652142517069 0 -0.39180528154043992 0.29479027846244049 0 -0.37415321332832258 0.31386652142517069 0 -0.39180528154043992 0.29479027846244049 0 -0.37819889022761238 0.29924868842846319 0 -0.37870614451813112 0.28175948497688769 0 -0.39180528154043992 0.29479027846244049 0 -0.37870614451813112 0.28175948497688769 0 -0.39350738277932218 0.27757861076756318 0 -0.37870614451813112 0.28175948497688769 0 -0.37647038179830861 0.26645711442365799 0 -0.39350738277932218 0.27757861076756318 0 -0.37647038179830861 0.26645711442365799 0 -0.39336972403141229 0.26369738761855421 0 -0.39350738277932218 0.27757861076756318 0 -0.38790582398472923 0.24962922847932231 0 -0.37647038179830861 0.26645711442365799 0 -0.39336972403141229 0.26369738761855421 0 -0.38790582398472923 0.24962922847932231 0 -0.37647038179830861 0.26645711442365799 0 -0.36318679658289171 0.25196182354824148 0 -0.40945734975255721 0.27571403549971041 0 -0.40585136056822319 0.25674789398696107 0 -0.39336972403141229 0.26369738761855421 0 -0.38790582398472923 0.24962922847932231 0 -0.40585136056822319 0.25674789398696107 0 -0.39336972403141229 0.26369738761855421 0 -0.40945734975255721 0.27571403549971041 0 -0.39336972403141229 0.26369738761855421 0 -0.39350738277932218 0.27757861076756318 0 -0.40945734975255721 0.27571403549971041 0 -0.39350738277932218 0.27757861076756318 0 -0.35583614606747688 0.27501819518035592 0 -0.36318679658289171 0.25196182354824148 0 -0.33952374355129727 0.25899057541505788 0 -0.37647038179830861 0.26645711442365799 0 -0.35583614606747688 0.27501819518035592 0 -0.36318679658289171 0.25196182354824148 0 -0.37870614451813112 0.28175948497688769 0 -0.37647038179830861 0.26645711442365799 0 -0.35583614606747688 0.27501819518035592 0 -0.37819889022761238 0.29924868842846319 0 -0.37870614451813112 0.28175948497688769 0 -0.36775571630023218 0.2927315942663431 0 -0.37870614451813112 0.28175948497688769 0 -0.35583614606747688 0.27501819518035592 0 -0.36775571630023218 0.2927315942663431 0 -0.37819889022761238 0.29924868842846319 0 -0.36899777432263853 0.30469822459034263 0 -0.37415321332832258 0.31386652142517069 0 -0.36899777432263853 0.30469822459034263 0 -0.36272901898995358 0.31473918551029578 0 -0.37415321332832258 0.31386652142517069 0 -0.37819889022761238 0.29924868842846319 0 -0.36775571630023218 0.2927315942663431 0 -0.36899777432263853 0.30469822459034263 0 -0.36775571630023218 0.2927315942663431 0 -0.36899777432263853 0.30469822459034263 0 -0.35931620367806588 0.30475084950198522 0 -0.36775571630023218 0.2927315942663431 0 -0.35931620367806588 0.30475084950198522 0 -0.35261706249820868 0.29381533636168528 0 -0.36899777432263853 0.30469822459034263 0 -0.35931620367806588 0.30475084950198522 0 -0.36272901898995358 0.31473918551029578 0 -0.35931620367806588 0.30475084950198522 0 -0.35261706249820868 0.29381533636168528 0 -0.34344143829887858 0.30736403781452232 0 -0.35931620367806588 0.30475084950198522 0 -0.34344143829887858 0.30736403781452232 0 -0.35467675850453528 0.31743756764607989 0 -0.35931620367806588 0.30475084950198522 0 -0.35467675850453528 0.31743756764607989 0 -0.36272901898995358 0.31473918551029578 0 -0.35583614606747688 0.27501819518035592 0 -0.36775571630023218 0.2927315942663431 0 -0.35261706249820868 0.29381533636168528 0 -0.35583614606747688 0.27501819518035592 0 -0.35261706249820868 0.29381533636168528 0 -0.33673580814638959 0.28921200504521999 0 -0.35261706249820868 0.29381533636168528 0 -0.33673580814638959 0.28921200504521999 0 -0.34344143829887858 0.30736403781452232 0 -0.33673580814638959 0.28921200504521999 0 -0.32075162894010661 0.28280614760534989 0 -0.33379142081270979 0.2734424933293601 0 -0.34344143829887858 0.30736403781452232 0 -0.31699951866320542 0.30755322334125379 0 -0.34344143829887858 0.30736403781452232 0 -0.31699951866320542 0.30755322334125379 0 -0.33459812393413729 0.32207732583041709 0 -0.33673580814638959 0.28921200504521999 0 -0.34344143829887858 0.30736403781452232 0 -0.31699951866320542 0.30755322334125379 0 -0.33673580814638959 0.28921200504521999 0 -0.31699951866320542 0.30755322334125379 0 -0.32075162894010661 0.28280614760534989 0 -0.31699951866320542 0.30755322334125379 0 -0.32075162894010661 0.28280614760534989 0 -0.30493521127791462 0.28695781074044469 0 -0.32075162894010661 0.28280614760534989 0 -0.31931282352829687 0.26617321261290411 0 -0.33379142081270979 0.2734424933293601 0 -0.32075162894010661 0.28280614760534989 0 -0.31931282352829687 0.26617321261290411 0 -0.30493521127791462 0.28695781074044469 0 -0.35583614606747688 0.27501819518035592 0 -0.33673580814638959 0.28921200504521999 0 -0.33379142081270979 0.2734424933293601 0 -0.35583614606747688 0.27501819518035592 0 -0.33379142081270979 0.2734424933293601 0 -0.33952374355129727 0.25899057541505788 0 -0.31931282352829687 0.26617321261290411 0 -0.33379142081270979 0.2734424933293601 0 -0.33952374355129727 0.25899057541505788 0 -0.32200613725511351 0.24850726385495631 0 -0.31931282352829687 0.26617321261290411 0 -0.33952374355129727 0.25899057541505788 0 -0.32200613725511351 0.24850726385495631 0 -0.31931282352829687 0.26617321261290411 0 -0.30640548876467488 0.25787073169030861 0 -0.31931282352829687 0.26617321261290411 0 -0.30640548876467488 0.25787073169030861 0 -0.3010630097917536 0.27273037638764702 0 -0.31931282352829687 0.26617321261290411 0 -0.3010630097917536 0.27273037638764702 0 -0.30493521127791462 0.28695781074044469 0 -0.31931282352829687 0.26617321261290411 0 -0.30493521127791462 0.28695781074044469 0 -0.3010630097917536 0.27273037638764702 0 -0.29309283898050847 0.28048055459605348 0 -0.30493521127791462 0.28695781074044469 0 -0.3010630097917536 0.27273037638764702 0 -0.29309283898050847 0.28048055459605348 0 -0.28156868640737281 0.27216957229852412 0 -0.30640548876467488 0.25787073169030861 0 -0.3010630097917536 0.27273037638764702 0 -0.28156868640737281 0.27216957229852412 0 -0.30640548876467488 0.25787073169030861 0 -0.28156868640737281 0.27216957229852412 0 -0.28729818335365731 0.26780124082781631 0 -0.28156868640737281 0.27216957229852412 0 -0.28729818335365731 0.26780124082781631 0 -0.27880962639343299 0.26078065685839158 0 -0.29309283898050847 0.28048055459605348 0 -0.28156868640737281 0.27216957229852412 0 -0.28401529333418091 0.28255904946725641 0 -0.30640548876467488 0.25787073169030861 0 -0.28156868640737281 0.27216957229852412 0 -0.29125564533142001 0.24067530578368901 0 -0.30640548876467488 0.25787073169030861 0 -0.28729818335365731 0.26780124082781631 0 -0.29125564533142001 0.24067530578368901 0 -0.28729818335365731 0.26780124082781631 0 -0.27880962639343299 0.26078065685839158 0 -0.29125564533142001 0.24067530578368901 0 -0.28729818335365731 0.26780124082781631 0 -0.29125564533142001 0.24067530578368901 0 -0.26892213733164849 0.25365425058065472 0 -0.27880962639343299 0.26078065685839158 0 -0.26892213733164849 0.25365425058065472 0 -0.27880962639343299 0.26078065685839158 0 -0.26500347954306669 0.26960291480127369 0 -0.28156868640737281 0.27216957229852412 0 -0.25673188405007052 0.28646841290673969 0 -0.28156868640737281 0.27216957229852412 0 -0.26500347954306669 0.26960291480127369 0 -0.25673188405007052 0.28646841290673969 0 -0.28156868640737281 0.27216957229852412 0 -0.27880962639343299 0.26078065685839158 0 -0.26500347954306669 0.26960291480127369 0 -0.28156868640737281 0.27216957229852412 0 -0.27479408276187339 0.28687287199942368 0 -0.28401529333418091 0.28255904946725641 0 -0.26500347954306669 0.26960291480127369 0 -0.25265925142613249 0.26128234508680298 0 -0.25673188405007052 0.28646841290673969 0 -0.26892213733164849 0.25365425058065472 0 -0.26500347954306669 0.26960291480127369 0 -0.25265925142613249 0.26128234508680298 0 -0.25621817608628389 0.2460965770837312 0 -0.26892213733164849 0.25365425058065472 0 -0.25265925142613249 0.26128234508680298 0 -0.25505401324638421 0.30366623925853881 0 -0.26661761067819428 0.2958317928062858 0 -0.26721257633701828 0.30790943684761429 0 -0.25505401324638421 0.30366623925853881 0 -0.26721257633701828 0.30790943684761429 0 -0.25901197930261888 0.31383205914145501 0 -0.26721257633701828 0.30790943684761429 0 -0.25901197930261888 0.31383205914145501 0 -0.26528599585519008 0.31471464054907522 0 -0.25505401324638421 0.30366623925853881 0 -0.25901197930261888 0.31383205914145501 0 -0.24885494741763489 0.31718848033418301 0 -0.25505401324638421 0.30366623925853881 0 -0.25673188405007052 0.28646841290673969 0 -0.26661761067819428 0.2958317928062858 0 -0.26661761067819428 0.2958317928062858 0 -0.27573637841232751 0.29432500902679382 0 -0.27326763327687947 0.30016750757533939 0 -0.28156868640737281 0.27216957229852412 0 -0.25673188405007052 0.28646841290673969 0 -0.27479408276187339 0.28687287199942368 0 -0.26661761067819428 0.2958317928062858 0 -0.27479408276187339 0.28687287199942368 0 -0.27573637841232751 0.29432500902679382 0 -0.25673188405007052 0.28646841290673969 0 -0.26661761067819428 0.2958317928062858 0 -0.27479408276187339 0.28687287199942368 0 -0.27479408276187339 0.28687287199942368 0 -0.28401529333418091 0.28255904946725641 0 -0.28313816676434478 0.29069510378855717 0 -0.27479408276187339 0.28687287199942368 0 -0.27573637841232751 0.29432500902679382 0 -0.28313816676434478 0.29069510378855717 0 -0.27573637841232751 0.29432500902679382 0 -0.28086439858034518 0.29805776896436298 0 -0.28313816676434478 0.29069510378855717 0 -0.28086439858034518 0.29805776896436298 0 -0.27753065875984329 0.30327410754998058 0 -0.28274061889410179 0.30278083970340541 0 -0.27753065875984329 0.30327410754998058 0 -0.27514776209796898 0.30785266251660498 0 -0.28274061889410179 0.30278083970340541 0 -0.27753065875984329 0.30327410754998058 0 -0.27326763327687947 0.30016750757533939 0 -0.27348155140824082 0.30658246875079598 0 -0.28086439858034518 0.29805776896436298 0 -0.27753065875984329 0.30327410754998058 0 -0.27326763327687947 0.30016750757533939 0 -0.27573637841232751 0.29432500902679382 0 -0.28086439858034518 0.29805776896436298 0 -0.27326763327687947 0.30016750757533939 0 -0.26661761067819428 0.2958317928062858 0 -0.27326763327687947 0.30016750757533939 0 -0.26721257633701828 0.30790943684761429 0 -0.26721257633701828 0.30790943684761429 0 -0.27514776209796898 0.30785266251660498 0 -0.27123720609067609 0.3158529302113221 0 -0.26721257633701828 0.30790943684761429 0 -0.27348155140824082 0.30658246875079598 0 -0.27514776209796898 0.30785266251660498 0 -0.26721257633701828 0.30790943684761429 0 -0.27514776209796898 0.30785266251660498 0 -0.27326763327687947 0.30016750757533939 0 -0.26721257633701828 0.30790943684761429 0 -0.27348155140824082 0.30658246875079598 0 -0.27514776209796898 0.30785266251660498 0 -0.2851872012256097 0.31550597615259851 0 -0.27753065875984329 0.30327410754998058 0 -0.27348155140824082 0.30658246875079598 0 -0.27514776209796898 0.30785266251660498 0 -0.27348155140824082 0.30658246875079598 0 -0.27514776209796898 0.30785266251660498 0 -0.27514776209796898 0.30785266251660498 0 -0.2905575990275322 0.30774240886798532 0 -0.27514776209796898 0.30785266251660498 0 -0.2905575990275322 0.30774240886798532 0 -0.2851872012256097 0.31550597615259851 0 -0.2896026760048197 0.2969772506180926 0 -0.2905575990275322 0.30774240886798532 0 -0.30493521127791462 0.28695781074044469 0 -0.27514776209796898 0.30785266251660498 0 -0.28274061889410179 0.30278083970340541 0 -0.2905575990275322 0.30774240886798532 0 -0.2905575990275322 0.30774240886798532 0 -0.2851872012256097 0.31550597615259851 0 -0.28274061889410179 0.30278083970340541 0 -0.2896026760048197 0.2969772506180926 0 -0.2905575990275322 0.30774240886798532 0 -0.28086439858034518 0.29805776896436298 0 -0.28274061889410179 0.30278083970340541 0 -0.2896026760048197 0.2969772506180926 0 -0.28401529333418091 0.28255904946725641 0 -0.28313816676434478 0.29069510378855717 0 -0.29095683727235372 0.28753395384208091 0 -0.28086439858034518 0.29805776896436298 0 -0.2896026760048197 0.2969772506180926 0 -0.28313816676434478 0.29069510378855717 0 -0.2896026760048197 0.2969772506180926 0 -0.28313816676434478 0.29069510378855717 0 -0.29095683727235372 0.28753395384208091 0 -0.2896026760048197 0.2969772506180926 0 -0.29095683727235372 0.28753395384208091 0 -0.30493521127791462 0.28695781074044469 0 -0.29309283898050847 0.28048055459605348 0 -0.29095683727235372 0.28753395384208091 0 -0.30493521127791462 0.28695781074044469 0 -0.29309283898050847 0.28048055459605348 0 -0.28401529333418091 0.28255904946725641 0 -0.29095683727235372 0.28753395384208091 0 -0.31699951866320542 0.30755322334125379 0 -0.2905575990275322 0.30774240886798532 0 -0.30563014257680821 0.31779627416788381 0 -0.31699951866320542 0.30755322334125379 0 -0.2905575990275322 0.30774240886798532 0 -0.2905575990275322 0.30774240886798532 0 -0.30493521127791462 0.28695781074044469 0 -0.31699951866320542 0.30755322334125379 0 -0.2905575990275322 0.30774240886798532 0 -0.30493521127791462 0.28695781074044469 0 -0.30538608464820588 0.33090408634228141 0 -0.28942706780696309 0.31873813168532672 0 -0.30563014257680821 0.31779627416788381 0 -0.30538608464820588 0.33090408634228141 0 -0.31811651498789978 0.32488887006413791 0 -0.30563014257680821 0.31779627416788381 0 -0.30538608464820588 0.33090408634228141 0 -0.2937791937433501 0.31637108240395312 0 -0.30538608464820588 0.33090408634228141 0 -0.3017933608705089 0.344447887165377 0 -0.32134510148944728 0.34307004099923799 0 -0.30538608464820588 0.33090408634228141 0 -0.29093013722955491 0.33661105704622479 0 -0.3017933608705089 0.344447887165377 0 -0.30538608464820588 0.33090408634228141 0 -0.29093013722955491 0.33661105704622479 0 -0.2885751077852815 0.32830696870384862 0 -0.29093013722955491 0.33661105704622479 0 -0.28224162025157051 0.34582573333151501 0 -0.3017933608705089 0.344447887165377 0 -0.2885751077852815 0.32830696870384862 0 -0.28146834572906437 0.33465123959114113 0 -0.2790455690922089 0.3243844570517187 0 -0.29093013722955491 0.33661105704622479 0 -0.2885751077852815 0.32830696870384862 0 -0.28146834572906437 0.33465123959114113 0 -0.29093013722955491 0.33661105704622479 0 -0.28146834572906437 0.33465123959114113 0 -0.28224162025157051 0.34582573333151501 0 -0.30538608464820588 0.33090408634228141 0 -0.2885751077852815 0.32830696870384862 0 -0.28942706780696309 0.31873813168532672 0 -0.30538608464820588 0.33090408634228141 0 -0.28942706780696309 0.31873813168532672 0 -0.2937791937433501 0.31637108240395312 0 -0.28942706780696309 0.31873813168532672 0 -0.2937791937433501 0.31637108240395312 0 -0.2851872012256097 0.31550597615259851 0 -0.2905575990275322 0.30774240886798532 0 -0.30563014257680821 0.31779627416788381 0 -0.2937791937433501 0.31637108240395312 0 -0.2905575990275322 0.30774240886798532 0 -0.2937791937433501 0.31637108240395312 0 -0.2851872012256097 0.31550597615259851 0 -0.28942706780696309 0.31873813168532672 0 -0.2937791937433501 0.31637108240395312 0 -0.2885751077852815 0.32830696870384862 0 -0.28942706780696309 0.31873813168532672 0 -0.2790455690922089 0.3243844570517187 0 -0.28942706780696309 0.31873813168532672 0 -0.2790455690922089 0.3243844570517187 0 -0.2851872012256097 0.31550597615259851 0 -0.2790455690922089 0.3243844570517187 0 -0.28942706780696309 0.31873813168532672 0 -0.2851872012256097 0.31550597615259851 0 -0.2790455690922089 0.3243844570517187 0 -0.28942706780696309 0.31873813168532672 0 -0.2851872012256097 0.31550597615259851 0 -0.27514776209796898 0.30785266251660498 0 -0.2851872012256097 0.31550597615259851 0 -0.27699557949655113 0.31645322234696882 0 -0.2851872012256097 0.31550597615259851 0 -0.27699557949655113 0.31645322234696882 0 -0.2790455690922089 0.3243844570517187 0 -0.27514776209796898 0.30785266251660498 0 -0.27699557949655113 0.31645322234696882 0 -0.27123720609067609 0.3158529302113221 0 -0.27001263578126711 0.32263717043347712 0 -0.2790455690922089 0.3243844570517187 0 -0.25910260253645218 0.33523110656146687 0 -0.26721257633701828 0.30790943684761429 0 -0.27123720609067609 0.3158529302113221 0 -0.26528599585519008 0.31471464054907522 0 -0.27699557949655113 0.31645322234696882 0 -0.27123720609067609 0.3158529302113221 0 -0.27001263578126711 0.32263717043347712 0 -0.27123720609067609 0.3158529302113221 0 -0.26528599585519008 0.31471464054907522 0 -0.26368222169044719 0.32126413599590953 0 -0.27123720609067609 0.3158529302113221 0 -0.27001263578126711 0.32263717043347712 0 -0.26368222169044719 0.32126413599590953 0 -0.27699557949655113 0.31645322234696882 0 -0.27001263578126711 0.32263717043347712 0 -0.2790455690922089 0.3243844570517187 0 -0.2790455690922089 0.3243844570517187 0 -0.25910260253645218 0.33523110656146687 0 -0.2790455690922089 0.3243844570517187 0 -0.26824012707650141 0.34000504592112352 0 -0.28146834572906437 0.33465123959114113 0 -0.2790455690922089 0.3243844570517187 0 -0.26824012707650141 0.34000504592112352 0 -0.2790455690922089 0.3243844570517187 0 -0.26824012707650141 0.34000504592112352 0 -0.25910260253645218 0.33523110656146687 0 -0.28146834572906437 0.33465123959114113 0 -0.26824012707650141 0.34000504592112352 0 -0.28224162025157051 0.34582573333151501 0 -0.25910260253645218 0.33523110656146687 0 -0.25407523553642281 0.3497448278934856 0 -0.23915963598069589 0.34607775607121571 0 -0.25910260253645218 0.33523110656146687 0 -0.25407523553642281 0.3497448278934856 0 -0.26309588156361569 0.34576168367824162 0 -0.26824012707650141 0.34000504592112352 0 -0.25910260253645218 0.33523110656146687 0 -0.26309588156361569 0.34576168367824162 0 -0.25910260253645218 0.33523110656146687 0 -0.25451497659773847 0.32559442806853028 0 -0.24843663428782739 0.33758714710907461 0 -0.25451497659773847 0.32559442806853028 0 -0.25901197930261888 0.31383205914145501 0 -0.24885494741763489 0.31718848033418301 0 -0.25451497659773847 0.32559442806853028 0 -0.25901197930261888 0.31383205914145501 0 -0.26368222169044719 0.32126413599590953 0 -0.25901197930261888 0.31383205914145501 0 -0.26528599585519008 0.31471464054907522 0 -0.26368222169044719 0.32126413599590953 0 -0.27001263578126711 0.32263717043347712 0 -0.25910260253645218 0.33523110656146687 0 -0.26368222169044719 0.32126413599590953 0 -0.25910260253645218 0.33523110656146687 0 -0.25451497659773847 0.32559442806853028 0 -0.26368222169044719 0.32126413599590953 0 -0.26470209097228098 0.37140351159401941 0 -0.25562758441007077 0.36194187249828802 0 -0.266880351992417 0.3582272519812631 0 -0.26470209097228098 0.37140351159401941 0 -0.25213085833087667 0.37355178257669552 0 -0.25562758441007077 0.36194187249828802 0 -0.25213085833087667 0.37355178257669552 0 -0.25562758441007077 0.36194187249828802 0 -0.24329038266145239 0.36134909741814653 0 -0.25562758441007077 0.36194187249828802 0 -0.25407523553642281 0.3497448278934856 0 -0.24329038266145239 0.36134909741814653 0 -0.25407523553642281 0.3497448278934856 0 -0.26309588156361569 0.34576168367824162 0 -0.266880351992417 0.3582272519812631 0 -0.25562758441007077 0.36194187249828802 0 -0.25407523553642281 0.3497448278934856 0 -0.266880351992417 0.3582272519812631 0 -0.266880351992417 0.3582272519812631 0 -0.27640009279511962 0.35155878343443242 0 -0.28837447244510311 0.36628710188532532 0 -0.26309588156361569 0.34576168367824162 0 -0.266880351992417 0.3582272519812631 0 -0.27640009279511962 0.35155878343443242 0 -0.26824012707650141 0.34000504592112352 0 -0.26309588156361569 0.34576168367824162 0 -0.27640009279511962 0.35155878343443242 0 -0.26824012707650141 0.34000504592112352 0 -0.27640009279511962 0.35155878343443242 0 -0.28224162025157051 0.34582573333151501 0 -0.266880351992417 0.3582272519812631 0 -0.28837447244510311 0.36628710188532532 0 -0.266880351992417 0.3582272519812631 0 -0.28837447244510311 0.36628710188532532 0 -0.27747916353329311 0.37529003384729942 0 -0.26470209097228098 0.37140351159401941 0 -0.266880351992417 0.3582272519812631 0 -0.27747916353329311 0.37529003384729942 0 -0.28837447244510311 0.36628710188532532 0 -0.28714059247178902 0.37543321948423419 0 -0.27747916353329311 0.37529003384729942 0 -0.28837447244510311 0.36628710188532532 0 -0.28956810344150979 0.35324588380912608 0 -0.30292150033679799 0.36018321991941088 0 -0.28837447244510311 0.36628710188532532 0 -0.29874239202075642 0.37528196759933868 0 -0.28714059247178902 0.37543321948423419 0 -0.28224162025157051 0.34582573333151501 0 -0.3017933608705089 0.344447887165377 0 -0.28224162025157051 0.34582573333151501 0 -0.28956810344150979 0.35324588380912608 0 -0.3017933608705089 0.344447887165377 0 -0.27640009279511962 0.35155878343443242 0 -0.28224162025157051 0.34582573333151501 0 -0.28956810344150979 0.35324588380912608 0 -0.27640009279511962 0.35155878343443242 0 -0.28837447244510311 0.36628710188532532 0 -0.28956810344150979 0.35324588380912608 0 -0.3017933608705089 0.344447887165377 0 -0.31193410579265052 0.3536039280541286 0 -0.30292150033679799 0.36018321991941088 0 -0.28956810344150979 0.35324588380912608 0 -0.3017933608705089 0.344447887165377 0 -0.30292150033679799 0.36018321991941088 0 -0.3017933608705089 0.344447887165377 0 -0.32134510148944728 0.34307004099923799 0 -0.3017933608705089 0.344447887165377 0 -0.31193410579265052 0.3536039280541286 0 -0.32134510148944728 0.34307004099923799 0 -0.31193410579265052 0.3536039280541286 0 -0.30292150033679799 0.36018321991941088 0 -0.31340485972314069 0.36375751913665871 0 -0.28837447244510311 0.36628710188532532 0 -0.30292150033679799 0.36018321991941088 0 -0.30986859289778912 0.37434695178938759 0 -0.28837447244510311 0.36628710188532532 0 -0.30986859289778912 0.37434695178938759 0 -0.28837447244510311 0.36628710188532532 0 -0.30986859289778912 0.37434695178938759 0 -0.29874239202075642 0.37528196759933868 0 -0.30292150033679799 0.36018321991941088 0 -0.30986859289778912 0.37434695178938759 0 -0.31340485972314069 0.36375751913665871 0 -0.30986859289778912 0.37434695178938759 0 -0.31340485972314069 0.36375751913665871 0 -0.32167824364597858 0.36970754211250728 0 -0.31340485972314069 0.36375751913665871 0 -0.32243327870136801 0.35950699838777223 0 -0.32167824364597858 0.36970754211250728 0 -0.32243327870136801 0.35950699838777223 0 -0.32167824364597858 0.36970754211250728 0 -0.33132177355711989 0.36851943955526861 0 -0.32167824364597858 0.36970754211250728 0 -0.33132177355711989 0.36851943955526861 0 -0.33136271335047512 0.38240680169344993 0 -0.32243327870136801 0.35950699838777223 0 -0.33132177355711989 0.36851943955526861 0 -0.33989838930305449 0.35721367281084643 0 -0.33132177355711989 0.36851943955526861 0 -0.34304766554360439 0.37232322735168022 0 -0.33136271335047512 0.38240680169344993 0 -0.33132177355711989 0.36851943955526861 0 -0.34304766554360439 0.37232322735168022 0 -0.33989838930305449 0.35721367281084643 0 -0.33989838930305449 0.35721367281084643 0 -0.32134510148944728 0.34307004099923799 0 -0.33989838930305449 0.35721367281084643 0 -0.32134510148944728 0.34307004099923799 0 -0.3500233487104954 0.34104903357308669 0 -0.32243327870136801 0.35950699838777223 0 -0.33989838930305449 0.35721367281084643 0 -0.32134510148944728 0.34307004099923799 0 -0.31193410579265052 0.3536039280541286 0 -0.32243327870136801 0.35950699838777223 0 -0.32134510148944728 0.34307004099923799 0 -0.31193410579265052 0.3536039280541286 0 -0.31340485972314069 0.36375751913665871 0 -0.32243327870136801 0.35950699838777223 0 -0.30538608464820588 0.33090408634228141 0 -0.32134510148944728 0.34307004099923799 0 -0.30538608464820588 0.33090408634228141 0 -0.32134510148944728 0.34307004099923799 0 -0.31811651498789978 0.32488887006413791 0 -0.32134510148944728 0.34307004099923799 0 -0.31811651498789978 0.32488887006413791 0 -0.33459812393413729 0.32207732583041709 0 -0.31699951866320542 0.30755322334125379 0 -0.30563014257680821 0.31779627416788381 0 -0.31811651498789978 0.32488887006413791 0 -0.31699951866320542 0.30755322334125379 0 -0.31811651498789978 0.32488887006413791 0 -0.33459812393413729 0.32207732583041709 0 -0.32134510148944728 0.34307004099923799 0 -0.34342889555096417 0.33131534648734451 0 -0.3500233487104954 0.34104903357308669 0 -0.32134510148944728 0.34307004099923799 0 -0.33459812393413729 0.32207732583041709 0 -0.34342889555096417 0.33131534648734451 0 -0.32134510148944728 0.34307004099923799 0 -0.3500233487104954 0.34104903357308669 0 -0.3500233487104954 0.34104903357308669 0 -0.35650114511620551 0.33294276438790088 0 -0.36794029410566942 0.33226259727897972 0 -0.34342889555096417 0.33131534648734451 0 -0.3500233487104954 0.34104903357308669 0 -0.35650114511620551 0.33294276438790088 0 -0.33459812393413729 0.32207732583041709 0 -0.34342889555096417 0.33131534648734451 0 -0.35467675850453528 0.31743756764607989 0 -0.34344143829887858 0.30736403781452232 0 -0.33459812393413729 0.32207732583041709 0 -0.35467675850453528 0.31743756764607989 0 -0.35650114511620551 0.33294276438790088 0 -0.35467675850453528 0.31743756764607989 0 -0.36272901898995358 0.31473918551029578 0 -0.34342889555096417 0.33131534648734451 0 -0.35650114511620551 0.33294276438790088 0 -0.35467675850453528 0.31743756764607989 0 -0.35650114511620551 0.33294276438790088 0 -0.36272901898995358 0.31473918551029578 0 -0.37415321332832258 0.31386652142517069 0 -0.35650114511620551 0.33294276438790088 0 -0.37415321332832258 0.31386652142517069 0 -0.35650114511620551 0.33294276438790088 0 -0.37442838800096029 0.32044424157556423 0 -0.37415321332832258 0.31386652142517069 0 -0.37816355277066899 0.32985684687273281 0 -0.37442838800096029 0.32044424157556423 0 -0.36794029410566942 0.33226259727897972 0 -0.3787015959315434 0.33902802614693439 0 -0.3500233487104954 0.34104903357308669 0 -0.36794029410566942 0.33226259727897972 0 -0.35650114511620551 0.33294276438790088 0 -0.37442838800096029 0.32044424157556423 0 -0.36794029410566942 0.33226259727897972 0 -0.3787015959315434 0.33902802614693439 0 -0.3500233487104954 0.34104903357308669 0 -0.3787015959315434 0.33902802614693439 0 -0.37816355277066899 0.32985684687273281 0 -0.36794029410566942 0.33226259727897972 0 -0.3787015959315434 0.33902802614693439 0 -0.3500233487104954 0.34104903357308669 0 -0.36501658974902518 0.35367198233662939 0 -0.37823932191431281 0.35548757599615399 0 -0.3787015959315434 0.33902802614693439 0 -0.36501658974902518 0.35367198233662939 0 -0.37823932191431281 0.35548757599615399 0 -0.36501658974902518 0.35367198233662939 0 -0.37024808467873749 0.36543132639488701 0 -0.36501658974902518 0.35367198233662939 0 -0.37024808467873749 0.36543132639488701 0 -0.35845167711666143 0.37135730462245548 0 -0.37949655700884349 0.37153259571527891 0 -0.37024808467873749 0.36543132639488701 0 -0.36758280318953013 0.37627165255961892 0 -0.37024808467873749 0.36543132639488701 0 -0.35845167711666143 0.37135730462245548 0 -0.36758280318953013 0.37627165255961892 0 -0.36501658974902518 0.35367198233662939 0 -0.35845167711666143 0.37135730462245548 0 -0.35334750121980912 0.35582299833575448 0 -0.34304766554360439 0.37232322735168022 0 -0.33989838930305449 0.35721367281084643 0 -0.35845167711666143 0.37135730462245548 0 -0.33989838930305449 0.35721367281084643 0 -0.35845167711666143 0.37135730462245548 0 -0.35334750121980912 0.35582299833575448 0 -0.33989838930305449 0.35721367281084643 0 -0.35845167711666143 0.37135730462245548 0 -0.33989838930305449 0.35721367281084643 0 -0.3500233487104954 0.34104903357308669 0 -0.35334750121980912 0.35582299833575448 0 -0.3500233487104954 0.34104903357308669 0 -0.36501658974902518 0.35367198233662939 0 -0.35334750121980912 0.35582299833575448 0 -0.35285683380316007 0.39046665159751448 0 -0.36027192889352422 0.40897543894708011 0 -0.34270265381785459 0.40768080501023862 0 -0.34304766554360439 0.37232322735168022 0 -0.35845167711666143 0.37135730462245548 0 -0.35285683380316007 0.39046665159751448 0 -0.37686086334024771 0.38257038446795849 0 -0.35285683380316007 0.39046665159751448 0 -0.37686086334024771 0.38257038446795849 0 -0.35285683380316007 0.39046665159751448 0 -0.36758280318953013 0.37627165255961892 0 -0.35845167711666143 0.37135730462245548 0 -0.35285683380316007 0.39046665159751448 0 -0.36758280318953013 0.37627165255961892 0 -0.37686086334024771 0.38257038446795849 0 -0.37949655700884349 0.37153259571527891 0 -0.36758280318953013 0.37627165255961892 0 -0.37769092578324193 0.39977892163450779 0 -0.35285683380316007 0.39046665159751448 0 -0.37769092578324193 0.39977892163450779 0 -0.37686086334024771 0.38257038446795849 0 -0.35285683380316007 0.39046665159751448 0 -0.37769092578324193 0.39977892163450779 0 -0.35285683380316007 0.39046665159751448 0 -0.36027192889352422 0.40897543894708011 0 -0.37875820238401509 0.42613984176471847 0 -0.37769092578324193 0.39977892163450779 0 -0.36027192889352422 0.40897543894708011 0 -0.37875820238401509 0.42613984176471847 0 -0.36027192889352422 0.40897543894708011 0 -0.36048507512927641 0.42545129427310208 0 -0.37875820238401509 0.42613984176471847 0 -0.36048507512927641 0.42545129427310208 0 -0.35499138700470761 0.44318849185793469 0 -0.37875820238401509 0.42613984176471847 0 -0.35499138700470761 0.44318849185793469 0 -0.34691622899781399 0.42161541908905831 0 -0.33223168701086447 0.43660936806356893 0 -0.35499138700470761 0.44318849185793469 0 -0.36048507512927641 0.42545129427310208 0 -0.34691622899781399 0.42161541908905831 0 -0.35499138700470761 0.44318849185793469 0 -0.36027192889352422 0.40897543894708011 0 -0.34691622899781399 0.42161541908905831 0 -0.34270265381785459 0.40768080501023862 0 -0.36027192889352422 0.40897543894708011 0 -0.36048507512927641 0.42545129427310208 0 -0.34691622899781399 0.42161541908905831 0 -0.34270265381785459 0.40768080501023862 0 -0.32841174735063311 0.41773478988879181 0 -0.32505653004414181 0.39961172552874852 0 -0.34691622899781399 0.42161541908905831 0 -0.34270265381785459 0.40768080501023862 0 -0.32841174735063311 0.41773478988879181 0 -0.34691622899781399 0.42161541908905831 0 -0.32841174735063311 0.41773478988879181 0 -0.33223168701086447 0.43660936806356893 0 -0.32841174735063311 0.41773478988879181 0 -0.33223168701086447 0.43660936806356893 0 -0.31148998866141242 0.43181261152586448 0 -0.32841174735063311 0.41773478988879181 0 -0.31441363705571701 0.41408607272300291 0 -0.32505653004414181 0.39961172552874852 0 -0.32841174735063311 0.41773478988879181 0 -0.31441363705571701 0.41408607272300291 0 -0.31148998866141242 0.43181261152586448 0 -0.32505653004414181 0.39961172552874852 0 -0.31219235154091651 0.39185403334122892 0 -0.30619500853749271 0.39725637532293351 0 -0.32505653004414181 0.39961172552874852 0 -0.31778050989885959 0.38527433798844479 0 -0.31219235154091651 0.39185403334122892 0 -0.35285683380316007 0.39046665159751448 0 -0.32505653004414181 0.39961172552874852 0 -0.33136271335047512 0.38240680169344993 0 -0.35285683380316007 0.39046665159751448 0 -0.34270265381785459 0.40768080501023862 0 -0.32505653004414181 0.39961172552874852 0 -0.35285683380316007 0.39046665159751448 0 -0.32505653004414181 0.39961172552874852 0 -0.35285683380316007 0.39046665159751448 0 -0.33136271335047512 0.38240680169344993 0 -0.34304766554360439 0.37232322735168022 0 -0.35285683380316007 0.39046665159751448 0 -0.33136271335047512 0.38240680169344993 0 -0.30986859289778912 0.37434695178938759 0 -0.32167824364597858 0.36970754211250728 0 -0.33136271335047512 0.38240680169344993 0 -0.30986859289778912 0.37434695178938759 0 -0.33136271335047512 0.38240680169344993 0 -0.32505653004414181 0.39961172552874852 0 -0.33136271335047512 0.38240680169344993 0 -0.31778050989885959 0.38527433798844479 0 -0.30986859289778912 0.37434695178938759 0 -0.33136271335047512 0.38240680169344993 0 -0.31778050989885959 0.38527433798844479 0 -0.30986859289778912 0.37434695178938759 0 -0.31778050989885959 0.38527433798844479 0 -0.30574515252343709 0.38648905476423068 0 -0.30986859289778912 0.37434695178938759 0 -0.30574515252343709 0.38648905476423068 0 -0.29874239202075642 0.37528196759933868 0 -0.30574515252343709 0.38648905476423068 0 -0.29874239202075642 0.37528196759933868 0 -0.29146244090030071 0.40289140707507309 0 -0.31778050989885959 0.38527433798844479 0 -0.30574515252343709 0.38648905476423068 0 -0.31219235154091651 0.39185403334122892 0 -0.32505653004414181 0.39961172552874852 0 -0.30619500853749271 0.39725637532293351 0 -0.29725622628512233 0.40875679945997928 0 -0.32505653004414181 0.39961172552874852 0 -0.29725622628512233 0.40875679945997928 0 -0.30574515252343709 0.38648905476423068 0 -0.30619500853749271 0.39725637532293351 0 -0.29146244090030071 0.40289140707507309 0 -0.30574515252343709 0.38648905476423068 0 -0.31219235154091651 0.39185403334122892 0 -0.30619500853749271 0.39725637532293351 0 -0.30619500853749271 0.39725637532293351 0 -0.29146244090030071 0.40289140707507309 0 -0.29725622628512233 0.40875679945997928 0 -0.29146244090030071 0.40289140707507309 0 -0.2882496590958894 0.39023794275143442 0 -0.278827461574497 0.39790462172635238 0 -0.28396634188800352 0.38487377460497352 0 -0.2882496590958894 0.39023794275143442 0 -0.278827461574497 0.39790462172635238 0 -0.29146244090030071 0.40289140707507309 0 -0.278827461574497 0.39790462172635238 0 -0.27940045790464241 0.41220012044695847 0 -0.29874239202075642 0.37528196759933868 0 -0.29146244090030071 0.40289140707507309 0 -0.29874239202075642 0.37528196759933868 0 -0.29146244090030071 0.40289140707507309 0 -0.2882496590958894 0.39023794275143442 0 -0.29874239202075642 0.37528196759933868 0 -0.28396634188800352 0.38487377460497352 0 -0.28714059247178902 0.37543321948423419 0 -0.29874239202075642 0.37528196759933868 0 -0.28396634188800352 0.38487377460497352 0 -0.2882496590958894 0.39023794275143442 0 -0.28396634188800352 0.38487377460497352 0 -0.28714059247178902 0.37543321948423419 0 -0.27747916353329311 0.37529003384729942 0 -0.28396634188800352 0.38487377460497352 0 -0.27747916353329311 0.37529003384729942 0 -0.26775424033426293 0.38456849691175748 0 -0.28396634188800352 0.38487377460497352 0 -0.26775424033426293 0.38456849691175748 0 -0.278827461574497 0.39790462172635238 0 -0.26470209097228098 0.37140351159401941 0 -0.27747916353329311 0.37529003384729942 0 -0.26775424033426293 0.38456849691175748 0 -0.278827461574497 0.39790462172635238 0 -0.26298604578065232 0.3973558675440883 0 -0.2677584473194361 0.40899541659639099 0 -0.26775424033426293 0.38456849691175748 0 -0.278827461574497 0.39790462172635238 0 -0.26298604578065232 0.3973558675440883 0 -0.26298604578065232 0.3973558675440883 0 -0.25152819264859128 0.38883491631829081 0 -0.2490618870264745 0.40647588616764979 0 -0.26298604578065232 0.3973558675440883 0 -0.2677584473194361 0.40899541659639099 0 -0.2490618870264745 0.40647588616764979 0 -0.25213085833087667 0.37355178257669552 0 -0.26775424033426293 0.38456849691175748 0 -0.25152819264859128 0.38883491631829081 0 -0.26775424033426293 0.38456849691175748 0 -0.26298604578065232 0.3973558675440883 0 -0.25152819264859128 0.38883491631829081 0 -0.26470209097228098 0.37140351159401941 0 -0.25213085833087667 0.37355178257669552 0 -0.26775424033426293 0.38456849691175748 0 -0.2572482915111563 0.42152384209731297 0 -0.26330490497154813 0.43976041958731371 0 -0.24092688658692171 0.43286849171069308 0 -0.2572482915111563 0.42152384209731297 0 -0.27163392734069919 0.42205675226444578 0 -0.26330490497154813 0.43976041958731371 0 -0.2572482915111563 0.42152384209731297 0 -0.2677584473194361 0.40899541659639099 0 -0.2490618870264745 0.40647588616764979 0 -0.2572482915111563 0.42152384209731297 0 -0.2677584473194361 0.40899541659639099 0 -0.27163392734069919 0.42205675226444578 0 -0.27940045790464241 0.41220012044695847 0 -0.27163392734069919 0.42205675226444578 0 -0.28418248977984512 0.43050084655080739 0 -0.2677584473194361 0.40899541659639099 0 -0.27940045790464241 0.41220012044695847 0 -0.27163392734069919 0.42205675226444578 0 -0.278827461574497 0.39790462172635238 0 -0.2677584473194361 0.40899541659639099 0 -0.27940045790464241 0.41220012044695847 0 -0.27163392734069919 0.42205675226444578 0 -0.28418248977984512 0.43050084655080739 0 -0.26330490497154813 0.43976041958731371 0 -0.28418248977984512 0.43050084655080739 0 -0.29943060469912958 0.42576946359573847 0 -0.28981068171355151 0.44369098771903792 0 -0.29146244090030071 0.40289140707507309 0 -0.28418248977984512 0.43050084655080739 0 -0.29146244090030071 0.40289140707507309 0 -0.27940045790464241 0.41220012044695847 0 -0.28418248977984512 0.43050084655080739 0 -0.28418248977984512 0.43050084655080739 0 -0.29725622628512233 0.40875679945997928 0 -0.29943060469912958 0.42576946359573847 0 -0.29146244090030071 0.40289140707507309 0 -0.28418248977984512 0.43050084655080739 0 -0.29725622628512233 0.40875679945997928 0 -0.31441363705571701 0.41408607272300291 0 -0.32505653004414181 0.39961172552874852 0 -0.29725622628512233 0.40875679945997928 0 -0.31441363705571701 0.41408607272300291 0 -0.29725622628512233 0.40875679945997928 0 -0.29943060469912958 0.42576946359573847 0 -0.31441363705571701 0.41408607272300291 0 -0.29943060469912958 0.42576946359573847 0 -0.31148998866141242 0.43181261152586448 0 -0.29943060469912958 0.42576946359573847 0 -0.31148998866141242 0.43181261152586448 0 -0.28981068171355151 0.44369098771903792 0 -0.31148998866141242 0.43181261152586448 0 -0.30120616623050861 0.45239726712555162 0 -0.31718999816658727 0.45065056632578487 0 -0.31148998866141242 0.43181261152586448 0 -0.30120616623050861 0.45239726712555162 0 -0.31148998866141242 0.43181261152586448 0 -0.30120616623050861 0.45239726712555162 0 -0.28981068171355151 0.44369098771903792 0 -0.30120616623050861 0.45239726712555162 0 -0.29092234379960469 0.47298192272523881 0 -0.30745775624609217 0.47728579204436761 0 -0.30120616623050861 0.45239726712555162 0 -0.30745775624609217 0.47728579204436761 0 -0.31718999816658727 0.45065056632578487 0 -0.2852957606144535 0.45730244818253718 0 -0.28186649269177161 0.46567885888970018 0 -0.29092234379960469 0.47298192272523881 0 -0.30120616623050861 0.45239726712555162 0 -0.29092234379960469 0.47298192272523881 0 -0.30120616623050861 0.45239726712555162 0 -0.2852957606144535 0.45730244818253718 0 -0.29092234379960469 0.47298192272523881 0 -0.2852957606144535 0.45730244818253718 0 -0.28186649269177161 0.46567885888970018 0 -0.27690253865938408 0.45811028602654041 0 -0.28418248977984512 0.43050084655080739 0 -0.28981068171355151 0.44369098771903792 0 -0.27690253865938408 0.45811028602654041 0 -0.30120616623050861 0.45239726712555162 0 -0.2852957606144535 0.45730244818253718 0 -0.28981068171355151 0.44369098771903792 0 -0.2852957606144535 0.45730244818253718 0 -0.28981068171355151 0.44369098771903792 0 -0.27690253865938408 0.45811028602654041 0 -0.28418248977984512 0.43050084655080739 0 -0.27690253865938408 0.45811028602654041 0 -0.28418248977984512 0.43050084655080739 0 -0.27690253865938408 0.45811028602654041 0 -0.26330490497154813 0.43976041958731371 0 -0.2852957606144535 0.45730244818253718 0 -0.27690253865938408 0.45811028602654041 0 -0.28186649269177161 0.46567885888970018 0 -0.27690253865938408 0.45811028602654041 0 -0.27835780074514338 0.47366975871288508 0 -0.27690253865938408 0.45811028602654041 0 -0.25345677561811758 0.46036691342989022 0 -0.27690253865938408 0.45811028602654041 0 -0.25345677561811758 0.46036691342989022 0 -0.26590293397843329 0.47057525233348851 0 -0.25345677561811758 0.46036691342989022 0 -0.25315469521642581 0.4750486889203015 0 -0.26590293397843329 0.47057525233348851 0 -0.25345677561811758 0.46036691342989022 0 -0.26330490497154813 0.43976041958731371 0 -0.24129970279445639 0.44943490890582899 0 -0.27690253865938408 0.45811028602654041 0 -0.25345677561811758 0.46036691342989022 0 -0.26330490497154813 0.43976041958731371 0 -0.26169037092037989 0.4910190989046625 0 -0.25397816739109252 0.5 0 -0.27113802145370669 0.49283981386083792 0 -0.26169037092037989 0.4910190989046625 0 -0.25474868654415728 0.48692894813519849 0 -0.26689660829256312 0.48430763362261348 0 -0.26169037092037989 0.4910190989046625 0 -0.25397816739109252 0.5 0 -0.25474868654415728 0.48692894813519849 0 -0.25315469521642581 0.4750486889203015 0 -0.26689660829256312 0.48430763362261348 0 -0.25315469521642581 0.4750486889203015 0 -0.26689660829256312 0.48430763362261348 0 -0.26590293397843329 0.47057525233348851 0 -0.25474868654415728 0.48692894813519849 0 -0.25315469521642581 0.4750486889203015 0 -0.26689660829256312 0.48430763362261348 0 -0.27690253865938408 0.45811028602654041 0 -0.26590293397843329 0.47057525233348851 0 -0.26946370716205509 0.4860372782758946 0 -0.27690253865938408 0.45811028602654041 0 -0.26946370716205509 0.4860372782758946 0 -0.27690253865938408 0.45811028602654041 0 -0.27835780074514338 0.47366975871288508 0 -0.26946370716205509 0.4860372782758946 0 -0.26689660829256312 0.48430763362261348 0 -0.26590293397843329 0.47057525233348851 0 -0.26946370716205509 0.4860372782758946 0 -0.28186649269177161 0.46567885888970018 0 -0.27835780074514338 0.47366975871288508 0 -0.28298297564177088 0.4743823417855309 0 -0.27835780074514338 0.47366975871288508 0 -0.2798907507987049 0.48286402398659151 0 -0.28298297564177088 0.4743823417855309 0 -0.27835780074514338 0.47366975871288508 0 -0.2798907507987049 0.48286402398659151 0 -0.26946370716205509 0.4860372782758946 0 -0.26946370716205509 0.4860372782758946 0 -0.28063852136870049 0.49356657832492562 0 -0.26946370716205509 0.4860372782758946 0 -0.27113802145370669 0.49283981386083792 0 -0.28063852136870049 0.49356657832492562 0 -0.2798907507987049 0.48286402398659151 0 -0.26946370716205509 0.4860372782758946 0 -0.28063852136870049 0.49356657832492562 0 -0.25397816739109252 0.5 0 -0.27113802145370669 0.49283981386083792 0 -0.27742446875513049 0.50000000000000155 0 -0.26689660829256312 0.48430763362261348 0 -0.26946370716205509 0.4860372782758946 0 -0.27113802145370669 0.49283981386083792 0 -0.26169037092037989 0.4910190989046625 0 -0.26689660829256312 0.48430763362261348 0 -0.27113802145370669 0.49283981386083792 0 -0.26689660829256312 0.48430763362261348 0 -0.26946370716205509 0.4860372782758946 0 -0.27113802145370669 0.49283981386083792 0 -0.28063852136870049 0.49356657832492562 0 -0.27742446875513049 0.50000000000000155 0 -0.28063852136870049 0.49356657832492562 0 -0.27742446875513049 0.50000000000000155 0 -0.28063852136870049 0.49356657832492562 0 -0.27742446875513049 0.50000000000000155 0 -0.29018685806186229 0.50000000000000122 0 -0.28063852136870049 0.49356657832492562 0 -0.29018685806186229 0.50000000000000122 0 -0.29092234379960469 0.47298192272523881 0 -0.28063852136870049 0.49356657832492562 0 -0.29018685806186229 0.50000000000000122 0 -0.29018685806186229 0.50000000000000122 0 -0.29092234379960469 0.47298192272523881 0 -0.30745775624609217 0.47728579204436761 0 -0.28063852136870049 0.49356657832492562 0 -0.29092234379960469 0.47298192272523881 0 -0.2798907507987049 0.48286402398659151 0 -0.28063852136870049 0.49356657832492562 0 -0.29092234379960469 0.47298192272523881 0 -0.28186649269177161 0.46567885888970018 0 -0.28298297564177088 0.4743823417855309 0 -0.29092234379960469 0.47298192272523881 0 -0.2798907507987049 0.48286402398659151 0 -0.28298297564177088 0.4743823417855309 0 -0.29092234379960469 0.47298192272523881 0 -0.29018685806186229 0.50000000000000122 0 -0.30745775624609217 0.47728579204436761 0 -0.3640375775585698 0.5 0 -0.30745775624609217 0.47728579204436761 0 -0.33122457162539992 0.46023714195115112 0 -0.3640375775585698 0.5 0 -0.30745775624609217 0.47728579204436761 0 -0.33122457162539992 0.46023714195115112 0 -0.30745775624609217 0.47728579204436761 0 -0.31718999816658727 0.45065056632578487 0 -0.33122457162539992 0.46023714195115112 0 -0.33223168701086447 0.43660936806356893 0 -0.31148998866141242 0.43181261152586448 0 -0.31718999816658727 0.45065056632578487 0 -0.33223168701086447 0.43660936806356893 0 -0.31718999816658727 0.45065056632578487 0 -0.33122457162539992 0.46023714195115112 0 -0.33122457162539992 0.46023714195115112 0 -0.35499138700470761 0.44318849185793469 0 -0.33223168701086447 0.43660936806356893 0 -0.33122457162539992 0.46023714195115112 0 -0.35499138700470761 0.44318849185793469 0 -0.33122457162539992 0.46023714195115112 0 -0.35376164566254242 0.46494380824906301 0 -0.35499138700470761 0.44318849185793469 0 -0.38249991962136642 0.44345487931465249 0 -0.35499138700470761 0.44318849185793469 0 -0.37103467036260362 0.45695891695805302 0 -0.38249991962136642 0.44345487931465249 0 -0.37875820238401509 0.42613984176471847 0 -0.35499138700470761 0.44318849185793469 0 -0.35376164566254242 0.46494380824906301 0 -0.35499138700470761 0.44318849185793469 0 -0.37103467036260362 0.45695891695805302 0 -0.35376164566254242 0.46494380824906301 0 -0.37103467036260362 0.45695891695805302 0 -0.36943712044780219 0.47475959506207249 0 -0.33122457162539992 0.46023714195115112 0 -0.35376164566254242 0.46494380824906301 0 -0.3640375775585698 0.5 0 -0.38891458820749281 0.47713565504117422 0 -0.36943712044780219 0.47475959506207249 0 -0.3640375775585698 0.5 0 -0.35376164566254242 0.46494380824906301 0 -0.36943712044780219 0.47475959506207249 0 -0.3640375775585698 0.5 0 -0.1410608215807003 0.47118489318428192 0 -0.1506389915883973 0.47451242435581331 0 -0.15779819732271971 0.4695739402503486 0 -0.1410608215807003 0.47118489318428192 0 -0.15779819732271971 0.4695739402503486 0 -0.1455325599989582 0.47665965757352818 0 -0.14983465253105441 0.48099067897208148 0 -0.1405957742956809 0.47995063378193648 0 -0.14983465253105441 0.48099067897208148 0 -0.14427471349546869 0.48965289008050411 0 -0.1405957742956809 0.47995063378193648 0 -0.1455325599989582 0.47665965757352818 0 -0.1410608215807003 0.47118489318428192 0 -0.1506389915883973 0.47451242435581331 0 -0.1455325599989582 0.47665965757352818 0 -0.1410608215807003 0.47118489318428192 0 -0.1405957742956809 0.47995063378193648 0 -0.1506389915883973 0.47451242435581331 0 -0.15682389603308189 0.47748605108520858 0 -0.15779819732271971 0.4695739402503486 0 -0.1506389915883973 0.47451242435581331 0 -0.14983465253105441 0.48099067897208148 0 -0.15682389603308189 0.47748605108520858 0 -0.1455325599989582 0.47665965757352818 0 -0.1506389915883973 0.47451242435581331 0 -0.14983465253105441 0.48099067897208148 0 -0.14983465253105441 0.48099067897208148 0 -0.1558122254133027 0.48316327461493752 0 -0.15682389603308189 0.47748605108520858 0 -0.14983465253105441 0.48099067897208148 0 -0.1558122254133027 0.48316327461493752 0 -0.15140604362779489 0.486968875654338 0 -0.1558122254133027 0.48316327461493752 0 -0.15140604362779489 0.486968875654338 0 -0.15545271364459581 0.49281799385228547 0 -0.14983465253105441 0.48099067897208148 0 -0.15140604362779489 0.486968875654338 0 -0.14427471349546869 0.48965289008050411 0 -0.15140604362779489 0.486968875654338 0 -0.15545271364459581 0.49281799385228547 0 -0.14427471349546869 0.48965289008050411 0 -0.15453849507163009 0.5 0 -0.14427471349546869 0.48965289008050411 0 -0.12543772684428189 0.5 0 -0.15453849507163009 0.5 0 -0.15545271364459581 0.49281799385228547 0 -0.14427471349546869 0.48965289008050411 0 -0.14427471349546869 0.48965289008050411 0 -0.12543772684428189 0.5 0 -0.13178312884530541 0.48627570230508688 0 -0.14427471349546869 0.48965289008050411 0 -0.13178312884530541 0.48627570230508688 0 -0.1405957742956809 0.47995063378193648 0 -0.13178312884530541 0.48627570230508688 0 -0.1317912103042716 0.47600940211286807 0 -0.11642361318749669 0.48420448820259387 0 -0.1317912103042716 0.47600940211286807 0 -0.14083201439797821 0.46516349611765162 0 -0.12052644250191399 0.4682622397032008 0 -0.13178312884530541 0.48627570230508688 0 -0.1405957742956809 0.47995063378193648 0 -0.1317912103042716 0.47600940211286807 0 -0.1410608215807003 0.47118489318428192 0 -0.1405957742956809 0.47995063378193648 0 -0.1317912103042716 0.47600940211286807 0 -0.1410608215807003 0.47118489318428192 0 -0.1317912103042716 0.47600940211286807 0 -0.14083201439797821 0.46516349611765162 0 -0.12618187852634369 0.45882241462805679 0 -0.14083201439797821 0.46516349611765162 0 -0.12052644250191399 0.4682622397032008 0 -0.14083201439797821 0.46516349611765162 0 -0.12052644250191399 0.4682622397032008 0 -0.12618187852634369 0.45882241462805679 0 -0.13621980461969219 0.45775649261309698 0 -0.13482926781972801 0.45201676164804122 0 -0.13621980461969219 0.45775649261309698 0 -0.13482926781972801 0.45201676164804122 0 -0.1430360577347192 0.45502329805863873 0 -0.13621980461969219 0.45775649261309698 0 -0.14083201439797821 0.46516349611765162 0 -0.1430360577347192 0.45502329805863873 0 -0.12618187852634369 0.45882241462805679 0 -0.13621980461969219 0.45775649261309698 0 -0.14083201439797821 0.46516349611765162 0 -0.12618187852634369 0.45882241462805679 0 -0.13482926781972801 0.45201676164804122 0 -0.1248743097581413 0.44162978393037222 0 -0.13482926781972801 0.45201676164804122 0 -0.13973201497409549 0.44099892737807922 0 -0.1415241139788854 0.4488412036993919 0 -0.13482926781972801 0.45201676164804122 0 -0.1415241139788854 0.4488412036993919 0 -0.1430360577347192 0.45502329805863873 0 -0.13973201497409549 0.44099892737807922 0 -0.13491063247587859 0.43073185275000708 0 -0.1248743097581413 0.44162978393037222 0 -0.13482926781972801 0.45201676164804122 0 -0.13973201497409549 0.44099892737807922 0 -0.1248743097581413 0.44162978393037222 0 -0.13973201497409549 0.44099892737807922 0 -0.14849911538699881 0.44732582771280882 0 -0.14949031039727409 0.43903968606904947 0 -0.14849911538699881 0.44732582771280882 0 -0.1430360577347192 0.45502329805863873 0 -0.15230793746503779 0.45507497120342549 0 -0.13973201497409549 0.44099892737807922 0 -0.1415241139788854 0.4488412036993919 0 -0.14849911538699881 0.44732582771280882 0 -0.1415241139788854 0.4488412036993919 0 -0.14849911538699881 0.44732582771280882 0 -0.1430360577347192 0.45502329805863873 0 -0.14849911538699881 0.44732582771280882 0 -0.15230793746503779 0.45507497120342549 0 -0.15767924869329919 0.44641741059368378 0 -0.14949031039727409 0.43903968606904947 0 -0.15767924869329919 0.44641741059368378 0 -0.15912083936695831 0.4347249498771325 0 -0.14849911538699881 0.44732582771280882 0 -0.14949031039727409 0.43903968606904947 0 -0.15767924869329919 0.44641741059368378 0 -0.14083201439797821 0.46516349611765162 0 -0.16113758629404229 0.46206475253210239 0 -0.15779819732271971 0.4695739402503486 0 -0.1410608215807003 0.47118489318428192 0 -0.14083201439797821 0.46516349611765162 0 -0.15779819732271971 0.4695739402503486 0 -0.14083201439797821 0.46516349611765162 0 -0.16113758629404229 0.46206475253210239 0 -0.14083201439797821 0.46516349611765162 0 -0.15230793746503779 0.45507497120342549 0 -0.16113758629404229 0.46206475253210239 0 -0.14083201439797821 0.46516349611765162 0 -0.1430360577347192 0.45502329805863873 0 -0.15230793746503779 0.45507497120342549 0 -0.16113758629404229 0.46206475253210239 0 -0.16940388650370539 0.44815354093755089 0 -0.18144315819010631 0.45896600894655282 0 -0.16113758629404229 0.46206475253210239 0 -0.18144315819010631 0.45896600894655282 0 -0.16113758629404229 0.46206475253210239 0 -0.17453557306473899 0.46796298731641428 0 -0.15779819732271971 0.4695739402503486 0 -0.15230793746503779 0.45507497120342549 0 -0.16113758629404229 0.46206475253210239 0 -0.16013216473902109 0.45292766881669072 0 -0.16113758629404229 0.46206475253210239 0 -0.16013216473902109 0.45292766881669072 0 -0.16940388650370539 0.44815354093755089 0 -0.15767924869329919 0.44641741059368378 0 -0.16940388650370539 0.44815354093755089 0 -0.15912083936695831 0.4347249498771325 0 -0.15230793746503779 0.45507497120342549 0 -0.16013216473902109 0.45292766881669072 0 -0.15767924869329919 0.44641741059368378 0 -0.16013216473902109 0.45292766881669072 0 -0.15767924869329919 0.44641741059368378 0 -0.16940388650370539 0.44815354093755089 0 -0.1829590266345629 0.45699162349075462 0 -0.18255950863604661 0.43173185523385532 0 -0.1829590266345629 0.45699162349075462 0 -0.19557533522393281 0.44055915781337712 0 -0.18255950863604661 0.43173185523385532 0 -0.16940388650370539 0.44815354093755089 0 -0.1829590266345629 0.45699162349075462 0 -0.18255950863604661 0.43173185523385532 0 -0.16113758629404229 0.46206475253210239 0 -0.17453557306473899 0.46796298731641428 0 -0.18144315819010631 0.45896600894655282 0 -0.17453557306473899 0.46796298731641428 0 -0.18144315819010631 0.45896600894655282 0 -0.17453557306473899 0.46796298731641428 0 -0.18311948649431831 0.46713679563994498 0 -0.16940388650370539 0.44815354093755089 0 -0.18144315819010631 0.45896600894655282 0 -0.1829590266345629 0.45699162349075462 0 -0.18144315819010631 0.45896600894655282 0 -0.1829590266345629 0.45699162349075462 0 -0.18144315819010631 0.45896600894655282 0 -0.1829865290739871 0.45873048193697258 0 -0.1829590266345629 0.45699162349075462 0 -0.18144315819010631 0.45896600894655282 0 -0.1829865290739871 0.45873048193697258 0 -0.1829865290739871 0.45873048193697258 0 -0.1829590266345629 0.45699162349075462 0 -0.17453557306473899 0.46796298731641428 0 -0.18144315819010631 0.45896600894655282 0 -0.18311948649431831 0.46713679563994498 0 -0.1829865290739871 0.45873048193697258 0 -0.18311948649431831 0.46713679563994498 0 -0.18144315819010631 0.45896600894655282 0 -0.1829865290739871 0.45873048193697258 0 -0.18311948649431831 0.46713679563994498 0 -0.18311948649431831 0.46713679563994498 0 -0.18337937489664821 0.48356839781997168 0 -0.19511197543601369 0.47606725323690458 0 -0.18311948649431831 0.46713679563994498 0 -0.18337937489664821 0.48356839781997168 0 -0.18311948649431831 0.46713679563994498 0 -0.18337937489664821 0.48356839781997168 0 -0.17485937494801759 0.47808814193434568 0 -0.17453557306473899 0.46796298731641428 0 -0.18311948649431831 0.46713679563994498 0 -0.17485937494801759 0.47808814193434568 0 -0.17453557306473899 0.46796298731641428 0 -0.15779819732271971 0.4695739402503486 0 -0.17453557306473899 0.46796298731641428 0 -0.16499414335466689 0.48039049058434952 0 -0.17453557306473899 0.46796298731641428 0 -0.16499414335466689 0.48039049058434952 0 -0.15779819732271971 0.4695739402503486 0 -0.17453557306473899 0.46796298731641428 0 -0.17485937494801759 0.47808814193434568 0 -0.16499414335466689 0.48039049058434952 0 -0.17485937494801759 0.47808814193434568 0 -0.16499414335466689 0.48039049058434952 0 -0.1699453859209171 0.49288017845899518 0 -0.1558122254133027 0.48316327461493752 0 -0.16499414335466689 0.48039049058434952 0 -0.15682389603308189 0.47748605108520858 0 -0.16499414335466689 0.48039049058434952 0 -0.15682389603308189 0.47748605108520858 0 -0.15779819732271971 0.4695739402503486 0 -0.15453849507163009 0.5 0 -0.1699453859209171 0.49288017845899518 0 -0.18363926329897839 0.49999999999999828 0 -0.15453849507163009 0.5 0 -0.15545271364459581 0.49281799385228547 0 -0.1699453859209171 0.49288017845899518 0 -0.15545271364459581 0.49281799385228547 0 -0.16499414335466689 0.48039049058434952 0 -0.1699453859209171 0.49288017845899518 0 -0.15545271364459581 0.49281799385228547 0 -0.16499414335466689 0.48039049058434952 0 -0.1558122254133027 0.48316327461493752 0 -0.15545271364459581 0.49281799385228547 0 -0.16499414335466689 0.48039049058434952 0 -0.18337937489664821 0.48356839781997168 0 -0.18363926329897839 0.49999999999999828 0 -0.18337937489664821 0.48356839781997168 0 -0.1699453859209171 0.49288017845899518 0 -0.18363926329897839 0.49999999999999828 0 -0.18337937489664821 0.48356839781997168 0 -0.17485937494801759 0.47808814193434568 0 -0.1699453859209171 0.49288017845899518 0 -0.18337937489664821 0.48356839781997168 0 -0.18363926329897839 0.49999999999999828 0 -0.19848883175809501 0.48685236178056529 0 -0.18363926329897839 0.49999999999999828 0 -0.19848883175809501 0.48685236178056529 0 -0.20708556466301639 0.5 0 -0.18311948649431831 0.46713679563994498 0 -0.19511197543601369 0.47606725323690458 0 -0.20656524953558469 0.46488016823659339 0 -0.18337937489664821 0.48356839781997168 0 -0.19848883175809501 0.48685236178056529 0 -0.19511197543601369 0.47606725323690458 0 -0.19848883175809501 0.48685236178056529 0 -0.19511197543601369 0.47606725323690458 0 -0.206747867840962 0.47700509082497228 0 -0.19511197543601369 0.47606725323690458 0 -0.206747867840962 0.47700509082497228 0 -0.20656524953558469 0.46488016823659339 0 -0.19848883175809501 0.48685236178056529 0 -0.206747867840962 0.47700509082497228 0 -0.21585796601610141 0.48648558657266339 0 -0.206747867840962 0.47700509082497228 0 -0.21852396914967101 0.47285401242330122 0 -0.20656524953558469 0.46488016823659339 0 -0.206747867840962 0.47700509082497228 0 -0.21852396914967101 0.47285401242330122 0 -0.21585796601610141 0.48648558657266339 0 -0.20708556466301639 0.5 0 -0.21585796601610141 0.48648558657266339 0 -0.23053186602705439 0.5 0 -0.19848883175809501 0.48685236178056529 0 -0.20708556466301639 0.5 0 -0.21585796601610141 0.48648558657266339 0 -0.21585796601610141 0.48648558657266339 0 -0.23053186602705439 0.5 0 -0.2373192826940049 0.48342253064983348 0 -0.21852396914967101 0.47285401242330122 0 -0.2373192826940049 0.48342253064983348 0 -0.23001101257685119 0.46262354083324181 0 -0.21852396914967101 0.47285401242330122 0 -0.21585796601610141 0.48648558657266339 0 -0.2373192826940049 0.48342253064983348 0 -0.25474868654415728 0.48692894813519849 0 -0.25315469521642581 0.4750486889203015 0 -0.2373192826940049 0.48342253064983348 0 -0.25315469521642581 0.4750486889203015 0 -0.2373192826940049 0.48342253064983348 0 -0.23001101257685119 0.46262354083324181 0 -0.25397816739109252 0.5 0 -0.23053186602705439 0.5 0 -0.2373192826940049 0.48342253064983348 0 -0.25397816739109252 0.5 0 -0.25474868654415728 0.48692894813519849 0 -0.2373192826940049 0.48342253064983348 0 -0.26330490497154813 0.43976041958731371 0 -0.24129970279445639 0.44943490890582899 0 -0.24092688658692171 0.43286849171069308 0 -0.24129970279445639 0.44943490890582899 0 -0.2242493546558077 0.44235471361969553 0 -0.24092688658692171 0.43286849171069308 0 -0.25345677561811758 0.46036691342989022 0 -0.23001101257685119 0.46262354083324181 0 -0.25345677561811758 0.46036691342989022 0 -0.24129970279445639 0.44943490890582899 0 -0.23001101257685119 0.46262354083324181 0 -0.25345677561811758 0.46036691342989022 0 -0.25315469521642581 0.4750486889203015 0 -0.23001101257685119 0.46262354083324181 0 -0.24129970279445639 0.44943490890582899 0 -0.23001101257685119 0.46262354083324181 0 -0.2242493546558077 0.44235471361969553 0 -0.23001101257685119 0.46262354083324181 0 -0.2242493546558077 0.44235471361969553 0 -0.2144914677851314 0.45380351874251162 0 -0.2242493546558077 0.44235471361969553 0 -0.20880164963731279 0.443380440886459 0 -0.2144914677851314 0.45380351874251162 0 -0.20880164963731279 0.443380440886459 0 -0.2144914677851314 0.45380351874251162 0 -0.20415969833182021 0.45549933815243238 0 -0.23001101257685119 0.46262354083324181 0 -0.2144914677851314 0.45380351874251162 0 -0.20656524953558469 0.46488016823659339 0 -0.21852396914967101 0.47285401242330122 0 -0.23001101257685119 0.46262354083324181 0 -0.20656524953558469 0.46488016823659339 0 -0.23001101257685119 0.46262354083324181 0 -0.20656524953558469 0.46488016823659339 0 -0.2144914677851314 0.45380351874251162 0 -0.20415969833182021 0.45549933815243238 0 -0.20656524953558469 0.46488016823659339 0 -0.1829865290739871 0.45873048193697258 0 -0.1829590266345629 0.45699162349075462 0 -0.20415969833182021 0.45549933815243238 0 -0.1829865290739871 0.45873048193697258 0 -0.20415969833182021 0.45549933815243238 0 -0.18311948649431831 0.46713679563994498 0 -0.20415969833182021 0.45549933815243238 0 -0.20656524953558469 0.46488016823659339 0 -0.1829865290739871 0.45873048193697258 0 -0.18311948649431831 0.46713679563994498 0 -0.20415969833182021 0.45549933815243238 0 -0.18311948649431831 0.46713679563994498 0 -0.20656524953558469 0.46488016823659339 0 -0.1829590266345629 0.45699162349075462 0 -0.19557533522393281 0.44055915781337712 0 -0.1829590266345629 0.45699162349075462 0 -0.20415969833182021 0.45549933815243238 0 -0.19557533522393281 0.44055915781337712 0 -0.20880164963731279 0.443380440886459 0 -0.20415969833182021 0.45549933815243238 0 -0.19557533522393281 0.44055915781337712 0 -0.19557533522393281 0.44055915781337712 0 -0.20819164381331129 0.42412669213600601 0 -0.19557533522393281 0.44055915781337712 0 -0.19413142888046839 0.4217351031076268 0 -0.18255950863604661 0.43173185523385532 0 -0.19557533522393281 0.44055915781337712 0 -0.19413142888046839 0.4217351031076268 0 -0.20819164381331129 0.42412669213600601 0 -0.19413142888046839 0.4217351031076268 0 -0.20819164381331129 0.42412669213600601 0 -0.2021706660915297 0.40578572337793972 0 -0.19413142888046839 0.4217351031076268 0 -0.2021706660915297 0.40578572337793972 0 -0.18215999063752189 0.40647208697695608 0 -0.20819164381331129 0.42412669213600601 0 -0.22405449890785839 0.40643558214578251 0 -0.2021706660915297 0.40578572337793972 0 -0.20880164963731279 0.443380440886459 0 -0.19557533522393281 0.44055915781337712 0 -0.20819164381331129 0.42412669213600601 0 -0.2242493546558077 0.44235471361969553 0 -0.20880164963731279 0.443380440886459 0 -0.20819164381331129 0.42412669213600601 0 -0.2242493546558077 0.44235471361969553 0 -0.20819164381331129 0.42412669213600601 0 -0.22600929792909111 0.42518400498706249 0 -0.2242493546558077 0.44235471361969553 0 -0.22600929792909111 0.42518400498706249 0 -0.24092688658692171 0.43286849171069308 0 -0.20819164381331129 0.42412669213600601 0 -0.22600929792909111 0.42518400498706249 0 -0.22405449890785839 0.40643558214578251 0 -0.22600929792909111 0.42518400498706249 0 -0.22405449890785839 0.40643558214578251 0 -0.2382988550227183 0.41778448946306668 0 -0.2572482915111563 0.42152384209731297 0 -0.2382988550227183 0.41778448946306668 0 -0.2490618870264745 0.40647588616764979 0 -0.22405449890785839 0.40643558214578251 0 -0.2382988550227183 0.41778448946306668 0 -0.2490618870264745 0.40647588616764979 0 -0.2572482915111563 0.42152384209731297 0 -0.2382988550227183 0.41778448946306668 0 -0.24092688658692171 0.43286849171069308 0 -0.22600929792909111 0.42518400498706249 0 -0.2382988550227183 0.41778448946306668 0 -0.24092688658692171 0.43286849171069308 0 -0.24000210142933509 0.37809552861286783 0 -0.23801773827758249 0.39392053259368742 0 -0.22567210936962789 0.38582584627882549 0 -0.25152819264859128 0.38883491631829081 0 -0.24000210142933509 0.37809552861286783 0 -0.23801773827758249 0.39392053259368742 0 -0.25213085833087667 0.37355178257669552 0 -0.25152819264859128 0.38883491631829081 0 -0.24000210142933509 0.37809552861286783 0 -0.25152819264859128 0.38883491631829081 0 -0.2490618870264745 0.40647588616764979 0 -0.23801773827758249 0.39392053259368742 0 -0.22405449890785839 0.40643558214578251 0 -0.2490618870264745 0.40647588616764979 0 -0.23801773827758249 0.39392053259368742 0 -0.22405449890785839 0.40643558214578251 0 -0.22567210936962789 0.38582584627882549 0 -0.2099895612515065 0.38861519238670661 0 -0.22405449890785839 0.40643558214578251 0 -0.23801773827758249 0.39392053259368742 0 -0.22567210936962789 0.38582584627882549 0 -0.22567210936962789 0.38582584627882549 0 -0.21752164111765379 0.37637519474985792 0 -0.23054114355980421 0.3681661286558337 0 -0.24000210142933509 0.37809552861286783 0 -0.22567210936962789 0.38582584627882549 0 -0.23054114355980421 0.3681661286558337 0 -0.22567210936962789 0.38582584627882549 0 -0.21752164111765379 0.37637519474985792 0 -0.2099895612515065 0.38861519238670661 0 -0.21752164111765379 0.37637519474985792 0 -0.2099895612515065 0.38861519238670661 0 -0.20825127389149589 0.37038948781896619 0 -0.2099895612515065 0.38861519238670661 0 -0.1956253707180633 0.37355818799515828 0 -0.20825127389149589 0.37038948781896619 0 -0.22405449890785839 0.40643558214578251 0 -0.2099895612515065 0.38861519238670661 0 -0.2021706660915297 0.40578572337793972 0 -0.2021706660915297 0.40578572337793972 0 -0.19434121226752371 0.39112870189136351 0 -0.18215999063752189 0.40647208697695608 0 -0.2099895612515065 0.38861519238670661 0 -0.2021706660915297 0.40578572337793972 0 -0.19434121226752371 0.39112870189136351 0 -0.2099895612515065 0.38861519238670661 0 -0.19434121226752371 0.39112870189136351 0 -0.1956253707180633 0.37355818799515828 0 -0.19434121226752371 0.39112870189136351 0 -0.18176047263899719 0.38121231872005679 0 -0.1956253707180633 0.37355818799515828 0 -0.18176047263899719 0.38121231872005679 0 -0.16585623702428451 0.39107516703040651 0 -0.16689278400863089 0.37048631692620287 0 -0.16585623702428451 0.39107516703040651 0 -0.1532541744773912 0.375434017343177 0 -0.15169756500005979 0.38990146883471011 0 -0.16585623702428451 0.39107516703040651 0 -0.1532541744773912 0.375434017343177 0 -0.16689278400863089 0.37048631692620287 0 -0.16585623702428451 0.39107516703040651 0 -0.1665369108918931 0.40914444316194981 0 -0.1556916669008335 0.40278409093046019 0 -0.16585623702428451 0.39107516703040651 0 -0.18215999063752189 0.40647208697695608 0 -0.1665369108918931 0.40914444316194981 0 -0.16585623702428451 0.39107516703040651 0 -0.15169756500005979 0.38990146883471011 0 -0.1556916669008335 0.40278409093046019 0 -0.18176047263899719 0.38121231872005679 0 -0.16585623702428451 0.39107516703040651 0 -0.18215999063752189 0.40647208697695608 0 -0.18176047263899719 0.38121231872005679 0 -0.18215999063752189 0.40647208697695608 0 -0.19434121226752371 0.39112870189136351 0 -0.18176047263899719 0.38121231872005679 0 -0.18215999063752189 0.40647208697695608 0 -0.18215999063752189 0.40647208697695608 0 -0.18255950863604661 0.43173185523385532 0 -0.18215999063752189 0.40647208697695608 0 -0.16958367679162159 0.42493542776846188 0 -0.1665369108918931 0.40914444316194981 0 -0.19413142888046839 0.4217351031076268 0 -0.18215999063752189 0.40647208697695608 0 -0.18255950863604661 0.43173185523385532 0 -0.18215999063752189 0.40647208697695608 0 -0.18255950863604661 0.43173185523385532 0 -0.16958367679162159 0.42493542776846188 0 -0.16940388650370539 0.44815354093755089 0 -0.18255950863604661 0.43173185523385532 0 -0.16958367679162159 0.42493542776846188 0 -0.16940388650370539 0.44815354093755089 0 -0.16958367679162159 0.42493542776846188 0 -0.15912083936695831 0.4347249498771325 0 -0.16958367679162159 0.42493542776846188 0 -0.15912083936695831 0.4347249498771325 0 -0.15604886632200479 0.41831593774319042 0 -0.16958367679162159 0.42493542776846188 0 -0.1665369108918931 0.40914444316194981 0 -0.15604886632200479 0.41831593774319042 0 -0.1665369108918931 0.40914444316194981 0 -0.15604886632200479 0.41831593774319042 0 -0.1556916669008335 0.40278409093046019 0 -0.15604886632200479 0.41831593774319042 0 -0.14768726638806501 0.40958107086639878 0 -0.1556916669008335 0.40278409093046019 0 -0.15604886632200479 0.41831593774319042 0 -0.1455440964649429 0.41771164433310332 0 -0.14575226394851429 0.42876386523653243 0 -0.15604886632200479 0.41831593774319042 0 -0.1455440964649429 0.41771164433310332 0 -0.14768726638806501 0.40958107086639878 0 -0.1455440964649429 0.41771164433310332 0 -0.14768726638806501 0.40958107086639878 0 -0.13820848934052041 0.41088683445876423 0 -0.15912083936695831 0.4347249498771325 0 -0.15604886632200479 0.41831593774319042 0 -0.14575226394851429 0.42876386523653243 0 -0.14949031039727409 0.43903968606904947 0 -0.15912083936695831 0.4347249498771325 0 -0.14575226394851429 0.42876386523653243 0 -0.1455440964649429 0.41771164433310332 0 -0.14575226394851429 0.42876386523653243 0 -0.13557398954387551 0.42076075412316039 0 -0.13973201497409549 0.44099892737807922 0 -0.14949031039727409 0.43903968606904947 0 -0.14575226394851429 0.42876386523653243 0 -0.13491063247587859 0.43073185275000708 0 -0.1242188050129694 0.42501783294758849 0 -0.1248743097581413 0.44162978393037222 0 -0.13973201497409549 0.44099892737807922 0 -0.14575226394851429 0.42876386523653243 0 -0.13491063247587859 0.43073185275000708 0 -0.14575226394851429 0.42876386523653243 0 -0.13491063247587859 0.43073185275000708 0 -0.13557398954387551 0.42076075412316039 0 -0.13491063247587859 0.43073185275000708 0 -0.13557398954387551 0.42076075412316039 0 -0.1242188050129694 0.42501783294758849 0 -0.13820848934052041 0.41088683445876423 0 -0.13557398954387551 0.42076075412316039 0 -0.12623023605756489 0.41143854881348008 0 -0.1455440964649429 0.41771164433310332 0 -0.13820848934052041 0.41088683445876423 0 -0.13557398954387551 0.42076075412316039 0 -0.13557398954387551 0.42076075412316039 0 -0.12623023605756489 0.41143854881348008 0 -0.1242188050129694 0.42501783294758849 0 -0.13820848934052041 0.41088683445876423 0 -0.12623023605756489 0.41143854881348008 0 -0.13398515235888339 0.40371564514020769 0 -0.12997925716256209 0.39431640422262348 0 -0.14074253368576661 0.38200722200303072 0 -0.1429432129120235 0.39820684686647628 0 -0.12623023605756489 0.41143854881348008 0 -0.13398515235888339 0.40371564514020769 0 -0.12997925716256209 0.39431640422262348 0 -0.13398515235888339 0.40371564514020769 0 -0.12997925716256209 0.39431640422262348 0 -0.1429432129120235 0.39820684686647628 0 -0.13820848934052041 0.41088683445876423 0 -0.13398515235888339 0.40371564514020769 0 -0.1429432129120235 0.39820684686647628 0 -0.12997925716256209 0.39431640422262348 0 -0.14074253368576661 0.38200722200303072 0 -0.12523428666698541 0.37069662222368049 0 -0.12997925716256209 0.39431640422262348 0 -0.12523428666698541 0.37069662222368049 0 -0.12103247972044499 0.39311621374447298 0 -0.14074253368576661 0.38200722200303072 0 -0.15169756500005979 0.38990146883471011 0 -0.1429432129120235 0.39820684686647628 0 -0.14074253368576661 0.38200722200303072 0 -0.1532541744773912 0.375434017343177 0 -0.15169756500005979 0.38990146883471011 0 -0.15169756500005979 0.38990146883471011 0 -0.1556916669008335 0.40278409093046019 0 -0.1429432129120235 0.39820684686647628 0 -0.14768726638806501 0.40958107086639878 0 -0.1556916669008335 0.40278409093046019 0 -0.1429432129120235 0.39820684686647628 0 -0.14768726638806501 0.40958107086639878 0 -0.13820848934052041 0.41088683445876423 0 -0.1429432129120235 0.39820684686647628 0 -0.14407255521749979 0.34403263722221961 0 -0.15504053286571459 0.3545366000593369 0 -0.14129669608781389 0.36249735492572199 0 -0.14407255521749979 0.34403263722221961 0 -0.15504053286571459 0.3545366000593369 0 -0.1549481930100888 0.34056708499864929 0 -0.14074253368576661 0.38200722200303072 0 -0.1532541744773912 0.375434017343177 0 -0.14129669608781389 0.36249735492572199 0 -0.1532541744773912 0.375434017343177 0 -0.15504053286571459 0.3545366000593369 0 -0.14129669608781389 0.36249735492572199 0 -0.14129669608781389 0.36249735492572199 0 -0.12523428666698541 0.37069662222368049 0 -0.1294360936135257 0.3482770307028879 0 -0.12523428666698541 0.37069662222368049 0 -0.1294360936135257 0.3482770307028879 0 -0.14074253368576661 0.38200722200303072 0 -0.14129669608781389 0.36249735492572199 0 -0.12523428666698541 0.37069662222368049 0 -0.14407255521749979 0.34403263722221961 0 -0.14129669608781389 0.36249735492572199 0 -0.1294360936135257 0.3482770307028879 0 -0.1294360936135257 0.3482770307028879 0 -0.13363790056006589 0.32585743918209531 0 -0.14407255521749979 0.34403263722221961 0 -0.1294360936135257 0.3482770307028879 0 -0.13363790056006589 0.32585743918209531 0 -0.1294360936135257 0.3482770307028879 0 -0.13363790056006589 0.32585743918209531 0 -0.1154499742120704 0.34086754873962172 0 -0.12722248981549561 0.3181430308760943 0 -0.13363790056006589 0.32585743918209531 0 -0.1360408951285694 0.3130357752318072 0 -0.12722248981549561 0.3181430308760943 0 -0.1360408951285694 0.3130357752318072 0 -0.12136448477009221 0.30951812845445109 0 -0.12722248981549561 0.3181430308760943 0 -0.13363790056006589 0.32585743918209531 0 -0.12142985306419619 0.32461006626398298 0 -0.13363790056006589 0.32585743918209531 0 -0.12142985306419619 0.32461006626398298 0 -0.13363790056006589 0.32585743918209531 0 -0.1360408951285694 0.3130357752318072 0 -0.14290423209994971 0.32095809222069871 0 -0.13363790056006589 0.32585743918209531 0 -0.1360408951285694 0.3130357752318072 0 -0.14290423209994971 0.32095809222069871 0 -0.1532404752523272 0.32269894785805692 0 -0.1464174014568787 0.29836992735667278 0 -0.13363790056006589 0.32585743918209531 0 -0.14290423209994971 0.32095809222069871 0 -0.15729966860100811 0.32827511069417059 0 -0.13363790056006589 0.32585743918209531 0 -0.15729966860100811 0.32827511069417059 0 -0.14290423209994971 0.32095809222069871 0 -0.1532404752523272 0.32269894785805692 0 -0.15729966860100811 0.32827511069417059 0 -0.1532404752523272 0.32269894785805692 0 -0.15943794807189979 0.31595908059817063 0 -0.1547819877644892 0.3091453549012102 0 -0.14407255521749979 0.34403263722221961 0 -0.13363790056006589 0.32585743918209531 0 -0.14748957934716561 0.33468306802428371 0 -0.13363790056006589 0.32585743918209531 0 -0.14748957934716561 0.33468306802428371 0 -0.15729966860100811 0.32827511069417059 0 -0.14748957934716561 0.33468306802428371 0 -0.1549481930100888 0.34056708499864929 0 -0.15729966860100811 0.32827511069417059 0 -0.14407255521749979 0.34403263722221961 0 -0.14748957934716561 0.33468306802428371 0 -0.1549481930100888 0.34056708499864929 0 -0.15729966860100811 0.32827511069417059 0 -0.18096143664194889 0.33069278220625808 0 -0.1549481930100888 0.34056708499864929 0 -0.15729966860100811 0.32827511069417059 0 -0.16781010436956259 0.34240718275037813 0 -0.15729966860100811 0.32827511069417059 0 -0.16781010436956259 0.34240718275037813 0 -0.18096143664194889 0.33069278220625808 0 -0.15729966860100811 0.32827511069417059 0 -0.17028988351433311 0.32233995817617028 0 -0.18096143664194889 0.33069278220625808 0 -0.15943794807189979 0.31595908059817063 0 -0.16495134068588049 0.31685297469802859 0 -0.1638395481514221 0.30983277085387728 0 -0.1532404752523272 0.32269894785805692 0 -0.15943794807189979 0.31595908059817063 0 -0.16037638850537991 0.32126535467967993 0 -0.15943794807189979 0.31595908059817063 0 -0.16037638850537991 0.32126535467967993 0 -0.16495134068588049 0.31685297469802859 0 -0.15729966860100811 0.32827511069417059 0 -0.16037638850537991 0.32126535467967993 0 -0.17028988351433311 0.32233995817617028 0 -0.1532404752523272 0.32269894785805692 0 -0.15729966860100811 0.32827511069417059 0 -0.16037638850537991 0.32126535467967993 0 -0.16495134068588049 0.31685297469802859 0 -0.17285953122972289 0.31090601179704258 0 -0.1638395481514221 0.30983277085387728 0 -0.17028988351433311 0.32233995817617028 0 -0.16495134068588049 0.31685297469802859 0 -0.17285953122972289 0.31090601179704258 0 -0.16037638850537991 0.32126535467967993 0 -0.17028988351433311 0.32233995817617028 0 -0.16495134068588049 0.31685297469802859 0 -0.18077272512400111 0.31876138179813301 0 -0.17285953122972289 0.31090601179704258 0 -0.17028988351433311 0.32233995817617028 0 -0.18077272512400111 0.31876138179813301 0 -0.17285953122972289 0.31090601179704258 0 -0.17028988351433311 0.32233995817617028 0 -0.18077272512400111 0.31876138179813301 0 -0.18096143664194889 0.33069278220625808 0 -0.18077272512400111 0.31876138179813301 0 -0.19386790912735871 0.33176087567547108 0 -0.18077272512400111 0.31876138179813301 0 -0.18096143664194889 0.33069278220625808 0 -0.18077272512400111 0.31876138179813301 0 -0.18096143664194889 0.33069278220625808 0 -0.19386790912735871 0.33176087567547108 0 -0.18096143664194889 0.33069278220625808 0 -0.1813609546404725 0.35595255046315749 0 -0.18096143664194889 0.33069278220625808 0 -0.1813609546404725 0.35595255046315749 0 -0.19258948339875709 0.33633707034479371 0 -0.16781010436956259 0.34240718275037813 0 -0.18096143664194889 0.33069278220625808 0 -0.1813609546404725 0.35595255046315749 0 -0.18096143664194889 0.33069278220625808 0 -0.19386790912735871 0.33176087567547108 0 -0.15504053286571459 0.3545366000593369 0 -0.16781010436956259 0.34240718275037813 0 -0.1813609546404725 0.35595255046315749 0 -0.15504053286571459 0.3545366000593369 0 -0.1549481930100888 0.34056708499864929 0 -0.16781010436956259 0.34240718275037813 0 -0.1532541744773912 0.375434017343177 0 -0.15504053286571459 0.3545366000593369 0 -0.16689278400863089 0.37048631692620287 0 -0.15504053286571459 0.3545366000593369 0 -0.1813609546404725 0.35595255046315749 0 -0.16689278400863089 0.37048631692620287 0 -0.18176047263899719 0.38121231872005679 0 -0.1813609546404725 0.35595255046315749 0 -0.18176047263899719 0.38121231872005679 0 -0.1813609546404725 0.35595255046315749 0 -0.1956253707180633 0.37355818799515828 0 -0.18176047263899719 0.38121231872005679 0 -0.1813609546404725 0.35595255046315749 0 -0.16689278400863089 0.37048631692620287 0 -0.1813609546404725 0.35595255046315749 0 -0.1956253707180633 0.37355818799515828 0 -0.2000380028121157 0.35856944723279938 0 -0.1956253707180633 0.37355818799515828 0 -0.2000380028121157 0.35856944723279938 0 -0.20825127389149589 0.37038948781896619 0 -0.1813609546404725 0.35595255046315749 0 -0.1951678646333711 0.34883535218340811 0 -0.19258948339875709 0.33633707034479371 0 -0.1813609546404725 0.35595255046315749 0 -0.1951678646333711 0.34883535218340811 0 -0.2000380028121157 0.35856944723279938 0 -0.1951678646333711 0.34883535218340811 0 -0.2000380028121157 0.35856944723279938 0 -0.20668301768213909 0.34448234069288158 0 -0.20668301768213909 0.34448234069288158 0 -0.2120127789660084 0.36084248239747968 0 -0.21921666942493959 0.3569244055809645 0 -0.2000380028121157 0.35856944723279938 0 -0.20668301768213909 0.34448234069288158 0 -0.2120127789660084 0.36084248239747968 0 -0.2120127789660084 0.36084248239747968 0 -0.21921666942493959 0.3569244055809645 0 -0.20668301768213909 0.34448234069288158 0 -0.21921666942493959 0.3569244055809645 0 -0.22158808080033929 0.34557455345049992 0 -0.20668301768213909 0.34448234069288158 0 -0.21921666942493959 0.3569244055809645 0 -0.2000380028121157 0.35856944723279938 0 -0.20825127389149589 0.37038948781896619 0 -0.2120127789660084 0.36084248239747968 0 -0.2120127789660084 0.36084248239747968 0 -0.2199937556016836 0.36693485901855288 0 -0.21921666942493959 0.3569244055809645 0 -0.20825127389149589 0.37038948781896619 0 -0.2120127789660084 0.36084248239747968 0 -0.2199937556016836 0.36693485901855288 0 -0.21752164111765379 0.37637519474985792 0 -0.20825127389149589 0.37038948781896619 0 -0.2199937556016836 0.36693485901855288 0 -0.21752164111765379 0.37637519474985792 0 -0.23054114355980421 0.3681661286558337 0 -0.2199937556016836 0.36693485901855288 0 -0.23054114355980421 0.3681661286558337 0 -0.21921666942493959 0.3569244055809645 0 -0.23305195790672301 0.35812934693154008 0 -0.23054114355980421 0.3681661286558337 0 -0.2199937556016836 0.36693485901855288 0 -0.21921666942493959 0.3569244055809645 0 -0.23054114355980421 0.3681661286558337 0 -0.21921666942493959 0.3569244055809645 0 -0.21921666942493959 0.3569244055809645 0 -0.22158808080033929 0.34557455345049992 0 -0.23915963598069589 0.34607775607121571 0 -0.21921666942493959 0.3569244055809645 0 -0.23915963598069589 0.34607775607121571 0 -0.21921666942493959 0.3569244055809645 0 -0.23305195790672301 0.35812934693154008 0 -0.23915963598069589 0.34607775607121571 0 -0.23305195790672301 0.35812934693154008 0 -0.23915963598069589 0.34607775607121571 0 -0.24329038266145239 0.36134909741814653 0 -0.25407523553642281 0.3497448278934856 0 -0.23915963598069589 0.34607775607121571 0 -0.24329038266145239 0.36134909741814653 0 -0.25213085833087667 0.37355178257669552 0 -0.24000210142933509 0.37809552861286783 0 -0.24329038266145239 0.36134909741814653 0 -0.24000210142933509 0.37809552861286783 0 -0.23054114355980421 0.3681661286558337 0 -0.24329038266145239 0.36134909741814653 0 -0.23054114355980421 0.3681661286558337 0 -0.23305195790672301 0.35812934693154008 0 -0.24329038266145239 0.36134909741814653 0 -0.23582541811145999 0.32679902143390172 0 -0.24885494741763489 0.31718848033418301 0 -0.23189508169276829 0.30076725351495531 0 -0.23582541811145999 0.32679902143390172 0 -0.24885494741763489 0.31718848033418301 0 -0.24633099797708269 0.32737693631841108 0 -0.25451497659773847 0.32559442806853028 0 -0.24885494741763489 0.31718848033418301 0 -0.24633099797708269 0.32737693631841108 0 -0.24843663428782739 0.33758714710907461 0 -0.22129300011358269 0.33481371145693772 0 -0.25451497659773847 0.32559442806853028 0 -0.24633099797708269 0.32737693631841108 0 -0.24843663428782739 0.33758714710907461 0 -0.25910260253645218 0.33523110656146687 0 -0.23915963598069589 0.34607775607121571 0 -0.23582541811145999 0.32679902143390172 0 -0.24633099797708269 0.32737693631841108 0 -0.24843663428782739 0.33758714710907461 0 -0.25910260253645218 0.33523110656146687 0 -0.23915963598069589 0.34607775607121571 0 -0.24843663428782739 0.33758714710907461 0 -0.23582541811145999 0.32679902143390172 0 -0.24843663428782739 0.33758714710907461 0 -0.22129300011358269 0.33481371145693772 0 -0.23915963598069589 0.34607775607121571 0 -0.24843663428782739 0.33758714710907461 0 -0.22129300011358269 0.33481371145693772 0 -0.22158808080033929 0.34557455345049992 0 -0.23915963598069589 0.34607775607121571 0 -0.22129300011358269 0.33481371145693772 0 -0.23582541811145999 0.32679902143390172 0 -0.21954464392232159 0.31820766509236142 0 -0.23189508169276829 0.30076725351495531 0 -0.23582541811145999 0.32679902143390172 0 -0.22129300011358269 0.33481371145693772 0 -0.21954464392232159 0.31820766509236142 0 -0.21954464392232159 0.31820766509236142 0 -0.20492818889453221 0.32276220977772679 0 -0.20060783596013981 0.3076349397264902 0 -0.22129300011358269 0.33481371145693772 0 -0.21954464392232159 0.31820766509236142 0 -0.20492818889453221 0.32276220977772679 0 -0.22129300011358269 0.33481371145693772 0 -0.20492818889453221 0.32276220977772679 0 -0.19386790912735871 0.33176087567547108 0 -0.22129300011358269 0.33481371145693772 0 -0.19386790912735871 0.33176087567547108 0 -0.20668301768213909 0.34448234069288158 0 -0.22129300011358269 0.33481371145693772 0 -0.19386790912735871 0.33176087567547108 0 -0.20668301768213909 0.34448234069288158 0 -0.22158808080033929 0.34557455345049992 0 -0.22129300011358269 0.33481371145693772 0 -0.20668301768213909 0.34448234069288158 0 -0.19386790912735871 0.33176087567547108 0 -0.19258948339875709 0.33633707034479371 0 -0.20668301768213909 0.34448234069288158 0 -0.19386790912735871 0.33176087567547108 0 -0.1951678646333711 0.34883535218340811 0 -0.20668301768213909 0.34448234069288158 0 -0.19258948339875709 0.33633707034479371 0 -0.18096143664194889 0.33069278220625808 0 -0.19386790912735871 0.33176087567547108 0 -0.19258948339875709 0.33633707034479371 0 -0.19386790912735871 0.33176087567547108 0 -0.19258948339875709 0.33633707034479371 0 -0.18077272512400111 0.31876138179813301 0 -0.19386790912735871 0.33176087567547108 0 -0.20060783596013981 0.3076349397264902 0 -0.20492818889453221 0.32276220977772679 0 -0.19386790912735871 0.33176087567547108 0 -0.20060783596013981 0.3076349397264902 0 -0.19386790912735871 0.33176087567547108 0 -0.20060783596013981 0.3076349397264902 0 -0.20060783596013981 0.3076349397264902 0 -0.20734776279292019 0.28350900377750898 0 -0.23189508169276829 0.30076725351495531 0 -0.21954464392232159 0.31820766509236142 0 -0.20060783596013981 0.3076349397264902 0 -0.23189508169276829 0.30076725351495531 0 -0.20060783596013981 0.3076349397264902 0 -0.20734776279292019 0.28350900377750898 0 -0.18034630435624241 0.29180066960649809 0 -0.20734776279292019 0.28350900377750898 0 -0.19375927737912041 0.2730469699042487 0 -0.18034630435624241 0.29180066960649809 0 -0.20060783596013981 0.3076349397264902 0 -0.20734776279292019 0.28350900377750898 0 -0.20734776279292019 0.28350900377750898 0 -0.23189508169276829 0.30076725351495531 0 -0.22396762922540969 0.27514125130055722 0 -0.23189508169276829 0.30076725351495531 0 -0.2378434694439332 0.28391349183279069 0 -0.22396762922540969 0.27514125130055722 0 -0.25673188405007052 0.28646841290673969 0 -0.23189508169276829 0.30076725351495531 0 -0.2378434694439332 0.28391349183279069 0 -0.25673188405007052 0.28646841290673969 0 -0.23189508169276829 0.30076725351495531 0 -0.25505401324638421 0.30366623925853881 0 -0.25673188405007052 0.28646841290673969 0 -0.23189508169276829 0.30076725351495531 0 -0.25505401324638421 0.30366623925853881 0 -0.24885494741763489 0.31718848033418301 0 -0.23189508169276829 0.30076725351495531 0 -0.25265925142613249 0.26128234508680298 0 -0.23885305679183191 0.2684477152547543 0 -0.23951274761537589 0.2474853768326048 0 -0.23885305679183191 0.2684477152547543 0 -0.22811192938500721 0.25829645972706228 0 -0.23951274761537589 0.2474853768326048 0 -0.25621817608628389 0.2460965770837312 0 -0.25265925142613249 0.26128234508680298 0 -0.23951274761537589 0.2474853768326048 0 -0.25673188405007052 0.28646841290673969 0 -0.2378434694439332 0.28391349183279069 0 -0.23885305679183191 0.2684477152547543 0 -0.25265925142613249 0.26128234508680298 0 -0.25673188405007052 0.28646841290673969 0 -0.23885305679183191 0.2684477152547543 0 -0.23885305679183191 0.2684477152547543 0 -0.22396762922540969 0.27514125130055722 0 -0.22811192938500721 0.25829645972706228 0 -0.2378434694439332 0.28391349183279069 0 -0.23885305679183191 0.2684477152547543 0 -0.22396762922540969 0.27514125130055722 0 -0.22811192938500721 0.25829645972706228 0 -0.22371849106378741 0.2462845034026982 0 -0.23951274761537589 0.2474853768326048 0 -0.22396762922540969 0.27514125130055722 0 -0.22811192938500721 0.25829645972706228 0 -0.21408768962570049 0.25938306782852782 0 -0.22811192938500721 0.25829645972706228 0 -0.21408768962570049 0.25938306782852782 0 -0.22371849106378741 0.2462845034026982 0 -0.21408768962570049 0.25938306782852782 0 -0.19928355658839081 0.25766712263582692 0 -0.2066863838603582 0.24242880758937649 0 -0.21408768962570049 0.25938306782852782 0 -0.20163280817849061 0.26608937016207479 0 -0.19928355658839081 0.25766712263582692 0 -0.20734776279292019 0.28350900377750898 0 -0.21408768962570049 0.25938306782852782 0 -0.20734776279292019 0.28350900377750898 0 -0.22396762922540969 0.27514125130055722 0 -0.21408768962570049 0.25938306782852782 0 -0.20734776279292019 0.28350900377750898 0 -0.21408768962570049 0.25938306782852782 0 -0.20163280817849061 0.26608937016207479 0 -0.20734776279292019 0.28350900377750898 0 -0.20163280817849061 0.26608937016207479 0 -0.19375927737912041 0.2730469699042487 0 -0.20163280817849061 0.26608937016207479 0 -0.19375927737912041 0.2730469699042487 0 -0.19160269433399771 0.26436194023610149 0 -0.19375927737912041 0.2730469699042487 0 -0.19160269433399771 0.26436194023610149 0 -0.17991988358848049 0.26483995741486333 0 -0.19928355658839081 0.25766712263582692 0 -0.18259587964237009 0.2606558300825601 0 -0.2066863838603582 0.24242880758937649 0 -0.18259587964237009 0.2606558300825601 0 -0.19333963139412971 0.24385714112684301 0 -0.19928355658839081 0.25766712263582692 0 -0.19160269433399771 0.26436194023610149 0 -0.18259587964237009 0.2606558300825601 0 -0.18259587964237009 0.2606558300825601 0 -0.2066863838603582 0.24242880758937649 0 -0.20163280817849061 0.26608937016207479 0 -0.19928355658839081 0.25766712263582692 0 -0.19160269433399771 0.26436194023610149 0 -0.17991988358848049 0.26483995741486333 0 -0.17951502337729761 0.2392424245160312 0 -0.17991988358848049 0.26483995741486333 0 -0.17042143569771079 0.26099360542817968 0 -0.17951502337729761 0.2392424245160312 0 -0.18259587964237009 0.2606558300825601 0 -0.17991988358848049 0.26483995741486333 0 -0.17951502337729761 0.2392424245160312 0 -0.19160269433399771 0.26436194023610149 0 -0.18259587964237009 0.2606558300825601 0 -0.17991988358848049 0.26483995741486333 0 -0.18259587964237009 0.2606558300825601 0 -0.17991988358848049 0.26483995741486333 0 -0.17991988358848049 0.26483995741486333 0 -0.17042143569771079 0.26099360542817968 0 -0.17716480609589361 0.26914773470870201 0 -0.17042143569771079 0.26099360542817968 0 -0.1627301728603629 0.26968240911070368 0 -0.1532221513837192 0.25419418888983192 0 -0.17042143569771079 0.26099360542817968 0 -0.1532221513837192 0.25419418888983192 0 -0.17951502337729761 0.2392424245160312 0 -0.1627301728603629 0.26968240911070368 0 -0.1620479085915319 0.28265904931380531 0 -0.15271877240598841 0.27446820953958367 0 -0.17042143569771079 0.26099360542817968 0 -0.1627301728603629 0.26968240911070368 0 -0.1699765768805111 0.26885491792894611 0 -0.1627301728603629 0.26968240911070368 0 -0.1699765768805111 0.26885491792894611 0 -0.16860704672851359 0.27535934789532951 0 -0.1627301728603629 0.26968240911070368 0 -0.16860704672851359 0.27535934789532951 0 -0.1620479085915319 0.28265904931380531 0 -0.16860704672851359 0.27535934789532951 0 -0.17077339862397739 0.28423195702734899 0 -0.1620479085915319 0.28265904931380531 0 -0.17991988358848049 0.26483995741486333 0 -0.18034630435624241 0.29180066960649809 0 -0.17991988358848049 0.26483995741486333 0 -0.17716480609589361 0.26914773470870201 0 -0.18034630435624241 0.29180066960649809 0 -0.16860704672851359 0.27535934789532951 0 -0.17716480609589361 0.26914773470870201 0 -0.17077339862397739 0.28423195702734899 0 -0.19375927737912041 0.2730469699042487 0 -0.17991988358848049 0.26483995741486333 0 -0.18034630435624241 0.29180066960649809 0 -0.17042143569771079 0.26099360542817968 0 -0.1699765768805111 0.26885491792894611 0 -0.17716480609589361 0.26914773470870201 0 -0.1699765768805111 0.26885491792894611 0 -0.16860704672851359 0.27535934789532951 0 -0.17716480609589361 0.26914773470870201 0 -0.17991988358848049 0.26483995741486333 0 -0.17716480609589361 0.26914773470870201 0 -0.17716480609589361 0.26914773470870201 0 -0.18034630435624241 0.29180066960649809 0 -0.17077339862397739 0.28423195702734899 0 -0.18034630435624241 0.29180066960649809 0 -0.16501618616712291 0.29775164083812761 0 -0.17077339862397739 0.28423195702734899 0 -0.18077272512400111 0.31876138179813301 0 -0.18034630435624241 0.29180066960649809 0 -0.18077272512400111 0.31876138179813301 0 -0.18034630435624241 0.29180066960649809 0 -0.17285953122972289 0.31090601179704258 0 -0.18034630435624241 0.29180066960649809 0 -0.17285953122972289 0.31090601179704258 0 -0.16501618616712291 0.29775164083812761 0 -0.18077272512400111 0.31876138179813301 0 -0.20060783596013981 0.3076349397264902 0 -0.18034630435624241 0.29180066960649809 0 -0.16501618616712291 0.29775164083812761 0 -0.15329008091572741 0.28945008379417048 0 -0.1547819877644892 0.3091453549012102 0 -0.17285953122972289 0.31090601179704258 0 -0.16501618616712291 0.29775164083812761 0 -0.1638395481514221 0.30983277085387728 0 -0.16501618616712291 0.29775164083812761 0 -0.1638395481514221 0.30983277085387728 0 -0.1547819877644892 0.3091453549012102 0 -0.15943794807189979 0.31595908059817063 0 -0.1638395481514221 0.30983277085387728 0 -0.1547819877644892 0.3091453549012102 0 -0.16501618616712291 0.29775164083812761 0 -0.17077339862397739 0.28423195702734899 0 -0.1620479085915319 0.28265904931380531 0 -0.16501618616712291 0.29775164083812761 0 -0.1620479085915319 0.28265904931380531 0 -0.15329008091572741 0.28945008379417048 0 -0.1464174014568787 0.29836992735667278 0 -0.13959432766143021 0.2740409068552887 0 -0.1620479085915319 0.28265904931380531 0 -0.15329008091572741 0.28945008379417048 0 -0.15271877240598841 0.27446820953958367 0 -0.15329008091572741 0.28945008379417048 0 -0.1464174014568787 0.29836992735667278 0 -0.13959432766143021 0.2740409068552887 0 -0.15329008091572741 0.28945008379417048 0 -0.1464174014568787 0.29836992735667278 0 -0.1547819877644892 0.3091453549012102 0 -0.1532404752523272 0.32269894785805692 0 -0.1464174014568787 0.29836992735667278 0 -0.1360408951285694 0.3130357752318072 0 -0.14290423209994971 0.32095809222069871 0 -0.1464174014568787 0.29836992735667278 0 -0.1532404752523272 0.32269894785805692 0 -0.1464174014568787 0.29836992735667278 0 -0.1547819877644892 0.3091453549012102 0 -0.1360408951285694 0.3130357752318072 0 -0.1264253840414637 0.29528772621663357 0 -0.12136448477009221 0.30951812845445109 0 -0.1360408951285694 0.3130357752318072 0 -0.1464174014568787 0.29836992735667278 0 -0.1264253840414637 0.29528772621663357 0 -0.1464174014568787 0.29836992735667278 0 -0.1264253840414637 0.29528772621663357 0 -0.13959432766143021 0.2740409068552887 0 -0.1264253840414637 0.29528772621663357 0 -0.13959432766143021 0.2740409068552887 0 -0.1185373796182298 0.27837978510360878 0 -0.13959432766143021 0.2740409068552887 0 -0.1327712538659816 0.24971188635390451 0 -0.13959432766143021 0.2740409068552887 0 -0.116744543106582 0.25728181003509248 0 -0.1327712538659816 0.24971188635390451 0 -0.13959432766143021 0.2740409068552887 0 -0.1532221513837192 0.25419418888983192 0 -0.1327712538659816 0.24971188635390451 0 -0.1627301728603629 0.26968240911070368 0 -0.1532221513837192 0.25419418888983192 0 -0.15271877240598841 0.27446820953958367 0 -0.13959432766143021 0.2740409068552887 0 -0.1532221513837192 0.25419418888983192 0 -0.15271877240598841 0.27446820953958367 0 -0.15329008091572741 0.28945008379417048 0 -0.13959432766143021 0.2740409068552887 0 -0.15271877240598841 0.27446820953958367 0 -0.1061606963602142 0.26761343855331338 0 -0.1001789302111205 0.27974269320078388 0 -0.1185373796182298 0.27837978510360878 0 -0.1061606963602142 0.26761343855331338 0 -0.1001789302111205 0.27974269320078388 0 -0.092613028744971265 0.26767711662392979 0 -0.1061606963602142 0.26761343855331338 0 -0.10005120432924321 0.25626016583208688 0 -0.116744543106582 0.25728181003509248 0 -0.1061606963602142 0.26761343855331338 0 -0.10005120432924321 0.25626016583208688 0 -0.092613028744971265 0.26767711662392979 0 -0.10005120432924321 0.25626016583208688 0 -0.116744543106582 0.25728181003509248 0 -0.1045487088169635 0.24438495162540061 0 -0.13959432766143021 0.2740409068552887 0 -0.116744543106582 0.25728181003509248 0 -0.1185373796182298 0.27837978510360878 0 -0.1061606963602142 0.26761343855331338 0 -0.116744543106582 0.25728181003509248 0 -0.1185373796182298 0.27837978510360878 0 -0.1264253840414637 0.29528772621663357 0 -0.1127724140037699 0.30190213115774378 0 -0.1091517300735869 0.29135078386346752 0 -0.1264253840414637 0.29528772621663357 0 -0.1185373796182298 0.27837978510360878 0 -0.1091517300735869 0.29135078386346752 0 -0.1264253840414637 0.29528772621663357 0 -0.12136448477009221 0.30951812845445109 0 -0.1127724140037699 0.30190213115774378 0 -0.12136448477009221 0.30951812845445109 0 -0.1127724140037699 0.30190213115774378 0 -0.1061991548417472 0.31213959050036899 0 -0.1127724140037699 0.30190213115774378 0 -0.1061991548417472 0.31213959050036899 0 -0.1005146973405663 0.30141191014932889 0 -0.1127724140037699 0.30190213115774378 0 -0.1005146973405663 0.30141191014932889 0 -0.1091517300735869 0.29135078386346752 0 -0.1005146973405663 0.30141191014932889 0 -0.094430836728355921 0.29177030977787999 0 -0.089068024122243669 0.30112896568664949 0 -0.1061991548417472 0.31213959050036899 0 -0.1005146973405663 0.30141191014932889 0 -0.090928135519314904 0.31087631578889069 0 -0.1001789302111205 0.27974269320078388 0 -0.1185373796182298 0.27837978510360878 0 -0.1091517300735869 0.29135078386346752 0 -0.1005146973405663 0.30141191014932889 0 -0.1091517300735869 0.29135078386346752 0 -0.094430836728355921 0.29177030977787999 0 -0.1001789302111205 0.27974269320078388 0 -0.1091517300735869 0.29135078386346752 0 -0.094430836728355921 0.29177030977787999 0 -0.1001789302111205 0.27974269320078388 0 -0.094430836728355921 0.29177030977787999 0 -0.086145563619835275 0.2816538088019015 0 -0.094430836728355921 0.29177030977787999 0 -0.086145563619835275 0.2816538088019015 0 -0.081526075002782958 0.29533369696514911 0 -0.094430836728355921 0.29177030977787999 0 -0.081526075002782958 0.29533369696514911 0 -0.089068024122243669 0.30112896568664949 0 -0.086145563619835275 0.2816538088019015 0 -0.081526075002782958 0.29533369696514911 0 -0.070830210313899522 0.29195808219782299 0 -0.090928135519314904 0.31087631578889069 0 -0.079482369404140468 0.30560554845979909 0 -0.074915307566508993 0.31649039264194578 0 -0.090928135519314904 0.31087631578889069 0 -0.089068024122243669 0.30112896568664949 0 -0.079482369404140468 0.30560554845979909 0 -0.1005146973405663 0.30141191014932889 0 -0.090928135519314904 0.31087631578889069 0 -0.089068024122243669 0.30112896568664949 0 -0.081526075002782958 0.29533369696514911 0 -0.089068024122243669 0.30112896568664949 0 -0.079482369404140468 0.30560554845979909 0 -0.054647974243728172 0.30430181459310768 0 -0.074915307566508993 0.31649039264194578 0 -0.079482369404140468 0.30560554845979909 0 -0.068661557073843291 0.3005821027458685 0 -0.074915307566508993 0.31649039264194578 0 -0.068661557073843291 0.3005821027458685 0 -0.054647974243728172 0.30430181459310768 0 -0.074915307566508993 0.31649039264194578 0 -0.081526075002782958 0.29533369696514911 0 -0.079482369404140468 0.30560554845979909 0 -0.068661557073843291 0.3005821027458685 0 -0.070830210313899522 0.29195808219782299 0 -0.067453711470644842 0.27023673344429472 0 -0.052574645638654917 0.28480468584225688 0 -0.081526075002782958 0.29533369696514911 0 -0.068661557073843291 0.3005821027458685 0 -0.070830210313899522 0.29195808219782299 0 -0.068661557073843291 0.3005821027458685 0 -0.070830210313899522 0.29195808219782299 0 -0.068661557073843291 0.3005821027458685 0 -0.070830210313899522 0.29195808219782299 0 -0.059610011597539182 0.29372125904316332 0 -0.086145563619835275 0.2816538088019015 0 -0.070830210313899522 0.29195808219782299 0 -0.077256670317037021 0.26667642926106078 0 -0.070830210313899522 0.29195808219782299 0 -0.067453711470644842 0.27023673344429472 0 -0.070830210313899522 0.29195808219782299 0 -0.077256670317037021 0.26667642926106078 0 -0.070830210313899522 0.29195808219782299 0 -0.067453711470644842 0.27023673344429472 0 -0.077256670317037021 0.26667642926106078 0 -0.086145563619835275 0.2816538088019015 0 -0.077256670317037021 0.26667642926106078 0 -0.092613028744971265 0.26767711662392979 0 -0.1001789302111205 0.27974269320078388 0 -0.086145563619835275 0.2816538088019015 0 -0.092613028744971265 0.26767711662392979 0 -0.077256670317037021 0.26667642926106078 0 -0.086302411784292182 0.25447467192259482 0 -0.083666647235009842 0.24139059785004849 0 -0.077256670317037021 0.26667642926106078 0 -0.083666647235009842 0.24139059785004849 0 -0.10005120432924321 0.25626016583208688 0 -0.086302411784292182 0.25447467192259482 0 -0.094679029848152713 0.24609146959404629 0 -0.10005120432924321 0.25626016583208688 0 -0.092613028744971265 0.26767711662392979 0 -0.086302411784292182 0.25447467192259482 0 -0.077256670317037021 0.26667642926106078 0 -0.092613028744971265 0.26767711662392979 0 -0.086302411784292182 0.25447467192259482 0 -0.077256670317037021 0.26667642926106078 0 -0.064077212627390134 0.24851538469076631 0 -0.083666647235009842 0.24139059785004849 0 -0.067453711470644842 0.27023673344429472 0 -0.077256670317037021 0.26667642926106078 0 -0.064077212627390134 0.24851538469076631 0 -0.067453711470644842 0.27023673344429472 0 -0.064077212627390134 0.24851538469076631 0 -0.067453711470644842 0.27023673344429472 0 -0.04634179854296408 0.26632715615711849 0 -0.064077212627390134 0.24851538469076631 0 -0.04634179854296408 0.26632715615711849 0 -0.064077212627390134 0.24851538469076631 0 -0.046578861792199937 0.24361118962503389 0 -0.067453711470644842 0.27023673344429472 0 -0.04634179854296408 0.26632715615711849 0 -0.052574645638654917 0.28480468584225688 0 -0.04634179854296408 0.26632715615711849 0 -0.034380640920947357 0.29211323654426968 0 -0.052574645638654917 0.28480468584225688 0 -0.04634179854296408 0.26632715615711849 0 -0.022607631921228569 0.27169805167723737 0 -0.034380640920947357 0.29211323654426968 0 -0.04634179854296408 0.26632715615711849 0 -0.03068766995985707 0.25286978792993342 0 -0.022607631921228569 0.27169805167723737 0 -0.04634179854296408 0.26632715615711849 0 -0.03068766995985707 0.25286978792993342 0 -0.046578861792199937 0.24361118962503389 0 -0.03068766995985707 0.25286978792993342 0 -0.022607631921228569 0.27169805167723737 0 -0.0098044441781452579 0.25473951632571468 0 -0.022607631921228569 0.27169805167723737 0 -0.015153941911089409 0.29208252597919021 0 3.3590645499582607e-05 0.27236849017123349 0 -0.022607631921228569 0.27169805167723737 0 -0.0098044441781452579 0.25473951632571468 0 3.3590645499582607e-05 0.27236849017123349 0 -0.0098044441781452579 0.25473951632571468 0 0.0073806355134042019 0.25529449578482938 0 3.3590645499582607e-05 0.27236849017123349 0 -0.0088759444352828343 0.31092800175718183 0 -0.015153941911089409 0.29208252597919021 0 0.0083336089875100904 0.29343585490586271 0 -0.015153941911089409 0.29208252597919021 0 0.0083336089875100904 0.29343585490586271 0 3.3590645499582607e-05 0.27236849017123349 0 -0.022607631921228569 0.27169805167723737 0 -0.015153941911089409 0.29208252597919021 0 -0.034380640920947357 0.29211323654426968 0 -0.0088759444352828343 0.31092800175718183 0 -0.015153941911089409 0.29208252597919021 0 -0.03508050583840458 0.3127012881250415 0 -0.015153941911089409 0.29208252597919021 0 -0.034380640920947357 0.29211323654426968 0 -0.03508050583840458 0.3127012881250415 0 -0.034380640920947357 0.29211323654426968 0 -0.054647974243728172 0.30430181459310768 0 -0.034380640920947357 0.29211323654426968 0 -0.054647974243728172 0.30430181459310768 0 -0.03508050583840458 0.3127012881250415 0 -0.034380640920947357 0.29211323654426968 0 -0.052574645638654917 0.28480468584225688 0 -0.054647974243728172 0.30430181459310768 0 -0.052574645638654917 0.28480468584225688 0 -0.059610011597539182 0.29372125904316332 0 -0.054647974243728172 0.30430181459310768 0 -0.070830210313899522 0.29195808219782299 0 -0.052574645638654917 0.28480468584225688 0 -0.059610011597539182 0.29372125904316332 0 -0.068661557073843291 0.3005821027458685 0 -0.059610011597539182 0.29372125904316332 0 -0.054647974243728172 0.30430181459310768 0 -0.058679851530075752 0.32054224196392622 0 -0.045885169747561752 0.33132665820789581 0 -0.073191842414501496 0.33174208285196288 0 -0.054647974243728172 0.30430181459310768 0 -0.058679851530075752 0.32054224196392622 0 -0.03508050583840458 0.3127012881250415 0 -0.045885169747561752 0.33132665820789581 0 -0.067541502003893042 0.3482616942848048 0 -0.073191842414501496 0.33174208285196288 0 -0.045885169747561752 0.33132665820789581 0 -0.073191842414501496 0.33174208285196288 0 -0.045885169747561752 0.33132665820789581 0 -0.018578497080621779 0.33091123356382868 0 -0.045885169747561752 0.33132665820789581 0 -0.03508050583840458 0.3127012881250415 0 -0.018578497080621779 0.33091123356382868 0 -0.058679851530075752 0.32054224196392622 0 -0.045885169747561752 0.33132665820789581 0 -0.03508050583840458 0.3127012881250415 0 -0.0088759444352828343 0.31092800175718183 0 -0.03508050583840458 0.3127012881250415 0 -0.018578497080621779 0.33091123356382868 0 -0.018578497080621779 0.33091123356382868 0 -0.0050552824635438226 0.34569829691311771 0 -0.02749858990914332 0.35301881799134821 0 -0.045885169747561752 0.33132665820789581 0 -0.018578497080621779 0.33091123356382868 0 -0.02749858990914332 0.35301881799134821 0 -0.018578497080621779 0.33091123356382868 0 -0.0050552824635438226 0.34569829691311771 0 0.0064742168078369342 0.3347740657525386 0 -0.018578497080621779 0.33091123356382868 0 0.0087281755863181168 0.33049580891976171 0 -0.018578497080621779 0.33091123356382868 0 0.0064742168078369342 0.3347740657525386 0 0.0087281755863181168 0.33049580891976171 0 -0.018578497080621779 0.33091123356382868 0 -0.003280447873963227 0.32161399115684158 0 0.0087281755863181168 0.33049580891976171 0 -0.0088759444352828343 0.31092800175718183 0 -0.018578497080621779 0.33091123356382868 0 -0.003280447873963227 0.32161399115684158 0 -0.0088759444352828343 0.31092800175718183 0 -0.003280447873963227 0.32161399115684158 0 0.0056044744337335906 0.31412092038659428 0 -0.0052616759920083916 0.36132776784546622 0 -0.0045342830833226501 0.3863935686212247 0 -0.0052616759920083916 0.36132776784546622 0 -0.024169526760701381 0.37267007813580277 0 -0.0045342830833226501 0.3863935686212247 0 -0.0052616759920083916 0.36132776784546622 0 -0.0045342830833226501 0.3863935686212247 0 0.0079023355216259559 0.37348921158265391 0 -0.0052616759920083916 0.36132776784546622 0 -0.0050552824635438226 0.34569829691311771 0 0.0061318462344260851 0.35417601161121459 0 -0.0052616759920083916 0.36132776784546622 0 -0.0050552824635438226 0.34569829691311771 0 -0.02749858990914332 0.35301881799134821 0 -0.02749858990914332 0.35301881799134821 0 -0.024169526760701381 0.37267007813580277 0 -0.04149310004589906 0.37124785083274592 0 -0.0052616759920083916 0.36132776784546622 0 -0.02749858990914332 0.35301881799134821 0 -0.024169526760701381 0.37267007813580277 0 -0.02749858990914332 0.35301881799134821 0 -0.04149310004589906 0.37124785083274592 0 -0.051818441616049399 0.35735321764765782 0 -0.045885169747561752 0.33132665820789581 0 -0.02749858990914332 0.35301881799134821 0 -0.051818441616049399 0.35735321764765782 0 -0.045885169747561752 0.33132665820789581 0 -0.051818441616049399 0.35735321764765782 0 -0.067541502003893042 0.3482616942848048 0 -0.04149310004589906 0.37124785083274592 0 -0.051818441616049399 0.35735321764765782 0 -0.056875823715872062 0.37631267096962301 0 -0.051818441616049399 0.35735321764765782 0 -0.069616273344600341 0.3650636543096733 0 -0.056875823715872062 0.37631267096962301 0 -0.069616273344600341 0.3650636543096733 0 -0.085055645225370236 0.37193713089684588 0 -0.071788917171084016 0.3809272333041443 0 -0.069616273344600341 0.3650636543096733 0 -0.071788917171084016 0.3809272333041443 0 -0.056875823715872062 0.37631267096962301 0 -0.069616273344600341 0.3650636543096733 0 -0.085055645225370236 0.37193713089684588 0 -0.084100884505446297 0.3554636863979832 0 -0.085055645225370236 0.37193713089684588 0 -0.084100884505446297 0.3554636863979832 0 -0.1008292236537022 0.36036332390371462 0 -0.084100884505446297 0.3554636863979832 0 -0.067541502003893042 0.3482616942848048 0 -0.085709514220790303 0.34113927750747819 0 -0.084100884505446297 0.3554636863979832 0 -0.085709514220790303 0.34113927750747819 0 -0.099722393067727538 0.34687368244968458 0 -0.069616273344600341 0.3650636543096733 0 -0.084100884505446297 0.3554636863979832 0 -0.067541502003893042 0.3482616942848048 0 -0.051818441616049399 0.35735321764765782 0 -0.069616273344600341 0.3650636543096733 0 -0.067541502003893042 0.3482616942848048 0 -0.067541502003893042 0.3482616942848048 0 -0.073191842414501496 0.33174208285196288 0 -0.085709514220790303 0.34113927750747819 0 -0.058679851530075752 0.32054224196392622 0 -0.073191842414501496 0.33174208285196288 0 -0.074915307566508993 0.31649039264194578 0 -0.054647974243728172 0.30430181459310768 0 -0.058679851530075752 0.32054224196392622 0 -0.074915307566508993 0.31649039264194578 0 -0.073191842414501496 0.33174208285196288 0 -0.074915307566508993 0.31649039264194578 0 -0.095182640889289766 0.32867897069078372 0 -0.090928135519314904 0.31087631578889069 0 -0.074915307566508993 0.31649039264194578 0 -0.095182640889289766 0.32867897069078372 0 -0.074915307566508993 0.31649039264194578 0 -0.095182640889289766 0.32867897069078372 0 -0.073191842414501496 0.33174208285196288 0 -0.085709514220790303 0.34113927750747819 0 -0.095182640889289766 0.32867897069078372 0 -0.085709514220790303 0.34113927750747819 0 -0.095182640889289766 0.32867897069078372 0 -0.099722393067727538 0.34687368244968458 0 -0.095182640889289766 0.32867897069078372 0 -0.1154499742120704 0.34086754873962172 0 -0.095182640889289766 0.32867897069078372 0 -0.1098512680755149 0.32470257897991811 0 -0.1154499742120704 0.34086754873962172 0 -0.095182640889289766 0.32867897069078372 0 -0.1154499742120704 0.34086754873962172 0 -0.099722393067727538 0.34687368244968458 0 -0.1061991548417472 0.31213959050036899 0 -0.090928135519314904 0.31087631578889069 0 -0.095182640889289766 0.32867897069078372 0 -0.1061991548417472 0.31213959050036899 0 -0.095182640889289766 0.32867897069078372 0 -0.1098512680755149 0.32470257897991811 0 -0.1061991548417472 0.31213959050036899 0 -0.115330384384618 0.31728312261503783 0 -0.1098512680755149 0.32470257897991811 0 -0.12136448477009221 0.30951812845445109 0 -0.1061991548417472 0.31213959050036899 0 -0.115330384384618 0.31728312261503783 0 -0.115330384384618 0.31728312261503783 0 -0.1098512680755149 0.32470257897991811 0 -0.12142985306419619 0.32461006626398298 0 -0.12722248981549561 0.3181430308760943 0 -0.115330384384618 0.31728312261503783 0 -0.12142985306419619 0.32461006626398298 0 -0.12722248981549561 0.3181430308760943 0 -0.12136448477009221 0.30951812845445109 0 -0.115330384384618 0.31728312261503783 0 -0.1098512680755149 0.32470257897991811 0 -0.12142985306419619 0.32461006626398298 0 -0.1154499742120704 0.34086754873962172 0 -0.13363790056006589 0.32585743918209531 0 -0.12142985306419619 0.32461006626398298 0 -0.1154499742120704 0.34086754873962172 0 -0.12523428666698541 0.37069662222368049 0 -0.1294360936135257 0.3482770307028879 0 -0.1154159689866658 0.35521970897278921 0 -0.1154499742120704 0.34086754873962172 0 -0.1154159689866658 0.35521970897278921 0 -0.099722393067727538 0.34687368244968458 0 -0.1294360936135257 0.3482770307028879 0 -0.1154499742120704 0.34086754873962172 0 -0.1154159689866658 0.35521970897278921 0 -0.12523428666698541 0.37069662222368049 0 -0.1154159689866658 0.35521970897278921 0 -0.11117961403065831 0.36839673047223442 0 -0.12523428666698541 0.37069662222368049 0 -0.11117961403065831 0.36839673047223442 0 -0.1123930043347208 0.38073562172137532 0 -0.11117961403065831 0.36839673047223442 0 -0.1008292236537022 0.36036332390371462 0 -0.09970079949094271 0.37763208900548878 0 -0.1154159689866658 0.35521970897278921 0 -0.11117961403065831 0.36839673047223442 0 -0.1008292236537022 0.36036332390371462 0 -0.085055645225370236 0.37193713089684588 0 -0.1008292236537022 0.36036332390371462 0 -0.09970079949094271 0.37763208900548878 0 -0.084100884505446297 0.3554636863979832 0 -0.1008292236537022 0.36036332390371462 0 -0.099722393067727538 0.34687368244968458 0 -0.1154159689866658 0.35521970897278921 0 -0.1008292236537022 0.36036332390371462 0 -0.099722393067727538 0.34687368244968458 0 -0.1036554482544351 0.39516830989393792 0 -0.1102807352191843 0.41378788895710661 0 -0.09259379641793411 0.40948313349934218 0 -0.1036554482544351 0.39516830989393792 0 -0.09970079949094271 0.37763208900548878 0 -0.1123930043347208 0.38073562172137532 0 -0.1036554482544351 0.39516830989393792 0 -0.09970079949094271 0.37763208900548878 0 -0.084297773186445962 0.39217279846007119 0 -0.11117961403065831 0.36839673047223442 0 -0.09970079949094271 0.37763208900548878 0 -0.1123930043347208 0.38073562172137532 0 -0.12523428666698541 0.37069662222368049 0 -0.1123930043347208 0.38073562172137532 0 -0.12103247972044499 0.39311621374447298 0 -0.1036554482544351 0.39516830989393792 0 -0.1123930043347208 0.38073562172137532 0 -0.12103247972044499 0.39311621374447298 0 -0.12523428666698541 0.37069662222368049 0 -0.12103247972044499 0.39311621374447298 0 -0.1036554482544351 0.39516830989393792 0 -0.12103247972044499 0.39311621374447298 0 -0.1102807352191843 0.41378788895710661 0 -0.12997925716256209 0.39431640422262348 0 -0.1102807352191843 0.41378788895710661 0 -0.12997925716256209 0.39431640422262348 0 -0.12103247972044499 0.39311621374447298 0 -0.1102807352191843 0.41378788895710661 0 -0.12623023605756489 0.41143854881348008 0 -0.1102807352191843 0.41378788895710661 0 -0.1242188050129694 0.42501783294758849 0 -0.12623023605756489 0.41143854881348008 0 -0.12997925716256209 0.39431640422262348 0 -0.1102807352191843 0.41378788895710661 0 -0.1102807352191843 0.41378788895710661 0 -0.1104760497445479 0.43296770510105842 0 -0.1242188050129694 0.42501783294758849 0 -0.1104760497445479 0.43296770510105842 0 -0.1242188050129694 0.42501783294758849 0 -0.1248743097581413 0.44162978393037222 0 -0.1102807352191843 0.41378788895710661 0 -0.090582213275806372 0.43325937369158968 0 -0.1102807352191843 0.41378788895710661 0 -0.1104760497445479 0.43296770510105842 0 -0.090582213275806372 0.43325937369158968 0 -0.1102807352191843 0.41378788895710661 0 -0.09259379641793411 0.40948313349934218 0 -0.090582213275806372 0.43325937369158968 0 -0.09259379641793411 0.40948313349934218 0 -0.090582213275806372 0.43325937369158968 0 -0.074152812153798875 0.41302729649400538 0 -0.090582213275806372 0.43325937369158968 0 -0.066022972602334681 0.42956105407568013 0 -0.074152812153798875 0.41302729649400538 0 -0.066022972602334681 0.42956105407568013 0 -0.074152812153798875 0.41302729649400538 0 -0.049329429094603867 0.41198700835812702 0 -0.074152812153798875 0.41302729649400538 0 -0.063154715464804681 0.39516467689365731 0 -0.084297773186445962 0.39217279846007119 0 -0.09259379641793411 0.40948313349934218 0 -0.074152812153798875 0.41302729649400538 0 -0.084297773186445962 0.39217279846007119 0 -0.1036554482544351 0.39516830989393792 0 -0.09259379641793411 0.40948313349934218 0 -0.084297773186445962 0.39217279846007119 0 -0.085055645225370236 0.37193713089684588 0 -0.09970079949094271 0.37763208900548878 0 -0.084297773186445962 0.39217279846007119 0 -0.085055645225370236 0.37193713089684588 0 -0.084297773186445962 0.39217279846007119 0 -0.071788917171084016 0.3809272333041443 0 -0.063154715464804681 0.39516467689365731 0 -0.084297773186445962 0.39217279846007119 0 -0.071788917171084016 0.3809272333041443 0 -0.063154715464804681 0.39516467689365731 0 -0.071788917171084016 0.3809272333041443 0 -0.056875823715872062 0.37631267096962301 0 -0.04149310004589906 0.37124785083274592 0 -0.056875823715872062 0.37631267096962301 0 -0.04338349465279491 0.38811939282985902 0 -0.063154715464804681 0.39516467689365731 0 -0.056875823715872062 0.37631267096962301 0 -0.04338349465279491 0.38811939282985902 0 -0.063154715464804681 0.39516467689365731 0 -0.04338349465279491 0.38811939282985902 0 -0.049329429094603867 0.41198700835812702 0 -0.04338349465279491 0.38811939282985902 0 -0.024844401122877391 0.39948633252540261 0 -0.049329429094603867 0.41198700835812702 0 -0.024169526760701381 0.37267007813580277 0 -0.04149310004589906 0.37124785083274592 0 -0.04338349465279491 0.38811939282985902 0 -0.024169526760701381 0.37267007813580277 0 -0.04338349465279491 0.38811939282985902 0 -0.024844401122877391 0.39948633252540261 0 -0.024169526760701381 0.37267007813580277 0 -0.024844401122877391 0.39948633252540261 0 -0.0045342830833226501 0.3863935686212247 0 -0.024844401122877391 0.39948633252540261 0 -0.0045342830833226501 0.3863935686212247 0 -0.0038092142255275289 0.41137928311071797 0 -0.0045342830833226501 0.3863935686212247 0 -0.0038092142255275289 0.41137928311071797 0 -0.024169526760701381 0.37267007813580277 0 -0.0045342830833226501 0.3863935686212247 0 -0.0030841453677343121 0.43636499760021141 0 -0.0038092142255275289 0.41137928311071797 0 -0.026324668085478481 0.42779129271708288 0 -0.0030841453677343121 0.43636499760021141 0 -0.0038092142255275289 0.41137928311071797 0 -0.024844401122877391 0.39948633252540261 0 -0.0038092142255275289 0.41137928311071797 0 -0.026324668085478481 0.42779129271708288 0 -0.026324668085478481 0.42779129271708288 0 -0.049329429094603867 0.41198700835812702 0 -0.049413859365407042 0.43472239834070731 0 -0.024844401122877391 0.39948633252540261 0 -0.026324668085478481 0.42779129271708288 0 -0.049329429094603867 0.41198700835812702 0 -0.074152812153798875 0.41302729649400538 0 -0.063154715464804681 0.39516467689365731 0 -0.049329429094603867 0.41198700835812702 0 -0.066022972602334681 0.42956105407568013 0 -0.049329429094603867 0.41198700835812702 0 -0.049413859365407042 0.43472239834070731 0 -0.066022972602334681 0.42956105407568013 0 -0.049413859365407042 0.43472239834070731 0 -0.0708836913324285 0.45273085842607269 0 -0.0393713920190637 0.45112048084748302 0 -0.052402143273794041 0.47435943831340011 0 -0.0708836913324285 0.45273085842607269 0 -0.049413859365407042 0.43472239834070731 0 -0.0393713920190637 0.45112048084748302 0 -0.0708836913324285 0.45273085842607269 0 -0.0393713920190637 0.45112048084748302 0 -0.02876560419008364 0.47203163756026523 0 -0.052402143273794041 0.47435943831340011 0 -0.026324668085478481 0.42779129271708288 0 -0.049413859365407042 0.43472239834070731 0 -0.0393713920190637 0.45112048084748302 0 -0.0030841453677343121 0.43636499760021141 0 -0.026324668085478481 0.42779129271708288 0 -0.01888650882967766 0.45329231687868837 0 -0.026324668085478481 0.42779129271708288 0 -0.0393713920190637 0.45112048084748302 0 -0.01888650882967766 0.45329231687868837 0 -0.0393713920190637 0.45112048084748302 0 -0.01888650882967766 0.45329231687868837 0 -0.02876560419008364 0.47203163756026523 0 -0.01888650882967766 0.45329231687868837 0 -0.01341416680576474 0.47109478045738301 0 -0.02876560419008364 0.47203163756026523 0 -0.01888650882967766 0.45329231687868837 0 -0.002359076509941094 0.46135071208970457 0 -0.01341416680576474 0.47109478045738301 0 -0.0030841453677343121 0.43636499760021141 0 -0.01888650882967766 0.45329231687868837 0 -0.002359076509941094 0.46135071208970457 0 -0.0030841453677343121 0.43636499760021141 0 -0.002359076509941094 0.46135071208970457 0 -0.0090346539348886701 0.5 0 -0.0016340076521478781 0.48633642657919801 0 -0.017460482120078509 0.48648722646036041 0 -0.0016340076521478781 0.48633642657919801 0 -0.01341416680576474 0.47109478045738301 0 -0.017460482120078509 0.48648722646036041 0 -0.002359076509941094 0.46135071208970457 0 -0.0016340076521478781 0.48633642657919801 0 -0.01341416680576474 0.47109478045738301 0 -0.002359076509941094 0.46135071208970457 0 -0.0016340076521478781 0.48633642657919801 0 -0.002359076509941094 0.46135071208970457 0 -0.0016340076521478781 0.48633642657919801 0 0.0036787250480955699 0.47408322248379448 0 -0.01341416680576474 0.47109478045738301 0 -0.02876560419008364 0.47203163756026523 0 -0.017460482120078509 0.48648722646036041 0 -0.02876560419008364 0.47203163756026523 0 -0.017460482120078509 0.48648722646036041 0 -0.038135422162237087 0.5 0 -0.0090346539348886701 0.5 0 -0.017460482120078509 0.48648722646036041 0 -0.038135422162237087 0.5 0 -0.02876560419008364 0.47203163756026523 0 -0.038135422162237087 0.5 0 -0.052402143273794041 0.47435943831340011 0 -0.038135422162237087 0.5 0 -0.052402143273794041 0.47435943831340011 0 -0.067236190389585393 0.5 0 -0.052402143273794041 0.47435943831340011 0 -0.067236190389585393 0.5 0 -0.073349005429332273 0.47921852398434828 0 -0.067236190389585393 0.5 0 -0.073349005429332273 0.47921852398434828 0 -0.096336958616933588 0.5 0 -0.073349005429332273 0.47921852398434828 0 -0.096336958616933588 0.5 0 -0.093805091172543903 0.47224368257650851 0 -0.052402143273794041 0.47435943831340011 0 -0.073349005429332273 0.47921852398434828 0 -0.0708836913324285 0.45273085842607269 0 -0.0708836913324285 0.45273085842607269 0 -0.1043361340672995 0.45358667135048331 0 -0.093805091172543903 0.47224368257650851 0 -0.090582213275806372 0.43325937369158968 0 -0.0708836913324285 0.45273085842607269 0 -0.1043361340672995 0.45358667135048331 0 -0.090582213275806372 0.43325937369158968 0 -0.066022972602334681 0.42956105407568013 0 -0.0708836913324285 0.45273085842607269 0 -0.090582213275806372 0.43325937369158968 0 -0.0708836913324285 0.45273085842607269 0 -0.073349005429332273 0.47921852398434828 0 -0.0708836913324285 0.45273085842607269 0 -0.093805091172543903 0.47224368257650851 0 -0.1043361340672995 0.45358667135048331 0 -0.12052644250191399 0.4682622397032008 0 -0.093805091172543903 0.47224368257650851 0 -0.1104760497445479 0.43296770510105842 0 -0.090582213275806372 0.43325937369158968 0 -0.1043361340672995 0.45358667135048331 0 -0.12618187852634369 0.45882241462805679 0 -0.1043361340672995 0.45358667135048331 0 -0.1248743097581413 0.44162978393037222 0 -0.1104760497445479 0.43296770510105842 0 -0.1043361340672995 0.45358667135048331 0 -0.1248743097581413 0.44162978393037222 0 -0.12618187852634369 0.45882241462805679 0 -0.1043361340672995 0.45358667135048331 0 -0.12052644250191399 0.4682622397032008 0 -0.1317912103042716 0.47600940211286807 0 -0.12052644250191399 0.4682622397032008 0 -0.11642361318749669 0.48420448820259387 0 -0.12052644250191399 0.4682622397032008 0 -0.11642361318749669 0.48420448820259387 0 -0.093805091172543903 0.47224368257650851 0 -0.12543772684428189 0.5 0 -0.11642361318749669 0.48420448820259387 0 -0.096336958616933588 0.5 0 -0.12543772684428189 0.5 0 -0.13178312884530541 0.48627570230508688 0 -0.11642361318749669 0.48420448820259387 0 -0.11642361318749669 0.48420448820259387 0 -0.096336958616933588 0.5 0 -0.093805091172543903 0.47224368257650851 0 -0.1693268494853358 0.079538523923443544 0 -0.16945340910355561 0.089496265134995978 0 -0.1618062267740645 0.07958177760614682 0 -0.16945340910355561 0.089496265134995978 0 -0.1618062267740645 0.07958177760614682 0 -0.1616157516695074 0.095139316102685473 0 -0.1618062267740645 0.07958177760614682 0 -0.1616157516695074 0.095139316102685473 0 -0.14767322655010931 0.084806545451415583 0 -0.1618062267740645 0.07958177760614682 0 -0.16640070467345031 0.07104807823334372 0 -0.15517576509654349 0.068304766057398533 0 -0.16640070467345031 0.07104807823334372 0 -0.15517576509654349 0.068304766057398533 0 -0.16451238623864939 0.061110077383343737 0 -0.16640070467345031 0.07104807823334372 0 -0.17354141001077031 0.063798093567348918 0 -0.16451238623864939 0.061110077383343737 0 -0.17157411485926041 0.074087910936242465 0 -0.16640070467345031 0.07104807823334372 0 -0.17354141001077031 0.063798093567348918 0 -0.1693268494853358 0.079538523923443544 0 -0.17157411485926041 0.074087910936242465 0 -0.16640070467345031 0.07104807823334372 0 -0.1693268494853358 0.079538523923443544 0 -0.1618062267740645 0.07958177760614682 0 -0.16640070467345031 0.07104807823334372 0 -0.17354141001077031 0.063798093567348918 0 -0.17702749526748529 0.081966948020833708 0 -0.17656426821359539 0.052679136019797047 0 -0.18185637422210199 0.067243003367259677 0 -0.17702749526748529 0.081966948020833708 0 -0.17656426821359539 0.052679136019797047 0 -0.17702749526748529 0.081966948020833708 0 -0.17656426821359539 0.052679136019797047 0 -0.17157411485926041 0.074087910936242465 0 -0.17354141001077031 0.063798093567348918 0 -0.17702749526748529 0.081966948020833708 0 -0.18185637422210199 0.067243003367259677 0 -0.1853153676200878 0.058850167416455039 0 -0.18892740292417859 0.064703221589215376 0 -0.18185637422210199 0.067243003367259677 0 -0.19050021368002351 0.072419239531055349 0 -0.18892740292417859 0.064703221589215376 0 -0.18185637422210199 0.067243003367259677 0 -0.18141962227324601 0.075216957450553817 0 -0.17702749526748529 0.081966948020833708 0 -0.18185637422210199 0.067243003367259677 0 -0.18141962227324601 0.075216957450553817 0 -0.19050021368002351 0.072419239531055349 0 -0.18141962227324601 0.075216957450553817 0 -0.1867192510276118 0.077748512173410014 0 -0.19050021368002351 0.072419239531055349 0 -0.18141962227324601 0.075216957450553817 0 -0.1867192510276118 0.077748512173410014 0 -0.1819129998543452 0.079414551687582866 0 -0.18248563084903771 0.082725789105533951 0 -0.17702749526748529 0.081966948020833708 0 -0.17749072232138041 0.1112547600218704 0 -0.1867192510276118 0.077748512173410014 0 -0.18248563084903771 0.082725789105533951 0 -0.1819129998543452 0.079414551687582866 0 -0.18141962227324601 0.075216957450553817 0 -0.1819129998543452 0.079414551687582866 0 -0.17702749526748529 0.081966948020833708 0 -0.18248563084903771 0.082725789105533951 0 -0.1819129998543452 0.079414551687582866 0 -0.17702749526748529 0.081966948020833708 0 -0.1693268494853358 0.079538523923443544 0 -0.16945340910355561 0.089496265134995978 0 -0.17702749526748529 0.081966948020833708 0 -0.1693268494853358 0.079538523923443544 0 -0.17157411485926041 0.074087910936242465 0 -0.17702749526748529 0.081966948020833708 0 -0.17702749526748529 0.081966948020833708 0 -0.17749072232138041 0.1112547600218704 0 -0.16945340910355561 0.089496265134995978 0 -0.17702749526748529 0.081966948020833708 0 -0.17749072232138041 0.1112547600218704 0 -0.17749072232138041 0.1112547600218704 0 -0.1951643137470572 0.093770439387570487 0 -0.18248563084903771 0.082725789105533951 0 -0.17749072232138041 0.1112547600218704 0 -0.1951643137470572 0.093770439387570487 0 -0.17749072232138041 0.1112547600218704 0 -0.19150979458678249 0.1243728737611647 0 -0.17789558253256721 0.1368522929207025 0 -0.17749072232138041 0.1112547600218704 0 -0.17789558253256721 0.1368522929207025 0 -0.17749072232138041 0.1112547600218704 0 -0.16113979031376621 0.12743058591966341 0 -0.17749072232138041 0.1112547600218704 0 -0.15084139672814201 0.110160429760413 0 -0.16113979031376621 0.12743058591966341 0 -0.17749072232138041 0.1112547600218704 0 -0.1616157516695074 0.095139316102685473 0 -0.15084139672814201 0.110160429760413 0 -0.16945340910355561 0.089496265134995978 0 -0.17749072232138041 0.1112547600218704 0 -0.1616157516695074 0.095139316102685473 0 -0.1616157516695074 0.095139316102685473 0 -0.15084139672814201 0.110160429760413 0 -0.14767322655010931 0.084806545451415583 0 -0.15084139672814201 0.110160429760413 0 -0.1348328660863515 0.097215266237156234 0 -0.14767322655010931 0.084806545451415583 0 -0.15084139672814201 0.110160429760413 0 -0.13137241316615089 0.11357835761918721 0 -0.14300315410871919 0.1253406317882016 0 -0.15084139672814201 0.110160429760413 0 -0.16113979031376621 0.12743058591966341 0 -0.14300315410871919 0.1253406317882016 0 -0.13137241316615089 0.11357835761918721 0 -0.14300315410871919 0.1253406317882016 0 -0.12687331202938101 0.13192737382428379 0 -0.13137241316615089 0.11357835761918721 0 -0.1348328660863515 0.097215266237156234 0 -0.1198812247159142 0.095002477965890675 0 -0.15084139672814201 0.110160429760413 0 -0.13137241316615089 0.11357835761918721 0 -0.1348328660863515 0.097215266237156234 0 -0.1348328660863515 0.097215266237156234 0 -0.12533951967512769 0.078274991835817334 0 -0.1198812247159142 0.095002477965890675 0 -0.1348328660863515 0.097215266237156234 0 -0.12533951967512769 0.078274991835817334 0 -0.14767322655010931 0.084806545451415583 0 -0.1618062267740645 0.07958177760614682 0 -0.14767322655010931 0.084806545451415583 0 -0.15517576509654349 0.068304766057398533 0 -0.14767322655010931 0.084806545451415583 0 -0.15517576509654349 0.068304766057398533 0 -0.14001017723872511 0.063978020277280875 0 -0.12533951967512769 0.078274991835817334 0 -0.14767322655010931 0.084806545451415583 0 -0.14001017723872511 0.063978020277280875 0 -0.12533951967512769 0.078274991835817334 0 -0.14001017723872511 0.063978020277280875 0 -0.1248745965026067 0.059896082918310993 0 -0.14001017723872511 0.063978020277280875 0 -0.13626681081840961 0.042829268155062397 0 -0.1248745965026067 0.059896082918310993 0 -0.13626681081840961 0.042829268155062397 0 -0.1339340902388827 0.022300844741854581 0 -0.1180188049733784 0.030804183747700629 0 -0.13626681081840961 0.042829268155062397 0 -0.1339340902388827 0.022300844741854581 0 -0.15968783393996419 0.037567277286728401 0 -0.13626681081840961 0.042829268155062397 0 -0.15351002702878311 0.053877414325468623 0 -0.15968783393996419 0.037567277286728401 0 -0.13626681081840961 0.042829268155062397 0 -0.15968783393996419 0.037567277286728401 0 -0.14001017723872511 0.063978020277280875 0 -0.13626681081840961 0.042829268155062397 0 -0.15351002702878311 0.053877414325468623 0 -0.15517576509654349 0.068304766057398533 0 -0.14001017723872511 0.063978020277280875 0 -0.15351002702878311 0.053877414325468623 0 -0.12735709500343681 0.004015926865657337 0 -0.15177498865293759 0.016606981474429749 0 -0.12735709500343681 0.004015926865657337 0 -0.1339340902388827 0.022300844741854581 0 -0.15177498865293759 0.016606981474429749 0 -0.12735709500343681 0.004015926865657337 0 -0.1339340902388827 0.022300844741854581 0 -0.11835839359799651 0.016938700943610479 0 -0.1339340902388827 0.022300844741854581 0 -0.15177498865293759 0.016606981474429749 0 -0.15968783393996419 0.037567277286728401 0 -0.1339340902388827 0.022300844741854581 0 -0.15968783393996419 0.037567277286728401 0 -0.12735709500343681 0.004015926865657337 0 -0.15177498865293759 0.016606981474429749 0 -0.14801408494475049 0.0031182785745780331 0 -0.15177498865293759 0.016606981474429749 0 -0.14801408494475049 0.0031182785745780331 0 -0.1619193683370386 0.0066468078375689294 0 -0.15773416148281841 -0.0035868741371463562 0 -0.14801408494475049 0.0031182785745780331 0 -0.1619193683370386 0.0066468078375689294 0 -0.15177498865293759 0.016606981474429749 0 -0.1619193683370386 0.0066468078375689294 0 -0.16760309597538539 0.015861310899326669 0 -0.16716832075785379 -0.0032078365625175 0 -0.1619193683370386 0.0066468078375689294 0 -0.17584419881677341 0.0071523107965592754 0 -0.1619193683370386 0.0066468078375689294 0 -0.16760309597538539 0.015861310899326669 0 -0.17584419881677341 0.0071523107965592754 0 -0.15177498865293759 0.016606981474429749 0 -0.17619288230243149 0.029198036083215671 0 -0.15177498865293759 0.016606981474429749 0 -0.17619288230243149 0.029198036083215671 0 -0.15968783393996419 0.037567277286728401 0 -0.15177498865293759 0.016606981474429749 0 -0.16760309597538539 0.015861310899326669 0 -0.17619288230243149 0.029198036083215671 0 -0.17619288230243149 0.029198036083215671 0 -0.1852069371874478 0.015311100034367831 0 -0.17584419881677341 0.0071523107965592754 0 -0.17619288230243149 0.029198036083215671 0 -0.17584419881677341 0.0071523107965592754 0 -0.16760309597538539 0.015861310899326669 0 -0.17619288230243149 0.029198036083215671 0 -0.17584419881677341 0.0071523107965592754 0 -0.17619288230243149 0.029198036083215671 0 -0.19572946351785711 0.039272048382664133 0 -0.19029700863621521 0.024089069561314659 0 -0.17619288230243149 0.029198036083215671 0 -0.1852069371874478 0.015311100034367831 0 -0.19029700863621521 0.024089069561314659 0 -0.1852069371874478 0.015311100034367831 0 -0.18717715497560061 0.0062623078557712403 0 -0.17584419881677341 0.0071523107965592754 0 -0.18154179604087481 -0.0036104187285780349 0 -0.18717715497560061 0.0062623078557712403 0 -0.17584419881677341 0.0071523107965592754 0 -0.15351002702878311 0.053877414325468623 0 -0.1659033968134131 0.050269055427132232 0 -0.15968783393996419 0.037567277286728401 0 -0.1659033968134131 0.050269055427132232 0 -0.16451238623864939 0.061110077383343737 0 -0.17656426821359539 0.052679136019797047 0 -0.17354141001077031 0.063798093567348918 0 -0.16451238623864939 0.061110077383343737 0 -0.17656426821359539 0.052679136019797047 0 -0.16451238623864939 0.061110077383343737 0 -0.17656426821359539 0.052679136019797047 0 -0.15351002702878311 0.053877414325468623 0 -0.1659033968134131 0.050269055427132232 0 -0.16451238623864939 0.061110077383343737 0 -0.15517576509654349 0.068304766057398533 0 -0.15351002702878311 0.053877414325468623 0 -0.16451238623864939 0.061110077383343737 0 -0.15968783393996419 0.037567277286728401 0 -0.1762663423330757 0.033842591165095401 0 -0.1659033968134131 0.050269055427132232 0 -0.15968783393996419 0.037567277286728401 0 -0.1764827173319595 0.047523031967639129 0 -0.17619288230243149 0.029198036083215671 0 -0.15968783393996419 0.037567277286728401 0 -0.1762663423330757 0.033842591165095401 0 -0.15968783393996419 0.037567277286728401 0 -0.1764827173319595 0.047523031967639129 0 -0.15968783393996419 0.037567277286728401 0 -0.1762663423330757 0.033842591165095401 0 -0.1764827173319595 0.047523031967639129 0 -0.17619288230243149 0.029198036083215671 0 -0.19572946351785711 0.039272048382664133 0 -0.181281627628781 0.040827380692469641 0 -0.18051660755046151 0.049914261515807259 0 -0.1764827173319595 0.047523031967639129 0 -0.17619288230243149 0.029198036083215671 0 -0.1762663423330757 0.033842591165095401 0 -0.19572946351785711 0.039272048382664133 0 -0.1762663423330757 0.033842591165095401 0 -0.181281627628781 0.040827380692469641 0 -0.19572946351785711 0.039272048382664133 0 -0.1762663423330757 0.033842591165095401 0 -0.181281627628781 0.040827380692469641 0 -0.1764827173319595 0.047523031967639129 0 -0.1762663423330757 0.033842591165095401 0 -0.1764827173319595 0.047523031967639129 0 -0.17619288230243149 0.029198036083215671 0 -0.1762663423330757 0.033842591165095401 0 -0.181281627628781 0.040827380692469641 0 -0.18051660755046151 0.049914261515807259 0 -0.19572946351785711 0.039272048382664133 0 -0.18051660755046151 0.049914261515807259 0 -0.17656426821359539 0.052679136019797047 0 -0.1853153676200878 0.058850167416455039 0 -0.18051660755046151 0.049914261515807259 0 -0.1764827173319595 0.047523031967639129 0 -0.1764827173319595 0.047523031967639129 0 -0.17656426821359539 0.052679136019797047 0 -0.1659033968134131 0.050269055427132232 0 -0.1764827173319595 0.047523031967639129 0 -0.17656426821359539 0.052679136019797047 0 -0.18051660755046151 0.049914261515807259 0 -0.1764827173319595 0.047523031967639129 0 -0.17656426821359539 0.052679136019797047 0 -0.18051660755046151 0.049914261515807259 0 -0.17656426821359539 0.052679136019797047 0 -0.18185637422210199 0.067243003367259677 0 -0.17656426821359539 0.052679136019797047 0 -0.1853153676200878 0.058850167416455039 0 -0.1853153676200878 0.058850167416455039 0 -0.19803765617450109 0.060300476042091433 0 -0.18892740292417859 0.064703221589215376 0 -0.18051660755046151 0.049914261515807259 0 -0.19803765617450109 0.060300476042091433 0 -0.1977866825790292 0.05007637869738242 0 -0.18051660755046151 0.049914261515807259 0 -0.1853153676200878 0.058850167416455039 0 -0.19803765617450109 0.060300476042091433 0 -0.18051660755046151 0.049914261515807259 0 -0.19803765617450109 0.060300476042091433 0 -0.19803765617450109 0.060300476042091433 0 -0.1977866825790292 0.05007637869738242 0 -0.2066297839190599 0.054855205218219752 0 -0.18051660755046151 0.049914261515807259 0 -0.1977866825790292 0.05007637869738242 0 -0.19572946351785711 0.039272048382664133 0 -0.18051660755046151 0.049914261515807259 0 -0.19572946351785711 0.039272048382664133 0 -0.19572946351785711 0.039272048382664133 0 -0.2098237389609823 0.029412342647955388 0 -0.1977866825790292 0.05007637869738242 0 -0.19572946351785711 0.039272048382664133 0 -0.2073344650466164 0.045256152092875389 0 -0.19572946351785711 0.039272048382664133 0 -0.2073344650466164 0.045256152092875389 0 -0.2073344650466164 0.045256152092875389 0 -0.21702036639386221 0.038769314305699548 0 -0.2098237389609823 0.029412342647955388 0 -0.19572946351785711 0.039272048382664133 0 -0.2073344650466164 0.045256152092875389 0 -0.2098237389609823 0.029412342647955388 0 -0.21702036639386221 0.038769314305699548 0 -0.2098237389609823 0.029412342647955388 0 -0.2284051488343061 0.035137669629428533 0 -0.2073344650466164 0.045256152092875389 0 -0.21702036639386221 0.038769314305699548 0 -0.22251811273354419 0.045271092852538893 0 -0.2073344650466164 0.045256152092875389 0 -0.21769334509658461 0.055951218203848879 0 -0.22251811273354419 0.045271092852538893 0 -0.21769334509658461 0.055951218203848879 0 -0.20947987249717179 0.060448397508133619 0 -0.2066297839190599 0.054855205218219752 0 -0.21769334509658461 0.055951218203848879 0 -0.20947987249717179 0.060448397508133619 0 -0.2155587047985415 0.070686690568374386 0 -0.19803765617450109 0.060300476042091433 0 -0.20947987249717179 0.060448397508133619 0 -0.2066297839190599 0.054855205218219752 0 -0.1977866825790292 0.05007637869738242 0 -0.2073344650466164 0.045256152092875389 0 -0.2066297839190599 0.054855205218219752 0 -0.2073344650466164 0.045256152092875389 0 -0.21769334509658461 0.055951218203848879 0 -0.2066297839190599 0.054855205218219752 0 -0.1989264366345522 -0.0080023544535597537 0 -0.1965234412062255 0.0098537758749781944 0 -0.20713549204565579 6.5395444916274768e-05 0 -0.19066530249761049 -0.0041303576494283751 0 -0.18717715497560061 0.0062623078557712403 0 -0.1965234412062255 0.0098537758749781944 0 -0.1852069371874478 0.015311100034367831 0 -0.18717715497560061 0.0062623078557712403 0 -0.1965234412062255 0.0098537758749781944 0 -0.1965234412062255 0.0098537758749781944 0 -0.20113962024173071 0.02227838771243261 0 -0.2107847094499361 0.011405203725301251 0 -0.19572946351785711 0.039272048382664133 0 -0.20113962024173071 0.02227838771243261 0 -0.2098237389609823 0.029412342647955388 0 -0.19572946351785711 0.039272048382664133 0 -0.20113962024173071 0.02227838771243261 0 -0.19029700863621521 0.024089069561314659 0 -0.1965234412062255 0.0098537758749781944 0 -0.20113962024173071 0.02227838771243261 0 -0.19029700863621521 0.024089069561314659 0 -0.1852069371874478 0.015311100034367831 0 -0.1965234412062255 0.0098537758749781944 0 -0.19029700863621521 0.024089069561314659 0 -0.2098237389609823 0.029412342647955388 0 -0.2107847094499361 0.011405203725301251 0 -0.22391801440410891 0.019552636913248388 0 -0.20113962024173071 0.02227838771243261 0 -0.2098237389609823 0.029412342647955388 0 -0.2107847094499361 0.011405203725301251 0 -0.2098237389609823 0.029412342647955388 0 -0.22391801440410891 0.019552636913248388 0 -0.21702438745170211 -0.0043907958627755336 0 -0.2107847094499361 0.011405203725301251 0 -0.20713549204565579 6.5395444916274768e-05 0 -0.21702438745170211 -0.0043907958627755336 0 -0.2107847094499361 0.011405203725301251 0 -0.22391801440410891 0.019552636913248388 0 -0.1965234412062255 0.0098537758749781944 0 -0.2107847094499361 0.011405203725301251 0 -0.20713549204565579 6.5395444916274768e-05 0 -0.22867745033346079 0.0038692188645070222 0 -0.22391801440410891 0.019552636913248388 0 -0.2344599051246074 0.012178015861532989 0 -0.21702438745170211 -0.0043907958627755336 0 -0.22391801440410891 0.019552636913248388 0 -0.21702438745170211 -0.0043907958627755336 0 -0.22867745033346079 0.0038692188645070222 0 -0.22391801440410891 0.019552636913248388 0 -0.22391801440410891 0.019552636913248388 0 -0.2403792472176362 0.02548084658656756 0 -0.2344599051246074 0.012178015861532989 0 -0.2098237389609823 0.029412342647955388 0 -0.22391801440410891 0.019552636913248388 0 -0.2284051488343061 0.035137669629428533 0 -0.22391801440410891 0.019552636913248388 0 -0.2403792472176362 0.02548084658656756 0 -0.2284051488343061 0.035137669629428533 0 -0.22391801440410891 0.019552636913248388 0 -0.2344599051246074 0.012178015861532989 0 -0.22391801440410891 0.019552636913248388 0 -0.2284051488343061 0.035137669629428533 0 -0.2522816967992324 0.037264740289820159 0 -0.25157722050270093 0.012682655753942951 0 -0.2403792472176362 0.02548084658656756 0 -0.25157722050270093 0.012682655753942951 0 -0.2403792472176362 0.02548084658656756 0 -0.2344599051246074 0.012178015861532989 0 -0.25267499080189931 -0.0034516002120552492 0 -0.25157722050270093 0.012682655753942951 0 -0.2401015516947359 0.00075261550232862703 0 -0.25157722050270093 0.012682655753942951 0 -0.2344599051246074 0.012178015861532989 0 -0.2401015516947359 0.00075261550232862703 0 -0.22867745033346079 0.0038692188645070222 0 -0.2344599051246074 0.012178015861532989 0 -0.2401015516947359 0.00075261550232862703 0 -0.21769334509658461 0.055951218203848879 0 -0.23255980098598539 0.056775429521547523 0 -0.2155587047985415 0.070686690568374386 0 -0.23289228326450309 0.050722702345608793 0 -0.22641588552015429 0.052180110730886013 0 -0.22251811273354419 0.045271092852538893 0 -0.23289228326450309 0.050722702345608793 0 -0.23255980098598539 0.056775429521547523 0 -0.22641588552015429 0.052180110730886013 0 -0.21769334509658461 0.055951218203848879 0 -0.23255980098598539 0.056775429521547523 0 -0.22641588552015429 0.052180110730886013 0 -0.21769334509658461 0.055951218203848879 0 -0.22641588552015429 0.052180110730886013 0 -0.22251811273354419 0.045271092852538893 0 -0.21702036639386221 0.038769314305699548 0 -0.22251811273354419 0.045271092852538893 0 -0.2284051488343061 0.035137669629428533 0 -0.23289228326450309 0.050722702345608793 0 -0.22251811273354419 0.045271092852538893 0 -0.2284051488343061 0.035137669629428533 0 -0.23289228326450309 0.050722702345608793 0 -0.2284051488343061 0.035137669629428533 0 -0.2522816967992324 0.037264740289820159 0 -0.2403792472176362 0.02548084658656756 0 -0.2284051488343061 0.035137669629428533 0 -0.2522816967992324 0.037264740289820159 0 -0.23289228326450309 0.050722702345608793 0 -0.2284051488343061 0.035137669629428533 0 -0.2522816967992324 0.037264740289820159 0 -0.23289228326450309 0.050722702345608793 0 -0.23255980098598539 0.056775429521547523 0 -0.2522816967992324 0.037264740289820159 0 -0.23255980098598539 0.056775429521547523 0 -0.2522816967992324 0.037264740289820159 0 -0.23255980098598539 0.056775429521547523 0 -0.24906194248509719 0.058488871325365822 0 -0.23255980098598539 0.056775429521547523 0 -0.24906194248509719 0.058488871325365822 0 -0.23770452364983391 0.071010308971772351 0 -0.26257114212692878 0.06573449919026883 0 -0.24906194248509719 0.058488871325365822 0 -0.23770452364983391 0.071010308971772351 0 -0.25261226255175379 0.080423606239198905 0 -0.23770452364983391 0.071010308971772351 0 -0.23158356521460469 0.085326977986282804 0 -0.25261226255175379 0.080423606239198905 0 -0.23158356521460469 0.085326977986282804 0 -0.24377998071086901 0.096378574065869249 0 -0.23158356521460469 0.085326977986282804 0 -0.21283790517273879 0.076286118753275345 0 -0.22135706029896429 0.097751395037259853 0 -0.23158356521460469 0.085326977986282804 0 -0.22135706029896429 0.097751395037259853 0 -0.24377998071086901 0.096378574065869249 0 -0.23255980098598539 0.056775429521547523 0 -0.21283790517273879 0.076286118753275345 0 -0.23770452364983391 0.071010308971772351 0 -0.23158356521460469 0.085326977986282804 0 -0.21283790517273879 0.076286118753275345 0 -0.23255980098598539 0.056775429521547523 0 -0.23770452364983391 0.071010308971772351 0 -0.21283790517273879 0.076286118753275345 0 -0.23255980098598539 0.056775429521547523 0 -0.21283790517273879 0.076286118753275345 0 -0.2155587047985415 0.070686690568374386 0 -0.23770452364983391 0.071010308971772351 0 -0.21283790517273879 0.076286118753275345 0 -0.19803765617450109 0.060300476042091433 0 -0.20947987249717179 0.060448397508133619 0 -0.2155587047985415 0.070686690568374386 0 -0.19803765617450109 0.060300476042091433 0 -0.20333782300263301 0.070680183335342567 0 -0.2155587047985415 0.070686690568374386 0 -0.19803765617450109 0.060300476042091433 0 -0.2155587047985415 0.070686690568374386 0 -0.21283790517273879 0.076286118753275345 0 -0.19766176801088831 0.079505953929404904 0 -0.20333782300263301 0.070680183335342567 0 -0.21283790517273879 0.076286118753275345 0 -0.19766176801088831 0.079505953929404904 0 -0.20333782300263301 0.070680183335342567 0 -0.21283790517273879 0.076286118753275345 0 -0.2155587047985415 0.070686690568374386 0 -0.21283790517273879 0.076286118753275345 0 -0.1951643137470572 0.093770439387570487 0 -0.22135706029896429 0.097751395037259853 0 -0.21283790517273879 0.076286118753275345 0 -0.1951643137470572 0.093770439387570487 0 -0.21283790517273879 0.076286118753275345 0 -0.19766176801088831 0.079505953929404904 0 -0.1951643137470572 0.093770439387570487 0 -0.18248563084903771 0.082725789105533951 0 -0.19766176801088831 0.079505953929404904 0 -0.1951643137470572 0.093770439387570487 0 -0.1867192510276118 0.077748512173410014 0 -0.18248563084903771 0.082725789105533951 0 -0.19766176801088831 0.079505953929404904 0 -0.18248563084903771 0.082725789105533951 0 -0.19766176801088831 0.079505953929404904 0 -0.1867192510276118 0.077748512173410014 0 -0.19766176801088831 0.079505953929404904 0 -0.19050021368002351 0.072419239531055349 0 -0.19803765617450109 0.060300476042091433 0 -0.19050021368002351 0.072419239531055349 0 -0.18892740292417859 0.064703221589215376 0 -0.19803765617450109 0.060300476042091433 0 -0.20333782300263301 0.070680183335342567 0 -0.19050021368002351 0.072419239531055349 0 -0.20333782300263301 0.070680183335342567 0 -0.19766176801088831 0.079505953929404904 0 -0.19050021368002351 0.072419239531055349 0 -0.17749072232138041 0.1112547600218704 0 -0.19150979458678249 0.1243728737611647 0 -0.1951643137470572 0.093770439387570487 0 -0.19150979458678249 0.1243728737611647 0 -0.1951643137470572 0.093770439387570487 0 -0.20994497012605751 0.11823125198409511 0 -0.1951643137470572 0.093770439387570487 0 -0.20994497012605751 0.11823125198409511 0 -0.22135706029896429 0.097751395037259853 0 -0.20994497012605751 0.11823125198409511 0 -0.2348316268224595 0.11651500804646669 0 -0.2235388627286797 0.12965651036182041 0 -0.20994497012605751 0.11823125198409511 0 -0.22135706029896429 0.097751395037259853 0 -0.2348316268224595 0.11651500804646669 0 -0.22135706029896429 0.097751395037259853 0 -0.24377998071086901 0.096378574065869249 0 -0.2348316268224595 0.11651500804646669 0 -0.25136603029008331 0.1103208693098497 0 -0.24377998071086901 0.096378574065869249 0 -0.2348316268224595 0.11651500804646669 0 -0.25922316449870308 0.12628093809151891 0 -0.25136603029008331 0.1103208693098497 0 -0.2348316268224595 0.11651500804646669 0 -0.25922316449870308 0.12628093809151891 0 -0.2348316268224595 0.11651500804646669 0 -0.2369615480924761 0.1404602413506009 0 -0.2369615480924761 0.1404602413506009 0 -0.2235388627286797 0.12965651036182041 0 -0.2124173058737257 0.14341954006611901 0 -0.2348316268224595 0.11651500804646669 0 -0.2369615480924761 0.1404602413506009 0 -0.2235388627286797 0.12965651036182041 0 -0.2369615480924761 0.1404602413506009 0 -0.22679867445049531 0.16064067306310431 0 -0.2124173058737257 0.14341954006611901 0 -0.2369615480924761 0.1404602413506009 0 -0.247018622616726 0.15992587597476091 0 -0.22679867445049531 0.16064067306310431 0 -0.25846103874104392 0.14702121199507179 0 -0.2369615480924761 0.1404602413506009 0 -0.247018622616726 0.15992587597476091 0 -0.247018622616726 0.15992587597476091 0 -0.23359887481107691 0.1809086922627815 0 -0.247018622616726 0.15992587597476091 0 -0.23359887481107691 0.1809086922627815 0 -0.22679867445049531 0.16064067306310431 0 -0.26439180367967152 0.18225540552070321 0 -0.247018622616726 0.15992587597476091 0 -0.23359887481107691 0.1809086922627815 0 -0.23359887481107691 0.1809086922627815 0 -0.20517995294037331 0.17379218369948349 0 -0.2201791270054278 0.2018915085508021 0 -0.23359887481107691 0.1809086922627815 0 -0.22679867445049531 0.16064067306310431 0 -0.20517995294037331 0.17379218369948349 0 -0.22679867445049531 0.16064067306310431 0 -0.20517995294037331 0.17379218369948349 0 -0.2124173058737257 0.14341954006611901 0 -0.20517995294037331 0.17379218369948349 0 -0.19274338499996449 0.14807478539393409 0 -0.17830044274374979 0.16244982581953471 0 -0.19150979458678249 0.1243728737611647 0 -0.19274338499996449 0.14807478539393409 0 -0.2124173058737257 0.14341954006611901 0 -0.20994497012605751 0.11823125198409511 0 -0.2235388627286797 0.12965651036182041 0 -0.2124173058737257 0.14341954006611901 0 -0.19150979458678249 0.1243728737611647 0 -0.20994497012605751 0.11823125198409511 0 -0.2124173058737257 0.14341954006611901 0 -0.20517995294037331 0.17379218369948349 0 -0.19274338499996449 0.14807478539393409 0 -0.2124173058737257 0.14341954006611901 0 -0.22371849106378741 0.2462845034026982 0 -0.23019370483249479 0.22382880503591951 0 -0.2066863838603582 0.24242880758937649 0 -0.22371849106378741 0.2462845034026982 0 -0.23951274761537589 0.2474853768326048 0 -0.23019370483249479 0.22382880503591951 0 -0.25272375818517617 0.22994970808158929 0 -0.25621817608628389 0.2460965770837312 0 -0.23951274761537589 0.2474853768326048 0 -0.25370102580463139 0.2052288024824625 0 -0.25272375818517617 0.22994970808158929 0 -0.23019370483249479 0.22382880503591951 0 -0.25272375818517617 0.22994970808158929 0 -0.23951274761537589 0.2474853768326048 0 -0.23019370483249479 0.22382880503591951 0 -0.25370102580463139 0.2052288024824625 0 -0.23359887481107691 0.1809086922627815 0 -0.2201791270054278 0.2018915085508021 0 -0.25370102580463139 0.2052288024824625 0 -0.23019370483249479 0.22382880503591951 0 -0.2201791270054278 0.2018915085508021 0 -0.23019370483249479 0.22382880503591951 0 -0.2201791270054278 0.2018915085508021 0 -0.20675937919977869 0.22287432483882261 0 -0.25370102580463139 0.2052288024824625 0 -0.23019370483249479 0.22382880503591951 0 -0.23359887481107691 0.1809086922627815 0 -0.2201791270054278 0.2018915085508021 0 -0.20517995294037331 0.17379218369948349 0 -0.2201791270054278 0.2018915085508021 0 -0.19686056424972551 0.20437535499954981 0 -0.20517995294037331 0.17379218369948349 0 -0.19686056424972551 0.20437535499954981 0 -0.17870530295493239 0.18804735871836689 0 -0.19686056424972551 0.20437535499954981 0 -0.20675937919977869 0.22287432483882261 0 -0.19122946023172571 0.22600186257262461 0 -0.19686056424972551 0.20437535499954981 0 -0.19122946023172571 0.22600186257262461 0 -0.179110163166115 0.21364489161719899 0 -0.2201791270054278 0.2018915085508021 0 -0.19686056424972551 0.20437535499954981 0 -0.20675937919977869 0.22287432483882261 0 -0.2201791270054278 0.2018915085508021 0 -0.20675937919977869 0.22287432483882261 0 -0.23019370483249479 0.22382880503591951 0 -0.2066863838603582 0.24242880758937649 0 -0.23019370483249479 0.22382880503591951 0 -0.20675937919977869 0.22287432483882261 0 -0.2066863838603582 0.24242880758937649 0 -0.20675937919977869 0.22287432483882261 0 -0.19333963139412971 0.24385714112684301 0 -0.20675937919977869 0.22287432483882261 0 -0.19122946023172571 0.22600186257262461 0 -0.19333963139412971 0.24385714112684301 0 -0.19122946023172571 0.22600186257262461 0 -0.19333963139412971 0.24385714112684301 0 -0.17951502337729761 0.2392424245160312 0 -0.20675937919977869 0.22287432483882261 0 -0.19333963139412971 0.24385714112684301 0 -0.2066863838603582 0.24242880758937649 0 -0.18259587964237009 0.2606558300825601 0 -0.19333963139412971 0.24385714112684301 0 -0.2066863838603582 0.24242880758937649 0 -0.21408768962570049 0.25938306782852782 0 -0.22371849106378741 0.2462845034026982 0 -0.2066863838603582 0.24242880758937649 0 -0.1532221513837192 0.25419418888983192 0 -0.17951502337729761 0.2392424245160312 0 -0.15110003921584569 0.22881829817408891 0 -0.18259587964237009 0.2606558300825601 0 -0.19333963139412971 0.24385714112684301 0 -0.17951502337729761 0.2392424245160312 0 -0.17951502337729761 0.2392424245160312 0 -0.1619547442009632 0.2162214427956837 0 -0.179110163166115 0.21364489161719899 0 -0.19122946023172571 0.22600186257262461 0 -0.17951502337729761 0.2392424245160312 0 -0.179110163166115 0.21364489161719899 0 -0.17951502337729761 0.2392424245160312 0 -0.179110163166115 0.21364489161719899 0 -0.17951502337729761 0.2392424245160312 0 -0.1619547442009632 0.2162214427956837 0 -0.15110003921584569 0.22881829817408891 0 -0.1619547442009632 0.2162214427956837 0 -0.179110163166115 0.21364489161719899 0 -0.17870530295493239 0.18804735871836689 0 -0.19686056424972551 0.20437535499954981 0 -0.179110163166115 0.21364489161719899 0 -0.17870530295493239 0.18804735871836689 0 -0.179110163166115 0.21364489161719899 0 -0.17870530295493239 0.18804735871836689 0 -0.1619547442009632 0.2162214427956837 0 -0.17870530295493239 0.18804735871836689 0 -0.15775407484820861 0.18727827749961631 0 -0.14804225966403101 0.20585853828705919 0 -0.15775407484820861 0.18727827749961631 0 -0.13876353146598761 0.18223131465273959 0 -0.1619547442009632 0.2162214427956837 0 -0.14804225966403101 0.20585853828705919 0 -0.15775407484820861 0.18727827749961631 0 -0.13876353146598761 0.18223131465273959 0 -0.1245765098090509 0.17966052017845999 0 -0.1190175871807343 0.20067046473278771 0 -0.14804225966403101 0.20585853828705919 0 -0.13876353146598761 0.18223131465273959 0 -0.1190175871807343 0.20067046473278771 0 -0.14804225966403101 0.20585853828705919 0 -0.13479108425045189 0.2189379304695287 0 -0.1190175871807343 0.20067046473278771 0 -0.13479108425045189 0.2189379304695287 0 -0.12594818007053379 0.2253828658525201 0 -0.1190175871807343 0.20067046473278771 0 -0.1619547442009632 0.2162214427956837 0 -0.14804225966403101 0.20585853828705919 0 -0.15110003921584569 0.22881829817408891 0 -0.14804225966403101 0.20585853828705919 0 -0.15110003921584569 0.22881829817408891 0 -0.13479108425045189 0.2189379304695287 0 -0.15110003921584569 0.22881829817408891 0 -0.13479108425045189 0.2189379304695287 0 -0.1378537507735782 0.22769286600650679 0 -0.15110003921584569 0.22881829817408891 0 -0.1378537507735782 0.22769286600650679 0 -0.13827307027013019 0.2362506378269415 0 -0.13479108425045189 0.2189379304695287 0 -0.12594818007053379 0.2253828658525201 0 -0.1378537507735782 0.22769286600650679 0 -0.12594818007053379 0.2253828658525201 0 -0.1378537507735782 0.22769286600650679 0 -0.13827307027013019 0.2362506378269415 0 -0.12594818007053379 0.2253828658525201 0 -0.13827307027013019 0.2362506378269415 0 -0.1327712538659816 0.24971188635390451 0 -0.12594818007053379 0.2253828658525201 0 -0.1327712538659816 0.24971188635390451 0 -0.1532221513837192 0.25419418888983192 0 -0.15110003921584569 0.22881829817408891 0 -0.13827307027013019 0.2362506378269415 0 -0.1532221513837192 0.25419418888983192 0 -0.13827307027013019 0.2362506378269415 0 -0.1327712538659816 0.24971188635390451 0 -0.16317411874061041 0.14897554401654969 0 -0.16113979031376621 0.12743058591966341 0 -0.1447888583061562 0.1436064118174607 0 -0.16317411874061041 0.14897554401654969 0 -0.16113979031376621 0.12743058591966341 0 -0.17789558253256721 0.1368522929207025 0 -0.17749072232138041 0.1112547600218704 0 -0.16113979031376621 0.12743058591966341 0 -0.17789558253256721 0.1368522929207025 0 -0.19150979458678249 0.1243728737611647 0 -0.19274338499996449 0.14807478539393409 0 -0.17789558253256721 0.1368522929207025 0 -0.16317411874061041 0.14897554401654969 0 -0.17789558253256721 0.1368522929207025 0 -0.17830044274374979 0.16244982581953471 0 -0.17789558253256721 0.1368522929207025 0 -0.17830044274374979 0.16244982581953471 0 -0.19274338499996449 0.14807478539393409 0 -0.17789558253256721 0.1368522929207025 0 -0.17830044274374979 0.16244982581953471 0 -0.20517995294037331 0.17379218369948349 0 -0.17870530295493239 0.18804735871836689 0 -0.17830044274374979 0.16244982581953471 0 -0.17870530295493239 0.18804735871836689 0 -0.17830044274374979 0.16244982581953471 0 -0.17870530295493239 0.18804735871836689 0 -0.17830044274374979 0.16244982581953471 0 -0.15775407484820861 0.18727827749961631 0 -0.17830044274374979 0.16244982581953471 0 -0.15775407484820861 0.18727827749961631 0 -0.15245232938168229 0.1648839185887534 0 -0.16317411874061041 0.14897554401654969 0 -0.17830044274374979 0.16244982581953471 0 -0.15245232938168229 0.1648839185887534 0 -0.15775407484820861 0.18727827749961631 0 -0.15245232938168229 0.1648839185887534 0 -0.13876353146598761 0.18223131465273959 0 -0.13876353146598761 0.18223131465273959 0 -0.12843792629854631 0.15978223771525801 0 -0.1245765098090509 0.17966052017845999 0 -0.15245232938168229 0.1648839185887534 0 -0.13876353146598761 0.18223131465273959 0 -0.12843792629854631 0.15978223771525801 0 -0.12843792629854631 0.15978223771525801 0 -0.1447888583061562 0.1436064118174607 0 -0.12843792629854631 0.15978223771525801 0 -0.1447888583061562 0.1436064118174607 0 -0.1204435081575875 0.14623213693654391 0 -0.16317411874061041 0.14897554401654969 0 -0.15245232938168229 0.1648839185887534 0 -0.1447888583061562 0.1436064118174607 0 -0.15245232938168229 0.1648839185887534 0 -0.12843792629854631 0.15978223771525801 0 -0.1447888583061562 0.1436064118174607 0 -0.16113979031376621 0.12743058591966341 0 -0.1447888583061562 0.1436064118174607 0 -0.14300315410871919 0.1253406317882016 0 -0.16113979031376621 0.12743058591966341 0 -0.1447888583061562 0.1436064118174607 0 -0.1447888583061562 0.1436064118174607 0 -0.12687331202938101 0.13192737382428379 0 -0.1204435081575875 0.14623213693654391 0 -0.1447888583061562 0.1436064118174607 0 -0.14300315410871919 0.1253406317882016 0 -0.12687331202938101 0.13192737382428379 0 -0.12687331202938101 0.13192737382428379 0 -0.1130049083687871 0.13722853083192951 0 -0.10667563132183119 0.1260080396076822 0 -0.12687331202938101 0.13192737382428379 0 -0.1130049083687871 0.13722853083192951 0 -0.1204435081575875 0.14623213693654391 0 -0.10667563132183119 0.1260080396076822 0 -0.081978849477511453 0.1384377215961772 0 -0.096577670607123245 0.1239972751083621 0 -0.10667563132183119 0.1260080396076822 0 -0.1008242758955458 0.1385116675773613 0 -0.081978849477511453 0.1384377215961772 0 -0.10667563132183119 0.1260080396076822 0 -0.081978849477511453 0.1384377215961772 0 -0.1130049083687871 0.13722853083192951 0 -0.10667563132183119 0.1260080396076822 0 -0.1008242758955458 0.1385116675773613 0 -0.1130049083687871 0.13722853083192951 0 -0.1008242758955458 0.1385116675773613 0 -0.1078791741402548 0.14587794917826699 0 -0.094422293866394627 0.1556947047027778 0 -0.094582816169344081 0.14500609667275041 0 -0.1078791741402548 0.14587794917826699 0 -0.1008242758955458 0.1385116675773613 0 -0.094582816169344081 0.14500609667275041 0 -0.1078791741402548 0.14587794917826699 0 -0.12843792629854631 0.15978223771525801 0 -0.1204435081575875 0.14623213693654391 0 -0.1073217141416921 0.15896651377475199 0 -0.1078791741402548 0.14587794917826699 0 -0.1204435081575875 0.14623213693654391 0 -0.1073217141416921 0.15896651377475199 0 -0.1130049083687871 0.13722853083192951 0 -0.1078791741402548 0.14587794917826699 0 -0.1204435081575875 0.14623213693654391 0 -0.12843792629854631 0.15978223771525801 0 -0.1245765098090509 0.17966052017845999 0 -0.1120869942909358 0.17595806361305491 0 -0.1120869942909358 0.17595806361305491 0 -0.1073217141416921 0.15896651377475199 0 -0.12843792629854631 0.15978223771525801 0 -0.1120869942909358 0.17595806361305491 0 -0.12843792629854631 0.15978223771525801 0 -0.1120869942909358 0.17595806361305491 0 -0.1073217141416921 0.15896651377475199 0 -0.1245765098090509 0.17966052017845999 0 -0.1120869942909358 0.17595806361305491 0 -0.1190175871807343 0.20067046473278771 0 -0.1120869942909358 0.17595806361305491 0 -0.1020860412129876 0.1687304780430319 0 -0.095149617161195271 0.19271405424946009 0 -0.1020860412129876 0.1687304780430319 0 -0.095149617161195271 0.19271405424946009 0 -0.1120869942909358 0.17595806361305491 0 -0.095149617161195271 0.19271405424946009 0 -0.1020860412129876 0.1687304780430319 0 -0.093279947424905002 0.17994671451597891 0 -0.095149617161195271 0.19271405424946009 0 -0.1020860412129876 0.1687304780430319 0 -0.089956478385260899 0.16811851343374709 0 -0.093279947424905002 0.17994671451597891 0 -0.094422293866394627 0.1556947047027778 0 -0.1078791741402548 0.14587794917826699 0 -0.1020860412129876 0.1687304780430319 0 -0.1078791741402548 0.14587794917826699 0 -0.1073217141416921 0.15896651377475199 0 -0.1020860412129876 0.1687304780430319 0 -0.1120869942909358 0.17595806361305491 0 -0.1073217141416921 0.15896651377475199 0 -0.1020860412129876 0.1687304780430319 0 -0.1078791741402548 0.14587794917826699 0 -0.1020860412129876 0.1687304780430319 0 -0.094422293866394627 0.1556947047027778 0 -0.1020860412129876 0.1687304780430319 0 -0.089956478385260899 0.16811851343374709 0 -0.094422293866394627 0.1556947047027778 0 -0.089956478385260899 0.16811851343374709 0 -0.084742563178951485 0.15922574422532609 0 -0.089956478385260899 0.16811851343374709 0 -0.080023232193096983 0.1657260639694961 0 -0.084742563178951485 0.15922574422532609 0 -0.089956478385260899 0.16811851343374709 0 -0.080023232193096983 0.1657260639694961 0 -0.081293191825158789 0.17801619480298669 0 -0.080023232193096983 0.1657260639694961 0 -0.084742563178951485 0.15922574422532609 0 -0.074930767296401246 0.15918989644816289 0 -0.081293191825158789 0.17801619480298669 0 -0.095149617161195271 0.19271405424946009 0 -0.073474196407973841 0.19079473501472519 0 -0.081293191825158789 0.17801619480298669 0 -0.095149617161195271 0.19271405424946009 0 -0.093279947424905002 0.17994671451597891 0 -0.081293191825158789 0.17801619480298669 0 -0.095149617161195271 0.19271405424946009 0 -0.089956478385260899 0.16811851343374709 0 -0.093279947424905002 0.17994671451597891 0 -0.081293191825158789 0.17801619480298669 0 -0.064604308801312821 0.18244611143699499 0 -0.069549912031587807 0.17131438064227461 0 -0.073474196407973841 0.19079473501472519 0 -0.081293191825158789 0.17801619480298669 0 -0.069549912031587807 0.17131438064227461 0 -0.073474196407973841 0.19079473501472519 0 -0.069549912031587807 0.17131438064227461 0 -0.073474196407973841 0.19079473501472519 0 -0.064604308801312821 0.18244611143699499 0 -0.069549912031587807 0.17131438064227461 0 -0.062041409668937363 0.1723934095439342 0 -0.084742563178951485 0.15922574422532609 0 -0.074930767296401246 0.15918989644816289 0 -0.074588176879671189 0.15080810715310269 0 -0.080023232193096983 0.1657260639694961 0 -0.074930767296401246 0.15918989644816289 0 -0.06743676648912228 0.16331833535651319 0 -0.081293191825158789 0.17801619480298669 0 -0.069549912031587807 0.17131438064227461 0 -0.06743676648912228 0.16331833535651319 0 -0.080023232193096983 0.1657260639694961 0 -0.081293191825158789 0.17801619480298669 0 -0.06743676648912228 0.16331833535651319 0 -0.081293191825158789 0.17801619480298669 0 -0.06743676648912228 0.16331833535651319 0 -0.069549912031587807 0.17131438064227461 0 -0.062031688412593149 0.16441565219234799 0 -0.062041409668937363 0.1723934095439342 0 -0.069549912031587807 0.17131438064227461 0 -0.06743676648912228 0.16331833535651319 0 -0.062031688412593149 0.16441565219234799 0 -0.06743676648912228 0.16331833535651319 0 -0.06725389334219653 0.15771987894696021 0 -0.062031688412593149 0.16441565219234799 0 -0.074930767296401246 0.15918989644816289 0 -0.06743676648912228 0.16331833535651319 0 -0.06725389334219653 0.15771987894696021 0 -0.081978849477511453 0.1384377215961772 0 -0.05728206763319247 0.1508674035846734 0 -0.06725389334219653 0.15771987894696021 0 -0.074588176879671189 0.15080810715310269 0 -0.05728206763319247 0.1508674035846734 0 -0.074588176879671189 0.15080810715310269 0 -0.081978849477511453 0.1384377215961772 0 -0.05728206763319247 0.1508674035846734 0 -0.081978849477511453 0.1384377215961772 0 -0.06070043620975589 0.134524720015781 0 -0.05728206763319247 0.1508674035846734 0 -0.074930767296401246 0.15918989644816289 0 -0.06725389334219653 0.15771987894696021 0 -0.074588176879671189 0.15080810715310269 0 -0.071786582042575819 0.1280585334591178 0 -0.081978849477511453 0.1384377215961772 0 -0.08034823769671974 0.121089655777625 0 -0.071786582042575819 0.1280585334591178 0 -0.081978849477511453 0.1384377215961772 0 -0.06070043620975589 0.134524720015781 0 -0.071786582042575819 0.1280585334591178 0 -0.06070043620975589 0.134524720015781 0 -0.06411880478631618 0.11818203644688791 0 -0.081978849477511453 0.1384377215961772 0 -0.08034823769671974 0.121089655777625 0 -0.096577670607123245 0.1239972751083621 0 -0.1008242758955458 0.1385116675773613 0 -0.094582816169344081 0.14500609667275041 0 -0.081978849477511453 0.1384377215961772 0 -0.094582816169344081 0.14500609667275041 0 -0.081978849477511453 0.1384377215961772 0 -0.0854808471676783 0.14892295327365951 0 -0.094422293866394627 0.1556947047027778 0 -0.084742563178951485 0.15922574422532609 0 -0.0854808471676783 0.14892295327365951 0 -0.094422293866394627 0.1556947047027778 0 -0.094582816169344081 0.14500609667275041 0 -0.0854808471676783 0.14892295327365951 0 -0.084742563178951485 0.15922574422532609 0 -0.074588176879671189 0.15080810715310269 0 -0.0854808471676783 0.14892295327365951 0 -0.074588176879671189 0.15080810715310269 0 -0.081978849477511453 0.1384377215961772 0 -0.0854808471676783 0.14892295327365951 0 -0.1045487088169635 0.24438495162540061 0 -0.11455994162881621 0.23631135170566109 0 -0.098826177075254387 0.23394696074010041 0 -0.10005120432924321 0.25626016583208688 0 -0.094679029848152713 0.24609146959404629 0 -0.1045487088169635 0.24438495162540061 0 -0.094679029848152713 0.24609146959404629 0 -0.1045487088169635 0.24438495162540061 0 -0.098826177075254387 0.23394696074010041 0 -0.116744543106582 0.25728181003509248 0 -0.1045487088169635 0.24438495162540061 0 -0.11455994162881621 0.23631135170566109 0 -0.116744543106582 0.25728181003509248 0 -0.1327712538659816 0.24971188635390451 0 -0.11455994162881621 0.23631135170566109 0 -0.12594818007053379 0.2253828658525201 0 -0.1327712538659816 0.24971188635390451 0 -0.11455994162881621 0.23631135170566109 0 -0.11455994162881621 0.23631135170566109 0 -0.1144435087069731 0.2232582902708152 0 -0.1063794885369051 0.22193246116811141 0 -0.12594818007053379 0.2253828658525201 0 -0.1144435087069731 0.2232582902708152 0 -0.1108864245916369 0.20940648235696879 0 -0.12594818007053379 0.2253828658525201 0 -0.11455994162881621 0.23631135170566109 0 -0.1144435087069731 0.2232582902708152 0 -0.11455994162881621 0.23631135170566109 0 -0.1063794885369051 0.22193246116811141 0 -0.098826177075254387 0.23394696074010041 0 -0.1063794885369051 0.22193246116811141 0 -0.098826177075254387 0.23394696074010041 0 -0.089950704149474564 0.21660149084549701 0 -0.1063794885369051 0.22193246116811141 0 -0.089950704149474564 0.21660149084549701 0 -0.10053720550511509 0.21148400771379949 0 -0.095149617161195271 0.19271405424946009 0 -0.089950704149474564 0.21660149084549701 0 -0.1063794885369051 0.22193246116811141 0 -0.10053720550511509 0.21148400771379949 0 -0.089950704149474564 0.21660149084549701 0 -0.10053720550511509 0.21148400771379949 0 -0.1108864245916369 0.20940648235696879 0 -0.095149617161195271 0.19271405424946009 0 -0.1063794885369051 0.22193246116811141 0 -0.10053720550511509 0.21148400771379949 0 -0.1108864245916369 0.20940648235696879 0 -0.12594818007053379 0.2253828658525201 0 -0.1190175871807343 0.20067046473278771 0 -0.12594818007053379 0.2253828658525201 0 -0.1108864245916369 0.20940648235696879 0 -0.1190175871807343 0.20067046473278771 0 -0.12594818007053379 0.2253828658525201 0 -0.1108864245916369 0.20940648235696879 0 -0.1144435087069731 0.2232582902708152 0 -0.1063794885369051 0.22193246116811141 0 -0.1108864245916369 0.20940648235696879 0 -0.1120869942909358 0.17595806361305491 0 -0.1190175871807343 0.20067046473278771 0 -0.1108864245916369 0.20940648235696879 0 -0.1190175871807343 0.20067046473278771 0 -0.10682171669235439 0.1942096232944058 0 -0.1120869942909358 0.17595806361305491 0 -0.1190175871807343 0.20067046473278771 0 -0.10682171669235439 0.1942096232944058 0 -0.1108864245916369 0.20940648235696879 0 -0.095149617161195271 0.19271405424946009 0 -0.1108864245916369 0.20940648235696879 0 -0.10682171669235439 0.1942096232944058 0 -0.095149617161195271 0.19271405424946009 0 -0.1120869942909358 0.17595806361305491 0 -0.10682171669235439 0.1942096232944058 0 -0.095149617161195271 0.19271405424946009 0 -0.095149617161195271 0.19271405424946009 0 -0.077398480784349299 0.2102750893871779 0 -0.095149617161195271 0.19271405424946009 0 -0.073474196407973841 0.19079473501472519 0 -0.077398480784349299 0.2102750893871779 0 -0.095149617161195271 0.19271405424946009 0 -0.077398480784349299 0.2102750893871779 0 -0.087241526055590657 0.20514135106535239 0 -0.073474196407973841 0.19079473501472519 0 -0.077398480784349299 0.2102750893871779 0 -0.073474196407973841 0.19079473501472519 0 -0.077398480784349299 0.2102750893871779 0 -0.068984895145132993 0.20348567813270921 0 -0.064604308801312821 0.18244611143699499 0 -0.073474196407973841 0.19079473501472519 0 -0.062951628171730722 0.19451437844324071 0 -0.073474196407973841 0.19079473501472519 0 -0.062951628171730722 0.19451437844324071 0 -0.068984895145132993 0.20348567813270921 0 -0.062951628171730722 0.19451437844324071 0 -0.068984895145132993 0.20348567813270921 0 -0.057478398324341332 0.20606456403591589 0 -0.068984895145132993 0.20348567813270921 0 -0.075683327299925024 0.21197187487555791 0 -0.057478398324341332 0.20606456403591589 0 -0.075683327299925024 0.21197187487555791 0 -0.060700713784132942 0.2267940359372384 0 -0.057478398324341332 0.20606456403591589 0 -0.075683327299925024 0.21197187487555791 0 -0.057478398324341332 0.20606456403591589 0 -0.077398480784349299 0.2102750893871779 0 -0.068984895145132993 0.20348567813270921 0 -0.075683327299925024 0.21197187487555791 0 -0.075683327299925024 0.21197187487555791 0 -0.077884159070199604 0.2126860219832131 0 -0.060700713784132942 0.2267940359372384 0 -0.075683327299925024 0.21197187487555791 0 -0.077884159070199604 0.2126860219832131 0 -0.077398480784349299 0.2102750893871779 0 -0.075683327299925024 0.21197187487555791 0 -0.077884159070199604 0.2126860219832131 0 -0.077398480784349299 0.2102750893871779 0 -0.077884159070199604 0.2126860219832131 0 -0.077398480784349299 0.2102750893871779 0 -0.075683327299925024 0.21197187487555791 0 -0.077884159070199604 0.2126860219832131 0 -0.089950704149474564 0.21660149084549701 0 -0.077884159070199604 0.2126860219832131 0 -0.087241526055590657 0.20514135106535239 0 -0.089950704149474564 0.21660149084549701 0 -0.095149617161195271 0.19271405424946009 0 -0.087241526055590657 0.20514135106535239 0 -0.089950704149474564 0.21660149084549701 0 -0.095149617161195271 0.19271405424946009 0 -0.089950704149474564 0.21660149084549701 0 -0.077398480784349299 0.2102750893871779 0 -0.077884159070199604 0.2126860219832131 0 -0.087241526055590657 0.20514135106535239 0 -0.077884159070199604 0.2126860219832131 0 -0.083666647235009842 0.24139059785004849 0 -0.089950704149474564 0.21660149084549701 0 -0.083666647235009842 0.24139059785004849 0 -0.077884159070199604 0.2126860219832131 0 -0.089950704149474564 0.21660149084549701 0 -0.083666647235009842 0.24139059785004849 0 -0.098826177075254387 0.23394696074010041 0 -0.089950704149474564 0.21660149084549701 0 -0.083666647235009842 0.24139059785004849 0 -0.077884159070199604 0.2126860219832131 0 -0.083666647235009842 0.24139059785004849 0 -0.060700713784132942 0.2267940359372384 0 -0.075683327299925024 0.21197187487555791 0 -0.060700713784132942 0.2267940359372384 0 -0.064077212627390134 0.24851538469076631 0 -0.083666647235009842 0.24139059785004849 0 -0.060700713784132942 0.2267940359372384 0 -0.086302411784292182 0.25447467192259482 0 -0.083666647235009842 0.24139059785004849 0 -0.094679029848152713 0.24609146959404629 0 -0.098826177075254387 0.23394696074010041 0 -0.083666647235009842 0.24139059785004849 0 -0.086302411784292182 0.25447467192259482 0 -0.094679029848152713 0.24609146959404629 0 -0.083666647235009842 0.24139059785004849 0 -0.03068766995985707 0.25286978792993342 0 -0.034335222642673788 0.23481172099035691 0 -0.046578861792199937 0.24361118962503389 0 -0.034335222642673788 0.23481172099035691 0 -0.046578861792199937 0.24361118962503389 0 -0.045510089746351297 0.2289623102588538 0 -0.064077212627390134 0.24851538469076631 0 -0.046578861792199937 0.24361118962503389 0 -0.055802081643016588 0.23164020743468811 0 -0.064077212627390134 0.24851538469076631 0 -0.055802081643016588 0.23164020743468811 0 -0.060700713784132942 0.2267940359372384 0 -0.064077212627390134 0.24851538469076631 0 -0.060700713784132942 0.2267940359372384 0 -0.046578861792199937 0.24361118962503389 0 -0.055802081643016588 0.23164020743468811 0 -0.045510089746351297 0.2289623102588538 0 -0.055802081643016588 0.23164020743468811 0 -0.053252725762674542 0.2222055350902031 0 -0.045510089746351297 0.2289623102588538 0 -0.055802081643016588 0.23164020743468811 0 -0.060700713784132942 0.2267940359372384 0 -0.053252725762674542 0.2222055350902031 0 -0.055802081643016588 0.23164020743468811 0 -0.060700713784132942 0.2267940359372384 0 -0.053252725762674542 0.2222055350902031 0 -0.045510089746351297 0.2289623102588538 0 -0.046772345315528908 0.21756655778431969 0 -0.045510089746351297 0.2289623102588538 0 -0.036443083940353373 0.22210497005765251 0 -0.046772345315528908 0.21756655778431969 0 -0.034335222642673788 0.23481172099035691 0 -0.045510089746351297 0.2289623102588538 0 -0.036443083940353373 0.22210497005765251 0 -0.034335222642673788 0.23481172099035691 0 -0.036443083940353373 0.22210497005765251 0 -0.024866254401544021 0.22078734426404351 0 -0.036443083940353373 0.22210497005765251 0 -0.046772345315528908 0.21756655778431969 0 -0.031637039445344017 0.19767931081015269 0 -0.046772345315528908 0.21756655778431969 0 -0.057478398324341332 0.20606456403591589 0 -0.031637039445344017 0.19767931081015269 0 -0.060700713784132942 0.2267940359372384 0 -0.053252725762674542 0.2222055350902031 0 -0.057478398324341332 0.20606456403591589 0 -0.060700713784132942 0.2267940359372384 0 -0.057478398324341332 0.20606456403591589 0 -0.053252725762674542 0.2222055350902031 0 -0.046772345315528908 0.21756655778431969 0 -0.057478398324341332 0.20606456403591589 0 -0.062951628171730722 0.19451437844324071 0 -0.057478398324341332 0.20606456403591589 0 -0.054948738746262903 0.1897910154656581 0 -0.057478398324341332 0.20606456403591589 0 -0.054948738746262903 0.1897910154656581 0 -0.031637039445344017 0.19767931081015269 0 -0.057478398324341332 0.20606456403591589 0 -0.054948738746262903 0.1897910154656581 0 -0.054948738746262903 0.1897910154656581 0 -0.031637039445344017 0.19767931081015269 0 -0.039999697082172873 0.18418677263352329 0 -0.057478398324341332 0.20606456403591589 0 -0.031637039445344017 0.19767931081015269 0 -0.031637039445344017 0.19767931081015269 0 -0.0057956805663459468 0.1892940575843915 0 -0.031637039445344017 0.19767931081015269 0 -0.0057956805663459468 0.1892940575843915 0 -0.024775833668462071 0.17590936267321361 0 -0.031637039445344017 0.19767931081015269 0 -0.0057956805663459468 0.1892940575843915 0 -0.01019634689217482 0.20814994011246479 0 -0.0057956805663459468 0.1892940575843915 0 -0.01019634689217482 0.20814994011246479 0 0.0090806704795409685 0.20996839310177981 0 -0.01019634689217482 0.20814994011246479 0 0.00014186162909880781 0.2338185852574263 0 0.0090806704795409685 0.20996839310177981 0 -0.036443083940353373 0.22210497005765251 0 -0.031637039445344017 0.19767931081015269 0 -0.024866254401544021 0.22078734426404351 0 -0.031637039445344017 0.19767931081015269 0 -0.01019634689217482 0.20814994011246479 0 -0.024866254401544021 0.22078734426404351 0 -0.034335222642673788 0.23481172099035691 0 -0.024866254401544021 0.22078734426404351 0 -0.01991034591062427 0.239405390953495 0 -0.024866254401544021 0.22078734426404351 0 0.00014186162909880781 0.2338185852574263 0 -0.024866254401544021 0.22078734426404351 0 -0.01991034591062427 0.239405390953495 0 0.00014186162909880781 0.2338185852574263 0 -0.01019634689217482 0.20814994011246479 0 -0.024866254401544021 0.22078734426404351 0 0.00014186162909880781 0.2338185852574263 0 -0.0098044441781452579 0.25473951632571468 0 0.00014186162909880781 0.2338185852574263 0 0.0073806355134042019 0.25529449578482938 0 -0.0098044441781452579 0.25473951632571468 0 -0.01991034591062427 0.239405390953495 0 0.00014186162909880781 0.2338185852574263 0 -0.03068766995985707 0.25286978792993342 0 -0.034335222642673788 0.23481172099035691 0 -0.01991034591062427 0.239405390953495 0 -0.03068766995985707 0.25286978792993342 0 -0.0098044441781452579 0.25473951632571468 0 -0.01991034591062427 0.239405390953495 0 -0.045513089216113363 0.1481501368583191 0 -0.039963318838929777 0.1583549670989208 0 -0.028048700007850699 0.14601834090005769 0 -0.045513089216113363 0.1481501368583191 0 -0.037584816749385713 0.12707105787504261 0 -0.028048700007850699 0.14601834090005769 0 -0.037584816749385713 0.12707105787504261 0 -0.028048700007850699 0.14601834090005769 0 -0.045513089216113363 0.1481501368583191 0 -0.037584816749385713 0.12707105787504261 0 -0.045513089216113363 0.1481501368583191 0 -0.037584816749385713 0.12707105787504261 0 -0.049753839012929922 0.13582205838018921 0 -0.037584816749385713 0.12707105787504261 0 -0.049753839012929922 0.13582205838018921 0 -0.051208231868337763 0.1260313133231428 0 -0.049753839012929922 0.13582205838018921 0 -0.06070043620975589 0.134524720015781 0 -0.052276118599972977 0.1457036522838337 0 -0.051208231868337763 0.1260313133231428 0 -0.06070043620975589 0.134524720015781 0 -0.06411880478631618 0.11818203644688791 0 -0.06070043620975589 0.134524720015781 0 -0.06411880478631618 0.11818203644688791 0 -0.049753839012929922 0.13582205838018921 0 -0.051208231868337763 0.1260313133231428 0 -0.06070043620975589 0.134524720015781 0 -0.06070043620975589 0.134524720015781 0 -0.052276118599972977 0.1457036522838337 0 -0.05728206763319247 0.1508674035846734 0 -0.06070043620975589 0.134524720015781 0 -0.05728206763319247 0.1508674035846734 0 -0.045513089216113363 0.1481501368583191 0 -0.049753839012929922 0.13582205838018921 0 -0.052276118599972977 0.1457036522838337 0 -0.045513089216113363 0.1481501368583191 0 -0.052276118599972977 0.1457036522838337 0 -0.053440893212920608 0.15280063427064891 0 -0.052276118599972977 0.1457036522838337 0 -0.053440893212920608 0.15280063427064891 0 -0.05728206763319247 0.1508674035846734 0 -0.053440893212920608 0.15280063427064891 0 -0.05728206763319247 0.1508674035846734 0 -0.05728206763319247 0.1508674035846734 0 -0.062031688412593149 0.16441565219234799 0 -0.053441361682841117 0.16922921584159559 0 -0.053440893212920608 0.15280063427064891 0 -0.05728206763319247 0.1508674035846734 0 -0.053441361682841117 0.16922921584159559 0 -0.045513089216113363 0.1481501368583191 0 -0.053440893212920608 0.15280063427064891 0 -0.053441361682841117 0.16922921584159559 0 -0.045513089216113363 0.1481501368583191 0 -0.053441361682841117 0.16922921584159559 0 -0.05728206763319247 0.1508674035846734 0 -0.053441361682841117 0.16922921584159559 0 -0.06725389334219653 0.15771987894696021 0 -0.05728206763319247 0.1508674035846734 0 -0.062031688412593149 0.16441565219234799 0 -0.062031688412593149 0.16441565219234799 0 -0.053441361682841117 0.16922921584159559 0 -0.062041409668937363 0.1723934095439342 0 -0.053441361682841117 0.16922921584159559 0 -0.047633738945979477 0.17108968717192211 0 -0.039963318838929777 0.1583549670989208 0 -0.052991971448818453 0.17137768000779441 0 -0.053441361682841117 0.16922921584159559 0 -0.047633738945979477 0.17108968717192211 0 -0.052991971448818453 0.17137768000779441 0 -0.053441361682841117 0.16922921584159559 0 -0.054948738746262903 0.1897910154656581 0 -0.052419079168185397 0.17351746689540021 0 -0.046888846475854867 0.17837904804597579 0 -0.062951628171730722 0.19451437844324071 0 -0.054948738746262903 0.1897910154656581 0 -0.052419079168185397 0.17351746689540021 0 -0.062951628171730722 0.19451437844324071 0 -0.052991971448818453 0.17137768000779441 0 -0.052419079168185397 0.17351746689540021 0 -0.064604308801312821 0.18244611143699499 0 -0.062951628171730722 0.19451437844324071 0 -0.053441361682841117 0.16922921584159559 0 -0.062951628171730722 0.19451437844324071 0 -0.052991971448818453 0.17137768000779441 0 -0.053441361682841117 0.16922921584159559 0 -0.054948738746262903 0.1897910154656581 0 -0.052419079168185397 0.17351746689540021 0 -0.062951628171730722 0.19451437844324071 0 -0.053441361682841117 0.16922921584159559 0 -0.064604308801312821 0.18244611143699499 0 -0.053441361682841117 0.16922921584159559 0 -0.062041409668937363 0.1723934095439342 0 -0.052991971448818453 0.17137768000779441 0 -0.047633738945979477 0.17108968717192211 0 -0.052419079168185397 0.17351746689540021 0 -0.047633738945979477 0.17108968717192211 0 -0.052419079168185397 0.17351746689540021 0 -0.046888846475854867 0.17837904804597579 0 -0.054948738746262903 0.1897910154656581 0 -0.046888846475854867 0.17837904804597579 0 -0.039999697082172873 0.18418677263352329 0 -0.031637039445344017 0.19767931081015269 0 -0.039999697082172873 0.18418677263352329 0 -0.024775833668462071 0.17590936267321361 0 -0.046888846475854867 0.17837904804597579 0 -0.039999697082172873 0.18418677263352329 0 -0.039442978436673673 0.17331029806337539 0 -0.047633738945979477 0.17108968717192211 0 -0.046888846475854867 0.17837904804597579 0 -0.039442978436673673 0.17331029806337539 0 -0.039442978436673673 0.17331029806337539 0 -0.032139483942643897 0.16694135859911591 0 -0.024775833668462071 0.17590936267321361 0 -0.039999697082172873 0.18418677263352329 0 -0.039442978436673673 0.17331029806337539 0 -0.024775833668462071 0.17590936267321361 0 -0.045513089216113363 0.1481501368583191 0 -0.053441361682841117 0.16922921584159559 0 -0.039963318838929777 0.1583549670989208 0 -0.039963318838929777 0.1583549670989208 0 -0.032139483942643897 0.16694135859911591 0 -0.02343924065842673 0.15869802647678349 0 -0.047633738945979477 0.17108968717192211 0 -0.039442978436673673 0.17331029806337539 0 -0.039963318838929777 0.1583549670989208 0 -0.039442978436673673 0.17331029806337539 0 -0.039963318838929777 0.1583549670989208 0 -0.032139483942643897 0.16694135859911591 0 -0.032139483942643897 0.16694135859911591 0 -0.02343924065842673 0.15869802647678349 0 -0.024775833668462071 0.17590936267321361 0 -0.02343924065842673 0.15869802647678349 0 -0.024775833668462071 0.17590936267321361 0 -0.0048034666842798916 0.1614245706846468 0 -0.0057956805663459468 0.1892940575843915 0 -0.024775833668462071 0.17590936267321361 0 -0.0048034666842798916 0.1614245706846468 0 -0.0048034666842798916 0.1614245706846468 0 -0.01090464080839405 0.14353955890474629 0 0.011098566836083609 0.13484946890849181 0 -0.02343924065842673 0.15869802647678349 0 -0.0048034666842798916 0.1614245706846468 0 -0.01090464080839405 0.14353955890474629 0 -0.039963318838929777 0.1583549670989208 0 -0.02343924065842673 0.15869802647678349 0 -0.028048700007850699 0.14601834090005769 0 -0.02343924065842673 0.15869802647678349 0 -0.01090464080839405 0.14353955890474629 0 -0.028048700007850699 0.14601834090005769 0 -0.037584816749385713 0.12707105787504261 0 -0.0187932077553963 0.1304023687453105 0 -0.02482114599867602 0.1199028763409456 0 -0.01090464080839405 0.14353955890474629 0 -0.028048700007850699 0.14601834090005769 0 -0.0187932077553963 0.1304023687453105 0 -0.037584816749385713 0.12707105787504261 0 -0.028048700007850699 0.14601834090005769 0 -0.0187932077553963 0.1304023687453105 0 -0.0064436606074630637 0.13109611639504981 0 -0.007175360702145514 0.1155930690216506 0 0.011098566836083609 0.13484946890849181 0 -0.01090464080839405 0.14353955890474629 0 -0.0064436606074630637 0.13109611639504981 0 0.011098566836083609 0.13484946890849181 0 -0.0187932077553963 0.1304023687453105 0 -0.0064436606074630637 0.13109611639504981 0 -0.007175360702145514 0.1155930690216506 0 -0.01090464080839405 0.14353955890474629 0 -0.0187932077553963 0.1304023687453105 0 -0.0064436606074630637 0.13109611639504981 0 -0.007175360702145514 0.1155930690216506 0 -0.0040088977147468936 0.097024336429998151 0 -0.013655752966245171 0.094180689311720855 0 -0.007175360702145514 0.1155930690216506 0 -0.0040088977147468936 0.097024336429998151 0 0.0025937760044158291 0.1064596481343341 0 -0.007175360702145514 0.1155930690216506 0 -0.013655752966245171 0.094180689311720855 0 -0.02544928824037461 0.096336669134809427 0 -0.029459919491476121 0.1011230655410132 0 -0.021580178673492881 0.1105609364200745 0 -0.037915498494119543 0.10215930426450601 0 -0.007175360702145514 0.1155930690216506 0 -0.02544928824037461 0.096336669134809427 0 -0.007175360702145514 0.1155930690216506 0 -0.02544928824037461 0.096336669134809427 0 -0.0241566231860777 0.1021061234229471 0 -0.02544928824037461 0.096336669134809427 0 -0.029459919491476121 0.1011230655410132 0 -0.035034026511796899 0.0954599165668297 0 -0.02544928824037461 0.096336669134809427 0 -0.029459919491476121 0.1011230655410132 0 -0.0241566231860777 0.1021061234229471 0 -0.02544928824037461 0.096336669134809427 0 -0.0241566231860777 0.1021061234229471 0 -0.029459919491476121 0.1011230655410132 0 -0.0241566231860777 0.1021061234229471 0 -0.021580178673492881 0.1105609364200745 0 -0.02482114599867602 0.1199028763409456 0 -0.021580178673492881 0.1105609364200745 0 -0.032585978911933711 0.11378053360982859 0 -0.007175360702145514 0.1155930690216506 0 -0.0241566231860777 0.1021061234229471 0 -0.021580178673492881 0.1105609364200745 0 -0.0187932077553963 0.1304023687453105 0 -0.007175360702145514 0.1155930690216506 0 -0.02482114599867602 0.1199028763409456 0 -0.007175360702145514 0.1155930690216506 0 -0.02482114599867602 0.1199028763409456 0 -0.021580178673492881 0.1105609364200745 0 -0.01109578586274463 0.07592966442077155 0 -0.01963881101933795 0.057650575484614511 0 -0.0089029190745683329 0.062319161291970238 0 -0.0031702267477386531 0.067180855403790804 0 -0.01109578586274463 0.07592966442077155 0 0.0065236609159091173 0.071671444604676282 0 -0.0031702267477386531 0.067180855403790804 0 -0.0089029190745683329 0.062319161291970238 0 0.00079413703044923156 0.058803151297745167 0 -0.0031702267477386531 0.067180855403790804 0 -0.01109578586274463 0.07592966442077155 0 -0.0089029190745683329 0.062319161291970238 0 -0.0040088977147468936 0.097024336429998151 0 -0.01109578586274463 0.07592966442077155 0 0.011643404763696401 0.092949868607662828 0 -0.0040088977147468936 0.097024336429998151 0 -0.013655752966245171 0.094180689311720855 0 -0.01109578586274463 0.07592966442077155 0 -0.013655752966245171 0.094180689311720855 0 -0.01109578586274463 0.07592966442077155 0 -0.02054943231121421 0.086019707551374502 0 -0.02544928824037461 0.096336669134809427 0 -0.02054943231121421 0.086019707551374502 0 -0.029642132364781061 0.077623064684345475 0 -0.02544928824037461 0.096336669134809427 0 -0.029642132364781061 0.077623064684345475 0 -0.036673455980692451 0.084509049595857907 0 -0.01109578586274463 0.07592966442077155 0 -0.02054943231121421 0.086019707551374502 0 -0.029642132364781061 0.077623064684345475 0 -0.02544928824037461 0.096336669134809427 0 -0.029642132364781061 0.077623064684345475 0 -0.013655752966245171 0.094180689311720855 0 -0.02544928824037461 0.096336669134809427 0 -0.02054943231121421 0.086019707551374502 0 -0.02544928824037461 0.096336669134809427 0 -0.036673455980692451 0.084509049595857907 0 -0.01109578586274463 0.07592966442077155 0 -0.033834976489186493 0.058909460233881362 0 -0.01109578586274463 0.07592966442077155 0 -0.029642132364781061 0.077623064684345475 0 -0.033834976489186493 0.058909460233881362 0 -0.01109578586274463 0.07592966442077155 0 -0.033834976489186493 0.058909460233881362 0 -0.01963881101933795 0.057650575484614511 0 -0.029642132364781061 0.077623064684345475 0 -0.033834976489186493 0.058909460233881362 0 -0.029642132364781061 0.077623064684345475 0 -0.036732086871232597 0.066761861307427367 0 -0.033834976489186493 0.058909460233881362 0 -0.042969512877196837 0.063698159366550891 0 -0.036732086871232597 0.066761861307427367 0 -0.038306240480512441 0.072768089837317376 0 -0.042969512877196837 0.063698159366550891 0 -0.038306240480512441 0.072768089837317376 0 -0.046136221960229658 0.070392563092827029 0 -0.042969512877196837 0.063698159366550891 0 -0.036732086871232597 0.066761861307427367 0 -0.038907572144486188 0.060810532415041758 0 -0.029642132364781061 0.077623064684345475 0 -0.036732086871232597 0.066761861307427367 0 -0.038306240480512441 0.072768089837317376 0 -0.038306240480512441 0.072768089837317376 0 -0.046136221960229658 0.070392563092827029 0 -0.043586306971417507 0.077534071189344175 0 -0.038306240480512441 0.072768089837317376 0 -0.043586306971417507 0.077534071189344175 0 -0.036673455980692451 0.084509049595857907 0 -0.043586306971417507 0.077534071189344175 0 -0.036673455980692451 0.084509049595857907 0 -0.046978765451358998 0.084182386091036676 0 -0.029642132364781061 0.077623064684345475 0 -0.038306240480512441 0.072768089837317376 0 -0.036673455980692451 0.084509049595857907 0 -0.02544928824037461 0.096336669134809427 0 -0.036673455980692451 0.084509049595857907 0 -0.035034026511796899 0.0954599165668297 0 -0.036673455980692451 0.084509049595857907 0 -0.044089979176562301 0.093675305350012283 0 -0.035034026511796899 0.0954599165668297 0 -0.036673455980692451 0.084509049595857907 0 -0.044089979176562301 0.093675305350012283 0 -0.046978765451358998 0.084182386091036676 0 -0.044089979176562301 0.093675305350012283 0 -0.057144835734191893 0.088207312209507505 0 -0.046978765451358998 0.084182386091036676 0 -0.057144835734191893 0.088207312209507505 0 -0.046978765451358998 0.084182386091036676 0 -0.053399249393930842 0.076986192110461482 0 -0.043586306971417507 0.077534071189344175 0 -0.046978765451358998 0.084182386091036676 0 -0.053399249393930842 0.076986192110461482 0 -0.053399249393930842 0.076986192110461482 0 -0.070406408885084593 0.061857930521202607 0 -0.059815066152941319 0.061788281472960463 0 -0.057144835734191893 0.088207312209507505 0 -0.053399249393930842 0.076986192110461482 0 -0.070406408885084593 0.061857930521202607 0 -0.046136221960229658 0.070392563092827029 0 -0.043586306971417507 0.077534071189344175 0 -0.053399249393930842 0.076986192110461482 0 -0.046136221960229658 0.070392563092827029 0 -0.053399249393930842 0.076986192110461482 0 -0.05257832837313995 0.068950164376806455 0 -0.053399249393930842 0.076986192110461482 0 -0.05257832837313995 0.068950164376806455 0 -0.059815066152941319 0.061788281472960463 0 -0.05257832837313995 0.068950164376806455 0 -0.052166049838275927 0.062310195238599278 0 -0.059815066152941319 0.061788281472960463 0 -0.046136221960229658 0.070392563092827029 0 -0.05257832837313995 0.068950164376806455 0 -0.052166049838275927 0.062310195238599278 0 -0.042969512877196837 0.063698159366550891 0 -0.046136221960229658 0.070392563092827029 0 -0.052166049838275927 0.062310195238599278 0 -0.021580178673492881 0.1105609364200745 0 -0.043883262583300407 0.11455669389781301 0 -0.021580178673492881 0.1105609364200745 0 -0.043883262583300407 0.11455669389781301 0 -0.032585978911933711 0.11378053360982859 0 -0.037584816749385713 0.12707105787504261 0 -0.051208231868337763 0.1260313133231428 0 -0.043883262583300407 0.11455669389781301 0 -0.037584816749385713 0.12707105787504261 0 -0.043883262583300407 0.11455669389781301 0 -0.037584816749385713 0.12707105787504261 0 -0.032585978911933711 0.11378053360982859 0 -0.037584816749385713 0.12707105787504261 0 -0.043883262583300407 0.11455669389781301 0 -0.032585978911933711 0.11378053360982859 0 -0.037584816749385713 0.12707105787504261 0 -0.02482114599867602 0.1199028763409456 0 -0.032585978911933711 0.11378053360982859 0 -0.021580178673492881 0.1105609364200745 0 -0.043883262583300407 0.11455669389781301 0 -0.037915498494119543 0.10215930426450601 0 -0.044089979176562301 0.093675305350012283 0 -0.043883262583300407 0.11455669389781301 0 -0.037915498494119543 0.10215930426450601 0 -0.044089979176562301 0.093675305350012283 0 -0.037915498494119543 0.10215930426450601 0 -0.035034026511796899 0.0954599165668297 0 -0.029459919491476121 0.1011230655410132 0 -0.037915498494119543 0.10215930426450601 0 -0.035034026511796899 0.0954599165668297 0 -0.044089979176562301 0.093675305350012283 0 -0.057144835734191893 0.088207312209507505 0 -0.043883262583300407 0.11455669389781301 0 -0.057144835734191893 0.088207312209507505 0 -0.043883262583300407 0.11455669389781301 0 -0.057144835734191893 0.088207312209507505 0 -0.043883262583300407 0.11455669389781301 0 -0.056175626513735713 0.104231459755559 0 -0.056175626513735713 0.104231459755559 0 -0.061770267295803899 0.1005995653590098 0 -0.06411880478631618 0.11818203644688791 0 -0.057144835734191893 0.088207312209507505 0 -0.056175626513735713 0.104231459755559 0 -0.061770267295803899 0.1005995653590098 0 -0.043883262583300407 0.11455669389781301 0 -0.06411880478631618 0.11818203644688791 0 -0.051208231868337763 0.1260313133231428 0 -0.043883262583300407 0.11455669389781301 0 -0.06411880478631618 0.11818203644688791 0 -0.043883262583300407 0.11455669389781301 0 -0.056175626513735713 0.104231459755559 0 -0.06411880478631618 0.11818203644688791 0 -0.071786582042575819 0.1280585334591178 0 -0.06411880478631618 0.11818203644688791 0 -0.08034823769671974 0.121089655777625 0 -0.06411880478631618 0.11818203644688791 0 -0.08034823769671974 0.121089655777625 0 -0.075381325115152609 0.106019298300689 0 -0.06411880478631618 0.11818203644688791 0 -0.08034823769671974 0.121089655777625 0 -0.08034823769671974 0.121089655777625 0 -0.096577670607123245 0.1239972751083621 0 -0.08034823769671974 0.121089655777625 0 -0.092569001324263961 0.1124699312803344 0 -0.096577670607123245 0.1239972751083621 0 -0.08034823769671974 0.121089655777625 0 -0.083967771981719092 0.1102844810624737 0 -0.092569001324263961 0.1124699312803344 0 -0.08034823769671974 0.121089655777625 0 -0.083967771981719092 0.1102844810624737 0 -0.075381325115152609 0.106019298300689 0 -0.087572523790740042 0.10155903889124659 0 -0.082071947835387321 0.094412947715560025 0 -0.09233625647768956 0.091651488650119919 0 -0.083967771981719092 0.1102844810624737 0 -0.092569001324263961 0.1124699312803344 0 -0.087572523790740042 0.10155903889124659 0 -0.083967771981719092 0.1102844810624737 0 -0.087572523790740042 0.10155903889124659 0 -0.075381325115152609 0.106019298300689 0 -0.087572523790740042 0.10155903889124659 0 -0.082071947835387321 0.094412947715560025 0 -0.075381325115152609 0.106019298300689 0 -0.06411880478631618 0.11818203644688791 0 -0.06964180214897181 0.091777453024084701 0 -0.082071947835387321 0.094412947715560025 0 -0.075381325115152609 0.106019298300689 0 -0.06964180214897181 0.091777453024084701 0 -0.06411880478631618 0.11818203644688791 0 -0.075381325115152609 0.106019298300689 0 -0.06964180214897181 0.091777453024084701 0 -0.061770267295803899 0.1005995653590098 0 -0.06411880478631618 0.11818203644688791 0 -0.06964180214897181 0.091777453024084701 0 -0.057144835734191893 0.088207312209507505 0 -0.061770267295803899 0.1005995653590098 0 -0.06964180214897181 0.091777453024084701 0 -0.06964180214897181 0.091777453024084701 0 -0.075164799511626648 0.065372869601281192 0 -0.057144835734191893 0.088207312209507505 0 -0.06964180214897181 0.091777453024084701 0 -0.068089461569968729 0.076803891339018993 0 -0.06964180214897181 0.091777453024084701 0 -0.068089461569968729 0.076803891339018993 0 -0.075164799511626648 0.065372869601281192 0 -0.057144835734191893 0.088207312209507505 0 -0.068089461569968729 0.076803891339018993 0 -0.070406408885084593 0.061857930521202607 0 -0.06964180214897181 0.091777453024084701 0 -0.075164799511626648 0.065372869601281192 0 -0.08073347634316104 0.073575546631144614 0 -0.057144835734191893 0.088207312209507505 0 -0.070406408885084593 0.061857930521202607 0 -0.068089461569968729 0.076803891339018993 0 -0.075164799511626648 0.065372869601281192 0 -0.070406408885084593 0.061857930521202607 0 -0.089923560922876636 0.068178037636278263 0 -0.08578586832533959 0.082170087930996366 0 -0.103675070998617 0.083967309240415983 0 -0.08073347634316104 0.073575546631144614 0 -0.089923560922876636 0.068178037636278263 0 -0.083186879645449088 0.059889597987781727 0 -0.075164799511626648 0.065372869601281192 0 -0.08073347634316104 0.073575546631144614 0 -0.083186879645449088 0.059889597987781727 0 -0.08073347634316104 0.073575546631144614 0 -0.089923560922876636 0.068178037636278263 0 -0.08578586832533959 0.082170087930996366 0 -0.06964180214897181 0.091777453024084701 0 -0.08073347634316104 0.073575546631144614 0 -0.08578586832533959 0.082170087930996366 0 -0.082071947835387321 0.094412947715560025 0 -0.06964180214897181 0.091777453024084701 0 -0.08578586832533959 0.082170087930996366 0 -0.082071947835387321 0.094412947715560025 0 -0.08578586832533959 0.082170087930996366 0 -0.09233625647768956 0.091651488650119919 0 -0.09233625647768956 0.091651488650119919 0 -0.103675070998617 0.083967309240415983 0 -0.10429444750695741 0.1014886749251958 0 -0.08578586832533959 0.082170087930996366 0 -0.09233625647768956 0.091651488650119919 0 -0.103675070998617 0.083967309240415983 0 -0.103675070998617 0.083967309240415983 0 -0.1198812247159142 0.095002477965890675 0 -0.10429444750695741 0.1014886749251958 0 -0.089923560922876636 0.068178037636278263 0 -0.103675070998617 0.083967309240415983 0 -0.10785209906359081 0.065371441260914459 0 -0.12533951967512769 0.078274991835817334 0 -0.103675070998617 0.083967309240415983 0 -0.10785209906359081 0.065371441260914459 0 -0.12533951967512769 0.078274991835817334 0 -0.10785209906359081 0.065371441260914459 0 -0.1248745965026067 0.059896082918310993 0 -0.12533951967512769 0.078274991835817334 0 -0.103675070998617 0.083967309240415983 0 -0.1198812247159142 0.095002477965890675 0 -0.13137241316615089 0.11357835761918721 0 -0.1198812247159142 0.095002477965890675 0 -0.10429444750695741 0.1014886749251958 0 -0.13137241316615089 0.11357835761918721 0 -0.12687331202938101 0.13192737382428379 0 -0.10667563132183119 0.1260080396076822 0 -0.13137241316615089 0.11357835761918721 0 -0.10667563132183119 0.1260080396076822 0 -0.1062978327852654 0.11550845570815239 0 -0.13137241316615089 0.11357835761918721 0 -0.1062978327852654 0.11550845570815239 0 -0.10429444750695741 0.1014886749251958 0 -0.13137241316615089 0.11357835761918721 0 -0.10667563132183119 0.1260080396076822 0 -0.10667563132183119 0.1260080396076822 0 -0.1062978327852654 0.11550845570815239 0 -0.096577670607123245 0.1239972751083621 0 -0.092569001324263961 0.1124699312803344 0 -0.1062978327852654 0.11550845570815239 0 -0.096577670607123245 0.1239972751083621 0 -0.092569001324263961 0.1124699312803344 0 -0.1062978327852654 0.11550845570815239 0 -0.10429444750695741 0.1014886749251958 0 -0.092569001324263961 0.1124699312803344 0 -0.087572523790740042 0.10155903889124659 0 -0.10429444750695741 0.1014886749251958 0 -0.087572523790740042 0.10155903889124659 0 -0.09233625647768956 0.091651488650119919 0 -0.10429444750695741 0.1014886749251958 0 -0.10370969952600501 0.019997694726909911 0 -0.098524362227562057 0.035744340183224317 0 -0.08645931971955316 0.02325136753113614 0 -0.10370969952600501 0.019997694726909911 0 -0.08645931971955316 0.02325136753113614 0 -0.091682611010439896 0.0063963380850077774 0 -0.10370969952600501 0.019997694726909911 0 -0.1180188049733784 0.030804183747700629 0 -0.098524362227562057 0.035744340183224317 0 -0.10370969952600501 0.019997694726909911 0 -0.10877227824827949 0.0075748546359299482 0 -0.091682611010439896 0.0063963380850077774 0 -0.1029392013539359 -0.0085751277431150782 0 -0.10877227824827949 0.0075748546359299482 0 -0.091682611010439896 0.0063963380850077774 0 -0.10370969952600501 0.019997694726909911 0 -0.10877227824827949 0.0075748546359299482 0 -0.11835839359799651 0.016938700943610479 0 -0.1029392013539359 -0.0085751277431150782 0 -0.12735709500343681 0.004015926865657337 0 -0.10877227824827949 0.0075748546359299482 0 -0.12735709500343681 0.004015926865657337 0 -0.10877227824827949 0.0075748546359299482 0 -0.11835839359799651 0.016938700943610479 0 -0.1339340902388827 0.022300844741854581 0 -0.11835839359799651 0.016938700943610479 0 -0.1180188049733784 0.030804183747700629 0 -0.10370969952600501 0.019997694726909911 0 -0.11835839359799651 0.016938700943610479 0 -0.1180188049733784 0.030804183747700629 0 -0.1180188049733784 0.030804183747700629 0 -0.1128457876968547 0.048091259023394652 0 -0.098524362227562057 0.035744340183224317 0 -0.13626681081840961 0.042829268155062397 0 -0.1128457876968547 0.048091259023394652 0 -0.13626681081840961 0.042829268155062397 0 -0.1180188049733784 0.030804183747700629 0 -0.1128457876968547 0.048091259023394652 0 -0.13626681081840961 0.042829268155062397 0 -0.1128457876968547 0.048091259023394652 0 -0.1248745965026067 0.059896082918310993 0 -0.10785209906359081 0.065371441260914459 0 -0.1128457876968547 0.048091259023394652 0 -0.1248745965026067 0.059896082918310993 0 -0.1128457876968547 0.048091259023394652 0 -0.089424764575299687 0.053353249891726941 0 -0.089923560922876636 0.068178037636278263 0 -0.10785209906359081 0.065371441260914459 0 -0.089424764575299687 0.053353249891726941 0 -0.10785209906359081 0.065371441260914459 0 -0.1128457876968547 0.048091259023394652 0 -0.089424764575299687 0.053353249891726941 0 -0.1128457876968547 0.048091259023394652 0 -0.098524362227562057 0.035744340183224317 0 -0.089424764575299687 0.053353249891726941 0 -0.098524362227562057 0.035744340183224317 0 -0.080687796874281473 0.038968286178477703 0 -0.08645931971955316 0.02325136753113614 0 -0.098524362227562057 0.035744340183224317 0 -0.080687796874281473 0.038968286178477703 0 -0.089424764575299687 0.053353249891726941 0 -0.080687796874281473 0.038968286178477703 0 -0.089424764575299687 0.053353249891726941 0 -0.083186879645449088 0.059889597987781727 0 -0.075164799511626648 0.065372869601281192 0 -0.080687796874281473 0.038968286178477703 0 -0.083186879645449088 0.059889597987781727 0 -0.089923560922876636 0.068178037636278263 0 -0.089424764575299687 0.053353249891726941 0 -0.083186879645449088 0.059889597987781727 0 -0.075164799511626648 0.065372869601281192 0 -0.080687796874281473 0.038968286178477703 0 -0.071303082845968715 0.053347503409362687 0 -0.075164799511626648 0.065372869601281192 0 -0.080687796874281473 0.038968286178477703 0 -0.075164799511626648 0.065372869601281192 0 -0.070406408885084593 0.061857930521202607 0 -0.071303082845968715 0.053347503409362687 0 -0.071303082845968715 0.053347503409362687 0 -0.064856269609628314 0.055117702274744398 0 -0.065400139349222536 0.045420728471107522 0 -0.070406408885084593 0.061857930521202607 0 -0.071303082845968715 0.053347503409362687 0 -0.064856269609628314 0.055117702274744398 0 -0.070406408885084593 0.061857930521202607 0 -0.064856269609628314 0.055117702274744398 0 -0.059815066152941319 0.061788281472960463 0 -0.080687796874281473 0.038968286178477703 0 -0.065400139349222536 0.045420728471107522 0 -0.063264057366842208 0.031259222641012697 0 -0.080687796874281473 0.038968286178477703 0 -0.063264057366842208 0.031259222641012697 0 -0.073460039823911166 0.024685388153665749 0 -0.080687796874281473 0.038968286178477703 0 -0.071303082845968715 0.053347503409362687 0 -0.065400139349222536 0.045420728471107522 0 -0.063264057366842208 0.031259222641012697 0 -0.073460039823911166 0.024685388153665749 0 -0.061440697951084179 0.017621877449499421 0 -0.073460039823911166 0.024685388153665749 0 -0.076769634387976737 0.01135693610240161 0 -0.061440697951084179 0.017621877449499421 0 -0.080687796874281473 0.038968286178477703 0 -0.073460039823911166 0.024685388153665749 0 -0.08645931971955316 0.02325136753113614 0 -0.073460039823911166 0.024685388153665749 0 -0.08645931971955316 0.02325136753113614 0 -0.076769634387976737 0.01135693610240161 0 -0.08645931971955316 0.02325136753113614 0 -0.091682611010439896 0.0063963380850077774 0 -0.076769634387976737 0.01135693610240161 0 -0.091682611010439896 0.0063963380850077774 0 -0.078933949510919491 0.00072378658541613432 0 -0.076769634387976737 0.01135693610240161 0 -0.086097875964997059 -0.0058870606910941042 0 -0.091682611010439896 0.0063963380850077774 0 -0.078933949510919491 0.00072378658541613432 0 -0.078933949510919491 0.00072378658541613432 0 -0.076769634387976737 0.01135693610240161 0 -0.068462160169621672 0.0025537029525893409 0 -0.068462160169621672 0.0025537029525893409 0 -0.057836245250817257 0.0062936453779614283 0 -0.061440697951084179 0.017621877449499421 0 -0.076769634387976737 0.01135693610240161 0 -0.068462160169621672 0.0025537029525893409 0 -0.061440697951084179 0.017621877449499421 0 -0.057836245250817257 0.0062936453779614283 0 -0.061440697951084179 0.017621877449499421 0 -0.042678209040760022 0.019440128409622049 0 -0.057836245250817257 0.0062936453779614283 0 -0.042678209040760022 0.019440128409622049 0 -0.044352522143416888 0.0050416822031405977 0 -0.063264057366842208 0.031259222641012697 0 -0.042678209040760022 0.019440128409622049 0 -0.05195897498334151 0.039592758420259042 0 -0.063264057366842208 0.031259222641012697 0 -0.061440697951084179 0.017621877449499421 0 -0.042678209040760022 0.019440128409622049 0 -0.042678209040760022 0.019440128409622049 0 -0.038256592764973757 0.039174794321751791 0 -0.042678209040760022 0.019440128409622049 0 -0.038256592764973757 0.039174794321751791 0 -0.027511467414372541 0.03001296694831072 0 -0.042678209040760022 0.019440128409622049 0 -0.028180513839983729 0.018098474401369 0 -0.027511467414372541 0.03001296694831072 0 -0.042678209040760022 0.019440128409622049 0 -0.032770024037711037 0.0084985419153508525 0 -0.028180513839983729 0.018098474401369 0 -0.032770024037711037 0.0084985419153508525 0 -0.03614709390981162 0.0015378833132510439 0 -0.044352522143416888 0.0050416822031405977 0 -0.029539197120254941 -0.00051038393964639519 0 -0.032770024037711037 0.0084985419153508525 0 -0.03614709390981162 0.0015378833132510439 0 -0.042678209040760022 0.019440128409622049 0 -0.032770024037711037 0.0084985419153508525 0 -0.044352522143416888 0.0050416822031405977 0 -0.042969512877196837 0.063698159366550891 0 -0.047980875447113908 0.056604040506729722 0 -0.052166049838275927 0.062310195238599278 0 -0.047980875447113908 0.056604040506729722 0 -0.052166049838275927 0.062310195238599278 0 -0.055804220694704088 0.051985500715961808 0 -0.064856269609628314 0.055117702274744398 0 -0.059815066152941319 0.061788281472960463 0 -0.055804220694704088 0.051985500715961808 0 -0.052166049838275927 0.062310195238599278 0 -0.059815066152941319 0.061788281472960463 0 -0.055804220694704088 0.051985500715961808 0 -0.064856269609628314 0.055117702274744398 0 -0.065400139349222536 0.045420728471107522 0 -0.055804220694704088 0.051985500715961808 0 -0.047980875447113908 0.056604040506729722 0 -0.055804220694704088 0.051985500715961808 0 -0.046350630683546529 0.050276175962098407 0 -0.055804220694704088 0.051985500715961808 0 -0.05195897498334151 0.039592758420259042 0 -0.046350630683546529 0.050276175962098407 0 -0.065400139349222536 0.045420728471107522 0 -0.055804220694704088 0.051985500715961808 0 -0.05195897498334151 0.039592758420259042 0 -0.065400139349222536 0.045420728471107522 0 -0.063264057366842208 0.031259222641012697 0 -0.05195897498334151 0.039592758420259042 0 -0.042678209040760022 0.019440128409622049 0 -0.05195897498334151 0.039592758420259042 0 -0.038256592764973757 0.039174794321751791 0 -0.05195897498334151 0.039592758420259042 0 -0.038256592764973757 0.039174794321751791 0 -0.046350630683546529 0.050276175962098407 0 -0.038256592764973757 0.039174794321751791 0 -0.033834976489186493 0.058909460233881362 0 -0.038256592764973757 0.039174794321751791 0 -0.038513274033404883 0.055407770980391423 0 -0.033834976489186493 0.058909460233881362 0 -0.038256592764973757 0.039174794321751791 0 -0.046350630683546529 0.050276175962098407 0 -0.038513274033404883 0.055407770980391423 0 -0.038256592764973757 0.039174794321751791 0 -0.033834976489186493 0.058909460233881362 0 -0.02879531395286377 0.050132256585483953 0 -0.046350630683546529 0.050276175962098407 0 -0.038513274033404883 0.055407770980391423 0 -0.042914570065583427 0.057802329486214707 0 -0.036732086871232597 0.066761861307427367 0 -0.033834976489186493 0.058909460233881362 0 -0.038907572144486188 0.060810532415041758 0 -0.038513274033404883 0.055407770980391423 0 -0.033834976489186493 0.058909460233881362 0 -0.038513274033404883 0.055407770980391423 0 -0.033834976489186493 0.058909460233881362 0 -0.038907572144486188 0.060810532415041758 0 -0.042969512877196837 0.063698159366550891 0 -0.038907572144486188 0.060810532415041758 0 -0.042914570065583427 0.057802329486214707 0 -0.038513274033404883 0.055407770980391423 0 -0.038907572144486188 0.060810532415041758 0 -0.042914570065583427 0.057802329486214707 0 -0.047980875447113908 0.056604040506729722 0 -0.046350630683546529 0.050276175962098407 0 -0.042914570065583427 0.057802329486214707 0 -0.042969512877196837 0.063698159366550891 0 -0.047980875447113908 0.056604040506729722 0 -0.042914570065583427 0.057802329486214707 0 -0.033834976489186493 0.058909460233881362 0 -0.01963881101933795 0.057650575484614511 0 -0.02879531395286377 0.050132256585483953 0 -0.01963881101933795 0.057650575484614511 0 -0.02879531395286377 0.050132256585483953 0 -0.02345087553795689 0.044794196301688183 0 -0.01963881101933795 0.057650575484614511 0 -0.02345087553795689 0.044794196301688183 0 -0.012175026131353321 0.050402421608982242 0 -0.02345087553795689 0.044794196301688183 0 -0.014695186475719159 0.0359408453649432 0 -0.012175026131353321 0.050402421608982242 0 -0.038256592764973757 0.039174794321751791 0 -0.02879531395286377 0.050132256585483953 0 -0.02345087553795689 0.044794196301688183 0 -0.038256592764973757 0.039174794321751791 0 -0.02345087553795689 0.044794196301688183 0 -0.027511467414372541 0.03001296694831072 0 -0.02345087553795689 0.044794196301688183 0 -0.014695186475719159 0.0359408453649432 0 -0.027511467414372541 0.03001296694831072 0 -0.014695186475719159 0.0359408453649432 0 -0.0023331541944977092 0.045311556235899067 0 0.00074240361007229996 0.028778475488121531 0 -0.014695186475719159 0.0359408453649432 0 -0.0023331541944977092 0.045311556235899067 0 -0.012175026131353321 0.050402421608982242 0 -0.0023331541944977092 0.045311556235899067 0 -0.012175026131353321 0.050402421608982242 0 0.00079413703044923156 0.058803151297745167 0 -0.012175026131353321 0.050402421608982242 0 -0.0089029190745683329 0.062319161291970238 0 0.00079413703044923156 0.058803151297745167 0 -0.01963881101933795 0.057650575484614511 0 -0.012175026131353321 0.050402421608982242 0 -0.0089029190745683329 0.062319161291970238 0 -0.021996997598287969 0.010981086364913869 0 -0.02112675760807068 0.0030512678310729521 0 -0.0083058662928979787 0.012079608812324741 0 -0.021996997598287969 0.010981086364913869 0 -0.01661374249992489 0.02103319015209278 0 -0.0083058662928979787 0.012079608812324741 0 -0.021996997598287969 0.010981086364913869 0 -0.02112675760807068 0.0030512678310729521 0 -0.02631380729169577 0.0053104208567875946 0 -0.029539197120254941 -0.00051038393964639519 0 -0.02112675760807068 0.0030512678310729521 0 -0.02631380729169577 0.0053104208567875946 0 -0.029539197120254941 -0.00051038393964639519 0 -0.032770024037711037 0.0084985419153508525 0 -0.02631380729169577 0.0053104208567875946 0 -0.032770024037711037 0.0084985419153508525 0 -0.021996997598287969 0.010981086364913869 0 -0.02631380729169577 0.0053104208567875946 0 -0.032770024037711037 0.0084985419153508525 0 -0.021996997598287969 0.010981086364913869 0 -0.028180513839983729 0.018098474401369 0 -0.028180513839983729 0.018098474401369 0 -0.027511467414372541 0.03001296694831072 0 -0.01661374249992489 0.02103319015209278 0 -0.014695186475719159 0.0359408453649432 0 -0.027511467414372541 0.03001296694831072 0 -0.01661374249992489 0.02103319015209278 0 -0.021996997598287969 0.010981086364913869 0 -0.028180513839983729 0.018098474401369 0 -0.01661374249992489 0.02103319015209278 0 -0.01661374249992489 0.02103319015209278 0 0.00074240361007229996 0.028778475488121531 0 -0.0083058662928979787 0.012079608812324741 0 0.0060294939382754481 0.01286563290641534 0 0.00074240361007229996 0.028778475488121531 0 -0.014695186475719159 0.0359408453649432 0 -0.01661374249992489 0.02103319015209278 0 0.00074240361007229996 0.028778475488121531 0 -0.0083058662928979787 0.012079608812324741 0 0.00074240361007229996 0.028778475488121531 0 -0.01661374249992489 0.02103319015209278 0 -0.0083058662928979787 0.012079608812324741 0 0.00074240361007229996 0.028778475488121531 0 -0.0072764121498596901 -0.0036325873431357339 0 -0.0083058662928979787 0.012079608812324741 0 0.0012074066645448821 -0.00065723147797176382 0 -0.0072764121498596901 -0.0036325873431357339 0 -0.013607688627124061 -0.00178224205395049 0 -0.0083058662928979787 0.012079608812324741 0 -0.017354136195868258 -0.0046192578634720229 0 -0.0083058662928979787 0.012079608812324741 0 -0.017354136195868258 -0.0046192578634720229 0 -0.013607688627124061 -0.00178224205395049 0 -0.0083058662928979787 0.012079608812324741 0 -0.0083058662928979787 0.012079608812324741 0 0.0060294939382754481 0.01286563290641534 0 0.0012074066645448821 -0.00065723147797176382 0 -0.017354136195868258 -0.0046192578634720229 0 -0.02112675760807068 0.0030512678310729521 0 -0.0083058662928979787 0.012079608812324741 0 0.0060294939382754481 0.01286563290641534 0 0.0012074066645448821 -0.00065723147797176382 0 0.01265631079038235 -0.01012693536007268 0 0.0060294939382754481 0.01286563290641534 0 0.020311547060899309 0.014329649790385431 0 0.01265631079038235 -0.01012693536007268 0 0.00074240361007229996 0.028778475488121531 0 0.015746539320639769 0.024046632949657649 0 0.022626785018342459 0.038544513255683338 0 0.0060294939382754481 0.01286563290641534 0 0.00074240361007229996 0.028778475488121531 0 0.015746539320639769 0.024046632949657649 0 0.0060294939382754481 0.01286563290641534 0 0.015746539320639769 0.024046632949657649 0 0.020311547060899309 0.014329649790385431 0 0.015746539320639769 0.024046632949657649 0 0.029022466975609298 0.02571489330768258 0 0.020311547060899309 0.014329649790385431 0 0.015746539320639769 0.024046632949657649 0 0.029022466975609298 0.02571489330768258 0 0.022626785018342459 0.038544513255683338 0 0.020311547060899309 0.014329649790385431 0 0.034885408484197772 0.0062912350017927032 0 0.01265631079038235 -0.01012693536007268 0 0.029022466975609298 0.02571489330768258 0 0.020311547060899309 0.014329649790385431 0 0.034885408484197772 0.0062912350017927032 0 0.00079413703044923156 0.058803151297745167 0 0.01366790099406239 0.052632887419703241 0 0.0065236609159091173 0.071671444604676282 0 -0.0023331541944977092 0.045311556235899067 0 0.00079413703044923156 0.058803151297745167 0 0.01366790099406239 0.052632887419703241 0 0.00074240361007229996 0.028778475488121531 0 0.01366790099406239 0.052632887419703241 0 0.022626785018342459 0.038544513255683338 0 0.00074240361007229996 0.028778475488121531 0 0.022626785018342459 0.038544513255683338 0 -0.0023331541944977092 0.045311556235899067 0 0.00074240361007229996 0.028778475488121531 0 0.01366790099406239 0.052632887419703241 0 0.00074240361007229996 0.028778475488121531 0 0.01366790099406239 0.052632887419703241 0 0.029022466975609298 0.02571489330768258 0 0.022626785018342459 0.038544513255683338 0 0.037630953216902623 0.033668105561091018 0 0.01366790099406239 0.052632887419703241 0 0.022626785018342459 0.038544513255683338 0 0.025434983742737761 0.055249644843112657 0 0.022626785018342459 0.038544513255683338 0 0.025434983742737761 0.055249644843112657 0 0.034616451435572633 0.051242168749322393 0 0.025434983742737761 0.055249644843112657 0 0.034062632092931817 0.061255223706808547 0 0.02703491536905472 0.067401080742933134 0 0.01366790099406239 0.052632887419703241 0 0.025434983742737761 0.055249644843112657 0 0.02703491536905472 0.067401080742933134 0 0.034616451435572633 0.051242168749322393 0 0.044511166426612833 0.04831055102324476 0 0.060132464308973767 0.062986029428160187 0 0.034616451435572633 0.051242168749322393 0 0.060132464308973767 0.062986029428160187 0 0.044258496001147778 0.063884183083345675 0 0.034062632092931817 0.061255223706808547 0 0.034616451435572633 0.051242168749322393 0 0.044258496001147778 0.063884183083345675 0 0.025434983742737761 0.055249644843112657 0 0.034062632092931817 0.061255223706808547 0 0.034616451435572633 0.051242168749322393 0 0.022626785018342459 0.038544513255683338 0 0.044511166426612833 0.04831055102324476 0 0.022626785018342459 0.038544513255683338 0 0.034616451435572633 0.051242168749322393 0 0.044511166426612833 0.04831055102324476 0 0.022626785018342459 0.038544513255683338 0 0.044511166426612833 0.04831055102324476 0 0.037630953216902623 0.033668105561091018 0 0.044511166426612833 0.04831055102324476 0 0.037630953216902623 0.033668105561091018 0 0.0484135161167236 0.034205204957136963 0 0.0484135161167236 0.034205204957136963 0 0.060669767880595721 0.038134724015348051 0 0.0518117103670514 0.042737821036878322 0 0.0484135161167236 0.034205204957136963 0 0.060669767880595721 0.038134724015348051 0 0.057623658326613529 0.02352368721002385 0 0.060669767880595721 0.038134724015348051 0 0.0518117103670514 0.042737821036878322 0 0.059559274975242667 0.047504887075434543 0 0.044511166426612833 0.04831055102324476 0 0.0518117103670514 0.042737821036878322 0 0.059559274975242667 0.047504887075434543 0 0.044511166426612833 0.04831055102324476 0 0.0484135161167236 0.034205204957136963 0 0.0518117103670514 0.042737821036878322 0 0.044511166426612833 0.04831055102324476 0 0.066395547834883203 0.05807658879080619 0 0.060132464308973767 0.062986029428160187 0 0.034616451435572633 0.051242168749322393 0 0.060132464308973767 0.062986029428160187 0 0.044511166426612833 0.04831055102324476 0 0.066395547834883203 0.05807658879080619 0 0.044511166426612833 0.04831055102324476 0 0.059559274975242667 0.047504887075434543 0 0.066395547834883203 0.05807658879080619 0 0.034885408484197772 0.0062912350017927032 0 0.052968053050369737 0.0090809173488315582 0 0.042517259973231587 -0.011683923625132649 0 0.034885408484197772 0.0062912350017927032 0 0.043580831547224863 0.021565365261707499 0 0.052968053050369737 0.0090809173488315582 0 0.029022466975609298 0.02571489330768258 0 0.034885408484197772 0.0062912350017927032 0 0.043580831547224863 0.021565365261707499 0 0.029022466975609298 0.02571489330768258 0 0.037630953216902623 0.033668105561091018 0 0.043580831547224863 0.021565365261707499 0 0.037630953216902623 0.033668105561091018 0 0.0484135161167236 0.034205204957136963 0 0.043580831547224863 0.021565365261707499 0 0.057623658326613529 0.02352368721002385 0 0.052968053050369737 0.0090809173488315582 0 0.071708216805815503 0.016768608491387289 0 0.043580831547224863 0.021565365261707499 0 0.057623658326613529 0.02352368721002385 0 0.052968053050369737 0.0090809173488315582 0 0.0484135161167236 0.034205204957136963 0 0.043580831547224863 0.021565365261707499 0 0.057623658326613529 0.02352368721002385 0 0.052968053050369737 0.0090809173488315582 0 0.071708216805815503 0.016768608491387289 0 0.067492943165135169 -0.0019794682467893379 0 0.083930998993742512 0.0059737405228527038 0 0.071708216805815503 0.016768608491387289 0 0.067492943165135169 -0.0019794682467893379 0 0.083930998993742512 0.0059737405228527038 0 0.098495163759696414 0.0029673617968291321 0 0.094917995650245529 0.021722354499223519 0 0.083930998993742512 0.0059737405228527038 0 0.071708216805815503 0.016768608491387289 0 0.094917995650245529 0.021722354499223519 0 0.071708216805815503 0.016768608491387289 0 0.07449934060461412 0.03258063005354956 0 0.094917995650245529 0.021722354499223519 0 0.07449934060461412 0.03258063005354956 0 0.087237150257314613 0.037926204838731957 0 0.094917995650245529 0.021722354499223519 0 0.057623658326613529 0.02352368721002385 0 0.071708216805815503 0.016768608491387289 0 0.07449934060461412 0.03258063005354956 0 0.060669767880595721 0.038134724015348051 0 0.057623658326613529 0.02352368721002385 0 0.07449934060461412 0.03258063005354956 0 0.060669767880595721 0.038134724015348051 0 0.069155187538762042 0.045022305850501279 0 0.07449934060461412 0.03258063005354956 0 0.060669767880595721 0.038134724015348051 0 0.059559274975242667 0.047504887075434543 0 0.069155187538762042 0.045022305850501279 0 0.069155187538762042 0.045022305850501279 0 0.07449934060461412 0.03258063005354956 0 0.079692196512252927 0.044953406994506007 0 0.059559274975242667 0.047504887075434543 0 0.069155187538762042 0.045022305850501279 0 0.067326156772233525 0.050603546620565112 0 0.059559274975242667 0.047504887075434543 0 0.066395547834883203 0.05807658879080619 0 0.067326156772233525 0.050603546620565112 0 0.066395547834883203 0.05807658879080619 0 0.067326156772233525 0.050603546620565112 0 0.074194616740046182 0.051810404765518438 0 0.069155187538762042 0.045022305850501279 0 0.067326156772233525 0.050603546620565112 0 0.074194616740046182 0.051810404765518438 0 0.069155187538762042 0.045022305850501279 0 0.074194616740046182 0.051810404765518438 0 0.079692196512252927 0.044953406994506007 0 0.066395547834883203 0.05807658879080619 0 0.074194616740046182 0.051810404765518438 0 0.080343143758095259 0.058335218209008277 0 0.066395547834883203 0.05807658879080619 0 0.080343143758095259 0.058335218209008277 0 0.08827992924315356 0.067842626558367619 0 0.080343143758095259 0.058335218209008277 0 0.083306510346727383 0.05351440315152866 0 0.090416084875221875 0.058235299142909973 0 0.074194616740046182 0.051810404765518438 0 0.083306510346727383 0.05351440315152866 0 0.079692196512252927 0.044953406994506007 0 0.083306510346727383 0.05351440315152866 0 0.089760373586053266 0.048866493307206167 0 0.079692196512252927 0.044953406994506007 0 0.074194616740046182 0.051810404765518438 0 0.080343143758095259 0.058335218209008277 0 0.083306510346727383 0.05351440315152866 0 0.083306510346727383 0.05351440315152866 0 0.089760373586053266 0.048866493307206167 0 0.090416084875221875 0.058235299142909973 0 0.089760373586053266 0.048866493307206167 0 0.090416084875221875 0.058235299142909973 0 0.099395501669828634 0.055681054702382278 0 0.080343143758095259 0.058335218209008277 0 0.090416084875221875 0.058235299142909973 0 0.08827992924315356 0.067842626558367619 0 0.087237150257314613 0.037926204838731957 0 0.098930039005792711 0.04227996871225087 0 0.094917995650245529 0.021722354499223519 0 0.07449934060461412 0.03258063005354956 0 0.079692196512252927 0.044953406994506007 0 0.087237150257314613 0.037926204838731957 0 0.089760373586053266 0.048866493307206167 0 0.079692196512252927 0.044953406994506007 0 0.087237150257314613 0.037926204838731957 0 0.089760373586053266 0.048866493307206167 0 0.087237150257314613 0.037926204838731957 0 0.098930039005792711 0.04227996871225087 0 0.10894092886672049 0.033503019923715648 0 0.098930039005792711 0.04227996871225087 0 0.11550376979223601 0.054551475820320147 0 0.10894092886672049 0.033503019923715648 0 0.098930039005792711 0.04227996871225087 0 0.094917995650245529 0.021722354499223519 0 0.098930039005792711 0.04227996871225087 0 0.099395501669828634 0.055681054702382278 0 0.11550376979223601 0.054551475820320147 0 0.099395501669828634 0.055681054702382278 0 0.11550376979223601 0.054551475820320147 0 0.10561354398445311 0.069921878226714862 0 0.090416084875221875 0.058235299142909973 0 0.099395501669828634 0.055681054702382278 0 0.095618088847860577 0.065038419849084594 0 0.089760373586053266 0.048866493307206167 0 0.098930039005792711 0.04227996871225087 0 0.099395501669828634 0.055681054702382278 0 0.10894092886672049 0.033503019923715648 0 0.11961069471150609 0.02296590295220987 0 0.12977361784467401 0.039215218793308727 0 0.10894092886672049 0.033503019923715648 0 0.11550376979223601 0.054551475820320147 0 0.12977361784467401 0.039215218793308727 0 0.11961069471150609 0.02296590295220987 0 0.1158546052028349 0.0064685721448778594 0 0.094917995650245529 0.021722354499223519 0 0.11961069471150609 0.02296590295220987 0 0.1158546052028349 0.0064685721448778594 0 0.13894824890776639 0.02136224913872127 0 0.1158546052028349 0.0064685721448778594 0 0.098495163759696414 0.0029673617968291321 0 0.094917995650245529 0.021722354499223519 0 0.10894092886672049 0.033503019923715648 0 0.11961069471150609 0.02296590295220987 0 0.094917995650245529 0.021722354499223519 0 0.097728221435088053 0.099184528615223033 0 0.110275064223293 0.10236359857942121 0 0.11116449005577619 0.086473750785835857 0 0.099894961061174667 0.1104201015940532 0 0.11150799601301251 0.1117412241471519 0 0.110275064223293 0.10236359857942121 0 0.097728221435088053 0.099184528615223033 0 0.099894961061174667 0.1104201015940532 0 0.110275064223293 0.10236359857942121 0 0.097728221435088053 0.099184528615223033 0 0.099894961061174667 0.1104201015940532 0 0.084925795867796111 0.1103515185161017 0 0.099894961061174667 0.1104201015940532 0 0.096984900528893664 0.1212489081817222 0 0.084925795867796111 0.1103515185161017 0 0.099894961061174667 0.1104201015940532 0 0.096984900528893664 0.1212489081817222 0 0.10712684862241641 0.1210429748963526 0 0.096984900528893664 0.1212489081817222 0 0.10712684862241641 0.1210429748963526 0 0.10589272808503949 0.13156516273042271 0 0.099894961061174667 0.1104201015940532 0 0.10712684862241641 0.1210429748963526 0 0.11150799601301251 0.1117412241471519 0 0.10712684862241641 0.1210429748963526 0 0.11150799601301251 0.1117412241471519 0 0.1187293914863337 0.1182846474287873 0 0.11150799601301251 0.1117412241471519 0 0.1187293914863337 0.1182846474287873 0 0.1197878353292403 0.1092484053650479 0 0.10712684862241641 0.1210429748963526 0 0.1187293914863337 0.1182846474287873 0 0.114987521205969 0.1268010028982309 0 0.1187293914863337 0.1182846474287873 0 0.12813823657366311 0.12049833089676459 0 0.12624189261331301 0.1140678077034443 0 0.1187293914863337 0.1182846474287873 0 0.12212988809696081 0.1249307776834532 0 0.12813823657366311 0.12049833089676459 0 0.1187293914863337 0.1182846474287873 0 0.12212988809696081 0.1249307776834532 0 0.114987521205969 0.1268010028982309 0 0.1187293914863337 0.1182846474287873 0 0.1197878353292403 0.1092484053650479 0 0.12624189261331301 0.1140678077034443 0 0.1216961693062274 0.1020981758197984 0 0.110275064223293 0.10236359857942121 0 0.11116449005577619 0.086473750785835857 0 0.1197878353292403 0.1092484053650479 0 0.1216961693062274 0.1020981758197984 0 0.1302764983332621 0.10693497851168419 0 0.1216961693062274 0.1020981758197984 0 0.11116449005577619 0.086473750785835857 0 0.13668050292917741 0.098217611464673699 0 0.1197878353292403 0.1092484053650479 0 0.1216961693062274 0.1020981758197984 0 0.110275064223293 0.10236359857942121 0 0.11150799601301251 0.1117412241471519 0 0.1197878353292403 0.1092484053650479 0 0.110275064223293 0.10236359857942121 0 0.11116449005577619 0.086473750785835857 0 0.1207366242219714 0.074251990558816788 0 0.1300820653953097 0.084166932106396392 0 0.11116449005577619 0.086473750785835857 0 0.13668050292917741 0.098217611464673699 0 0.11116449005577619 0.086473750785835857 0 0.1207366242219714 0.074251990558816788 0 0.10561354398445311 0.069921878226714862 0 0.11550376979223601 0.054551475820320147 0 0.1207366242219714 0.074251990558816788 0 0.13255022158949201 0.068763676371196639 0 0.11550376979223601 0.054551475820320147 0 0.1207366242219714 0.074251990558816788 0 0.10561354398445311 0.069921878226714862 0 0.11116449005577619 0.086473750785835857 0 0.10561354398445311 0.069921878226714862 0 0.085648477182374977 0.074729890106998029 0 0.10561354398445311 0.069921878226714862 0 0.095618088847860577 0.065038419849084594 0 0.085648477182374977 0.074729890106998029 0 0.099395501669828634 0.055681054702382278 0 0.10561354398445311 0.069921878226714862 0 0.095618088847860577 0.065038419849084594 0 0.11116449005577619 0.086473750785835857 0 0.085648477182374977 0.074729890106998029 0 0.11116449005577619 0.086473750785835857 0 0.090808031879269946 0.087622927320568048 0 0.085648477182374977 0.074729890106998029 0 0.097728221435088053 0.099184528615223033 0 0.11116449005577619 0.086473750785835857 0 0.090808031879269946 0.087622927320568048 0 0.097728221435088053 0.099184528615223033 0 0.090808031879269946 0.087622927320568048 0 0.080235742217082393 0.093435287859391092 0 0.090808031879269946 0.087622927320568048 0 0.078675001300488379 0.083882301042573534 0 0.085648477182374977 0.074729890106998029 0 0.090808031879269946 0.087622927320568048 0 0.078675001300488379 0.083882301042573534 0 0.080235742217082393 0.093435287859391092 0 0.066395547834883203 0.05807658879080619 0 0.08827992924315356 0.067842626558367619 0 0.085648477182374977 0.074729890106998029 0 0.095618088847860577 0.065038419849084594 0 0.08827992924315356 0.067842626558367619 0 0.085648477182374977 0.074729890106998029 0 0.090416084875221875 0.058235299142909973 0 0.095618088847860577 0.065038419849084594 0 0.08827992924315356 0.067842626558367619 0 0.066395547834883203 0.05807658879080619 0 0.085648477182374977 0.074729890106998029 0 0.060132464308973767 0.062986029428160187 0 0.066395547834883203 0.05807658879080619 0 0.08827992924315356 0.067842626558367619 0 0.085648477182374977 0.074729890106998029 0 0.068637102026180674 0.07792917868559901 0 0.060132464308973767 0.062986029428160187 0 0.085648477182374977 0.074729890106998029 0 0.060132464308973767 0.062986029428160187 0 0.078675001300488379 0.083882301042573534 0 0.085648477182374977 0.074729890106998029 0 0.068637102026180674 0.07792917868559901 0 0.080235742217082393 0.093435287859391092 0 0.069503799956795384 0.087722797055870286 0 0.068523875558259784 0.095111972458496966 0 0.078675001300488379 0.083882301042573534 0 0.080235742217082393 0.093435287859391092 0 0.069503799956795384 0.087722797055870286 0 0.078675001300488379 0.083882301042573534 0 0.068637102026180674 0.07792917868559901 0 0.069503799956795384 0.087722797055870286 0 0.068637102026180674 0.07792917868559901 0 0.069503799956795384 0.087722797055870286 0 0.060111091978902922 0.083782113849914977 0 0.069503799956795384 0.087722797055870286 0 0.06135777996986308 0.093915161513068182 0 0.060111091978902922 0.083782113849914977 0 0.069503799956795384 0.087722797055870286 0 0.068523875558259784 0.095111972458496966 0 0.06135777996986308 0.093915161513068182 0 0.068523875558259784 0.095111972458496966 0 0.071520258741129425 0.10189571548122769 0 0.062413973273008162 0.1018934272394761 0 0.068523875558259784 0.095111972458496966 0 0.062413973273008162 0.1018934272394761 0 0.06135777996986308 0.093915161513068182 0 0.071520258741129425 0.10189571548122769 0 0.072821304814728441 0.1108529925529516 0 0.063718101814298073 0.11016590081819259 0 0.071520258741129425 0.10189571548122769 0 0.063718101814298073 0.11016590081819259 0 0.062413973273008162 0.1018934272394761 0 0.071520258741129425 0.10189571548122769 0 0.084925795867796111 0.1103515185161017 0 0.072821304814728441 0.1108529925529516 0 0.080235742217082393 0.093435287859391092 0 0.068523875558259784 0.095111972458496966 0 0.071520258741129425 0.10189571548122769 0 0.097728221435088053 0.099184528615223033 0 0.080235742217082393 0.093435287859391092 0 0.084925795867796111 0.1103515185161017 0 0.080235742217082393 0.093435287859391092 0 0.071520258741129425 0.10189571548122769 0 0.084925795867796111 0.1103515185161017 0 0.084925795867796111 0.1103515185161017 0 0.074154959480044275 0.1204842858357125 0 0.087075880893963842 0.12621803440601359 0 0.096984900528893664 0.1212489081817222 0 0.084925795867796111 0.1103515185161017 0 0.087075880893963842 0.12621803440601359 0 0.084925795867796111 0.1103515185161017 0 0.074154959480044275 0.1204842858357125 0 0.072821304814728441 0.1108529925529516 0 0.074154959480044275 0.1204842858357125 0 0.072821304814728441 0.1108529925529516 0 0.063718101814298073 0.11016590081819259 0 0.074154959480044275 0.1204842858357125 0 0.063718101814298073 0.11016590081819259 0 0.060124536552058239 0.11864948812996751 0 0.074154959480044275 0.1204842858357125 0 0.060124536552058239 0.11864948812996751 0 0.061109117960118017 0.12720913792676911 0 0.060124536552058239 0.11864948812996751 0 0.052595679859244633 0.1236025024456274 0 0.054913207086597561 0.11271600588853189 0 0.060124536552058239 0.11864948812996751 0 0.052595679859244633 0.1236025024456274 0 0.061109117960118017 0.12720913792676911 0 0.052595679859244633 0.1236025024456274 0 0.054913207086597561 0.11271600588853189 0 0.046771683079868627 0.1089772416004138 0 0.063718101814298073 0.11016590081819259 0 0.060124536552058239 0.11864948812996751 0 0.054913207086597561 0.11271600588853189 0 0.063718101814298073 0.11016590081819259 0 0.062413973273008162 0.1018934272394761 0 0.053620768430252298 0.1031656988462608 0 0.063718101814298073 0.11016590081819259 0 0.054913207086597561 0.11271600588853189 0 0.053620768430252298 0.1031656988462608 0 0.06135777996986308 0.093915161513068182 0 0.053620768430252298 0.1031656988462608 0 0.051535176025136201 0.090416251810209708 0 0.062413973273008162 0.1018934272394761 0 0.06135777996986308 0.093915161513068182 0 0.053620768430252298 0.1031656988462608 0 0.053620768430252298 0.1031656988462608 0 0.042875633238578528 0.09739353282270094 0 0.051535176025136201 0.090416251810209708 0 0.053620768430252298 0.1031656988462608 0 0.046771683079868627 0.1089772416004138 0 0.042875633238578528 0.09739353282270094 0 0.054913207086597561 0.11271600588853189 0 0.053620768430252298 0.1031656988462608 0 0.046771683079868627 0.1089772416004138 0 0.046771683079868627 0.1089772416004138 0 0.042875633238578528 0.09739353282270094 0 0.034382595390138257 0.1099700727945534 0 0.042875633238578528 0.09739353282270094 0 0.034382595390138257 0.1099700727945534 0 0.030708755379597181 0.088685576768743155 0 0.034382595390138257 0.1099700727945534 0 0.030708755379597181 0.088685576768743155 0 0.052595679859244633 0.1236025024456274 0 0.046771683079868627 0.1089772416004138 0 0.034382595390138257 0.1099700727945534 0 0.034382595390138257 0.1099700727945534 0 0.02520709702204247 0.1232263280856261 0 0.037354296692750887 0.12718670835402709 0 0.052595679859244633 0.1236025024456274 0 0.034382595390138257 0.1099700727945534 0 0.037354296692750887 0.12718670835402709 0 0.034382595390138257 0.1099700727945534 0 0.037354296692750887 0.12718670835402709 0 0.052595679859244633 0.1236025024456274 0 0.034382595390138257 0.1099700727945534 0 0.060132464308973767 0.062986029428160187 0 0.051537231586459821 0.0703604747810012 0 0.044258496001147778 0.063884183083345675 0 0.051537231586459821 0.0703604747810012 0 0.045053238281461433 0.071665999821029613 0 0.044258496001147778 0.063884183083345675 0 0.060132464308973767 0.062986029428160187 0 0.058160070023191839 0.074213970699792686 0 0.051537231586459821 0.0703604747810012 0 0.068637102026180674 0.07792917868559901 0 0.060132464308973767 0.062986029428160187 0 0.058160070023191839 0.074213970699792686 0 0.051537231586459821 0.0703604747810012 0 0.049495561811348857 0.078896267932753172 0 0.045053238281461433 0.071665999821029613 0 0.058160070023191839 0.074213970699792686 0 0.051537231586459821 0.0703604747810012 0 0.049495561811348857 0.078896267932753172 0 0.049495561811348857 0.078896267932753172 0 0.051535176025136201 0.090416251810209708 0 0.041750220721871581 0.085344735896560275 0 0.049495561811348857 0.078896267932753172 0 0.060111091978902922 0.083782113849914977 0 0.051535176025136201 0.090416251810209708 0 0.068637102026180674 0.07792917868559901 0 0.058160070023191839 0.074213970699792686 0 0.060111091978902922 0.083782113849914977 0 0.058160070023191839 0.074213970699792686 0 0.049495561811348857 0.078896267932753172 0 0.060111091978902922 0.083782113849914977 0 0.06135777996986308 0.093915161513068182 0 0.060111091978902922 0.083782113849914977 0 0.051535176025136201 0.090416251810209708 0 0.042875633238578528 0.09739353282270094 0 0.051535176025136201 0.090416251810209708 0 0.041750220721871581 0.085344735896560275 0 0.042875633238578528 0.09739353282270094 0 0.041750220721871581 0.085344735896560275 0 0.030708755379597181 0.088685576768743155 0 0.041750220721871581 0.085344735896560275 0 0.037489048909448763 0.07466528487264068 0 0.030708755379597181 0.088685576768743155 0 0.049495561811348857 0.078896267932753172 0 0.041750220721871581 0.085344735896560275 0 0.037489048909448763 0.07466528487264068 0 0.037489048909448763 0.07466528487264068 0 0.02703491536905472 0.067401080742933134 0 0.030708755379597181 0.088685576768743155 0 0.049495561811348857 0.078896267932753172 0 0.045053238281461433 0.071665999821029613 0 0.037489048909448763 0.07466528487264068 0 0.045053238281461433 0.071665999821029613 0 0.037489048909448763 0.07466528487264068 0 0.037579666130808903 0.067774354445351542 0 0.034062632092931817 0.061255223706808547 0 0.037579666130808903 0.067774354445351542 0 0.02703491536905472 0.067401080742933134 0 0.037489048909448763 0.07466528487264068 0 0.037579666130808903 0.067774354445351542 0 0.02703491536905472 0.067401080742933134 0 0.034062632092931817 0.061255223706808547 0 0.037579666130808903 0.067774354445351542 0 0.044258496001147778 0.063884183083345675 0 0.045053238281461433 0.071665999821029613 0 0.037579666130808903 0.067774354445351542 0 0.044258496001147778 0.063884183083345675 0 0.02703491536905472 0.067401080742933134 0 0.030708755379597181 0.088685576768743155 0 0.01366790099406239 0.052632887419703241 0 0.026593398378051959 0.076487299351285121 0 0.01366790099406239 0.052632887419703241 0 0.02703491536905472 0.067401080742933134 0 0.026593398378051959 0.076487299351285121 0 0.02703491536905472 0.067401080742933134 0 0.026593398378051959 0.076487299351285121 0 0.030708755379597181 0.088685576768743155 0 0.01366790099406239 0.052632887419703241 0 0.026593398378051959 0.076487299351285121 0 0.01611389888654503 0.070322973248010373 0 0.026593398378051959 0.076487299351285121 0 0.01611389888654503 0.070322973248010373 0 0.01767063525815666 0.080500261616376856 0 0.01767063525815666 0.080500261616376856 0 0.030708755379597181 0.088685576768743155 0 0.011643404763696401 0.092949868607662828 0 0.026593398378051959 0.076487299351285121 0 0.01767063525815666 0.080500261616376856 0 0.030708755379597181 0.088685576768743155 0 0.01767063525815666 0.080500261616376856 0 0.011643404763696401 0.092949868607662828 0 0.0065236609159091173 0.071671444604676282 0 -0.01109578586274463 0.07592966442077155 0 0.011643404763696401 0.092949868607662828 0 0.0065236609159091173 0.071671444604676282 0 -0.01109578586274463 0.07592966442077155 0 0.011643404763696401 0.092949868607662828 0 0.01366790099406239 0.052632887419703241 0 0.01611389888654503 0.070322973248010373 0 0.0065236609159091173 0.071671444604676282 0 0.01611389888654503 0.070322973248010373 0 0.01767063525815666 0.080500261616376856 0 0.0065236609159091173 0.071671444604676282 0 -0.0031702267477386531 0.067180855403790804 0 0.00079413703044923156 0.058803151297745167 0 0.0065236609159091173 0.071671444604676282 0 0.034382595390138257 0.1099700727945534 0 0.02520709702204247 0.1232263280856261 0 0.01356063639681436 0.11371506303709419 0 0.02520709702204247 0.1232263280856261 0 0.01356063639681436 0.11371506303709419 0 0.011098566836083609 0.13484946890849181 0 0.034382595390138257 0.1099700727945534 0 0.011643404763696401 0.092949868607662828 0 0.01356063639681436 0.11371506303709419 0 0.034382595390138257 0.1099700727945534 0 0.011643404763696401 0.092949868607662828 0 0.034382595390138257 0.1099700727945534 0 0.030708755379597181 0.088685576768743155 0 0.011643404763696401 0.092949868607662828 0 -0.0040088977147468936 0.097024336429998151 0 0.011643404763696401 0.092949868607662828 0 0.0025937760044158291 0.1064596481343341 0 0.011643404763696401 0.092949868607662828 0 0.0025937760044158291 0.1064596481343341 0 0.01356063639681436 0.11371506303709419 0 -0.007175360702145514 0.1155930690216506 0 0.0025937760044158291 0.1064596481343341 0 0.01356063639681436 0.11371506303709419 0 -0.007175360702145514 0.1155930690216506 0 0.01356063639681436 0.11371506303709419 0 0.011098566836083609 0.13484946890849181 0 -0.007175360702145514 0.1155930690216506 0 0.011098566836083609 0.13484946890849181 0 0.02520709702204247 0.1232263280856261 0 0.011098566836083609 0.13484946890849181 0 0.028759663239593541 0.13617761485890201 0 0.02520709702204247 0.1232263280856261 0 0.028759663239593541 0.13617761485890201 0 0.037354296692750887 0.12718670835402709 0 0.011098566836083609 0.13484946890849181 0 0.029372494374312729 0.15410586879533311 0 0.013538337341477229 0.1636201682865295 0 0.011098566836083609 0.13484946890849181 0 0.028759663239593541 0.13617761485890201 0 0.029372494374312729 0.15410586879533311 0 0.011098566836083609 0.13484946890849181 0 0.029372494374312729 0.15410586879533311 0 -0.0048034666842798916 0.1614245706846468 0 0.011098566836083609 0.13484946890849181 0 0.013538337341477229 0.1636201682865295 0 -0.0057956805663459468 0.1892940575843915 0 -0.0048034666842798916 0.1614245706846468 0 0.013538337341477229 0.1636201682865295 0 -0.0057956805663459468 0.1892940575843915 0 0.013538337341477229 0.1636201682865295 0 0.020045678312652242 0.18090880435863019 0 -0.0057956805663459468 0.1892940575843915 0 0.020045678312652242 0.18090880435863019 0 0.029372494374312729 0.15410586879533311 0 0.013538337341477229 0.1636201682865295 0 0.020045678312652242 0.18090880435863019 0 0.029372494374312729 0.15410586879533311 0 0.045887037191650451 0.17252355113286891 0 0.04813315871709322 0.1541455757588851 0 0.029372494374312729 0.15410586879533311 0 0.020045678312652242 0.18090880435863019 0 0.045887037191650451 0.17252355113286891 0 0.020045678312652242 0.18090880435863019 0 0.045887037191650451 0.17252355113286891 0 0.020045678312652242 0.18090880435863019 0 0.045887037191650451 0.17252355113286891 0 0.041991232206495782 0.1919910870650737 0 0.045887037191650451 0.17252355113286891 0 0.060802696405823108 0.1787365445376432 0 0.041991232206495782 0.1919910870650737 0 0.045887037191650451 0.17252355113286891 0 0.071728396070648653 0.1641382979071076 0 0.045887037191650451 0.17252355113286891 0 0.060802696405823108 0.1787365445376432 0 0.071728396070648653 0.1641382979071076 0 0.045887037191650451 0.17252355113286891 0 0.059657673584757237 0.15824269734654939 0 0.04813315871709322 0.1541455757588851 0 0.045887037191650451 0.17252355113286891 0 0.059657673584757237 0.15824269734654939 0 0.071728396070648653 0.1641382979071076 0 0.059657673584757237 0.15824269734654939 0 0.04813315871709322 0.1541455757588851 0 0.060329678829100349 0.1474246815113264 0 0.04813315871709322 0.1541455757588851 0 0.050215372913412007 0.1458935282758238 0 0.060329678829100349 0.1474246815113264 0 0.050215372913412007 0.1458935282758238 0 0.060329678829100349 0.1474246815113264 0 0.052072656112092337 0.13760051191958289 0 0.050215372913412007 0.1458935282758238 0 0.052072656112092337 0.13760051191958289 0 0.040325997995362128 0.14440334391350099 0 0.060329678829100349 0.1474246815113264 0 0.062159468211553673 0.13737243366585769 0 0.052072656112092337 0.13760051191958289 0 0.062159468211553673 0.13737243366585769 0 0.054733357378362921 0.13083888414419281 0 0.052072656112092337 0.13760051191958289 0 0.052595679859244633 0.1236025024456274 0 0.054733357378362921 0.13083888414419281 0 0.061109117960118017 0.12720913792676911 0 0.062159468211553673 0.13737243366585769 0 0.054733357378362921 0.13083888414419281 0 0.061109117960118017 0.12720913792676911 0 0.052595679859244633 0.1236025024456274 0 0.054733357378362921 0.13083888414419281 0 0.046346625143134958 0.1312929959830558 0 0.054733357378362921 0.13083888414419281 0 0.052072656112092337 0.13760051191958289 0 0.046346625143134958 0.1312929959830558 0 0.037354296692750887 0.12718670835402709 0 0.040325997995362128 0.14440334391350099 0 0.046346625143134958 0.1312929959830558 0 0.037354296692750887 0.12718670835402709 0 0.040325997995362128 0.14440334391350099 0 0.028759663239593541 0.13617761485890201 0 0.037354296692750887 0.12718670835402709 0 0.040325997995362128 0.14440334391350099 0 0.052072656112092337 0.13760051191958289 0 0.046346625143134958 0.1312929959830558 0 0.040325997995362128 0.14440334391350099 0 0.052595679859244633 0.1236025024456274 0 0.046346625143134958 0.1312929959830558 0 0.037354296692750887 0.12718670835402709 0 0.028759663239593541 0.13617761485890201 0 0.029372494374312729 0.15410586879533311 0 0.040325997995362128 0.14440334391350099 0 0.029372494374312729 0.15410586879533311 0 0.04813315871709322 0.1541455757588851 0 0.040325997995362128 0.14440334391350099 0 0.04813315871709322 0.1541455757588851 0 0.050215372913412007 0.1458935282758238 0 0.040325997995362128 0.14440334391350099 0 0.025149977659741599 0.24684982625080901 0 0.00014186162909880781 0.2338185852574263 0 0.02177620002751179 0.22559840920251981 0 0.025149977659741599 0.24684982625080901 0 0.00014186162909880781 0.2338185852574263 0 0.025149977659741599 0.24684982625080901 0 0.00014186162909880781 0.2338185852574263 0 0.0073806355134042019 0.25529449578482938 0 0.00014186162909880781 0.2338185852574263 0 0.02177620002751179 0.22559840920251981 0 0.0090806704795409685 0.20996839310177981 0 0.025149977659741599 0.24684982625080901 0 0.02177620002751179 0.22559840920251981 0 0.039960986899899173 0.22780444499479169 0 0.02177620002751179 0.22559840920251981 0 0.0090806704795409685 0.20996839310177981 0 0.034547503469278373 0.20955079640779209 0 0.0090806704795409685 0.20996839310177981 0 0.02162293693503077 0.1981024475624624 0 0.034547503469278373 0.20955079640779209 0 -0.0057956805663459468 0.1892940575843915 0 0.0090806704795409685 0.20996839310177981 0 0.02162293693503077 0.1981024475624624 0 -0.0057956805663459468 0.1892940575843915 0 0.020045678312652242 0.18090880435863019 0 0.02162293693503077 0.1981024475624624 0 0.020045678312652242 0.18090880435863019 0 0.02162293693503077 0.1981024475624624 0 0.041991232206495782 0.1919910870650737 0 0.02162293693503077 0.1981024475624624 0 0.041991232206495782 0.1919910870650737 0 0.034547503469278373 0.20955079640779209 0 0.041991232206495782 0.1919910870650737 0 0.05849467095877426 0.1965416733816682 0 0.050764695011206777 0.20916964222725651 0 0.060802696405823108 0.1787365445376432 0 0.041991232206495782 0.1919910870650737 0 0.05849467095877426 0.1965416733816682 0 0.050764695011206777 0.20916964222725651 0 0.066981886553135278 0.20878848804672309 0 0.05849467095877426 0.1965416733816682 0 0.050764695011206777 0.20916964222725651 0 0.066981886553135278 0.20878848804672309 0 0.050764695011206777 0.20916964222725651 0 0.061514006406540499 0.23071042489022231 0 0.066981886553135278 0.20878848804672309 0 0.050764695011206777 0.20916964222725651 0 0.034547503469278373 0.20955079640779209 0 0.039960986899899173 0.22780444499479169 0 0.050764695011206777 0.20916964222725651 0 0.034547503469278373 0.20955079640779209 0 0.041991232206495782 0.1919910870650737 0 0.050764695011206777 0.20916964222725651 0 0.034547503469278373 0.20955079640779209 0 0.02177620002751179 0.22559840920251981 0 0.034547503469278373 0.20955079640779209 0 0.039960986899899173 0.22780444499479169 0 0.039960986899899173 0.22780444499479169 0 0.061514006406540499 0.23071042489022231 0 0.045472231705318063 0.24424317023843681 0 0.050764695011206777 0.20916964222725651 0 0.039960986899899173 0.22780444499479169 0 0.061514006406540499 0.23071042489022231 0 0.061514006406540499 0.23071042489022231 0 0.056046126259945157 0.25263236173372139 0 0.061514006406540499 0.23071042489022231 0 0.056046126259945157 0.25263236173372139 0 0.067905867336300579 0.25358800162702 0 0.061514006406540499 0.23071042489022231 0 0.045472231705318063 0.24424317023843681 0 0.056046126259945157 0.25263236173372139 0 0.025149977659741599 0.24684982625080901 0 0.039960986899899173 0.22780444499479169 0 0.045472231705318063 0.24424317023843681 0 0.092857250133516089 0.24175825718487831 0 0.078525547080241467 0.2465942846531784 0 0.093798877441032588 0.2579700649065903 0 0.092857250133516089 0.24175825718487831 0 0.078525547080241467 0.2465942846531784 0 0.081986142109724491 0.22560265144644431 0 0.061514006406540499 0.23071042489022231 0 0.078525547080241467 0.2465942846531784 0 0.067905867336300579 0.25358800162702 0 0.061514006406540499 0.23071042489022231 0 0.078525547080241467 0.2465942846531784 0 0.081986142109724491 0.22560265144644431 0 0.061514006406540499 0.23071042489022231 0 0.081986142109724491 0.22560265144644431 0 0.066981886553135278 0.20878848804672309 0 0.061514006406540499 0.23071042489022231 0 0.066981886553135278 0.20878848804672309 0 0.081986142109724491 0.22560265144644431 0 0.09236794217301933 0.20819183719001669 0 0.066981886553135278 0.20878848804672309 0 0.09236794217301933 0.20819183719001669 0 0.066981886553135278 0.20878848804672309 0 0.09236794217301933 0.20819183719001669 0 0.066981886553135278 0.20878848804672309 0 0.071445073857882777 0.19089458628000441 0 0.060802696405823108 0.1787365445376432 0 0.05849467095877426 0.1965416733816682 0 0.071445073857882777 0.19089458628000441 0 0.066981886553135278 0.20878848804672309 0 0.071445073857882777 0.19089458628000441 0 0.05849467095877426 0.1965416733816682 0 0.066981886553135278 0.20878848804672309 0 0.071445073857882777 0.19089458628000441 0 0.09236794217301933 0.20819183719001669 0 0.071445073857882777 0.19089458628000441 0 0.086464584236575506 0.1862285865309723 0 0.09236794217301933 0.20819183719001669 0 0.086464584236575506 0.1862285865309723 0 0.1023855527362314 0.18749689463882899 0 0.09236794217301933 0.20819183719001669 0 0.11775399779290339 0.20759518633331239 0 0.1023855527362314 0.18749689463882899 0 0.11775399779290339 0.20759518633331239 0 0.1023855527362314 0.18749689463882899 0 0.12550986450034471 0.186594373040398 0 0.09236794217301933 0.20819183719001669 0 0.11775399779290339 0.20759518633331239 0 0.09236794217301933 0.20819183719001669 0 0.11775399779290339 0.20759518633331239 0 0.10906069526472741 0.22998953009969161 0 0.092857250133516089 0.24175825718487831 0 0.081986142109724491 0.22560265144644431 0 0.10906069526472741 0.22998953009969161 0 0.081986142109724491 0.22560265144644431 0 0.09236794217301933 0.20819183719001669 0 0.10906069526472741 0.22998953009969161 0 0.11775399779290339 0.20759518633331239 0 0.10906069526472741 0.22998953009969161 0 0.1382648444377183 0.22719855966067881 0 0.10906069526472741 0.22998953009969161 0 0.12787711237058769 0.24521089126939841 0 0.1100607559553454 0.25396994184181759 0 0.092857250133516089 0.24175825718487831 0 0.10906069526472741 0.22998953009969161 0 0.1100607559553454 0.25396994184181759 0 0.081151633673542972 0.15313158297098389 0 0.083920606388658545 0.14050817004821939 0 0.0975697549496468 0.15575304468134629 0 0.081151633673542972 0.15313158297098389 0 0.083920606388658545 0.14050817004821939 0 0.071387777285217918 0.15212681924726251 0 0.074154959480044275 0.1204842858357125 0 0.087075880893963842 0.12621803440601359 0 0.083920606388658545 0.14050817004821939 0 0.087075880893963842 0.12621803440601359 0 0.083920606388658545 0.14050817004821939 0 0.097906888154765004 0.1362305538396491 0 0.062159468211553673 0.13737243366585769 0 0.061109117960118017 0.12720913792676911 0 0.083920606388658545 0.14050817004821939 0 0.074154959480044275 0.1204842858357125 0 0.061109117960118017 0.12720913792676911 0 0.083920606388658545 0.14050817004821939 0 0.061109117960118017 0.12720913792676911 0 0.083920606388658545 0.14050817004821939 0 0.062159468211553673 0.13737243366585769 0 0.083920606388658545 0.14050817004821939 0 0.069449382678632612 0.1443580261181665 0 0.060329678829100349 0.1474246815113264 0 0.062159468211553673 0.13737243366585769 0 0.069449382678632612 0.1443580261181665 0 0.060329678829100349 0.1474246815113264 0 0.069449382678632612 0.1443580261181665 0 0.071387777285217918 0.15212681924726251 0 0.083920606388658545 0.14050817004821939 0 0.069449382678632612 0.1443580261181665 0 0.071387777285217918 0.15212681924726251 0 0.059657673584757237 0.15824269734654939 0 0.060329678829100349 0.1474246815113264 0 0.071387777285217918 0.15212681924726251 0 0.059657673584757237 0.15824269734654939 0 0.071387777285217918 0.15212681924726251 0 0.071728396070648653 0.1641382979071076 0 0.081151633673542972 0.15313158297098389 0 0.071387777285217918 0.15212681924726251 0 0.071728396070648653 0.1641382979071076 0 0.071445073857882777 0.19089458628000441 0 0.075908261162629706 0.17300068451328551 0 0.086464584236575506 0.1862285865309723 0 0.060802696405823108 0.1787365445376432 0 0.071445073857882777 0.19089458628000441 0 0.075908261162629706 0.17300068451328551 0 0.071445073857882777 0.19089458628000441 0 0.075908261162629706 0.17300068451328551 0 0.060802696405823108 0.1787365445376432 0 0.071728396070648653 0.1641382979071076 0 0.075908261162629706 0.17300068451328551 0 0.086464584236575506 0.1862285865309723 0 0.090216091253114361 0.17155893003272579 0 0.1023855527362314 0.18749689463882899 0 0.075908261162629706 0.17300068451328551 0 0.086464584236575506 0.1862285865309723 0 0.090216091253114361 0.17155893003272579 0 0.081151633673542972 0.15313158297098389 0 0.071728396070648653 0.1641382979071076 0 0.0975697549496468 0.15575304468134629 0 0.071728396070648653 0.1641382979071076 0 0.090216091253114361 0.17155893003272579 0 0.0975697549496468 0.15575304468134629 0 0.071728396070648653 0.1641382979071076 0 0.075908261162629706 0.17300068451328551 0 0.090216091253114361 0.17155893003272579 0 0.071728396070648653 0.1641382979071076 0 0.0975697549496468 0.15575304468134629 0 0.090216091253114361 0.17155893003272579 0 0.1064810698159025 0.16893633516972181 0 0.0975697549496468 0.15575304468134629 0 0.1064810698159025 0.16893633516972181 0 0.1067320948171991 0.1538072021696697 0 0.0975697549496468 0.15575304468134629 0 0.090216091253114361 0.17155893003272579 0 0.1064810698159025 0.16893633516972181 0 0.1023855527362314 0.18749689463882899 0 0.1064810698159025 0.16893633516972181 0 0.12954358324573961 0.16710623429112001 0 0.12550986450034471 0.186594373040398 0 0.1064810698159025 0.16893633516972181 0 0.1023855527362314 0.18749689463882899 0 0.12550986450034471 0.186594373040398 0 0.1064810698159025 0.16893633516972181 0 0.1067320948171991 0.1538072021696697 0 0.12954358324573961 0.16710623429112001 0 0.1067320948171991 0.1538072021696697 0 0.1262856736452258 0.1537478882528979 0 0.12954358324573961 0.16710623429112001 0 0.1067320948171991 0.1538072021696697 0 0.12954358324573961 0.16710623429112001 0 0.1148569119608701 0.14824987142416859 0 0.1067320948171991 0.1538072021696697 0 0.1262856736452258 0.1537478882528979 0 0.118317888191051 0.14254191757659121 0 0.1148569119608701 0.14824987142416859 0 0.1262856736452258 0.1537478882528979 0 0.118317888191051 0.14254191757659121 0 0.12756241452120801 0.13893694775055651 0 0.1262856736452258 0.1537478882528979 0 0.1148569119608701 0.14824987142416859 0 0.1067320948171991 0.1538072021696697 0 0.1080919911900045 0.14290247769751591 0 0.118317888191051 0.14254191757659121 0 0.1148569119608701 0.14824987142416859 0 0.1080919911900045 0.14290247769751591 0 0.083920606388658545 0.14050817004821939 0 0.1067320948171991 0.1538072021696697 0 0.1067320948171991 0.1538072021696697 0 0.1080919911900045 0.14290247769751591 0 0.097906888154765004 0.1362305538396491 0 0.083920606388658545 0.14050817004821939 0 0.1067320948171991 0.1538072021696697 0 0.097906888154765004 0.1362305538396491 0 0.083920606388658545 0.14050817004821939 0 0.1067320948171991 0.1538072021696697 0 0.0975697549496468 0.15575304468134629 0 0.096984900528893664 0.1212489081817222 0 0.097906888154765004 0.1362305538396491 0 0.10589272808503949 0.13156516273042271 0 0.096984900528893664 0.1212489081817222 0 0.087075880893963842 0.12621803440601359 0 0.097906888154765004 0.1362305538396491 0 0.1080919911900045 0.14290247769751591 0 0.097906888154765004 0.1362305538396491 0 0.10589272808503949 0.13156516273042271 0 0.1080919911900045 0.14290247769751591 0 0.10589272808503949 0.13156516273042271 0 0.11327312463209829 0.13597294690712769 0 0.10712684862241641 0.1210429748963526 0 0.10589272808503949 0.13156516273042271 0 0.114987521205969 0.1268010028982309 0 0.10589272808503949 0.13156516273042271 0 0.114987521205969 0.1268010028982309 0 0.11327312463209829 0.13597294690712769 0 0.114987521205969 0.1268010028982309 0 0.11327312463209829 0.13597294690712769 0 0.1203000125167645 0.13336293759413789 0 0.118317888191051 0.14254191757659121 0 0.1080919911900045 0.14290247769751591 0 0.11327312463209829 0.13597294690712769 0 0.118317888191051 0.14254191757659121 0 0.1203000125167645 0.13336293759413789 0 0.12756241452120801 0.13893694775055651 0 0.118317888191051 0.14254191757659121 0 0.11327312463209829 0.13597294690712769 0 0.1203000125167645 0.13336293759413789 0 0.12212988809696081 0.1249307776834532 0 0.114987521205969 0.1268010028982309 0 0.1203000125167645 0.13336293759413789 0 0.12212988809696081 0.1249307776834532 0 0.1203000125167645 0.13336293759413789 0 0.12788127083107459 0.1291064789800366 0 0.12788127083107459 0.1291064789800366 0 0.13409394305489639 0.1257339851238449 0 0.12813823657366311 0.12049833089676459 0 0.12788127083107459 0.1291064789800366 0 0.13410827310584911 0.13282331674432049 0 0.13409394305489639 0.1257339851238449 0 0.12788127083107459 0.1291064789800366 0 0.12756241452120801 0.13893694775055651 0 0.13410827310584911 0.13282331674432049 0 0.1203000125167645 0.13336293759413789 0 0.12788127083107459 0.1291064789800366 0 0.12756241452120801 0.13893694775055651 0 0.13410827310584911 0.13282331674432049 0 0.14295710802469111 0.12768772724150559 0 0.13848136883728299 0.14203914735535511 0 0.12756241452120801 0.13893694775055651 0 0.13410827310584911 0.13282331674432049 0 0.13848136883728299 0.14203914735535511 0 0.13410827310584911 0.13282331674432049 0 0.13409394305489639 0.1257339851238449 0 0.14295710802469111 0.12768772724150559 0 0.14295710802469111 0.12768772724150559 0 0.15698787762036359 0.14007723406829989 0 0.15364605026385231 0.1227496740475859 0 0.14295710802469111 0.12768772724150559 0 0.13848136883728299 0.14203914735535511 0 0.15698787762036359 0.14007723406829989 0 0.13848136883728299 0.14203914735535511 0 0.1441447949138806 0.1573716891147208 0 0.15698787762036359 0.14007723406829989 0 0.1441447949138806 0.1573716891147208 0 0.1598153361361678 0.15982657838785511 0 0.15698787762036359 0.14007723406829989 0 0.13848136883728299 0.14203914735535511 0 0.1262856736452258 0.1537478882528979 0 0.1441447949138806 0.1573716891147208 0 0.12756241452120801 0.13893694775055651 0 0.13848136883728299 0.14203914735535511 0 0.1262856736452258 0.1537478882528979 0 0.1262856736452258 0.1537478882528979 0 0.12954358324573961 0.16710623429112001 0 0.1441447949138806 0.1573716891147208 0 0.12954358324573961 0.16710623429112001 0 0.12550986450034471 0.186594373040398 0 0.15375492999850379 0.1814330523327968 0 0.12954358324573961 0.16710623429112001 0 0.15375492999850379 0.1814330523327968 0 0.1441447949138806 0.1573716891147208 0 0.15375492999850379 0.1814330523327968 0 0.1441447949138806 0.1573716891147208 0 0.1598153361361678 0.15982657838785511 0 0.1598153361361678 0.15982657838785511 0 0.17205847002769489 0.1711246398383999 0 0.17247097746626519 0.1464629757798975 0 0.15375492999850379 0.1814330523327968 0 0.1598153361361678 0.15982657838785511 0 0.17205847002769489 0.1711246398383999 0 0.15375492999850379 0.1814330523327968 0 0.17205847002769489 0.1711246398383999 0 0.18411838942066619 0.18828130780555291 0 0.17205847002769489 0.1711246398383999 0 0.18411838942066619 0.18828130780555291 0 0.19050902449260759 0.164433536692701 0 0.17205847002769489 0.1711246398383999 0 0.17247097746626519 0.1464629757798975 0 0.19050902449260759 0.164433536692701 0 0.17247097746626519 0.1464629757798975 0 0.1903693880120208 0.14015559280000461 0 0.19050902449260759 0.164433536692701 0 0.17247097746626519 0.1464629757798975 0 0.18002451345814399 0.12716596121819479 0 0.1903693880120208 0.14015559280000461 0 0.17247097746626519 0.1464629757798975 0 0.18002451345814399 0.12716596121819479 0 0.16417220099380411 0.12505127510387981 0 0.15698787762036359 0.14007723406829989 0 0.16417220099380411 0.12505127510387981 0 0.15364605026385231 0.1227496740475859 0 0.17247097746626519 0.1464629757798975 0 0.15698787762036359 0.14007723406829989 0 0.16417220099380411 0.12505127510387981 0 0.1598153361361678 0.15982657838785511 0 0.17247097746626519 0.1464629757798975 0 0.15698787762036359 0.14007723406829989 0 0.14702044576598061 0.2478904659134552 0 0.1382648444377183 0.22719855966067881 0 0.15828943790025421 0.22969507774947781 0 0.14702044576598061 0.2478904659134552 0 0.12787711237058769 0.24521089126939841 0 0.1382648444377183 0.22719855966067881 0 0.10906069526472741 0.22998953009969161 0 0.12787711237058769 0.24521089126939841 0 0.1382648444377183 0.22719855966067881 0 0.1382648444377183 0.22719855966067881 0 0.14314005341278749 0.20699853547660821 0 0.15828943790025421 0.22969507774947781 0 0.14314005341278749 0.20699853547660821 0 0.16852610903267151 0.206401884619904 0 0.11775399779290339 0.20759518633331239 0 0.1382648444377183 0.22719855966067881 0 0.14314005341278749 0.20699853547660821 0 0.11775399779290339 0.20759518633331239 0 0.14314005341278749 0.20699853547660821 0 0.11775399779290339 0.20759518633331239 0 0.12550986450034471 0.186594373040398 0 0.14314005341278749 0.20699853547660821 0 0.15375492999850379 0.1814330523327968 0 0.14314005341278749 0.20699853547660821 0 0.16852610903267151 0.206401884619904 0 0.12550986450034471 0.186594373040398 0 0.15375492999850379 0.1814330523327968 0 0.14314005341278749 0.20699853547660821 0 0.15375492999850379 0.1814330523327968 0 0.18411838942066619 0.18828130780555291 0 0.16852610903267151 0.206401884619904 0 0.18411838942066619 0.18828130780555291 0 0.16852610903267151 0.206401884619904 0 0.1878214256448299 0.20672411698152671 0 0.16852610903267151 0.206401884619904 0 0.17766068788986381 0.23020170431202469 0 0.1878214256448299 0.20672411698152671 0 0.14314005341278749 0.20699853547660821 0 0.16852610903267151 0.206401884619904 0 0.15828943790025421 0.22969507774947781 0 0.16852610903267151 0.206401884619904 0 0.15828943790025421 0.22969507774947781 0 0.17766068788986381 0.23020170431202469 0 0.17766068788986381 0.23020170431202469 0 0.19353513124668931 0.22246748781277501 0 0.1878214256448299 0.20672411698152671 0 0.17766068788986381 0.23020170431202469 0 0.18692125413578081 0.24552837502103991 0 0.19379669244916639 0.23440003217329089 0 0.17766068788986381 0.23020170431202469 0 0.18692125413578081 0.24552837502103991 0 0.16774616909827719 0.2460930353984315 0 0.15828943790025421 0.22969507774947781 0 0.17766068788986381 0.23020170431202469 0 0.16774616909827719 0.2460930353984315 0 0.14702044576598061 0.2478904659134552 0 0.15828943790025421 0.22969507774947781 0 0.16774616909827719 0.2460930353984315 0 0.21557305570370441 0.24515722135805329 0 0.2029257889591993 0.24295866219667439 0 0.23007231546290949 0.2334513308517342 0 0.2029257889591993 0.24295866219667439 0 0.23007231546290949 0.2334513308517342 0 0.21557305570370441 0.24515722135805329 0 0.2029257889591993 0.24295866219667439 0 0.20107379594449931 0.25686311186437227 0 0.18692125413578081 0.24552837502103991 0 0.2029257889591993 0.24295866219667439 0 0.20107379594449931 0.25686311186437227 0 0.18692125413578081 0.24552837502103991 0 0.19379669244916639 0.23440003217329089 0 0.2029257889591993 0.24295866219667439 0 0.17766068788986381 0.23020170431202469 0 0.19379669244916639 0.23440003217329089 0 0.19353513124668931 0.22246748781277501 0 0.19379669244916639 0.23440003217329089 0 0.2029257889591993 0.24295866219667439 0 0.20920449219815451 0.22515354045629349 0 0.19379669244916639 0.23440003217329089 0 0.19353513124668931 0.22246748781277501 0 0.20920449219815451 0.22515354045629349 0 0.2029257889591993 0.24295866219667439 0 0.20920449219815451 0.22515354045629349 0 0.23007231546290949 0.2334513308517342 0 0.19353513124668931 0.22246748781277501 0 0.20920449219815451 0.22515354045629349 0 0.20732414099141369 0.20672295990195361 0 0.20920449219815451 0.22515354045629349 0 0.20732414099141369 0.20672295990195361 0 0.22783619495118521 0.20973527166224001 0 0.19353513124668931 0.22246748781277501 0 0.20732414099141369 0.20672295990195361 0 0.1878214256448299 0.20672411698152671 0 0.18411838942066619 0.18828130780555291 0 0.1878214256448299 0.20672411698152671 0 0.20343121377691101 0.18825927067945539 0 0.20732414099141369 0.20672295990195361 0 0.1878214256448299 0.20672411698152671 0 0.20343121377691101 0.18825927067945539 0 0.20732414099141369 0.20672295990195361 0 0.20343121377691101 0.18825927067945539 0 0.2219787971027708 0.18678942035429349 0 0.20732414099141369 0.20672295990195361 0 0.22783619495118521 0.20973527166224001 0 0.2219787971027708 0.18678942035429349 0 0.24528107816237801 0.1907036486386274 0 0.22783619495118521 0.20973527166224001 0 0.2219787971027708 0.18678942035429349 0 0.24528107816237801 0.1907036486386274 0 0.25242827713160498 0.21540237912569379 0 0.24528107816237801 0.1907036486386274 0 0.22783619495118521 0.20973527166224001 0 0.25242827713160498 0.21540237912569379 0 0.20920449219815451 0.22515354045629349 0 0.22783619495118521 0.20973527166224001 0 0.23007231546290949 0.2334513308517342 0 0.23007231546290949 0.2334513308517342 0 0.25242827713160498 0.21540237912569379 0 0.23007231546290949 0.2334513308517342 0 0.25511338863332461 0.22468137717712711 0 0.25242827713160498 0.21540237912569379 0 0.23007231546290949 0.2334513308517342 0 0.25511338863332461 0.22468137717712711 0 0.23007231546290949 0.2334513308517342 0 0.2457442494512444 0.24022391879071339 0 0.25511338863332461 0.22468137717712711 0 0.22783619495118521 0.20973527166224001 0 0.23007231546290949 0.2334513308517342 0 0.25242827713160498 0.21540237912569379 0 0.2457442494512444 0.24022391879071339 0 0.23628031136540401 0.25597328662156199 0 0.26221447651104962 0.2479993693513689 0 0.23007231546290949 0.2334513308517342 0 0.2457442494512444 0.24022391879071339 0 0.23628031136540401 0.25597328662156199 0 0.21557305570370441 0.24515722135805329 0 0.23007231546290949 0.2334513308517342 0 0.23628031136540401 0.25597328662156199 0 0.21557305570370441 0.24515722135805329 0 0.23007231546290949 0.2334513308517342 0 0.21023583046185859 0.14706018503428281 0 0.22521494488481819 0.12557893006429149 0 0.2001236667938262 0.1180422718546187 0 0.18002451345814399 0.12716596121819479 0 0.1903693880120208 0.14015559280000461 0 0.2001236667938262 0.1180422718546187 0 0.21023583046185859 0.14706018503428281 0 0.1903693880120208 0.14015559280000461 0 0.2001236667938262 0.1180422718546187 0 0.21023583046185859 0.14706018503428281 0 0.1903693880120208 0.14015559280000461 0 0.19050902449260759 0.164433536692701 0 0.18411838942066619 0.18828130780555291 0 0.20343121377691101 0.18825927067945539 0 0.19050902449260759 0.164433536692701 0 0.20343121377691101 0.18825927067945539 0 0.19050902449260759 0.164433536692701 0 0.20962662881846919 0.1707346457134423 0 0.20343121377691101 0.18825927067945539 0 0.20962662881846919 0.1707346457134423 0 0.2219787971027708 0.18678942035429349 0 0.21023583046185859 0.14706018503428281 0 0.20962662881846919 0.1707346457134423 0 0.2254160648188453 0.164078398330023 0 0.21023583046185859 0.14706018503428281 0 0.19050902449260759 0.164433536692701 0 0.20962662881846919 0.1707346457134423 0 0.20962662881846919 0.1707346457134423 0 0.2254160648188453 0.164078398330023 0 0.2219787971027708 0.18678942035429349 0 0.2254160648188453 0.164078398330023 0 0.2219787971027708 0.18678942035429349 0 0.23714843650665229 0.1758398884969993 0 0.24528107816237801 0.1907036486386274 0 0.2219787971027708 0.18678942035429349 0 0.23714843650665229 0.1758398884969993 0 0.24528107816237801 0.1907036486386274 0 0.23714843650665229 0.1758398884969993 0 0.25292738168467233 0.17649485219682931 0 0.2254160648188453 0.164078398330023 0 0.24653130607993951 0.16237692388552691 0 0.23688534306575301 0.1458043597726891 0 0.23714843650665229 0.1758398884969993 0 0.24653130607993951 0.16237692388552691 0 0.25292738168467233 0.17649485219682931 0 0.2254160648188453 0.164078398330023 0 0.23714843650665229 0.1758398884969993 0 0.24653130607993951 0.16237692388552691 0 0.24653130607993951 0.16237692388552691 0 0.2496536413094039 0.15044712256699261 0 0.23688534306575301 0.1458043597726891 0 0.2496536413094039 0.15044712256699261 0 0.23688534306575301 0.1458043597726891 0 0.25004344172447263 0.14019424959050239 0 0.21023583046185859 0.14706018503428281 0 0.2254160648188453 0.164078398330023 0 0.23688534306575301 0.1458043597726891 0 0.21023583046185859 0.14706018503428281 0 0.23688534306575301 0.1458043597726891 0 0.22521494488481819 0.12557893006429149 0 0.22521494488481819 0.12557893006429149 0 0.25030622297580962 0.13311558827396619 0 0.23688534306575301 0.1458043597726891 0 0.22521494488481819 0.12557893006429149 0 0.25030622297580962 0.13311558827396619 0 0.23688534306575301 0.1458043597726891 0 0.25004344172447263 0.14019424959050239 0 0.25030622297580962 0.13311558827396619 0 0.22521494488481819 0.12557893006429149 0 0.2369469616243938 0.1144798656387125 0 0.25030622297580962 0.13311558827396619 0 0.2369469616243938 0.1144798656387125 0 0.25094552198087999 0.11589449234768209 0 0.25030622297580962 0.13311558827396619 0 0.2369469616243938 0.1144798656387125 0 0.25158482098595109 0.098673396421397969 0 0.25094552198087999 0.11589449234768209 0 0.2369469616243938 0.1144798656387125 0 0.2308580048349978 0.09939168424622695 0 0.25158482098595109 0.098673396421397969 0 0.2308580048349978 0.09939168424622695 0 0.2177667053289645 0.10879872465146249 0 0.21723881235993189 0.092441087960636145 0 0.2369469616243938 0.1144798656387125 0 0.2308580048349978 0.09939168424622695 0 0.2177667053289645 0.10879872465146249 0 0.22521494488481819 0.12557893006429149 0 0.2369469616243938 0.1144798656387125 0 0.2177667053289645 0.10879872465146249 0 0.2177667053289645 0.10879872465146249 0 0.1970849337058638 0.1019164286603922 0 0.2001236667938262 0.1180422718546187 0 0.22521494488481819 0.12557893006429149 0 0.2177667053289645 0.10879872465146249 0 0.2001236667938262 0.1180422718546187 0 0.22521494488481819 0.12557893006429149 0 0.2001236667938262 0.1180422718546187 0 0.1970849337058638 0.1019164286603922 0 0.20420713705815571 0.090978010823124941 0 0.21723881235993189 0.092441087960636145 0 0.1970849337058638 0.1019164286603922 0 0.21723881235993189 0.092441087960636145 0 0.2177667053289645 0.10879872465146249 0 0.1970849337058638 0.1019164286603922 0 0.21723881235993189 0.092441087960636145 0 0.1970849337058638 0.1019164286603922 0 0.1916307843626972 0.08827444688259839 0 0.17503238870283441 0.11050561364494491 0 0.2001236667938262 0.1180422718546187 0 0.17503238870283441 0.11050561364494491 0 0.1970849337058638 0.1019164286603922 0 0.2001236667938262 0.1180422718546187 0 0.17503238870283441 0.11050561364494491 0 0.1916307843626972 0.08827444688259839 0 0.2082291800225603 0.066043280120252124 0 0.19067723801237901 0.065525043857756982 0 0.1916307843626972 0.08827444688259839 0 0.2082291800225603 0.066043280120252124 0 0.1916307843626972 0.08827444688259839 0 0.21087401780412959 0.081280079788873041 0 0.20420713705815571 0.090978010823124941 0 0.1970849337058638 0.1019164286603922 0 0.1916307843626972 0.08827444688259839 0 0.20420713705815571 0.090978010823124941 0 0.1916307843626972 0.08827444688259839 0 0.21087401780412959 0.081280079788873041 0 0.2082291800225603 0.066043280120252124 0 0.21087401780412959 0.081280079788873041 0 0.20420713705815571 0.090978010823124941 0 0.21723881235993189 0.092441087960636145 0 0.21087401780412959 0.081280079788873041 0 0.21723881235993189 0.092441087960636145 0 0.22613356481757629 0.0775902723280468 0 0.21087401780412959 0.081280079788873041 0 0.2082291800225603 0.066043280120252124 0 0.22613356481757629 0.0775902723280468 0 0.2082291800225603 0.066043280120252124 0 0.22613356481757629 0.0775902723280468 0 0.2082291800225603 0.066043280120252124 0 0.2259496113806885 0.070300708218039992 0 0.21450653174737461 0.057635669175196122 0 0.2259496113806885 0.070300708218039992 0 0.21450653174737461 0.057635669175196122 0 0.2082291800225603 0.066043280120252124 0 0.2259496113806885 0.070300708218039992 0 0.22613356481757629 0.0775902723280468 0 0.2259496113806885 0.070300708218039992 0 0.2248665156508784 0.061611733455129589 0 0.21450653174737461 0.057635669175196122 0 0.2259496113806885 0.070300708218039992 0 0.22613356481757629 0.0775902723280468 0 0.23739269101400209 0.082965747260884265 0 0.2259496113806885 0.070300708218039992 0 0.23739269101400209 0.082965747260884265 0 0.237967452106535 0.070105640596903412 0 0.2259496113806885 0.070300708218039992 0 0.23739269101400209 0.082965747260884265 0 0.2259496113806885 0.070300708218039992 0 0.2330718446673557 0.064441819436705627 0 0.2248665156508784 0.061611733455129589 0 0.2259496113806885 0.070300708218039992 0 0.2330718446673557 0.064441819436705627 0 0.237967452106535 0.070105640596903412 0 0.2308580048349978 0.09939168424622695 0 0.21723881235993189 0.092441087960636145 0 0.23739269101400209 0.082965747260884265 0 0.21723881235993189 0.092441087960636145 0 0.22613356481757629 0.0775902723280468 0 0.23739269101400209 0.082965747260884265 0 0.21723881235993189 0.092441087960636145 0 0.23739269101400209 0.082965747260884265 0 0.23739269101400209 0.082965747260884265 0 0.25158482098595109 0.098673396421397969 0 0.23739269101400209 0.082965747260884265 0 0.25243039498113262 0.075895774732197205 0 0.25158482098595109 0.098673396421397969 0 0.2308580048349978 0.09939168424622695 0 0.23739269101400209 0.082965747260884265 0 0.25158482098595109 0.098673396421397969 0 0.23739269101400209 0.082965747260884265 0 0.25243039498113262 0.075895774732197205 0 0.23934469018649959 0.064583282500140851 0 0.237967452106535 0.070105640596903412 0 0.24496427956833819 0.066036472520138348 0 0.2330718446673557 0.064441819436705627 0 0.23934469018649959 0.064583282500140851 0 0.2376257901407148 0.059976102198904507 0 0.2330718446673557 0.064441819436705627 0 0.23934469018649959 0.064583282500140851 0 0.237967452106535 0.070105640596903412 0 0.23739269101400209 0.082965747260884265 0 0.237967452106535 0.070105640596903412 0 0.24429048066179679 0.072622021298478806 0 0.24429048066179679 0.072622021298478806 0 0.24842415088314279 0.069033451464499671 0 0.25243039498113262 0.075895774732197205 0 0.23739269101400209 0.082965747260884265 0 0.24429048066179679 0.072622021298478806 0 0.25243039498113262 0.075895774732197205 0 0.24842415088314279 0.069033451464499671 0 0.24853219730195361 0.063845178725116872 0 0.25274476311700622 0.067427493409812952 0 0.237967452106535 0.070105640596903412 0 0.24429048066179679 0.072622021298478806 0 0.24496427956833819 0.066036472520138348 0 0.24429048066179679 0.072622021298478806 0 0.24842415088314279 0.069033451464499671 0 0.24496427956833819 0.066036472520138348 0 0.23934469018649959 0.064583282500140851 0 0.24496427956833819 0.066036472520138348 0 0.24309408444955441 0.062356377748052388 0 0.24496427956833819 0.066036472520138348 0 0.24602681454492631 0.062964227281045088 0 0.24309408444955441 0.062356377748052388 0 0.24496427956833819 0.066036472520138348 0 0.24602681454492631 0.062964227281045088 0 0.24853219730195361 0.063845178725116872 0 0.24842415088314279 0.069033451464499671 0 0.24496427956833819 0.066036472520138348 0 0.24853219730195361 0.063845178725116872 0 0.24751669685985911 0.059618880130872708 0 0.24309408444955441 0.062356377748052388 0 0.2376257901407148 0.059976102198904507 0 0.24751669685985911 0.059618880130872708 0 0.24426241142214139 0.049994713685017962 0 0.2310385276818335 0.053106641608170198 0 0.24751669685985911 0.059618880130872708 0 0.2376257901407148 0.059976102198904507 0 0.2310385276818335 0.053106641608170198 0 0.24751669685985911 0.059618880130872708 0 0.2310385276818335 0.053106641608170198 0 0.24853219730195361 0.063845178725116872 0 0.24751669685985911 0.059618880130872708 0 0.2530174900015254 0.0600809219264858 0 0.24602681454492631 0.062964227281045088 0 0.24853219730195361 0.063845178725116872 0 0.24751669685985911 0.059618880130872708 0 0.24602681454492631 0.062964227281045088 0 0.24751669685985911 0.059618880130872708 0 0.24309408444955441 0.062356377748052388 0 0.23934469018649959 0.064583282500140851 0 0.24309408444955441 0.062356377748052388 0 0.2376257901407148 0.059976102198904507 0 0.24426241142214139 0.049994713685017962 0 0.23928634064401511 0.040096757013566242 0 0.2310385276818335 0.053106641608170198 0 0.24751669685985911 0.059618880130872708 0 0.24426241142214139 0.049994713685017962 0 0.25102243244437311 0.053297338652025752 0 0.24426241142214139 0.049994713685017962 0 0.25174039047255609 0.044464402284776217 0 0.25102243244437311 0.053297338652025752 0 0.23928634064401511 0.040096757013566242 0 0.2320502206633881 0.021165953515508481 0 0.25044211127373811 0.032849993626191502 0 0.23928634064401511 0.040096757013566242 0 0.25044211127373811 0.032849993626191502 0 0.25174039047255609 0.044464402284776217 0 0.24426241142214139 0.049994713685017962 0 0.23928634064401511 0.040096757013566242 0 0.25174039047255609 0.044464402284776217 0 0.22618438235043381 0.038998837361733103 0 0.2320502206633881 0.021165953515508481 0 0.20963369093729961 0.03941564640516447 0 0.23928634064401511 0.040096757013566242 0 0.22618438235043381 0.038998837361733103 0 0.2320502206633881 0.021165953515508481 0 0.22618438235043381 0.038998837361733103 0 0.2310385276818335 0.053106641608170198 0 0.21456035850380811 0.046594403085467223 0 0.23928634064401511 0.040096757013566242 0 0.22618438235043381 0.038998837361733103 0 0.2310385276818335 0.053106641608170198 0 0.2310385276818335 0.053106641608170198 0 0.21456035850380811 0.046594403085467223 0 0.2248665156508784 0.061611733455129589 0 0.2310385276818335 0.053106641608170198 0 0.21456035850380811 0.046594403085467223 0 0.2248665156508784 0.061611733455129589 0 0.21456035850380811 0.046594403085467223 0 0.2330718446673557 0.064441819436705627 0 0.2248665156508784 0.061611733455129589 0 0.23150027442910881 0.059501590197602497 0 0.2248665156508784 0.061611733455129589 0 0.23150027442910881 0.059501590197602497 0 0.2310385276818335 0.053106641608170198 0 0.2330718446673557 0.064441819436705627 0 0.2376257901407148 0.059976102198904507 0 0.23150027442910881 0.059501590197602497 0 0.2376257901407148 0.059976102198904507 0 0.23150027442910881 0.059501590197602497 0 0.2310385276818335 0.053106641608170198 0 0.2320502206633881 0.021165953515508481 0 0.22999165343287109 0.0038227322559807589 0 0.25446675038947358 0.0029162606258486688 0 0.2320502206633881 0.021165953515508481 0 0.2600935707136679 0.019574361616358959 0 0.25446675038947358 0.0029162606258486688 0 0.22999165343287109 0.0038227322559807589 0 0.25446675038947358 0.0029162606258486688 0 0.24138147174972829 -0.0061427828714447699 0 0.2320502206633881 0.021165953515508481 0 0.25446675038947358 0.0029162606258486688 0 0.2320502206633881 0.021165953515508481 0 0.2600935707136679 0.019574361616358959 0 0.25044211127373811 0.032849993626191502 0 0.2320502206633881 0.021165953515508481 0 0.20963369093729961 0.03941564640516447 0 0.22999165343287109 0.0038227322559807589 0 0.21340461703840111 0.0096506044731711187 0 0.21351355446813719 -0.0021103410187178909 0 0.2320502206633881 0.021165953515508481 0 0.22999165343287109 0.0038227322559807589 0 0.21340461703840111 0.0096506044731711187 0 0.21340461703840111 0.0096506044731711187 0 0.1998105265397013 0.00335350757378736 0 0.21351355446813719 -0.0021103410187178909 0 0.21340461703840111 0.0096506044731711187 0 0.20371525389429951 0.01279949030761077 0 0.2082588668535221 0.02245160931237615 0 0.21340461703840111 0.0096506044731711187 0 0.20371525389429951 0.01279949030761077 0 0.1998105265397013 0.00335350757378736 0 0.2320502206633881 0.021165953515508481 0 0.2082588668535221 0.02245160931237615 0 0.20963369093729961 0.03941564640516447 0 0.2320502206633881 0.021165953515508481 0 0.21340461703840111 0.0096506044731711187 0 0.2082588668535221 0.02245160931237615 0 0.2082588668535221 0.02245160931237615 0 0.19338700514557339 0.015742239871108451 0 0.20963369093729961 0.03941564640516447 0 0.19338700514557339 0.015742239871108451 0 0.1989601287501698 0.040429129743079398 0 0.18048502430789731 0.01998114488410483 0 0.1989601287501698 0.040429129743079398 0 0.18048502430789731 0.01998114488410483 0 0.19338700514557339 0.015742239871108451 0 0.20963369093729961 0.03941564640516447 0 0.20371525389429951 0.01279949030761077 0 0.2082588668535221 0.02245160931237615 0 0.19338700514557339 0.015742239871108451 0 0.19338700514557339 0.015742239871108451 0 0.1998105265397013 0.00335350757378736 0 0.17714031935384769 -0.0079311666629475405 0 0.20371525389429951 0.01279949030761077 0 0.19338700514557339 0.015742239871108451 0 0.1998105265397013 0.00335350757378736 0 0.21450653174737461 0.057635669175196122 0 0.2029561920580818 0.044851916216142339 0 0.21450653174737461 0.057635669175196122 0 0.2029561920580818 0.044851916216142339 0 0.2021088015620611 0.053433964061651712 0 0.21450653174737461 0.057635669175196122 0 0.21456035850380811 0.046594403085467223 0 0.2029561920580818 0.044851916216142339 0 0.2082291800225603 0.066043280120252124 0 0.21450653174737461 0.057635669175196122 0 0.2021088015620611 0.053433964061651712 0 0.2248665156508784 0.061611733455129589 0 0.21450653174737461 0.057635669175196122 0 0.21456035850380811 0.046594403085467223 0 0.2082291800225603 0.066043280120252124 0 0.21450653174737461 0.057635669175196122 0 0.22618438235043381 0.038998837361733103 0 0.21456035850380811 0.046594403085467223 0 0.20963369093729961 0.03941564640516447 0 0.21456035850380811 0.046594403085467223 0 0.20963369093729961 0.03941564640516447 0 0.21456035850380811 0.046594403085467223 0 0.20530753189452691 0.042937648913457381 0 0.2029561920580818 0.044851916216142339 0 0.20963369093729961 0.03941564640516447 0 0.20530753189452691 0.042937648913457381 0 0.1989601287501698 0.040429129743079398 0 0.21456035850380811 0.046594403085467223 0 0.20530753189452691 0.042937648913457381 0 0.21456035850380811 0.046594403085467223 0 0.20963369093729961 0.03941564640516447 0 0.20530753189452691 0.042937648913457381 0 0.20963369093729961 0.03941564640516447 0 0.20530753189452691 0.042937648913457381 0 0.20530753189452691 0.042937648913457381 0 0.2029561920580818 0.044851916216142339 0 0.1989601287501698 0.040429129743079398 0 0.1774654858828027 0.031934360706524292 0 0.2029561920580818 0.044851916216142339 0 0.1989601287501698 0.040429129743079398 0 0.19971656766465989 0.047489351670260083 0 0.1989601287501698 0.040429129743079398 0 0.19133087755196571 0.045131483978966998 0 0.19971656766465989 0.047489351670260083 0 0.2029561920580818 0.044851916216142339 0 0.19971656766465989 0.047489351670260083 0 0.19338700514557339 0.015742239871108451 0 0.20963369093729961 0.03941564640516447 0 0.1989601287501698 0.040429129743079398 0 0.1989601287501698 0.040429129743079398 0 0.19133087755196571 0.045131483978966998 0 0.18298678422305309 0.040980100737508622 0 0.20530753189452691 0.042937648913457381 0 0.2029561920580818 0.044851916216142339 0 0.1989601287501698 0.040429129743079398 0 0.20530753189452691 0.042937648913457381 0 0.1989601287501698 0.040429129743079398 0 0.2029561920580818 0.044851916216142339 0 0.1989601287501698 0.040429129743079398 0 0.2082291800225603 0.066043280120252124 0 0.18513553631762919 0.051149603126408108 0 0.2021088015620611 0.053433964061651712 0 0.19971656766465989 0.047489351670260083 0 0.18513553631762919 0.051149603126408108 0 0.2082291800225603 0.066043280120252124 0 0.2021088015620611 0.053433964061651712 0 0.18513553631762919 0.051149603126408108 0 0.19067723801237901 0.065525043857756982 0 0.2082291800225603 0.066043280120252124 0 0.18513553631762919 0.051149603126408108 0 0.19133087755196571 0.045131483978966998 0 0.19971656766465989 0.047489351670260083 0 0.18513553631762919 0.051149603126408108 0 0.2029561920580818 0.044851916216142339 0 0.2021088015620611 0.053433964061651712 0 0.19971656766465989 0.047489351670260083 0 0.17734631865053521 0.060730067185729229 0 0.18513553631762919 0.051149603126408108 0 0.16725106424272049 0.052894846580172288 0 0.19067723801237901 0.065525043857756982 0 0.17734631865053521 0.060730067185729229 0 0.18513553631762919 0.051149603126408108 0 0.18298678422305309 0.040980100737508622 0 0.1774654858828027 0.031934360706524292 0 0.1620418926126978 0.036255926132564682 0 0.19133087755196571 0.045131483978966998 0 0.18513553631762919 0.051149603126408108 0 0.18298678422305309 0.040980100737508622 0 0.18513553631762919 0.051149603126408108 0 0.18298678422305309 0.040980100737508622 0 0.1620418926126978 0.036255926132564682 0 0.1989601287501698 0.040429129743079398 0 0.18298678422305309 0.040980100737508622 0 0.1774654858828027 0.031934360706524292 0 0.18513553631762919 0.051149603126408108 0 0.1620418926126978 0.036255926132564682 0 0.1620418926126978 0.036255926132564682 0 0.16725106424272049 0.052894846580172288 0 0.15541952745182569 0.04677658384696623 0 0.18513553631762919 0.051149603126408108 0 0.1620418926126978 0.036255926132564682 0 0.16725106424272049 0.052894846580172288 0 0.16725106424272049 0.052894846580172288 0 0.15507694825043991 0.057889849327421902 0 0.15541952745182569 0.04677658384696623 0 0.16725106424272049 0.052894846580172288 0 0.15507694825043991 0.057889849327421902 0 0.1653937448538241 0.067538194789913991 0 0.17734631865053521 0.060730067185729229 0 0.16725106424272049 0.052894846580172288 0 0.1653937448538241 0.067538194789913991 0 0.18048502430789731 0.01998114488410483 0 0.1657030786406338 0.0084270166623369204 0 0.17714031935384769 -0.0079311666629475405 0 0.19338700514557339 0.015742239871108451 0 0.17714031935384769 -0.0079311666629475405 0 0.19338700514557339 0.015742239871108451 0 0.18048502430789731 0.01998114488410483 0 0.17714031935384769 -0.0079311666629475405 0 0.1989601287501698 0.040429129743079398 0 0.1774654858828027 0.031934360706524292 0 0.18048502430789731 0.01998114488410483 0 0.1774654858828027 0.031934360706524292 0 0.18048502430789731 0.01998114488410483 0 0.16935520337559401 0.020657770454092759 0 0.1774654858828027 0.031934360706524292 0 0.15597084301543529 0.02343959166996953 0 0.1774654858828027 0.031934360706524292 0 0.1620418926126978 0.036255926132564682 0 0.15597084301543529 0.02343959166996953 0 0.1774654858828027 0.031934360706524292 0 0.16935520337559401 0.020657770454092759 0 0.15597084301543529 0.02343959166996953 0 0.16935520337559401 0.020657770454092759 0 0.1657030786406338 0.0084270166623369204 0 0.15597084301543529 0.02343959166996953 0 0.18048502430789731 0.01998114488410483 0 0.16935520337559401 0.020657770454092759 0 0.1657030786406338 0.0084270166623369204 0 0.1657030786406338 0.0084270166623369204 0 0.14883794818754281 0.01110572894874149 0 0.15480995508657039 -0.001084596553268768 0 0.1657030786406338 0.0084270166623369204 0 0.14883794818754281 0.01110572894874149 0 0.15597084301543529 0.02343959166996953 0 0.14883794818754281 0.01110572894874149 0 0.13464870039648349 0.00080453217212592717 0 0.15480995508657039 -0.001084596553268768 0 0.14883794818754281 0.01110572894874149 0 0.13894824890776639 0.02136224913872127 0 0.13464870039648349 0.00080453217212592717 0 0.1620418926126978 0.036255926132564682 0 0.13894824890776639 0.02136224913872127 0 0.14883794818754281 0.01110572894874149 0 0.15597084301543529 0.02343959166996953 0 0.13894824890776639 0.02136224913872127 0 0.1620418926126978 0.036255926132564682 0 0.15597084301543529 0.02343959166996953 0 0.13894824890776639 0.02136224913872127 0 0.11961069471150609 0.02296590295220987 0 0.13894824890776639 0.02136224913872127 0 0.12977361784467401 0.039215218793308727 0 0.1158546052028349 0.0064685721448778594 0 0.13894824890776639 0.02136224913872127 0 0.1158546052028349 0.0064685721448778594 0 0.13894824890776639 0.02136224913872127 0 0.13464870039648349 0.00080453217212592717 0 0.14278372382386809 0.048416123664777412 0 0.1428601767931531 0.062084067640591357 0 0.15507694825043991 0.057889849327421902 0 0.14278372382386809 0.048416123664777412 0 0.15507694825043991 0.057889849327421902 0 0.15541952745182569 0.04677658384696623 0 0.1620418926126978 0.036255926132564682 0 0.13894824890776639 0.02136224913872127 0 0.14579340212816641 0.038405220315267663 0 0.1620418926126978 0.036255926132564682 0 0.15541952745182569 0.04677658384696623 0 0.14579340212816641 0.038405220315267663 0 0.14278372382386809 0.048416123664777412 0 0.15541952745182569 0.04677658384696623 0 0.14579340212816641 0.038405220315267663 0 0.14278372382386809 0.048416123664777412 0 0.14579340212816641 0.038405220315267663 0 0.12977361784467401 0.039215218793308727 0 0.13894824890776639 0.02136224913872127 0 0.14579340212816641 0.038405220315267663 0 0.12977361784467401 0.039215218793308727 0 0.11550376979223601 0.054551475820320147 0 0.12977361784467401 0.039215218793308727 0 0.1326943019686847 0.054606112458038862 0 0.11550376979223601 0.054551475820320147 0 0.1326943019686847 0.054606112458038862 0 0.13255022158949201 0.068763676371196639 0 0.14278372382386809 0.048416123664777412 0 0.12977361784467401 0.039215218793308727 0 0.1326943019686847 0.054606112458038862 0 0.14278372382386809 0.048416123664777412 0 0.1428601767931531 0.062084067640591357 0 0.1326943019686847 0.054606112458038862 0 0.1428601767931531 0.062084067640591357 0 0.1326943019686847 0.054606112458038862 0 0.13255022158949201 0.068763676371196639 0 0.1207366242219714 0.074251990558816788 0 0.13255022158949201 0.068763676371196639 0 0.13578085374332971 0.077614708003019631 0 0.13255022158949201 0.068763676371196639 0 0.13578085374332971 0.077614708003019631 0 0.1430759120552613 0.073085192731263071 0 0.1428601767931531 0.062084067640591357 0 0.13255022158949201 0.068763676371196639 0 0.1430759120552613 0.073085192731263071 0 0.1428601767931531 0.062084067640591357 0 0.1430759120552613 0.073085192731263071 0 0.15260580868734391 0.069203578475014266 0 0.1430759120552613 0.073085192731263071 0 0.14969883640752091 0.076610515579137797 0 0.14563192422462459 0.083183778073064013 0 0.13578085374332971 0.077614708003019631 0 0.1430759120552613 0.073085192731263071 0 0.14563192422462459 0.083183778073064013 0 0.1430759120552613 0.073085192731263071 0 0.14969883640752091 0.076610515579137797 0 0.15260580868734391 0.069203578475014266 0 0.14969883640752091 0.076610515579137797 0 0.15260580868734391 0.069203578475014266 0 0.15677919641446331 0.080277826610221981 0 0.1428601767931531 0.062084067640591357 0 0.15507694825043991 0.057889849327421902 0 0.15260580868734391 0.069203578475014266 0 0.1506819444987289 0.088437751930635633 0 0.14868901735932749 0.09586058707093438 0 0.157853861938485 0.092527754269896317 0 0.1506819444987289 0.088437751930635633 0 0.15677919641446331 0.080277826610221981 0 0.157853861938485 0.092527754269896317 0 0.14969883640752091 0.076610515579137797 0 0.14563192422462459 0.083183778073064013 0 0.15677919641446331 0.080277826610221981 0 0.1506819444987289 0.088437751930635633 0 0.14563192422462459 0.083183778073064013 0 0.15677919641446331 0.080277826610221981 0 0.14563192422462459 0.083183778073064013 0 0.1444557225567443 0.090338813629061501 0 0.13888671887288589 0.088270852986767859 0 0.1506819444987289 0.088437751930635633 0 0.14563192422462459 0.083183778073064013 0 0.1444557225567443 0.090338813629061501 0 0.1444557225567443 0.090338813629061501 0 0.14209274384079601 0.094639397504520467 0 0.14868901735932749 0.09586058707093438 0 0.1506819444987289 0.088437751930635633 0 0.1444557225567443 0.090338813629061501 0 0.14868901735932749 0.09586058707093438 0 0.1444557225567443 0.090338813629061501 0 0.13888671887288589 0.088270852986767859 0 0.14209274384079601 0.094639397504520467 0 0.13888671887288589 0.088270852986767859 0 0.13668050292917741 0.098217611464673699 0 0.14209274384079601 0.094639397504520467 0 0.13888671887288589 0.088270852986767859 0 0.1300820653953097 0.084166932106396392 0 0.13668050292917741 0.098217611464673699 0 0.11116449005577619 0.086473750785835857 0 0.1300820653953097 0.084166932106396392 0 0.13668050292917741 0.098217611464673699 0 0.13578085374332971 0.077614708003019631 0 0.13888671887288589 0.088270852986767859 0 0.1300820653953097 0.084166932106396392 0 0.13578085374332971 0.077614708003019631 0 0.14563192422462459 0.083183778073064013 0 0.13888671887288589 0.088270852986767859 0 0.1207366242219714 0.074251990558816788 0 0.13578085374332971 0.077614708003019631 0 0.1300820653953097 0.084166932106396392 0 0.1216961693062274 0.1020981758197984 0 0.1302764983332621 0.10693497851168419 0 0.13668050292917741 0.098217611464673699 0 0.1302764983332621 0.10693497851168419 0 0.13758713408363871 0.1043360441680015 0 0.13668050292917741 0.098217611464673699 0 0.1302764983332621 0.10693497851168419 0 0.1360833458267342 0.1084620534226548 0 0.13758713408363871 0.1043360441680015 0 0.1360833458267342 0.1084620534226548 0 0.13758713408363871 0.1043360441680015 0 0.14314356584317489 0.10755645506983 0 0.13758713408363871 0.1043360441680015 0 0.13668050292917741 0.098217611464673699 0 0.14175175748584509 0.1005091223711649 0 0.13668050292917741 0.098217611464673699 0 0.14209274384079601 0.094639397504520467 0 0.14175175748584509 0.1005091223711649 0 0.12813823657366311 0.12049833089676459 0 0.13246275659848361 0.1130811342378658 0 0.13708322035591489 0.118794437000363 0 0.12212988809696081 0.1249307776834532 0 0.12788127083107459 0.1291064789800366 0 0.12813823657366311 0.12049833089676459 0 0.1197878353292403 0.1092484053650479 0 0.1302764983332621 0.10693497851168419 0 0.12624189261331301 0.1140678077034443 0 0.12813823657366311 0.12049833089676459 0 0.12624189261331301 0.1140678077034443 0 0.13246275659848361 0.1130811342378658 0 0.1302764983332621 0.10693497851168419 0 0.12624189261331301 0.1140678077034443 0 0.13246275659848361 0.1130811342378658 0 0.138866780176991 0.11235807520418389 0 0.13708322035591489 0.118794437000363 0 0.14572099158606311 0.1154247658161887 0 0.1360833458267342 0.1084620534226548 0 0.13246275659848361 0.1130811342378658 0 0.138866780176991 0.11235807520418389 0 0.1302764983332621 0.10693497851168419 0 0.1360833458267342 0.1084620534226548 0 0.13246275659848361 0.1130811342378658 0 0.1360833458267342 0.1084620534226548 0 0.138866780176991 0.11235807520418389 0 0.14314356584317489 0.10755645506983 0 0.13246275659848361 0.1130811342378658 0 0.138866780176991 0.11235807520418389 0 0.13708322035591489 0.118794437000363 0 0.13409394305489639 0.1257339851238449 0 0.14295710802469111 0.12768772724150559 0 0.13708322035591489 0.118794437000363 0 0.13409394305489639 0.1257339851238449 0 0.12813823657366311 0.12049833089676459 0 0.13708322035591489 0.118794437000363 0 0.14572099158606311 0.1154247658161887 0 0.15364605026385231 0.1227496740475859 0 0.15839207309433961 0.10550736800805539 0 0.14295710802469111 0.12768772724150559 0 0.13708322035591489 0.118794437000363 0 0.14572099158606311 0.1154247658161887 0 0.14295710802469111 0.12768772724150559 0 0.14572099158606311 0.1154247658161887 0 0.15364605026385231 0.1227496740475859 0 0.138866780176991 0.11235807520418389 0 0.14572099158606311 0.1154247658161887 0 0.14314356584317489 0.10755645506983 0 0.14572099158606311 0.1154247658161887 0 0.14314356584317489 0.10755645506983 0 0.15839207309433961 0.10550736800805539 0 0.14175175748584509 0.1005091223711649 0 0.15839207309433961 0.10550736800805539 0 0.14175175748584509 0.1005091223711649 0 0.14314356584317489 0.10755645506983 0 0.15839207309433961 0.10550736800805539 0 0.14175175748584509 0.1005091223711649 0 0.14868901735932749 0.09586058707093438 0 0.15839207309433961 0.10550736800805539 0 0.14209274384079601 0.094639397504520467 0 0.14175175748584509 0.1005091223711649 0 0.14868901735932749 0.09586058707093438 0 0.13758713408363871 0.1043360441680015 0 0.14175175748584509 0.1005091223711649 0 0.14314356584317489 0.10755645506983 0 0.14868901735932749 0.09586058707093438 0 0.15839207309433961 0.10550736800805539 0 0.157853861938485 0.092527754269896317 0 0.15839207309433961 0.10550736800805539 0 0.17503238870283441 0.11050561364494491 0 0.15839207309433961 0.10550736800805539 0 0.1705578526620479 0.095927182961129481 0 0.157853861938485 0.092527754269896317 0 0.15839207309433961 0.10550736800805539 0 0.1705578526620479 0.095927182961129481 0 0.17503238870283441 0.11050561364494491 0 0.16417220099380411 0.12505127510387981 0 0.15839207309433961 0.10550736800805539 0 0.17503238870283441 0.11050561364494491 0 0.16417220099380411 0.12505127510387981 0 0.15364605026385231 0.1227496740475859 0 0.15839207309433961 0.10550736800805539 0 0.16417220099380411 0.12505127510387981 0 0.17503238870283441 0.11050561364494491 0 0.18002451345814399 0.12716596121819479 0 0.16417220099380411 0.12505127510387981 0 0.17503238870283441 0.11050561364494491 0 0.18002451345814399 0.12716596121819479 0 0.2001236667938262 0.1180422718546187 0 0.17503238870283441 0.11050561364494491 0 0.1916307843626972 0.08827444688259839 0 0.1705578526620479 0.095927182961129481 0 0.17503238870283441 0.11050561364494491 0 0.1916307843626972 0.08827444688259839 0 0.17503238870283441 0.11050561364494491 0 0.1916307843626972 0.08827444688259839 0 0.17935943521264269 0.07135827912697662 0 0.16988015521188329 0.08282073200015258 0 0.1916307843626972 0.08827444688259839 0 0.1705578526620479 0.095927182961129481 0 0.16988015521188329 0.08282073200015258 0 0.19067723801237901 0.065525043857756982 0 0.1916307843626972 0.08827444688259839 0 0.17935943521264269 0.07135827912697662 0 0.19067723801237901 0.065525043857756982 0 0.17734631865053521 0.060730067185729229 0 0.17935943521264269 0.07135827912697662 0 0.17734631865053521 0.060730067185729229 0 0.17935943521264269 0.07135827912697662 0 0.1653937448538241 0.067538194789913991 0 0.17935943521264269 0.07135827912697662 0 0.1653937448538241 0.067538194789913991 0 0.16988015521188329 0.08282073200015258 0 0.15507694825043991 0.057889849327421902 0 0.15260580868734391 0.069203578475014266 0 0.1653937448538241 0.067538194789913991 0 0.15260580868734391 0.069203578475014266 0 0.1653937448538241 0.067538194789913991 0 0.15677919641446331 0.080277826610221981 0 0.1653937448538241 0.067538194789913991 0 0.15677919641446331 0.080277826610221981 0 0.16988015521188329 0.08282073200015258 0 0.15677919641446331 0.080277826610221981 0 0.157853861938485 0.092527754269896317 0 0.16988015521188329 0.08282073200015258 0 0.1705578526620479 0.095927182961129481 0 0.157853861938485 0.092527754269896317 0 0.16988015521188329 0.08282073200015258 0 0.099456207782380623 0.4822659283708195 0 0.1141892196830592 0.48396198267476093 0 0.11304725129434449 0.46767028325629811 0 0.099456207782380623 0.4822659283708195 0 0.11304725129434449 0.46767028325629811 0 0.096803680563272876 0.46646214520586099 0 0.099456207782380623 0.4822659283708195 0 0.10782601469385079 0.5 0 0.078267650747156567 0.50000000000000133 0 0.099456207782380623 0.4822659283708195 0 0.10782601469385079 0.5 0 0.1141892196830592 0.48396198267476093 0 0.10782601469385079 0.5 0 0.1249193769550877 0.49369376296818718 0 0.1141892196830592 0.48396198267476093 0 0.1249193769550877 0.49369376296818718 0 0.1141892196830592 0.48396198267476093 0 0.12569724768963239 0.47617993877849962 0 0.10782601469385079 0.5 0 0.1249193769550877 0.49369376296818718 0 0.13738437864054501 0.5 0 0.1141892196830592 0.48396198267476093 0 0.11304725129434449 0.46767028325629811 0 0.12569724768963239 0.47617993877849962 0 0.11304725129434449 0.46767028325629811 0 0.1267882431275838 0.46370707134437261 0 0.12569724768963239 0.47617993877849962 0 0.11304725129434449 0.46767028325629811 0 0.1221607865463437 0.4507156547582637 0 0.1004821270038239 0.44949914822431608 0 0.11304725129434449 0.46767028325629811 0 0.1221607865463437 0.4507156547582637 0 0.1267882431275838 0.46370707134437261 0 0.1221607865463437 0.4507156547582637 0 0.1004821270038239 0.44949914822431608 0 0.12259086230274099 0.42947812748907283 0 0.1004821270038239 0.44949914822431608 0 0.096803680563272876 0.46646214520586099 0 0.084307548883437972 0.45862843933572522 0 0.11304725129434449 0.46767028325629811 0 0.1004821270038239 0.44949914822431608 0 0.096803680563272876 0.46646214520586099 0 0.084307548883437972 0.45862843933572522 0 0.070120974899159305 0.46867166915081548 0 0.08254081050968877 0.47642281665818748 0 0.096803680563272876 0.46646214520586099 0 0.084307548883437972 0.45862843933572522 0 0.08254081050968877 0.47642281665818748 0 0.084307548883437972 0.45862843933572522 0 0.083205653112744402 0.44008551456546158 0 0.070599818540594342 0.45171728711773013 0 0.1004821270038239 0.44949914822431608 0 0.084307548883437972 0.45862843933572522 0 0.083205653112744402 0.44008551456546158 0 0.1004821270038239 0.44949914822431608 0 0.083205653112744402 0.44008551456546158 0 0.095892719888732866 0.42453745382262881 0 0.070599818540594342 0.45171728711773013 0 0.057347956450285731 0.44480695268810438 0 0.068330088192809502 0.43602814955066621 0 0.083205653112744402 0.44008551456546158 0 0.070599818540594342 0.45171728711773013 0 0.068330088192809502 0.43602814955066621 0 0.070599818540594342 0.45171728711773013 0 0.070120974899159305 0.46867166915081548 0 0.05832870883015126 0.45973880463956351 0 0.084307548883437972 0.45862843933572522 0 0.070599818540594342 0.45171728711773013 0 0.070120974899159305 0.46867166915081548 0 0.070120974899159305 0.46867166915081548 0 0.08254081050968877 0.47642281665818748 0 0.061557047466102868 0.48310025102256282 0 0.070120974899159305 0.46867166915081548 0 0.061557047466102868 0.48310025102256282 0 0.05832870883015126 0.45973880463956351 0 0.099456207782380623 0.4822659283708195 0 0.096803680563272876 0.46646214520586099 0 0.08254081050968877 0.47642281665818748 0 0.099456207782380623 0.4822659283708195 0 0.08254081050968877 0.47642281665818748 0 0.078267650747156567 0.50000000000000133 0 0.078267650747156567 0.50000000000000133 0 0.049166882519808157 0.5 0 0.061557047466102868 0.48310025102256282 0 0.08254081050968877 0.47642281665818748 0 0.078267650747156567 0.50000000000000133 0 0.061557047466102868 0.48310025102256282 0 0.078267650747156567 0.50000000000000133 0 0.061557047466102868 0.48310025102256282 0 0.049166882519808157 0.5 0 0.061557047466102868 0.48310025102256282 0 0.038208171894904559 0.48286056860770488 0 0.061557047466102868 0.48310025102256282 0 0.044846444185049857 0.46620050204512359 0 0.05832870883015126 0.45973880463956351 0 0.061557047466102868 0.48310025102256282 0 0.044846444185049857 0.46620050204512359 0 0.061557047466102868 0.48310025102256282 0 0.038208171894904559 0.48286056860770488 0 0.044846444185049857 0.46620050204512359 0 0.038208171894904559 0.48286056860770488 0 0.029572045059576241 0.469060477695939 0 0.044846444185049857 0.46620050204512359 0 0.049166882519808157 0.5 0 0.038208171894904559 0.48286056860770488 0 0.020066114292459799 0.5 0 0.038208171894904559 0.48286056860770488 0 0.020066114292459799 0.5 0 0.021055159894441029 0.48095839664786189 0 0.038208171894904559 0.48286056860770488 0 0.029572045059576241 0.469060477695939 0 0.021055159894441029 0.48095839664786189 0 0.029572045059576241 0.469060477695939 0 0.021055159894441029 0.48095839664786189 0 0.01561460841948897 0.46598216811131982 0 0.021055159894441029 0.48095839664786189 0 0.0030933759349822849 0.48266358315495572 0 0.01561460841948897 0.46598216811131982 0 0.0030933759349822849 0.48266358315495572 0 0.01561460841948897 0.46598216811131982 0 0.0036787250480955699 0.47408322248379448 0 0.0030933759349822849 0.48266358315495572 0 0.01561460841948897 0.46598216811131982 0 -0.0016340076521478781 0.48633642657919801 0 0.0036787250480955699 0.47408322248379448 0 0.0030933759349822849 0.48266358315495572 0 0.020066114292459799 0.5 0 0.021055159894441029 0.48095839664786189 0 0.0030933759349822849 0.48266358315495572 0 -0.0090346539348886701 0.5 0 -0.0016340076521478781 0.48633642657919801 0 0.020066114292459799 0.5 0 -0.0016340076521478781 0.48633642657919801 0 0.020066114292459799 0.5 0 0.0030933759349822849 0.48266358315495572 0 -0.0030841453677343121 0.43636499760021141 0 -0.002359076509941094 0.46135071208970457 0 0.010470448459028871 0.45111158928184719 0 -0.0030841453677343121 0.43636499760021141 0 0.010470448459028871 0.45111158928184719 0 0.017893296784651399 0.43894227458572882 0 -0.002359076509941094 0.46135071208970457 0 0.010470448459028871 0.45111158928184719 0 0.01561460841948897 0.46598216811131982 0 -0.002359076509941094 0.46135071208970457 0 0.0036787250480955699 0.47408322248379448 0 0.01561460841948897 0.46598216811131982 0 0.010470448459028871 0.45111158928184719 0 0.01561460841948897 0.46598216811131982 0 0.0281358409039968 0.44930075306768458 0 0.029572045059576241 0.469060477695939 0 0.01561460841948897 0.46598216811131982 0 0.0281358409039968 0.44930075306768458 0 0.01561460841948897 0.46598216811131982 0 0.0281358409039968 0.44930075306768458 0 0.010470448459028871 0.45111158928184719 0 0.0281358409039968 0.44930075306768458 0 0.017893296784651399 0.43894227458572882 0 0.0281358409039968 0.44930075306768458 0 0.017893296784651399 0.43894227458572882 0 0.03800042812263172 0.43615865433005307 0 0.0281358409039968 0.44930075306768458 0 0.017893296784651399 0.43894227458572882 0 0.0281358409039968 0.44930075306768458 0 0.04587361322417214 0.448769157871174 0 0.03800042812263172 0.43615865433005307 0 0.0281358409039968 0.44930075306768458 0 0.03800042812263172 0.43615865433005307 0 0.04587361322417214 0.448769157871174 0 0.049411209704934803 0.43621283219101809 0 0.03800042812263172 0.43615865433005307 0 0.029572045059576241 0.469060477695939 0 0.0281358409039968 0.44930075306768458 0 0.044846444185049857 0.46620050204512359 0 0.0281358409039968 0.44930075306768458 0 0.04587361322417214 0.448769157871174 0 0.044846444185049857 0.46620050204512359 0 0.0281358409039968 0.44930075306768458 0 0.044846444185049857 0.46620050204512359 0 0.04587361322417214 0.448769157871174 0 0.044846444185049857 0.46620050204512359 0 0.05832870883015126 0.45973880463956351 0 0.04587361322417214 0.448769157871174 0 0.057347956450285731 0.44480695268810438 0 0.049411209704934803 0.43621283219101809 0 0.04587361322417214 0.448769157871174 0 0.05832870883015126 0.45973880463956351 0 0.057347956450285731 0.44480695268810438 0 0.070599818540594342 0.45171728711773013 0 0.05832870883015126 0.45973880463956351 0 0.057347956450285731 0.44480695268810438 0 0.057347956450285731 0.44480695268810438 0 0.058238482531349368 0.43512174465279091 0 0.068330088192809502 0.43602814955066621 0 0.057347956450285731 0.44480695268810438 0 0.058238482531349368 0.43512174465279091 0 0.049411209704934803 0.43621283219101809 0 0.058238482531349368 0.43512174465279091 0 0.05412352915042095 0.42739076434297479 0 0.063786863135573219 0.4234822836218442 0 0.05412352915042095 0.42739076434297479 0 0.047865015341267358 0.42301655559242213 0 0.049411209704934803 0.43621283219101809 0 0.05412352915042095 0.42739076434297479 0 0.047865015341267358 0.42301655559242213 0 0.058238482531349368 0.43512174465279091 0 0.05412352915042095 0.42739076434297479 0 0.049411209704934803 0.43621283219101809 0 0.047865015341267358 0.42301655559242213 0 0.055388731832649349 0.41299308245440008 0 0.044385004541519633 0.40583709082877739 0 0.055388731832649349 0.41299308245440008 0 0.057103340742871267 0.4006394318358022 0 0.0691327228978319 0.40699071288372829 0 0.05412352915042095 0.42739076434297479 0 0.055388731832649349 0.41299308245440008 0 0.063786863135573219 0.4234822836218442 0 0.047865015341267358 0.42301655559242213 0 0.055388731832649349 0.41299308245440008 0 0.05412352915042095 0.42739076434297479 0 0.047865015341267358 0.42301655559242213 0 0.055388731832649349 0.41299308245440008 0 0.055388731832649349 0.41299308245440008 0 0.044385004541519633 0.40583709082877739 0 0.057103340742871267 0.4006394318358022 0 0.047865015341267358 0.42301655559242213 0 0.030398582533070099 0.41080889326869052 0 0.044385004541519633 0.40583709082877739 0 0.047865015341267358 0.42301655559242213 0 0.035686717363660143 0.42423985257235269 0 0.030398582533070099 0.41080889326869052 0 0.047865015341267358 0.42301655559242213 0 0.030398582533070099 0.41080889326869052 0 0.047865015341267358 0.42301655559242213 0 0.049411209704934803 0.43621283219101809 0 0.03800042812263172 0.43615865433005307 0 0.047865015341267358 0.42301655559242213 0 0.03800042812263172 0.43615865433005307 0 0.047865015341267358 0.42301655559242213 0 0.035686717363660143 0.42423985257235269 0 0.03800042812263172 0.43615865433005307 0 0.035686717363660143 0.42423985257235269 0 0.03800042812263172 0.43615865433005307 0 0.0264828434576714 0.42697530709824522 0 0.017893296784651399 0.43894227458572882 0 0.0264828434576714 0.42697530709824522 0 0.013451351612083251 0.42022136891186163 0 0.017893296784651399 0.43894227458572882 0 0.03800042812263172 0.43615865433005307 0 0.0264828434576714 0.42697530709824522 0 0.030398582533070099 0.41080889326869052 0 0.013451351612083251 0.42022136891186163 0 0.012932149724872831 0.39860123094495892 0 0.0264828434576714 0.42697530709824522 0 0.030398582533070099 0.41080889326869052 0 0.013451351612083251 0.42022136891186163 0 0.035686717363660143 0.42423985257235269 0 0.0264828434576714 0.42697530709824522 0 0.030398582533070099 0.41080889326869052 0 -0.0038092142255275289 0.41137928311071797 0 0.013451351612083251 0.42022136891186163 0 0.012932149724872831 0.39860123094495892 0 -0.0030841453677343121 0.43636499760021141 0 0.017893296784651399 0.43894227458572882 0 0.013451351612083251 0.42022136891186163 0 -0.0030841453677343121 0.43636499760021141 0 -0.0038092142255275289 0.41137928311071797 0 0.013451351612083251 0.42022136891186163 0 -0.0045342830833226501 0.3863935686212247 0 0.012932149724872831 0.39860123094495892 0 0.0079023355216259559 0.37348921158265391 0 0.012932149724872831 0.39860123094495892 0 0.025375843575522711 0.38021681034322929 0 0.0079023355216259559 0.37348921158265391 0 -0.0045342830833226501 0.3863935686212247 0 0.012932149724872831 0.39860123094495892 0 -0.0045342830833226501 0.3863935686212247 0 -0.0038092142255275289 0.41137928311071797 0 0.012932149724872831 0.39860123094495892 0 0.030398582533070099 0.41080889326869052 0 0.012932149724872831 0.39860123094495892 0 0.030398582533070099 0.41080889326869052 0 0.012932149724872831 0.39860123094495892 0 0.030218872497922818 0.39559608178221078 0 0.012932149724872831 0.39860123094495892 0 0.030218872497922818 0.39559608178221078 0 0.025375843575522711 0.38021681034322929 0 0.025375843575522711 0.38021681034322929 0 0.045236422390978262 0.39339421550307069 0 0.045418656597819553 0.37354288132317159 0 0.030218872497922818 0.39559608178221078 0 0.025375843575522711 0.38021681034322929 0 0.045236422390978262 0.39339421550307069 0 0.030398582533070099 0.41080889326869052 0 0.030218872497922818 0.39559608178221078 0 0.044385004541519633 0.40583709082877739 0 0.030218872497922818 0.39559608178221078 0 0.045236422390978262 0.39339421550307069 0 0.044385004541519633 0.40583709082877739 0 0.045236422390978262 0.39339421550307069 0 0.057103340742871267 0.4006394318358022 0 0.06607043693335328 0.38973814947632979 0 0.045236422390978262 0.39339421550307069 0 0.044385004541519633 0.40583709082877739 0 0.057103340742871267 0.4006394318358022 0 0.045236422390978262 0.39339421550307069 0 0.06607043693335328 0.38973814947632979 0 0.045418656597819553 0.37354288132317159 0 0.06607043693335328 0.38973814947632979 0 0.066778362586220691 0.36264744131756171 0 0.045418656597819553 0.37354288132317159 0 0.06607043693335328 0.38973814947632979 0 0.086713905658550791 0.37461406501925459 0 0.066778362586220691 0.36264744131756171 0 0.091303312773641829 0.3995757594209417 0 0.1025776524751303 0.38486691706586951 0 0.086713905658550791 0.37461406501925459 0 0.06607043693335328 0.38973814947632979 0 0.091303312773641829 0.3995757594209417 0 0.086713905658550791 0.37461406501925459 0 0.091303312773641829 0.3995757594209417 0 0.086713905658550791 0.37461406501925459 0 0.06607043693335328 0.38973814947632979 0 0.091303312773641829 0.3995757594209417 0 0.0691327228978319 0.40699071288372829 0 0.057103340742871267 0.4006394318358022 0 0.06607043693335328 0.38973814947632979 0 0.0691327228978319 0.40699071288372829 0 0.055388731832649349 0.41299308245440008 0 0.0691327228978319 0.40699071288372829 0 0.063786863135573219 0.4234822836218442 0 0.0691327228978319 0.40699071288372829 0 0.077714875811277062 0.4214876261871765 0 0.063786863135573219 0.4234822836218442 0 0.083205653112744402 0.44008551456546158 0 0.077714875811277062 0.4214876261871765 0 0.068330088192809502 0.43602814955066621 0 0.058238482531349368 0.43512174465279091 0 0.068330088192809502 0.43602814955066621 0 0.063786863135573219 0.4234822836218442 0 0.077714875811277062 0.4214876261871765 0 0.068330088192809502 0.43602814955066621 0 0.063786863135573219 0.4234822836218442 0 0.083205653112744402 0.44008551456546158 0 0.077714875811277062 0.4214876261871765 0 0.095892719888732866 0.42453745382262881 0 0.091303312773641829 0.3995757594209417 0 0.0691327228978319 0.40699071288372829 0 0.077714875811277062 0.4214876261871765 0 0.091303312773641829 0.3995757594209417 0 0.095892719888732866 0.42453745382262881 0 0.091303312773641829 0.3995757594209417 0 0.077714875811277062 0.4214876261871765 0 0.095892719888732866 0.42453745382262881 0 0.091303312773641829 0.3995757594209417 0 0.095892719888732866 0.42453745382262881 0 0.115428724103706 0.40267530492779557 0 0.1004821270038239 0.44949914822431608 0 0.095892719888732866 0.42453745382262881 0 0.12259086230274099 0.42947812748907283 0 0.1004821270038239 0.44949914822431608 0 0.095892719888732866 0.42453745382262881 0 0.095892719888732866 0.42453745382262881 0 0.12259086230274099 0.42947812748907283 0 0.115428724103706 0.40267530492779557 0 0.115428724103706 0.40267530492779557 0 0.119448870245615 0.38256434187866972 0 0.13692284990477191 0.38930777957628943 0 0.119448870245615 0.38256434187866972 0 0.1025776524751303 0.38486691706586951 0 0.1087205780393706 0.3656269003386084 0 0.115428724103706 0.40267530492779557 0 0.119448870245615 0.38256434187866972 0 0.1025776524751303 0.38486691706586951 0 0.1025776524751303 0.38486691706586951 0 0.1087205780393706 0.3656269003386084 0 0.086713905658550791 0.37461406501925459 0 0.091303312773641829 0.3995757594209417 0 0.115428724103706 0.40267530492779557 0 0.1025776524751303 0.38486691706586951 0 0.1087205780393706 0.3656269003386084 0 0.1202868522871179 0.34060046584014031 0 0.0915497208986496 0.34709204532757532 0 0.1087205780393706 0.3656269003386084 0 0.0915497208986496 0.34709204532757532 0 0.086713905658550791 0.37461406501925459 0 0.119448870245615 0.38256434187866972 0 0.1087205780393706 0.3656269003386084 0 0.13274728415341139 0.36410634055334368 0 0.1087205780393706 0.3656269003386084 0 0.1202868522871179 0.34060046584014031 0 0.13274728415341139 0.36410634055334368 0 0.1202868522871179 0.34060046584014031 0 0.1104734498024164 0.31171603628350752 0 0.14183880654046921 0.32250528078568202 0 0.1202868522871179 0.34060046584014031 0 0.1016552612267161 0.33013161519950079 0 0.1104734498024164 0.31171603628350752 0 0.1016552612267161 0.33013161519950079 0 0.081254576285268804 0.3210829637434266 0 0.1104734498024164 0.31171603628350752 0 0.1202868522871179 0.34060046584014031 0 0.1016552612267161 0.33013161519950079 0 0.0915497208986496 0.34709204532757532 0 0.081254576285268804 0.3210829637434266 0 0.072654821413094289 0.33942743407960763 0 0.0915497208986496 0.34709204532757532 0 0.1016552612267161 0.33013161519950079 0 0.081254576285268804 0.3210829637434266 0 0.0915497208986496 0.34709204532757532 0 0.081254576285268804 0.3210829637434266 0 0.06358813508901956 0.32234581427363851 0 0.071244474661197085 0.3036312559279935 0 0.081254576285268804 0.3210829637434266 0 0.06358813508901956 0.32234581427363851 0 0.072654821413094289 0.33942743407960763 0 0.06358813508901956 0.32234581427363851 0 0.072654821413094289 0.33942743407960763 0 0.055199983679349987 0.34246375673151652 0 0.072654821413094289 0.33942743407960763 0 0.066778362586220691 0.36264744131756171 0 0.055199983679349987 0.34246375673151652 0 0.072654821413094289 0.33942743407960763 0 0.0915497208986496 0.34709204532757532 0 0.066778362586220691 0.36264744131756171 0 0.0915497208986496 0.34709204532757532 0 0.086713905658550791 0.37461406501925459 0 0.066778362586220691 0.36264744131756171 0 0.066778362586220691 0.36264744131756171 0 0.044951457965310811 0.3555124197003488 0 0.045418656597819553 0.37354288132317159 0 0.066778362586220691 0.36264744131756171 0 0.044951457965310811 0.3555124197003488 0 0.055199983679349987 0.34246375673151652 0 0.044951457965310811 0.3555124197003488 0 0.021903196078839001 0.35746348141110651 0 0.035457090884324839 0.34144453771838768 0 0.044951457965310811 0.3555124197003488 0 0.035457090884324839 0.34144453771838768 0 0.055199983679349987 0.34246375673151652 0 0.044951457965310811 0.3555124197003488 0 0.045418656597819553 0.37354288132317159 0 0.021903196078839001 0.35746348141110651 0 0.025375843575522711 0.38021681034322929 0 0.021903196078839001 0.35746348141110651 0 0.0079023355216259559 0.37348921158265391 0 0.025375843575522711 0.38021681034322929 0 0.045418656597819553 0.37354288132317159 0 0.021903196078839001 0.35746348141110651 0 0.021903196078839001 0.35746348141110651 0 0.017151683724365509 0.3376665205351736 0 0.035457090884324839 0.34144453771838768 0 0.021903196078839001 0.35746348141110651 0 0.0095650341834115256 0.34490192427506011 0 0.017151683724365509 0.3376665205351736 0 0.021903196078839001 0.35746348141110651 0 0.0095650341834115256 0.34490192427506011 0 0.0061318462344260851 0.35417601161121459 0 -0.0050552824635438226 0.34569829691311771 0 0.0095650341834115256 0.34490192427506011 0 0.0061318462344260851 0.35417601161121459 0 0.021903196078839001 0.35746348141110651 0 0.0061318462344260851 0.35417601161121459 0 0.0079023355216259559 0.37348921158265391 0 -0.0052616759920083916 0.36132776784546622 0 0.0061318462344260851 0.35417601161121459 0 0.0079023355216259559 0.37348921158265391 0 0.0087281755863181168 0.33049580891976171 0 0.020410497070949891 0.30832150289807031 0 0.0056044744337335906 0.31412092038659428 0 0.0087281755863181168 0.33049580891976171 0 0.020410497070949891 0.30832150289807031 0 -0.003280447873963227 0.32161399115684158 0 0.0056044744337335906 0.31412092038659428 0 0.0087281755863181168 0.33049580891976171 0 0.0064742168078369342 0.3347740657525386 0 0.0087281755863181168 0.33049580891976171 0 -0.0050552824635438226 0.34569829691311771 0 0.0095650341834115256 0.34490192427506011 0 0.0064742168078369342 0.3347740657525386 0 0.0095650341834115256 0.34490192427506011 0 0.0064742168078369342 0.3347740657525386 0 0.017151683724365509 0.3376665205351736 0 0.0064742168078369342 0.3347740657525386 0 0.0087281755863181168 0.33049580891976171 0 0.017151683724365509 0.3376665205351736 0 0.0087281755863181168 0.33049580891976171 0 0.025353163704189718 0.33024288796319817 0 0.017151683724365509 0.3376665205351736 0 0.0087281755863181168 0.33049580891976171 0 0.025353163704189718 0.33024288796319817 0 0.025353163704189718 0.33024288796319817 0 0.017151683724365509 0.3376665205351736 0 0.035457090884324839 0.34144453771838768 0 0.0087281755863181168 0.33049580891976171 0 0.025353163704189718 0.33024288796319817 0 0.020410497070949891 0.30832150289807031 0 0.025353163704189718 0.33024288796319817 0 0.038017806832533571 0.30672300381527179 0 0.020410497070949891 0.30832150289807031 0 0.025353163704189718 0.33024288796319817 0 0.045812945845809312 0.32351293560108041 0 0.038017806832533571 0.30672300381527179 0 0.025353163704189718 0.33024288796319817 0 0.045812945845809312 0.32351293560108041 0 0.035457090884324839 0.34144453771838768 0 0.045812945845809312 0.32351293560108041 0 0.035457090884324839 0.34144453771838768 0 0.055199983679349987 0.34246375673151652 0 0.06358813508901956 0.32234581427363851 0 0.045812945845809312 0.32351293560108041 0 0.055199983679349987 0.34246375673151652 0 0.06358813508901956 0.32234581427363851 0 0.045812945845809312 0.32351293560108041 0 0.055148108477292443 0.3057593846019967 0 0.055148108477292443 0.3057593846019967 0 0.047586914097201803 0.29032131063477928 0 0.038017806832533571 0.30672300381527179 0 0.055148108477292443 0.3057593846019967 0 0.047586914097201803 0.29032131063477928 0 0.066935962560195753 0.28615893812798288 0 0.047586914097201803 0.29032131063477928 0 0.050578246113349837 0.27455429857722041 0 0.066935962560195753 0.28615893812798288 0 0.047586914097201803 0.29032131063477928 0 0.032092818555581597 0.28614719687637868 0 0.038017806832533571 0.30672300381527179 0 0.047586914097201803 0.29032131063477928 0 0.032092818555581597 0.28614719687637868 0 0.050578246113349837 0.27455429857722041 0 0.045812945845809312 0.32351293560108041 0 0.055148108477292443 0.3057593846019967 0 0.038017806832533571 0.30672300381527179 0 0.032092818555581597 0.28614719687637868 0 0.038017806832533571 0.30672300381527179 0 0.020410497070949891 0.30832150289807031 0 0.032092818555581597 0.28614719687637868 0 0.020410497070949891 0.30832150289807031 0 0.032092818555581597 0.28614719687637868 0 0.020410497070949891 0.30832150289807031 0 0.0083336089875100904 0.29343585490586271 0 0.032092818555581597 0.28614719687637868 0 0.0083336089875100904 0.29343585490586271 0 0.021382191810826279 0.2686960609189637 0 -0.0088759444352828343 0.31092800175718183 0 0.0056044744337335906 0.31412092038659428 0 0.0083336089875100904 0.29343585490586271 0 0.0056044744337335906 0.31412092038659428 0 0.020410497070949891 0.30832150289807031 0 0.0083336089875100904 0.29343585490586271 0 0.0073806355134042019 0.25529449578482938 0 3.3590645499582607e-05 0.27236849017123349 0 0.021382191810826279 0.2686960609189637 0 0.0083336089875100904 0.29343585490586271 0 3.3590645499582607e-05 0.27236849017123349 0 0.021382191810826279 0.2686960609189637 0 0.025149977659741599 0.24684982625080901 0 0.0073806355134042019 0.25529449578482938 0 0.021382191810826279 0.2686960609189637 0 0.025149977659741599 0.24684982625080901 0 0.021382191810826279 0.2686960609189637 0 0.043775140040213267 0.26397289085468728 0 0.025149977659741599 0.24684982625080901 0 0.045472231705318063 0.24424317023843681 0 0.050158093690384618 0.2598810672441918 0 0.025149977659741599 0.24684982625080901 0 0.050158093690384618 0.2598810672441918 0 0.025149977659741599 0.24684982625080901 0 0.043775140040213267 0.26397289085468728 0 0.050158093690384618 0.2598810672441918 0 0.032092818555581597 0.28614719687637868 0 0.043775140040213267 0.26397289085468728 0 0.032092818555581597 0.28614719687637868 0 0.021382191810826279 0.2686960609189637 0 0.043775140040213267 0.26397289085468728 0 0.032092818555581597 0.28614719687637868 0 0.043775140040213267 0.26397289085468728 0 0.050578246113349837 0.27455429857722041 0 0.050578246113349837 0.27455429857722041 0 0.063875668081316214 0.2678607518654692 0 0.066935962560195753 0.28615893812798288 0 0.043775140040213267 0.26397289085468728 0 0.050578246113349837 0.27455429857722041 0 0.050158093690384618 0.2598810672441918 0 0.050578246113349837 0.27455429857722041 0 0.056046126259945157 0.25263236173372139 0 0.063875668081316214 0.2678607518654692 0 0.050578246113349837 0.27455429857722041 0 0.050158093690384618 0.2598810672441918 0 0.056046126259945157 0.25263236173372139 0 0.045472231705318063 0.24424317023843681 0 0.050158093690384618 0.2598810672441918 0 0.056046126259945157 0.25263236173372139 0 0.050578246113349837 0.27455429857722041 0 0.056046126259945157 0.25263236173372139 0 0.078525547080241467 0.2465942846531784 0 0.067905867336300579 0.25358800162702 0 0.079567988853459573 0.27014218499250892 0 0.067905867336300579 0.25358800162702 0 0.079567988853459573 0.27014218499250892 0 0.063875668081316214 0.2678607518654692 0 0.056046126259945157 0.25263236173372139 0 0.067905867336300579 0.25358800162702 0 0.063875668081316214 0.2678607518654692 0 0.078525547080241467 0.2465942846531784 0 0.079567988853459573 0.27014218499250892 0 0.093798877441032588 0.2579700649065903 0 0.079567988853459573 0.27014218499250892 0 0.063875668081316214 0.2678607518654692 0 0.066935962560195753 0.28615893812798288 0 0.079567988853459573 0.27014218499250892 0 0.066935962560195753 0.28615893812798288 0 0.087430381393448858 0.29852998767476718 0 0.066935962560195753 0.28615893812798288 0 0.071244474661197085 0.3036312559279935 0 0.087430381393448858 0.29852998767476718 0 0.055148108477292443 0.3057593846019967 0 0.066935962560195753 0.28615893812798288 0 0.071244474661197085 0.3036312559279935 0 0.06358813508901956 0.32234581427363851 0 0.055148108477292443 0.3057593846019967 0 0.071244474661197085 0.3036312559279935 0 0.081254576285268804 0.3210829637434266 0 0.087430381393448858 0.29852998767476718 0 0.1104734498024164 0.31171603628350752 0 0.081254576285268804 0.3210829637434266 0 0.071244474661197085 0.3036312559279935 0 0.087430381393448858 0.29852998767476718 0 0.079567988853459573 0.27014218499250892 0 0.087430381393448858 0.29852998767476718 0 0.1079828451826004 0.27738565586056829 0 0.087430381393448858 0.29852998767476718 0 0.1104734498024164 0.31171603628350752 0 0.1079828451826004 0.27738565586056829 0 0.1104734498024164 0.31171603628350752 0 0.1079828451826004 0.27738565586056829 0 0.13401849175413849 0.29214957311260448 0 0.1079828451826004 0.27738565586056829 0 0.13401849175413849 0.29214957311260448 0 0.1100607559553454 0.25396994184181759 0 0.1079828451826004 0.27738565586056829 0 0.13366986361514199 0.26692500362740812 0 0.12787711237058769 0.24521089126939841 0 0.1100607559553454 0.25396994184181759 0 0.13366986361514199 0.26692500362740812 0 0.092857250133516089 0.24175825718487831 0 0.1100607559553454 0.25396994184181759 0 0.093798877441032588 0.2579700649065903 0 0.1100607559553454 0.25396994184181759 0 0.093798877441032588 0.2579700649065903 0 0.1079828451826004 0.27738565586056829 0 0.079567988853459573 0.27014218499250892 0 0.093798877441032588 0.2579700649065903 0 0.1079828451826004 0.27738565586056829 0 0.13366986361514199 0.26692500362740812 0 0.1558685034792309 0.28595093384994291 0 0.15959452244756481 0.26367036214955358 0 0.14702044576598061 0.2478904659134552 0 0.13366986361514199 0.26692500362740812 0 0.15959452244756481 0.26367036214955358 0 0.14702044576598061 0.2478904659134552 0 0.12787711237058769 0.24521089126939841 0 0.13366986361514199 0.26692500362740812 0 0.1079828451826004 0.27738565586056829 0 0.13366986361514199 0.26692500362740812 0 0.13401849175413849 0.29214957311260448 0 0.1104734498024164 0.31171603628350752 0 0.13401849175413849 0.29214957311260448 0 0.14183880654046921 0.32250528078568202 0 0.13401849175413849 0.29214957311260448 0 0.16005413832567669 0.30691349036464077 0 0.14183880654046921 0.32250528078568202 0 0.13401849175413849 0.29214957311260448 0 0.16005413832567669 0.30691349036464077 0 0.13401849175413849 0.29214957311260448 0 0.1558685034792309 0.28595093384994291 0 0.16005413832567669 0.30691349036464077 0 0.13366986361514199 0.26692500362740812 0 0.13401849175413849 0.29214957311260448 0 0.1558685034792309 0.28595093384994291 0 0.1558685034792309 0.28595093384994291 0 0.1700220001876428 0.28782965529906401 0 0.16005413832567669 0.30691349036464077 0 0.1558685034792309 0.28595093384994291 0 0.1700220001876428 0.28782965529906401 0 0.17370236977615991 0.27502287964280692 0 0.1700220001876428 0.28782965529906401 0 0.16005413832567669 0.30691349036464077 0 0.1764196225356903 0.29880027385689728 0 0.16005413832567669 0.30691349036464077 0 0.1764196225356903 0.29880027385689728 0 0.18686192329242929 0.31378732528256248 0 0.1764196225356903 0.29880027385689728 0 0.18674031124236579 0.30201460306836742 0 0.19086383386244751 0.2907864273273883 0 0.1764196225356903 0.29880027385689728 0 0.18674031124236579 0.30201460306836742 0 0.18686192329242929 0.31378732528256248 0 0.1700220001876428 0.28782965529906401 0 0.18013512871176271 0.28566990799825959 0 0.17370236977615991 0.27502287964280692 0 0.1700220001876428 0.28782965529906401 0 0.1764196225356903 0.29880027385689728 0 0.18013512871176271 0.28566990799825959 0 0.1764196225356903 0.29880027385689728 0 0.18013512871176271 0.28566990799825959 0 0.19086383386244751 0.2907864273273883 0 0.18013512871176271 0.28566990799825959 0 0.1896678171968729 0.27591030386514148 0 0.19086383386244751 0.2907864273273883 0 0.18251379545819379 0.26835647973838378 0 0.17370236977615991 0.27502287964280692 0 0.1896678171968729 0.27591030386514148 0 0.18013512871176271 0.28566990799825959 0 0.17370236977615991 0.27502287964280692 0 0.1896678171968729 0.27591030386514148 0 0.18251379545819379 0.26835647973838378 0 0.17370236977615991 0.27502287964280692 0 0.17699066645021869 0.2595722272450377 0 0.17370236977615991 0.27502287964280692 0 0.15959452244756481 0.26367036214955358 0 0.17699066645021869 0.2595722272450377 0 0.1558685034792309 0.28595093384994291 0 0.17370236977615991 0.27502287964280692 0 0.15959452244756481 0.26367036214955358 0 0.16774616909827719 0.2460930353984315 0 0.15959452244756481 0.26367036214955358 0 0.17699066645021869 0.2595722272450377 0 0.14702044576598061 0.2478904659134552 0 0.16774616909827719 0.2460930353984315 0 0.15959452244756481 0.26367036214955358 0 0.18692125413578081 0.24552837502103991 0 0.16774616909827719 0.2460930353984315 0 0.17699066645021869 0.2595722272450377 0 0.18692125413578081 0.24552837502103991 0 0.17699066645021869 0.2595722272450377 0 0.19242781921148469 0.26384338938458129 0 0.18251379545819379 0.26835647973838378 0 0.17699066645021869 0.2595722272450377 0 0.19242781921148469 0.26384338938458129 0 0.18692125413578081 0.24552837502103991 0 0.19242781921148469 0.26384338938458129 0 0.20107379594449931 0.25686311186437227 0 0.18692125413578081 0.24552837502103991 0 0.20107379594449931 0.25686311186437227 0 0.19242781921148469 0.26384338938458129 0 0.20107379594449931 0.25686311186437227 0 0.2008998280478862 0.26959186196165702 0 0.19242781921148469 0.26384338938458129 0 0.20107379594449931 0.25686311186437227 0 0.19242781921148469 0.26384338938458129 0 0.1896678171968729 0.27591030386514148 0 0.2008998280478862 0.26959186196165702 0 0.18251379545819379 0.26835647973838378 0 0.19242781921148469 0.26384338938458129 0 0.1896678171968729 0.27591030386514148 0 0.1896678171968729 0.27591030386514148 0 0.2008998280478862 0.26959186196165702 0 0.20354188417430641 0.281093168015905 0 0.2008998280478862 0.26959186196165702 0 0.2177878237122676 0.27024933667828532 0 0.20354188417430641 0.281093168015905 0 0.2177878237122676 0.27024933667828532 0 0.20354188417430641 0.281093168015905 0 0.2166033006779626 0.28924568688104418 0 0.21557305570370441 0.24515722135805329 0 0.20107379594449931 0.25686311186437227 0 0.2177878237122676 0.27024933667828532 0 0.20107379594449931 0.25686311186437227 0 0.2177878237122676 0.27024933667828532 0 0.20107379594449931 0.25686311186437227 0 0.2008998280478862 0.26959186196165702 0 0.2177878237122676 0.27024933667828532 0 0.21557305570370441 0.24515722135805329 0 0.20107379594449931 0.25686311186437227 0 0.21557305570370441 0.24515722135805329 0 0.2177878237122676 0.27024933667828532 0 0.23628031136540401 0.25597328662156199 0 0.2177878237122676 0.27024933667828532 0 0.23628031136540401 0.25597328662156199 0 0.23450185148003599 0.28363556149219821 0 0.2177878237122676 0.27024933667828532 0 0.23450185148003599 0.28363556149219821 0 0.2166033006779626 0.28924568688104418 0 0.2177878237122676 0.27024933667828532 0 0.23450185148003599 0.28363556149219821 0 0.23628031136540401 0.25597328662156199 0 0.23450185148003599 0.28363556149219821 0 0.25102838231212438 0.26850893423506528 0 0.23450185148003599 0.28363556149219821 0 0.25953152444998728 0.28294166139542631 0 0.25102838231212438 0.26850893423506528 0 0.23628031136540401 0.25597328662156199 0 0.25102838231212438 0.26850893423506528 0 0.26221447651104962 0.2479993693513689 0 0.2297645605960125 0.30261029929826411 0 0.25121587924780342 0.29702178630611242 0 0.2484846271056145 0.31037308609574782 0 0.2297645605960125 0.30261029929826411 0 0.23798581837376781 0.31938142953188831 0 0.2484846271056145 0.31037308609574782 0 0.2297645605960125 0.30261029929826411 0 0.25121587924780342 0.29702178630611242 0 0.23450185148003599 0.28363556149219821 0 0.2297645605960125 0.30261029929826411 0 0.25121587924780342 0.29702178630611242 0 0.23450185148003599 0.28363556149219821 0 0.25121587924780342 0.29702178630611242 0 0.23450185148003599 0.28363556149219821 0 0.25953152444998728 0.28294166139542631 0 0.25121587924780342 0.29702178630611242 0 0.23450185148003599 0.28363556149219821 0 0.2297645605960125 0.30261029929826411 0 0.2166033006779626 0.28924568688104418 0 0.2297645605960125 0.30261029929826411 0 0.20831324194422091 0.30819881229041318 0 0.2297645605960125 0.30261029929826411 0 0.20831324194422091 0.30819881229041318 0 0.21977364325038071 0.31928170538083578 0 0.20831324194422091 0.30819881229041318 0 0.2166033006779626 0.28924568688104418 0 0.20288664267638859 0.29424953150154581 0 0.2297645605960125 0.30261029929826411 0 0.20831324194422091 0.30819881229041318 0 0.2166033006779626 0.28924568688104418 0 0.20354188417430641 0.281093168015905 0 0.2166033006779626 0.28924568688104418 0 0.20288664267638859 0.29424953150154581 0 0.20354188417430641 0.281093168015905 0 0.20288664267638859 0.29424953150154581 0 0.19086383386244751 0.2907864273273883 0 0.20288664267638859 0.29424953150154581 0 0.19086383386244751 0.2907864273273883 0 0.19511095272300569 0.3019235629929784 0 0.1896678171968729 0.27591030386514148 0 0.20354188417430641 0.281093168015905 0 0.19086383386244751 0.2907864273273883 0 0.20831324194422091 0.30819881229041318 0 0.18686192329242929 0.31378732528256248 0 0.20831324194422091 0.30819881229041318 0 0.19511095272300569 0.3019235629929784 0 0.18686192329242929 0.31378732528256248 0 0.20831324194422091 0.30819881229041318 0 0.20288664267638859 0.29424953150154581 0 0.19511095272300569 0.3019235629929784 0 0.18674031124236579 0.30201460306836742 0 0.19086383386244751 0.2907864273273883 0 0.19511095272300569 0.3019235629929784 0 0.18674031124236579 0.30201460306836742 0 0.19511095272300569 0.3019235629929784 0 0.18686192329242929 0.31378732528256248 0 0.20141288137377081 0.31920030670374799 0 0.18686192329242929 0.31378732528256248 0 0.18608978489721489 0.32167740761667712 0 0.20831324194422091 0.30819881229041318 0 0.20141288137377081 0.31920030670374799 0 0.18686192329242929 0.31378732528256248 0 0.20141288137377081 0.31920030670374799 0 0.21212543146875301 0.33644132486871342 0 0.18608978489721489 0.32167740761667712 0 0.21212543146875301 0.33644132486871342 0 0.18608978489721489 0.32167740761667712 0 0.19231113454718349 0.34165597013868199 0 0.21212543146875301 0.33644132486871342 0 0.18608978489721489 0.32167740761667712 0 0.20831324194422091 0.30819881229041318 0 0.20141288137377081 0.31920030670374799 0 0.21977364325038071 0.31928170538083578 0 0.20141288137377081 0.31920030670374799 0 0.21212543146875301 0.33644132486871342 0 0.21977364325038071 0.31928170538083578 0 0.21977364325038071 0.31928170538083578 0 0.2290399257457596 0.32985805959198788 0 0.23798581837376781 0.31938142953188831 0 0.2297645605960125 0.30261029929826411 0 0.21977364325038071 0.31928170538083578 0 0.23798581837376781 0.31938142953188831 0 0.21212543146875301 0.33644132486871342 0 0.21977364325038071 0.31928170538083578 0 0.2290399257457596 0.32985805959198788 0 0.21212543146875301 0.33644132486871342 0 0.23060518033342339 0.33807106122714048 0 0.2290399257457596 0.32985805959198788 0 0.21212543146875301 0.33644132486871342 0 0.23060518033342339 0.33807106122714048 0 0.23816107804029091 0.35120524212074949 0 0.23060518033342339 0.33807106122714048 0 0.2290399257457596 0.32985805959198788 0 0.2430942860788903 0.33477961832711151 0 0.23060518033342339 0.33807106122714048 0 0.2430942860788903 0.33477961832711151 0 0.23816107804029091 0.35120524212074949 0 0.2484846271056145 0.31037308609574782 0 0.23798581837376781 0.31938142953188831 0 0.25508783524565293 0.32209220201309929 0 0.2430942860788903 0.33477961832711151 0 0.23798581837376781 0.31938142953188831 0 0.25508783524565293 0.32209220201309929 0 0.2290399257457596 0.32985805959198788 0 0.2430942860788903 0.33477961832711151 0 0.23798581837376781 0.31938142953188831 0 0.23439037865920059 0.35560025357312369 0 0.2386764282036242 0.37725286527910618 0 0.24311907173897271 0.36013203008567057 0 0.23439037865920059 0.35560025357312369 0 0.2386764282036242 0.37725286527910618 0 0.2492643002430574 0.365916522193315 0 0.24311907173897271 0.36013203008567057 0 0.2386764282036242 0.37725286527910618 0 0.2492643002430574 0.365916522193315 0 0.2386764282036242 0.37725286527910618 0 0.25383912625151372 0.37755129754335942 0 0.24311907173897271 0.36013203008567057 0 0.23816107804029091 0.35120524212074949 0 0.2641967246118288 0.36596915937278562 0 0.2430942860788903 0.33477961832711151 0 0.23816107804029091 0.35120524212074949 0 0.26173146881309822 0.35734024057335978 0 0.24311907173897271 0.36013203008567057 0 0.23816107804029091 0.35120524212074949 0 0.23439037865920059 0.35560025357312369 0 0.21212543146875301 0.33644132486871342 0 0.23816107804029091 0.35120524212074949 0 0.21848510057545151 0.35453686872473111 0 0.23816107804029091 0.35120524212074949 0 0.23439037865920059 0.35560025357312369 0 0.21848510057545151 0.35453686872473111 0 0.21212543146875301 0.33644132486871342 0 0.23816107804029091 0.35120524212074949 0 0.23439037865920059 0.35560025357312369 0 0.22513916990612379 0.36868200325308897 0 0.2386764282036242 0.37725286527910618 0 0.23439037865920059 0.35560025357312369 0 0.22513916990612379 0.36868200325308897 0 0.21848510057545151 0.35453686872473111 0 0.22513916990612379 0.36868200325308897 0 0.20931495008602691 0.36890180222237801 0 0.21961872799640589 0.38146559318592133 0 0.22513916990612379 0.36868200325308897 0 0.20931495008602691 0.36890180222237801 0 0.21848510057545151 0.35453686872473111 0 0.20931495008602691 0.36890180222237801 0 0.21848510057545151 0.35453686872473111 0 0.2018014651714847 0.35413555731190122 0 0.21212543146875301 0.33644132486871342 0 0.21848510057545151 0.35453686872473111 0 0.2018014651714847 0.35413555731190122 0 0.19231113454718349 0.34165597013868199 0 0.2018014651714847 0.35413555731190122 0 0.1832131523033072 0.3569188224833833 0 0.19231113454718349 0.34165597013868199 0 0.21212543146875301 0.33644132486871342 0 0.2018014651714847 0.35413555731190122 0 0.20931495008602691 0.36890180222237801 0 0.2018014651714847 0.35413555731190122 0 0.19217836357317111 0.36996972767433872 0 0.20931495008602691 0.36890180222237801 0 0.19217836357317111 0.36996972767433872 0 0.20289108470775991 0.38370682355227331 0 0.2018014651714847 0.35413555731190122 0 0.19217836357317111 0.36996972767433872 0 0.1832131523033072 0.3569188224833833 0 0.19217836357317111 0.36996972767433872 0 0.17197644233242751 0.37002706837148541 0 0.1832131523033072 0.3569188224833833 0 0.17197644233242751 0.37002706837148541 0 0.16866852787741549 0.35230522619665788 0 0.1832131523033072 0.3569188224833833 0 0.17197644233242751 0.37002706837148541 0 0.16866852787741549 0.35230522619665788 0 0.15186920095361911 0.35620033980905319 0 0.17197644233242751 0.37002706837148541 0 0.15186920095361911 0.35620033980905319 0 0.15185568245476189 0.37707061606136422 0 0.16866852787741549 0.35230522619665788 0 0.1579580049025659 0.33927316190663209 0 0.15186920095361911 0.35620033980905319 0 0.16866852787741549 0.35230522619665788 0 0.1832131523033072 0.3569188224833833 0 0.17832583889515771 0.33910673841273542 0 0.19231113454718349 0.34165597013868199 0 0.1832131523033072 0.3569188224833833 0 0.17832583889515771 0.33910673841273542 0 0.17832583889515771 0.33910673841273542 0 0.18608978489721489 0.32167740761667712 0 0.16647560889869609 0.32578562508456149 0 0.19231113454718349 0.34165597013868199 0 0.17832583889515771 0.33910673841273542 0 0.18608978489721489 0.32167740761667712 0 0.16005413832567669 0.30691349036464077 0 0.18608978489721489 0.32167740761667712 0 0.16005413832567669 0.30691349036464077 0 0.18686192329242929 0.31378732528256248 0 0.18608978489721489 0.32167740761667712 0 0.16005413832567669 0.30691349036464077 0 0.18608978489721489 0.32167740761667712 0 0.16647560889869609 0.32578562508456149 0 0.17832583889515771 0.33910673841273542 0 0.16647560889869609 0.32578562508456149 0 0.1579580049025659 0.33927316190663209 0 0.16866852787741549 0.35230522619665788 0 0.17832583889515771 0.33910673841273542 0 0.1579580049025659 0.33927316190663209 0 0.16647560889869609 0.32578562508456149 0 0.1579580049025659 0.33927316190663209 0 0.14183880654046921 0.32250528078568202 0 0.1579580049025659 0.33927316190663209 0 0.14183880654046921 0.32250528078568202 0 0.14054269679001921 0.34363296691054102 0 0.16005413832567669 0.30691349036464077 0 0.16647560889869609 0.32578562508456149 0 0.14183880654046921 0.32250528078568202 0 0.1202868522871179 0.34060046584014031 0 0.14183880654046921 0.32250528078568202 0 0.14054269679001921 0.34363296691054102 0 0.1202868522871179 0.34060046584014031 0 0.14054269679001921 0.34363296691054102 0 0.13274728415341139 0.36410634055334368 0 0.13274728415341139 0.36410634055334368 0 0.15186920095361911 0.35620033980905319 0 0.15185568245476189 0.37707061606136422 0 0.14054269679001921 0.34363296691054102 0 0.13274728415341139 0.36410634055334368 0 0.15186920095361911 0.35620033980905319 0 0.1579580049025659 0.33927316190663209 0 0.14054269679001921 0.34363296691054102 0 0.15186920095361911 0.35620033980905319 0 0.15352992747694119 0.40026604784697911 0 0.13692284990477191 0.38930777957628943 0 0.1397509022148696 0.40843688002483958 0 0.15352992747694119 0.40026604784697911 0 0.15185568245476189 0.37707061606136422 0 0.13692284990477191 0.38930777957628943 0 0.13274728415341139 0.36410634055334368 0 0.15185568245476189 0.37707061606136422 0 0.13692284990477191 0.38930777957628943 0 0.119448870245615 0.38256434187866972 0 0.13274728415341139 0.36410634055334368 0 0.13692284990477191 0.38930777957628943 0 0.115428724103706 0.40267530492779557 0 0.13692284990477191 0.38930777957628943 0 0.1397509022148696 0.40843688002483958 0 0.12259086230274099 0.42947812748907283 0 0.1397509022148696 0.40843688002483958 0 0.14363603346764281 0.42707530835579988 0 0.12259086230274099 0.42947812748907283 0 0.115428724103706 0.40267530492779557 0 0.1397509022148696 0.40843688002483958 0 0.12259086230274099 0.42947812748907283 0 0.14363603346764281 0.42707530835579988 0 0.13510526379757609 0.44116740875256688 0 0.14363603346764281 0.42707530835579988 0 0.16526304614212209 0.42908608809292892 0 0.1507341445198021 0.44370602134863157 0 0.14363603346764281 0.42707530835579988 0 0.15527295380072001 0.4153931176925994 0 0.16526304614212209 0.42908608809292892 0 0.14363603346764281 0.42707530835579988 0 0.1507341445198021 0.44370602134863157 0 0.13510526379757609 0.44116740875256688 0 0.1397509022148696 0.40843688002483958 0 0.14363603346764281 0.42707530835579988 0 0.15527295380072001 0.4153931176925994 0 0.15352992747694119 0.40026604784697911 0 0.1397509022148696 0.40843688002483958 0 0.15527295380072001 0.4153931176925994 0 0.15527295380072001 0.4153931176925994 0 0.1711416470664554 0.41062619466687539 0 0.16526304614212209 0.42908608809292892 0 0.15352992747694119 0.40026604784697911 0 0.15527295380072001 0.4153931176925994 0 0.1711416470664554 0.41062619466687539 0 0.16526304614212209 0.42908608809292892 0 0.1809560021812836 0.43814832633623357 0 0.16598328874466911 0.44273574664910909 0 0.16526304614212209 0.42908608809292892 0 0.18469425222239219 0.42125941149134333 0 0.1809560021812836 0.43814832633623357 0 0.1711416470664554 0.41062619466687539 0 0.16526304614212209 0.42908608809292892 0 0.18469425222239219 0.42125941149134333 0 0.1711416470664554 0.41062619466687539 0 0.18469425222239219 0.42125941149134333 0 0.1843100454414533 0.40126956181167389 0 0.1711416470664554 0.41062619466687539 0 0.1843100454414533 0.40126956181167389 0 0.16952276405911931 0.3912061138884545 0 0.1843100454414533 0.40126956181167389 0 0.16952276405911931 0.3912061138884545 0 0.18589276442329861 0.38606835492789338 0 0.15352992747694119 0.40026604784697911 0 0.1711416470664554 0.41062619466687539 0 0.16952276405911931 0.3912061138884545 0 0.15352992747694119 0.40026604784697911 0 0.15185568245476189 0.37707061606136422 0 0.16952276405911931 0.3912061138884545 0 0.17197644233242751 0.37002706837148541 0 0.15185568245476189 0.37707061606136422 0 0.16952276405911931 0.3912061138884545 0 0.17197644233242751 0.37002706837148541 0 0.16952276405911931 0.3912061138884545 0 0.18589276442329861 0.38606835492789338 0 0.19217836357317111 0.36996972767433872 0 0.17197644233242751 0.37002706837148541 0 0.18589276442329861 0.38606835492789338 0 0.18589276442329861 0.38606835492789338 0 0.20289108470775991 0.38370682355227331 0 0.19700705340585539 0.39579078134538831 0 0.19217836357317111 0.36996972767433872 0 0.18589276442329861 0.38606835492789338 0 0.20289108470775991 0.38370682355227331 0 0.19700705340585539 0.39579078134538831 0 0.21316338490038089 0.39704202397260657 0 0.19877798755638451 0.41086714246249401 0 0.1843100454414533 0.40126956181167389 0 0.19700705340585539 0.39579078134538831 0 0.19877798755638451 0.41086714246249401 0 0.1843100454414533 0.40126956181167389 0 0.18589276442329861 0.38606835492789338 0 0.19700705340585539 0.39579078134538831 0 0.20289108470775991 0.38370682355227331 0 0.19700705340585539 0.39579078134538831 0 0.21316338490038089 0.39704202397260657 0 0.20931495008602691 0.36890180222237801 0 0.20289108470775991 0.38370682355227331 0 0.21961872799640589 0.38146559318592133 0 0.20289108470775991 0.38370682355227331 0 0.21316338490038089 0.39704202397260657 0 0.21961872799640589 0.38146559318592133 0 0.22513916990612379 0.36868200325308897 0 0.21961872799640589 0.38146559318592133 0 0.2386764282036242 0.37725286527910618 0 0.21961872799640589 0.38146559318592133 0 0.22852735017452019 0.39320804083607441 0 0.2386764282036242 0.37725286527910618 0 0.21316338490038089 0.39704202397260657 0 0.21961872799640589 0.38146559318592133 0 0.22852735017452019 0.39320804083607441 0 0.21316338490038089 0.39704202397260657 0 0.22852735017452019 0.39320804083607441 0 0.22983145469658259 0.40925978250573319 0 0.21316338490038089 0.39704202397260657 0 0.22983145469658259 0.40925978250573319 0 0.22852735017452019 0.39320804083607441 0 0.2429624777480478 0.39890547698508871 0 0.22983145469658259 0.40925978250573319 0 0.2429624777480478 0.39890547698508871 0 0.2386764282036242 0.37725286527910618 0 0.22852735017452019 0.39320804083607441 0 0.2429624777480478 0.39890547698508871 0 0.2386764282036242 0.37725286527910618 0 0.2429624777480478 0.39890547698508871 0 0.2386764282036242 0.37725286527910618 0 0.25341304662754638 0.38974012394171498 0 0.2386764282036242 0.37725286527910618 0 0.25383912625151372 0.37755129754335942 0 0.25341304662754638 0.38974012394171498 0 0.24649952449278431 0.42147754103885982 0 0.22996656543308741 0.44177288309861867 0 0.24946733303660301 0.43176723098649622 0 0.24649952449278431 0.42147754103885982 0 0.22996656543308741 0.44177288309861867 0 0.24649952449278431 0.42147754103885982 0 0.22738899126970491 0.42458926785457718 0 0.22996656543308741 0.44177288309861867 0 0.24946733303660301 0.43176723098649622 0 0.24649952449278431 0.42147754103885982 0 0.2429624777480478 0.39890547698508871 0 0.24649952449278431 0.42147754103885982 0 0.24649952449278431 0.42147754103885982 0 0.22983145469658259 0.40925978250573319 0 0.22738899126970491 0.42458926785457718 0 0.24649952449278431 0.42147754103885982 0 0.22983145469658259 0.40925978250573319 0 0.2429624777480478 0.39890547698508871 0 0.24649952449278431 0.42147754103885982 0 0.22983145469658259 0.40925978250573319 0 0.21316338490038089 0.39704202397260657 0 0.22983145469658259 0.40925978250573319 0 0.21370806227123909 0.41789950377956148 0 0.22983145469658259 0.40925978250573319 0 0.22738899126970491 0.42458926785457718 0 0.21370806227123909 0.41789950377956148 0 0.22738899126970491 0.42458926785457718 0 0.21739304288862979 0.43200563017257382 0 0.22996656543308741 0.44177288309861867 0 0.22738899126970491 0.42458926785457718 0 0.21739304288862979 0.43200563017257382 0 0.21370806227123909 0.41789950377956148 0 0.21739304288862979 0.43200563017257382 0 0.1999317510848099 0.43097584272053618 0 0.2111195299095035 0.44359306409302351 0 0.21739304288862979 0.43200563017257382 0 0.21370806227123909 0.41789950377956148 0 0.1999317510848099 0.43097584272053618 0 0.21370806227123909 0.41789950377956148 0 0.19877798755638451 0.41086714246249401 0 0.1999317510848099 0.43097584272053618 0 0.21316338490038089 0.39704202397260657 0 0.21370806227123909 0.41789950377956148 0 0.19877798755638451 0.41086714246249401 0 0.18469425222239219 0.42125941149134333 0 0.19877798755638451 0.41086714246249401 0 0.1999317510848099 0.43097584272053618 0 0.18469425222239219 0.42125941149134333 0 0.1843100454414533 0.40126956181167389 0 0.19877798755638451 0.41086714246249401 0 0.18469425222239219 0.42125941149134333 0 0.1999317510848099 0.43097584272053618 0 0.1809560021812836 0.43814832633623357 0 0.1999317510848099 0.43097584272053618 0 0.19479511809318301 0.4526549487178691 0 0.2111195299095035 0.44359306409302351 0 0.1999317510848099 0.43097584272053618 0 0.19479511809318301 0.4526549487178691 0 0.1809560021812836 0.43814832633623357 0 0.19479511809318301 0.4526549487178691 0 0.213169792932182 0.46047172596691099 0 0.19211155850092579 0.47790980627879082 0 0.19479511809318301 0.4526549487178691 0 0.19211155850092579 0.47790980627879082 0 0.18348770279874721 0.46143911161818069 0 0.213169792932182 0.46047172596691099 0 0.2111195299095035 0.44359306409302351 0 0.22996656543308741 0.44177288309861867 0 0.19479511809318301 0.4526549487178691 0 0.213169792932182 0.46047172596691099 0 0.2111195299095035 0.44359306409302351 0 0.21739304288862979 0.43200563017257382 0 0.2111195299095035 0.44359306409302351 0 0.22996656543308741 0.44177288309861867 0 0.22996656543308741 0.44177288309861867 0 0.22854105436186559 0.46372788353366717 0 0.24141841662185301 0.45603819576859073 0 0.213169792932182 0.46047172596691099 0 0.22854105436186559 0.46372788353366717 0 0.221321310837439 0.47674074212904899 0 0.213169792932182 0.46047172596691099 0 0.22996656543308741 0.44177288309861867 0 0.22854105436186559 0.46372788353366717 0 0.24141841662185301 0.45603819576859073 0 0.23645949407781469 0.47608243786178739 0 0.25047151807745072 0.47036873115219768 0 0.22854105436186559 0.46372788353366717 0 0.24141841662185301 0.45603819576859073 0 0.23645949407781469 0.47608243786178739 0 0.24141841662185301 0.45603819576859073 0 0.25047151807745072 0.47036873115219768 0 0.25477099823403621 0.45804476415031298 0 0.24141841662185301 0.45603819576859073 0 0.25282491994113748 0.44831200937164878 0 0.25477099823403621 0.45804476415031298 0 0.22996656543308741 0.44177288309861867 0 0.24141841662185301 0.45603819576859073 0 0.24583280085865111 0.44361242472787987 0 0.24946733303660301 0.43176723098649622 0 0.22996656543308741 0.44177288309861867 0 0.24583280085865111 0.44361242472787987 0 0.24141841662185301 0.45603819576859073 0 0.24583280085865111 0.44361242472787987 0 0.25282491994113748 0.44831200937164878 0 0.24904418528453851 0.48634810883828161 0 0.23645949407781469 0.47608243786178739 0 0.23352830384551029 0.49999999999999978 0 0.24904418528453851 0.48634810883828161 0 0.23352830384551029 0.49999999999999978 0 0.25181722630913472 0.5 0 0.24904418528453851 0.48634810883828161 0 0.23645949407781469 0.47608243786178739 0 0.25047151807745072 0.47036873115219768 0 0.23645949407781469 0.47608243786178739 0 0.221321310837439 0.47674074212904899 0 0.23352830384551029 0.49999999999999978 0 0.22854105436186559 0.46372788353366717 0 0.23645949407781469 0.47608243786178739 0 0.221321310837439 0.47674074212904899 0 0.23352830384551029 0.49999999999999978 0 0.2128199311732181 0.48895490313939532 0 0.21702906166474581 0.5 0 0.23352830384551029 0.49999999999999978 0 0.2128199311732181 0.48895490313939532 0 0.221321310837439 0.47674074212904899 0 0.23352830384551029 0.49999999999999978 0 0.2128199311732181 0.48895490313939532 0 0.2128199311732181 0.48895490313939532 0 0.21702906166474581 0.5 0 0.20052981948398141 0.49999999999999989 0 0.213169792932182 0.46047172596691099 0 0.221321310837439 0.47674074212904899 0 0.19211155850092579 0.47790980627879082 0 0.221321310837439 0.47674074212904899 0 0.2128199311732181 0.48895490313939532 0 0.19211155850092579 0.47790980627879082 0 0.2128199311732181 0.48895490313939532 0 0.19211155850092579 0.47790980627879082 0 0.2128199311732181 0.48895490313939532 0 0.20052981948398141 0.49999999999999989 0 0.19295831529489699 0.4905304616351287 0 0.2128199311732181 0.48895490313939532 0 0.19211155850092579 0.47790980627879082 0 0.19295831529489699 0.4905304616351287 0 0.20052981948398141 0.49999999999999989 0 0.1839227339461352 0.49861489743603538 0 0.20052981948398141 0.49999999999999989 0 0.19295831529489699 0.4905304616351287 0 0.1839227339461352 0.49861489743603538 0 0.19211155850092579 0.47790980627879082 0 0.19295831529489699 0.4905304616351287 0 0.1809625144841838 0.48570342190566712 0 0.1839227339461352 0.49861489743603538 0 0.1809625144841838 0.48570342190566712 0 0.16731564840828889 0.49722979487207219 0 0.1839227339461352 0.49861489743603538 0 0.16731564840828889 0.49722979487207219 0 0.1839227339461352 0.49861489743603538 0 0.1669427425872391 0.49999999999999922 0 0.16731564840828889 0.49722979487207219 0 0.19295831529489699 0.4905304616351287 0 0.1839227339461352 0.49861489743603538 0 0.1809625144841838 0.48570342190566712 0 0.1809625144841838 0.48570342190566712 0 0.16731564840828889 0.49722979487207219 0 0.16935941711846161 0.48204725214512889 0 0.16731564840828889 0.49722979487207219 0 0.157708884996551 0.48584061526662409 0 0.14611751268168829 0.49546177892012921 0 0.16731564840828889 0.49722979487207219 0 0.14611751268168829 0.49546177892012921 0 0.1669427425872391 0.49999999999999922 0 0.16731564840828889 0.49722979487207219 0 0.14611751268168829 0.49546177892012921 0 0.1669427425872391 0.49999999999999922 0 0.16731564840828889 0.49722979487207219 0 0.16731564840828889 0.49722979487207219 0 0.16935941711846161 0.48204725214512889 0 0.16731564840828889 0.49722979487207219 0 0.157708884996551 0.48584061526662409 0 0.16935941711846161 0.48204725214512889 0 0.16382575626869561 0.4735735187060508 0 0.15802571703479451 0.46684670821381258 0 0.1531189490294651 0.47544631339495541 0 0.157708884996551 0.48584061526662409 0 0.16382575626869561 0.4735735187060508 0 0.1531189490294651 0.47544631339495541 0 0.157708884996551 0.48584061526662409 0 0.16382575626869561 0.4735735187060508 0 0.16935941711846161 0.48204725214512889 0 0.16935941711846161 0.48204725214512889 0 0.17140318582863401 0.46686470941818559 0 0.16382575626869561 0.4735735187060508 0 0.16935941711846161 0.48204725214512889 0 0.17140318582863401 0.46686470941818559 0 0.1809625144841838 0.48570342190566712 0 0.16935941711846161 0.48204725214512889 0 0.17140318582863401 0.46686470941818559 0 0.19211155850092579 0.47790980627879082 0 0.1809625144841838 0.48570342190566712 0 0.17140318582863401 0.46686470941818559 0 0.19211155850092579 0.47790980627879082 0 0.17140318582863401 0.46686470941818559 0 0.19479511809318301 0.4526549487178691 0 0.18348770279874721 0.46143911161818069 0 0.17341546959919829 0.45191605883299152 0 0.19211155850092579 0.47790980627879082 0 0.18348770279874721 0.46143911161818069 0 0.17140318582863401 0.46686470941818559 0 0.18348770279874721 0.46143911161818069 0 0.17341546959919829 0.45191605883299152 0 0.17140318582863401 0.46686470941818559 0 0.17341546959919829 0.45191605883299152 0 0.17140318582863401 0.46686470941818559 0 0.19479511809318301 0.4526549487178691 0 0.1809560021812836 0.43814832633623357 0 0.17341546959919829 0.45191605883299152 0 0.1809560021812836 0.43814832633623357 0 0.17341546959919829 0.45191605883299152 0 0.16598328874466911 0.44273574664910909 0 0.17341546959919829 0.45191605883299152 0 0.16598328874466911 0.44273574664910909 0 0.15954778128093949 0.4508222386347599 0 0.16598328874466911 0.44273574664910909 0 0.15954778128093949 0.4508222386347599 0 0.1507341445198021 0.44370602134863157 0 0.16526304614212209 0.42908608809292892 0 0.16598328874466911 0.44273574664910909 0 0.1507341445198021 0.44370602134863157 0 0.16382575626869561 0.4735735187060508 0 0.1651762257979181 0.46354347419730452 0 0.17140318582863401 0.46686470941818559 0 0.1651762257979181 0.46354347419730452 0 0.17140318582863401 0.46686470941818559 0 0.17341546959919829 0.45191605883299152 0 0.1651762257979181 0.46354347419730452 0 0.17140318582863401 0.46686470941818559 0 0.17341546959919829 0.45191605883299152 0 0.15954778128093949 0.4508222386347599 0 0.1651762257979181 0.46354347419730452 0 0.15954778128093949 0.4508222386347599 0 0.1651762257979181 0.46354347419730452 0 0.1582471669695637 0.45974252444074731 0 0.16382575626869561 0.4735735187060508 0 0.1651762257979181 0.46354347419730452 0 0.15802571703479451 0.46684670821381258 0 0.1651762257979181 0.46354347419730452 0 0.1582471669695637 0.45974252444074731 0 0.15802571703479451 0.46684670821381258 0 0.14976048710833001 0.46192771033000529 0 0.1507341445198021 0.44370602134863157 0 0.136404492151351 0.45486193181106682 0 0.1582471669695637 0.45974252444074731 0 0.15802571703479451 0.46684670821381258 0 0.14976048710833001 0.46192771033000529 0 0.15802571703479451 0.46684670821381258 0 0.14976048710833001 0.46192771033000529 0 0.1531189490294651 0.47544631339495541 0 0.15954778128093949 0.4508222386347599 0 0.1582471669695637 0.45974252444074731 0 0.14976048710833001 0.46192771033000529 0 0.14976048710833001 0.46192771033000529 0 0.136404492151351 0.45486193181106682 0 0.13663143795624749 0.46910754811773492 0 0.15954778128093949 0.4508222386347599 0 0.14976048710833001 0.46192771033000529 0 0.1507341445198021 0.44370602134863157 0 0.1507341445198021 0.44370602134863157 0 0.13510526379757609 0.44116740875256688 0 0.136404492151351 0.45486193181106682 0 0.1221607865463437 0.4507156547582637 0 0.12259086230274099 0.42947812748907283 0 0.13510526379757609 0.44116740875256688 0 0.1221607865463437 0.4507156547582637 0 0.13510526379757609 0.44116740875256688 0 0.136404492151351 0.45486193181106682 0 0.136404492151351 0.45486193181106682 0 0.1267882431275838 0.46370707134437261 0 0.13663143795624749 0.46910754811773492 0 0.1221607865463437 0.4507156547582637 0 0.136404492151351 0.45486193181106682 0 0.1267882431275838 0.46370707134437261 0 0.1267882431275838 0.46370707134437261 0 0.12569724768963239 0.47617993877849962 0 0.13663143795624749 0.46910754811773492 0 0.12569724768963239 0.47617993877849962 0 0.13663143795624749 0.46910754811773492 0 0.1364132019148096 0.48384982340983701 0 0.13663143795624749 0.46910754811773492 0 0.1364132019148096 0.48384982340983701 0 0.14361111091913481 0.47574478002545789 0 0.1249193769550877 0.49369376296818718 0 0.1364132019148096 0.48384982340983701 0 0.14611751268168829 0.49546177892012921 0 0.1249193769550877 0.49369376296818718 0 0.14611751268168829 0.49546177892012921 0 0.1249193769550877 0.49369376296818718 0 0.12569724768963239 0.47617993877849962 0 0.1364132019148096 0.48384982340983701 0 0.1249193769550877 0.49369376296818718 0 0.13738437864054501 0.5 0 0.14611751268168829 0.49546177892012921 0 0.1364132019148096 0.48384982340983701 0 0.14611751268168829 0.49546177892012921 0 0.14718343377546941 0.48347361591025501 0 0.1669427425872391 0.49999999999999922 0 0.13738437864054501 0.5 0 0.14611751268168829 0.49546177892012921 0 0.157708884996551 0.48584061526662409 0 0.14611751268168829 0.49546177892012921 0 0.14718343377546941 0.48347361591025501 0 0.157708884996551 0.48584061526662409 0 0.1531189490294651 0.47544631339495541 0 0.14718343377546941 0.48347361591025501 0 0.14976048710833001 0.46192771033000529 0 0.1531189490294651 0.47544631339495541 0 0.14361111091913481 0.47574478002545789 0 0.14976048710833001 0.46192771033000529 0 0.13663143795624749 0.46910754811773492 0 0.14361111091913481 0.47574478002545789 0 0.1364132019148096 0.48384982340983701 0 0.14361111091913481 0.47574478002545789 0 0.14718343377546941 0.48347361591025501 0 0.1531189490294651 0.47544631339495541 0 0.14361111091913481 0.47574478002545789 0 0.14718343377546941 0.48347361591025501 0 0.35832214194920592 0.47929915408112939 0 0.34611268429232461 0.46591887339206078 0 0.3375369348076922 0.4829399206954248 0 0.35832214194920592 0.47929915408112939 0 0.35850557312216419 0.5 0 0.3375369348076922 0.4829399206954248 0 0.35850557312216419 0.5 0 0.37801407526051067 0.48065415083330842 0 0.38797204790529932 0.5 0 0.35832214194920592 0.47929915408112939 0 0.35850557312216419 0.5 0 0.37801407526051067 0.48065415083330842 0 0.35832214194920592 0.47929915408112939 0 0.36980735363827261 0.46050290225189661 0 0.37801407526051067 0.48065415083330842 0 0.36980735363827261 0.46050290225189661 0 0.34502769605759259 0.44546544446971242 0 0.36959298495063608 0.43610817863788948 0 0.35832214194920592 0.47929915408112939 0 0.36980735363827261 0.46050290225189661 0 0.34611268429232461 0.46591887339206078 0 0.36980735363827261 0.46050290225189661 0 0.34502769605759259 0.44546544446971242 0 0.34611268429232461 0.46591887339206078 0 0.36980735363827261 0.46050290225189661 0 0.34611268429232461 0.46591887339206078 0 0.34611268429232461 0.46591887339206078 0 0.3317687487832644 0.45597005559148451 0 0.32241801494637662 0.47133484453222518 0 0.34502769605759259 0.44546544446971242 0 0.34611268429232461 0.46591887339206078 0 0.3317687487832644 0.45597005559148451 0 0.34611268429232461 0.46591887339206078 0 0.32241801494637662 0.47133484453222518 0 0.34502769605759259 0.44546544446971242 0 0.3317687487832644 0.45597005559148451 0 0.32480939915707069 0.44218818576869201 0 0.34502769605759259 0.44546544446971242 0 0.32480939915707069 0.44218818576869201 0 0.33523501366627878 0.43221560569608392 0 0.3107318966111981 0.4514989769174147 0 0.3227404476219688 0.42624713816244092 0 0.3317687487832644 0.45597005559148451 0 0.32480939915707069 0.44218818576869201 0 0.3107318966111981 0.4514989769174147 0 0.32480939915707069 0.44218818576869201 0 0.3107318966111981 0.4514989769174147 0 0.3227404476219688 0.42624713816244092 0 0.3317687487832644 0.45597005559148451 0 0.32241801494637662 0.47133484453222518 0 0.3107318966111981 0.4514989769174147 0 0.32241801494637662 0.47133484453222518 0 0.3375369348076922 0.4829399206954248 0 0.31372501333874958 0.48784291822244708 0 0.34611268429232461 0.46591887339206078 0 0.32241801494637662 0.47133484453222518 0 0.3375369348076922 0.4829399206954248 0 0.35850557312216419 0.5 0 0.3375369348076922 0.4829399206954248 0 0.32903909833902928 0.5 0 0.32903909833902928 0.5 0 0.31372501333874958 0.48784291822244708 0 0.29957262355589431 0.5 0 0.3375369348076922 0.4829399206954248 0 0.32903909833902928 0.5 0 0.31372501333874958 0.48784291822244708 0 0.31372501333874958 0.48784291822244708 0 0.30130976803097798 0.48891801032572652 0 0.29957262355589431 0.5 0 0.31372501333874958 0.48784291822244708 0 0.30130976803097798 0.48891801032572652 0 0.29872334560042851 0.47675081567238892 0 0.30130976803097798 0.48891801032572652 0 0.29957262355589431 0.5 0 0.28978827390519868 0.49553967616935518 0 0.32241801494637662 0.47133484453222518 0 0.29872334560042851 0.47675081567238892 0 0.32241801494637662 0.47133484453222518 0 0.31372501333874958 0.48784291822244708 0 0.29872334560042851 0.47675081567238892 0 0.29872334560042851 0.47675081567238892 0 0.28397488520641462 0.48012192141307769 0 0.28978827390519868 0.49553967616935518 0 0.29872334560042851 0.47675081567238892 0 0.28929399795500932 0.47058792179259418 0 0.29703527816799058 0.46117092995693892 0 0.29872334560042851 0.47675081567238892 0 0.28929399795500932 0.47058792179259418 0 0.28397488520641462 0.48012192141307769 0 0.29872334560042851 0.47675081567238892 0 0.28397488520641462 0.48012192141307769 0 0.28929399795500932 0.47058792179259418 0 0.28397488520641462 0.48012192141307769 0 0.27920072977811172 0.47805830749059319 0 0.28397488520641462 0.48012192141307769 0 0.28978827390519868 0.49553967616935518 0 0.27010614877275918 0.50000000000000067 0 0.29957262355589431 0.5 0 0.28978827390519868 0.49553967616935518 0 0.27010614877275918 0.50000000000000067 0 0.30130976803097798 0.48891801032572652 0 0.29872334560042851 0.47675081567238892 0 0.28978827390519868 0.49553967616935518 0 0.29872334560042851 0.47675081567238892 0 0.28978827390519868 0.49553967616935518 0 0.28397488520641462 0.48012192141307769 0 0.27010614877275918 0.50000000000000067 0 0.27920072977811172 0.47805830749059319 0 0.27010614877275918 0.50000000000000067 0 0.26909437115437917 0.48384867389528768 0 0.26130641782501518 0.49139676135406141 0 0.27010614877275918 0.50000000000000067 0 0.27920072977811172 0.47805830749059319 0 0.26909437115437917 0.48384867389528768 0 0.27010614877275918 0.50000000000000067 0 0.27920072977811172 0.47805830749059319 0 0.27920072977811172 0.47805830749059319 0 0.27306774476234302 0.47644699960251641 0 0.26909437115437917 0.48384867389528768 0 0.27920072977811172 0.47805830749059319 0 0.27306774476234302 0.47644699960251641 0 0.27643472525740193 0.46726539210963169 0 0.26824582816420722 0.47348896141386071 0 0.27306774476234302 0.47644699960251641 0 0.27643472525740193 0.46726539210963169 0 0.26824582816420722 0.47348896141386071 0 0.26909437115437917 0.48384867389528768 0 0.25993240985832161 0.47939275616227872 0 0.26824582816420722 0.47348896141386071 0 0.27306774476234302 0.47644699960251641 0 0.26909437115437917 0.48384867389528768 0 0.24904418528453851 0.48634810883828161 0 0.25993240985832161 0.47939275616227872 0 0.25047151807745072 0.47036873115219768 0 0.26824582816420722 0.47348896141386071 0 0.25993240985832161 0.47939275616227872 0 0.26165523792153211 0.46576309323832682 0 0.25993240985832161 0.47939275616227872 0 0.25047151807745072 0.47036873115219768 0 0.26165523792153211 0.46576309323832682 0 0.27010614877275918 0.50000000000000067 0 0.25181722630913472 0.5 0 0.26130641782501518 0.49139676135406141 0 0.24904418528453851 0.48634810883828161 0 0.25993240985832161 0.47939275616227872 0 0.26130641782501518 0.49139676135406141 0 0.24904418528453851 0.48634810883828161 0 0.25181722630913472 0.5 0 0.26130641782501518 0.49139676135406141 0 0.26909437115437917 0.48384867389528768 0 0.25993240985832161 0.47939275616227872 0 0.26130641782501518 0.49139676135406141 0 0.26490489917960358 0.45079530358348557 0 0.25548676926057468 0.44017180441404491 0 0.26331147225899149 0.43380076267102891 0 0.24946733303660301 0.43176723098649622 0 0.24583280085865111 0.44361242472787987 0 0.25548676926057468 0.44017180441404491 0 0.24583280085865111 0.44361242472787987 0 0.25548676926057468 0.44017180441404491 0 0.25282491994113748 0.44831200937164878 0 0.26490489917960358 0.45079530358348557 0 0.25548676926057468 0.44017180441404491 0 0.25282491994113748 0.44831200937164878 0 0.26490489917960358 0.45079530358348557 0 0.25282491994113748 0.44831200937164878 0 0.25477099823403621 0.45804476415031298 0 0.25047151807745072 0.47036873115219768 0 0.25477099823403621 0.45804476415031298 0 0.26165523792153211 0.46576309323832682 0 0.26490489917960358 0.45079530358348557 0 0.25477099823403621 0.45804476415031298 0 0.26165523792153211 0.46576309323832682 0 0.26490489917960358 0.45079530358348557 0 0.27160577401557351 0.46248804296782559 0 0.27679169795675967 0.45600994403837303 0 0.26490489917960358 0.45079530358348557 0 0.26165523792153211 0.46576309323832682 0 0.27160577401557351 0.46248804296782559 0 0.26824582816420722 0.47348896141386071 0 0.27160577401557351 0.46248804296782559 0 0.27643472525740193 0.46726539210963169 0 0.26824582816420722 0.47348896141386071 0 0.26165523792153211 0.46576309323832682 0 0.27160577401557351 0.46248804296782559 0 0.27160577401557351 0.46248804296782559 0 0.27643472525740193 0.46726539210963169 0 0.27679169795675967 0.45600994403837303 0 0.27643472525740193 0.46726539210963169 0 0.27679169795675967 0.45600994403837303 0 0.28829531078346382 0.45611661498118572 0 0.27903440424894049 0.4453257315987294 0 0.26331147225899149 0.43380076267102891 0 0.26490489917960358 0.45079530358348557 0 0.27903440424894049 0.4453257315987294 0 0.26331147225899149 0.43380076267102891 0 0.26490489917960358 0.45079530358348557 0 0.27679169795675967 0.45600994403837303 0 0.27903440424894049 0.4453257315987294 0 0.27903440424894049 0.4453257315987294 0 0.2917470315179379 0.44281751567604499 0 0.28179675760275558 0.42932557237874241 0 0.27679169795675967 0.45600994403837303 0 0.27903440424894049 0.4453257315987294 0 0.28829531078346382 0.45611661498118572 0 0.27903440424894049 0.4453257315987294 0 0.2917470315179379 0.44281751567604499 0 0.28829531078346382 0.45611661498118572 0 0.2917470315179379 0.44281751567604499 0 0.28829531078346382 0.45611661498118572 0 0.29813183988985342 0.45090032042111128 0 0.27920072977811172 0.47805830749059319 0 0.27643472525740193 0.46726539210963169 0 0.28829531078346382 0.45611661498118572 0 0.28929399795500932 0.47058792179259418 0 0.27920072977811172 0.47805830749059319 0 0.28829531078346382 0.45611661498118572 0 0.27920072977811172 0.47805830749059319 0 0.28829531078346382 0.45611661498118572 0 0.28829531078346382 0.45611661498118572 0 0.29703527816799058 0.46117092995693892 0 0.29813183988985342 0.45090032042111128 0 0.28929399795500932 0.47058792179259418 0 0.28829531078346382 0.45611661498118572 0 0.29703527816799058 0.46117092995693892 0 0.29872334560042851 0.47675081567238892 0 0.29703527816799058 0.46117092995693892 0 0.3107318966111981 0.4514989769174147 0 0.29872334560042851 0.47675081567238892 0 0.3107318966111981 0.4514989769174147 0 0.32241801494637662 0.47133484453222518 0 0.29872334560042851 0.47675081567238892 0 0.3107318966111981 0.4514989769174147 0 0.29703527816799058 0.46117092995693892 0 0.29813183988985342 0.45090032042111128 0 0.3107318966111981 0.4514989769174147 0 0.30159082278473881 0.44219288247638061 0 0.3107318966111981 0.4514989769174147 0 0.30884109342504262 0.43428586920116352 0 0.2917470315179379 0.44281751567604499 0 0.30159082278473881 0.44219288247638061 0 0.29850225247966211 0.43146173016616862 0 0.2917470315179379 0.44281751567604499 0 0.30159082278473881 0.44219288247638061 0 0.29813183988985342 0.45090032042111128 0 0.30159082278473881 0.44219288247638061 0 0.29813183988985342 0.45090032042111128 0 0.3107318966111981 0.4514989769174147 0 0.30884109342504262 0.43428586920116352 0 0.29850225247966211 0.43146173016616862 0 0.30862162828234507 0.42004495563460759 0 0.29850225247966211 0.43146173016616862 0 0.30862162828234507 0.42004495563460759 0 0.29547148538100448 0.41817397575591742 0 0.30159082278473881 0.44219288247638061 0 0.30884109342504262 0.43428586920116352 0 0.29850225247966211 0.43146173016616862 0 0.30862162828234507 0.42004495563460759 0 0.30304430461131138 0.40735012112542651 0 0.3196782615082488 0.40265332564926309 0 0.30862162828234507 0.42004495563460759 0 0.30304430461131138 0.40735012112542651 0 0.29547148538100448 0.41817397575591742 0 0.30304430461131138 0.40735012112542651 0 0.29062365375375682 0.40708788978866228 0 0.29547148538100448 0.41817397575591742 0 0.29062365375375682 0.40708788978866228 0 0.29547148538100448 0.41817397575591742 0 0.28288479604298378 0.41446876034122271 0 0.29547148538100448 0.41817397575591742 0 0.28288479604298378 0.41446876034122271 0 0.28179675760275558 0.42932557237874241 0 0.29062365375375682 0.40708788978866228 0 0.28288479604298378 0.41446876034122271 0 0.28001120465417539 0.40182109974822727 0 0.29850225247966211 0.43146173016616862 0 0.29547148538100448 0.41817397575591742 0 0.28179675760275558 0.42932557237874241 0 0.2917470315179379 0.44281751567604499 0 0.29850225247966211 0.43146173016616862 0 0.28179675760275558 0.42932557237874241 0 0.28179675760275558 0.42932557237874241 0 0.27042562322166658 0.41684269204638819 0 0.26331147225899149 0.43380076267102891 0 0.27903440424894049 0.4453257315987294 0 0.28179675760275558 0.42932557237874241 0 0.26331147225899149 0.43380076267102891 0 0.27042562322166658 0.41684269204638819 0 0.26380858941988822 0.4002294757553399 0 0.28001120465417539 0.40182109974822727 0 0.28288479604298378 0.41446876034122271 0 0.28179675760275558 0.42932557237874241 0 0.27042562322166658 0.41684269204638819 0 0.28288479604298378 0.41446876034122271 0 0.27042562322166658 0.41684269204638819 0 0.28001120465417539 0.40182109974822727 0 0.24649952449278431 0.42147754103885982 0 0.25492995388566009 0.41993008507457552 0 0.26380858941988822 0.4002294757553399 0 0.27042562322166658 0.41684269204638819 0 0.25492995388566009 0.41993008507457552 0 0.26380858941988822 0.4002294757553399 0 0.24649952449278431 0.42147754103885982 0 0.26380858941988822 0.4002294757553399 0 0.2429624777480478 0.39890547698508871 0 0.24649952449278431 0.42147754103885982 0 0.26380858941988822 0.4002294757553399 0 0.24946733303660301 0.43176723098649622 0 0.24649952449278431 0.42147754103885982 0 0.26331147225899149 0.43380076267102891 0 0.24649952449278431 0.42147754103885982 0 0.25492995388566009 0.41993008507457552 0 0.26331147225899149 0.43380076267102891 0 0.24649952449278431 0.42147754103885982 0 0.26331147225899149 0.43380076267102891 0 0.27042562322166658 0.41684269204638819 0 0.25492995388566009 0.41993008507457552 0 0.26331147225899149 0.43380076267102891 0 0.24946733303660301 0.43176723098649622 0 0.25548676926057468 0.44017180441404491 0 0.26331147225899149 0.43380076267102891 0 0.26350653962281989 0.38010735630523079 0 0.25341304662754638 0.38974012394171498 0 0.26380858941988822 0.4002294757553399 0 0.26350653962281989 0.38010735630523079 0 0.25383912625151372 0.37755129754335942 0 0.25710864090743918 0.37145542319719338 0 0.26350653962281989 0.38010735630523079 0 0.25383912625151372 0.37755129754335942 0 0.25341304662754638 0.38974012394171498 0 0.2429624777480478 0.39890547698508871 0 0.25341304662754638 0.38974012394171498 0 0.26380858941988822 0.4002294757553399 0 0.26380858941988822 0.4002294757553399 0 0.28001120465417539 0.40182109974822727 0 0.28036865154730628 0.37990086281960789 0 0.26350653962281989 0.38010735630523079 0 0.28036865154730628 0.37990086281960789 0 0.2641967246118288 0.36596915937278562 0 0.26380858941988822 0.4002294757553399 0 0.28036865154730628 0.37990086281960789 0 0.26350653962281989 0.38010735630523079 0 0.26380858941988822 0.4002294757553399 0 0.28036865154730628 0.37990086281960789 0 0.28036865154730628 0.37990086281960789 0 0.29170647807930872 0.39362549197251728 0 0.2987730087010142 0.37934426936791982 0 0.28036865154730628 0.37990086281960789 0 0.29170647807930872 0.39362549197251728 0 0.28001120465417539 0.40182109974822727 0 0.28036865154730628 0.37990086281960789 0 0.29170647807930872 0.39362549197251728 0 0.29062365375375682 0.40708788978866228 0 0.28001120465417539 0.40182109974822727 0 0.29170647807930872 0.39362549197251728 0 0.30304430461131138 0.40735012112542651 0 0.29062365375375682 0.40708788978866228 0 0.29170647807930872 0.39362549197251728 0 0.30304430461131138 0.40735012112542651 0 0.30637452063024528 0.39219955594670219 0 0.3196782615082488 0.40265332564926309 0 0.30304430461131138 0.40735012112542651 0 0.29170647807930872 0.39362549197251728 0 0.30304430461131138 0.40735012112542651 0 0.29170647807930872 0.39362549197251728 0 0.30637452063024528 0.39219955594670219 0 0.30637452063024528 0.39219955594670219 0 0.2987730087010142 0.37934426936791982 0 0.31661607539452802 0.37905951313608538 0 0.29170647807930872 0.39362549197251728 0 0.30637452063024528 0.39219955594670219 0 0.2987730087010142 0.37934426936791982 0 0.31661607539452802 0.37905951313608538 0 0.32905198958534931 0.38831461949406398 0 0.3196782615082488 0.40265332564926309 0 0.31661607539452802 0.37905951313608538 0 0.32905198958534931 0.38831461949406398 0 0.33389487655237682 0.3658352592629312 0 0.32905198958534931 0.38831461949406398 0 0.34270248502322931 0.38427053755298168 0 0.33389487655237682 0.3658352592629312 0 0.32905198958534931 0.38831461949406398 0 0.34270248502322931 0.38427053755298168 0 0.33272146632259869 0.40525883785771122 0 0.34270248502322931 0.38427053755298168 0 0.33272146632259869 0.40525883785771122 0 0.34270248502322931 0.38427053755298168 0 0.33272146632259869 0.40525883785771122 0 0.34670895149724801 0.40816004440777182 0 0.31661607539452802 0.37905951313608538 0 0.3196782615082488 0.40265332564926309 0 0.32905198958534931 0.38831461949406398 0 0.33272146632259869 0.40525883785771122 0 0.3196782615082488 0.40265332564926309 0 0.30637452063024528 0.39219955594670219 0 0.31661607539452802 0.37905951313608538 0 0.3196782615082488 0.40265332564926309 0 0.3196782615082488 0.40265332564926309 0 0.3227404476219688 0.42624713816244092 0 0.30862162828234507 0.42004495563460759 0 0.3196782615082488 0.40265332564926309 0 0.3227404476219688 0.42624713816244092 0 0.33272146632259869 0.40525883785771122 0 0.3196782615082488 0.40265332564926309 0 0.3227404476219688 0.42624713816244092 0 0.33272146632259869 0.40525883785771122 0 0.3227404476219688 0.42624713816244092 0 0.32480939915707069 0.44218818576869201 0 0.3227404476219688 0.42624713816244092 0 0.3107318966111981 0.4514989769174147 0 0.30884109342504262 0.43428586920116352 0 0.3227404476219688 0.42624713816244092 0 0.32480939915707069 0.44218818576869201 0 0.3227404476219688 0.42624713816244092 0 0.33523501366627878 0.43221560569608392 0 0.30884109342504262 0.43428586920116352 0 0.30862162828234507 0.42004495563460759 0 0.3227404476219688 0.42624713816244092 0 0.34502769605759259 0.44546544446971242 0 0.33523501366627878 0.43221560569608392 0 0.34795858503051302 0.425881111768525 0 0.3227404476219688 0.42624713816244092 0 0.33523501366627878 0.43221560569608392 0 0.33659904832278342 0.4201421825902541 0 0.33523501366627878 0.43221560569608392 0 0.33659904832278342 0.4201421825902541 0 0.34795858503051302 0.425881111768525 0 0.33272146632259869 0.40525883785771122 0 0.3227404476219688 0.42624713816244092 0 0.33659904832278342 0.4201421825902541 0 0.33272146632259869 0.40525883785771122 0 0.33659904832278342 0.4201421825902541 0 0.34670895149724801 0.40816004440777182 0 0.33659904832278342 0.4201421825902541 0 0.34670895149724801 0.40816004440777182 0 0.34795858503051302 0.425881111768525 0 0.34670895149724801 0.40816004440777182 0 0.34795858503051302 0.425881111768525 0 0.36336601300371613 0.41450991002864218 0 0.34670895149724801 0.40816004440777182 0 0.36336601300371613 0.41450991002864218 0 0.35690611128064731 0.3988976866485166 0 0.34502769605759259 0.44546544446971242 0 0.34795858503051302 0.425881111768525 0 0.36959298495063608 0.43610817863788948 0 0.34795858503051302 0.425881111768525 0 0.36959298495063608 0.43610817863788948 0 0.36336601300371613 0.41450991002864218 0 0.36959298495063608 0.43610817863788948 0 0.36336601300371613 0.41450991002864218 0 0.38530342098431941 0.41064856824057122 0 0.36336601300371613 0.41450991002864218 0 0.3736470799201031 0.39378130610698531 0 0.38530342098431941 0.41064856824057122 0 0.3736470799201031 0.39378130610698531 0 0.3601059063978746 0.38125551426405008 0 0.35690611128064731 0.3988976866485166 0 0.36336601300371613 0.41450991002864218 0 0.3736470799201031 0.39378130610698531 0 0.35690611128064731 0.3988976866485166 0 0.3736470799201031 0.39378130610698531 0 0.3601059063978746 0.38125551426405008 0 0.37414389550204002 0.36898578533419818 0 0.34270248502322931 0.38427053755298168 0 0.3601059063978746 0.38125551426405008 0 0.35690611128064731 0.3988976866485166 0 0.34270248502322931 0.38427053755298168 0 0.3601059063978746 0.38125551426405008 0 0.35268350372385993 0.36328223724825232 0 0.34270248502322931 0.38427053755298168 0 0.34670895149724801 0.40816004440777182 0 0.35690611128064731 0.3988976866485166 0 0.35268350372385993 0.36328223724825232 0 0.36266452242448938 0.34229393694352239 0 0.35030182712711511 0.35130594720886232 0 0.35268350372385993 0.36328223724825232 0 0.36266452242448938 0.34229393694352239 0 0.35030182712711511 0.35130594720886232 0 0.35146565257524442 0.34420791440797271 0 0.36266452242448938 0.34229393694352239 0 0.35030182712711511 0.35130594720886232 0 0.35146565257524442 0.34420791440797271 0 0.34269927497721508 0.34493512072036142 0 0.35030182712711511 0.35130594720886232 0 0.35268350372385993 0.36328223724825232 0 0.33389487655237682 0.3658352592629312 0 0.34270248502322931 0.38427053755298168 0 0.35268350372385993 0.36328223724825232 0 0.3601059063978746 0.38125551426405008 0 0.35268350372385993 0.36328223724825232 0 0.37414389550204002 0.36898578533419818 0 0.35268350372385993 0.36328223724825232 0 0.37414389550204002 0.36898578533419818 0 0.36300645299402812 0.35604351837507042 0 0.37414389550204002 0.36898578533419818 0 0.37228166628853332 0.35471301169251829 0 0.36300645299402812 0.35604351837507042 0 0.35268350372385993 0.36328223724825232 0 0.36300645299402812 0.35604351837507042 0 0.36266452242448938 0.34229393694352239 0 0.37228166628853332 0.35471301169251829 0 0.36300645299402812 0.35604351837507042 0 0.36840829020790361 0.34668560051738673 0 0.36300645299402812 0.35604351837507042 0 0.36840829020790361 0.34668560051738673 0 0.36266452242448938 0.34229393694352239 0 0.36840829020790361 0.34668560051738673 0 0.36266452242448938 0.34229393694352239 0 0.36587418437400321 0.34278907974668538 0 0.37228166628853332 0.35471301169251829 0 0.36840829020790361 0.34668560051738673 0 0.37486749369974542 0.34694596905823039 0 0.37486749369974542 0.34694596905823039 0 0.37256750073976291 0.34304532959464751 0 0.37670219357667811 0.34177383067972761 0 0.36840829020790361 0.34668560051738673 0 0.37486749369974542 0.34694596905823039 0 0.37256750073976291 0.34304532959464751 0 0.36124897776362869 0.33531944770056321 0 0.36266452242448938 0.34229393694352239 0 0.36411885078159001 0.32644375487552563 0 0.37256750073976291 0.34304532959464751 0 0.36916640720496519 0.34145859007673351 0 0.37369311900952262 0.33836265764115908 0 0.37256750073976291 0.34304532959464751 0 0.37369311900952262 0.33836265764115908 0 0.37670219357667811 0.34177383067972761 0 0.36266452242448938 0.34229393694352239 0 0.37014896644917339 0.316543878568457 0 0.36770298492566261 0.33637877995368609 0 0.36266452242448938 0.34229393694352239 0 0.37368960646642962 0.31911015363466272 0 0.36770298492566261 0.33637877995368609 0 0.36985494237623989 0.33311962493185521 0 0.37368960646642962 0.31911015363466272 0 0.36266452242448938 0.34229393694352239 0 0.37368960646642962 0.31911015363466272 0 0.36266452242448938 0.34229393694352239 0 0.37014896644917339 0.316543878568457 0 0.36411885078159001 0.32644375487552563 0 0.36840829020790361 0.34668560051738673 0 0.36916640720496519 0.34145859007673351 0 0.36587418437400321 0.34278907974668538 0 0.36840829020790361 0.34668560051738673 0 0.37256750073976291 0.34304532959464751 0 0.36916640720496519 0.34145859007673351 0 0.36916640720496519 0.34145859007673351 0 0.36587418437400321 0.34278907974668538 0 0.36708394454210669 0.33994961910346172 0 0.36916640720496519 0.34145859007673351 0 0.37010024416019238 0.33739894816112592 0 0.36708394454210669 0.33994961910346172 0 0.36916640720496519 0.34145859007673351 0 0.37010024416019238 0.33739894816112592 0 0.37369311900952262 0.33836265764115908 0 0.36770298492566261 0.33637877995368609 0 0.37010024416019238 0.33739894816112592 0 0.36708394454210669 0.33994961910346172 0 0.37010024416019238 0.33739894816112592 0 0.37369311900952262 0.33836265764115908 0 0.3722735272100694 0.33425106354392481 0 0.3722735272100694 0.33425106354392481 0 0.37245621682226088 0.32924087979990557 0 0.375263113682131 0.33313320718557798 0 0.37369311900952262 0.33836265764115908 0 0.3722735272100694 0.33425106354392481 0 0.375263113682131 0.33313320718557798 0 0.3722735272100694 0.33425106354392481 0 0.37245621682226088 0.32924087979990557 0 0.36985494237623989 0.33311962493185521 0 0.37245621682226088 0.32924087979990557 0 0.37577016905582622 0.32787937856968757 0 0.375263113682131 0.33313320718557798 0 0.37010024416019238 0.33739894816112592 0 0.3722735272100694 0.33425106354392481 0 0.36985494237623989 0.33311962493185521 0 0.36770298492566261 0.33637877995368609 0 0.37010024416019238 0.33739894816112592 0 0.36985494237623989 0.33311962493185521 0 0.36128237795215928 0.33126347269122047 0 0.36124897776362869 0.33531944770056321 0 0.36411885078159001 0.32644375487552563 0 0.36150631125237548 0.32912422255951068 0 0.36128237795215928 0.33126347269122047 0 0.36411885078159001 0.32644375487552563 0 0.36150631125237548 0.32912422255951068 0 0.35994194411877378 0.32646204206530971 0 0.35835984371964152 0.33045614064968309 0 0.36128237795215928 0.33126347269122047 0 0.35899626180536931 0.33430086833413269 0 0.35835984371964152 0.33045614064968309 0 0.36150631125237548 0.32912422255951068 0 0.36128237795215928 0.33126347269122047 0 0.35835984371964152 0.33045614064968309 0 0.36128237795215928 0.33126347269122047 0 0.36124897776362869 0.33531944770056321 0 0.35899626180536931 0.33430086833413269 0 0.36124897776362869 0.33531944770056321 0 0.36001134864139028 0.33778823672905661 0 0.35899626180536931 0.33430086833413269 0 0.36124897776362869 0.33531944770056321 0 0.36001134864139028 0.33778823672905661 0 0.36266452242448938 0.34229393694352239 0 0.36001134864139028 0.33778823672905661 0 0.36266452242448938 0.34229393694352239 0 0.3582225103283424 0.33883319475427592 0 0.36266452242448938 0.34229393694352239 0 0.36587418437400321 0.34278907974668538 0 0.36708394454210669 0.33994961910346172 0 0.36770298492566261 0.33637877995368609 0 0.36266452242448938 0.34229393694352239 0 0.36708394454210669 0.33994961910346172 0 0.36266452242448938 0.34229393694352239 0 0.37368960646642962 0.31911015363466272 0 0.37014896644917339 0.316543878568457 0 0.37014896644917339 0.316543878568457 0 0.36604953812300478 0.31497278055865852 0 0.36630954626425261 0.31087512405144152 0 0.37499251130121058 0.31593455150060828 0 0.37014896644917339 0.316543878568457 0 0.37695808612291098 0.31120865645681561 0 0.37499251130121058 0.31593455150060828 0 0.37368960646642962 0.31911015363466272 0 0.37014896644917339 0.316543878568457 0 0.37014896644917339 0.316543878568457 0 0.36646072203027302 0.32009490443849897 0 0.3659238024377004 0.31770243144255911 0 0.37014896644917339 0.316543878568457 0 0.3659238024377004 0.31770243144255911 0 0.36604953812300478 0.31497278055865852 0 0.37245621682226088 0.32924087979990557 0 0.36985494237623989 0.33311962493185521 0 0.37368960646642962 0.31911015363466272 0 0.37245621682226088 0.32924087979990557 0 0.37368960646642962 0.31911015363466272 0 0.37506056064123422 0.32471797871916308 0 0.37245621682226088 0.32924087979990557 0 0.37577016905582622 0.32787937856968757 0 0.37506056064123422 0.32471797871916308 0 0.37014896644917339 0.316543878568457 0 0.36411885078159001 0.32644375487552563 0 0.36646072203027302 0.32009490443849897 0 0.36411885078159001 0.32644375487552563 0 0.35994194411877378 0.32646204206530971 0 0.36132202517978662 0.32303080634539388 0 0.36150631125237548 0.32912422255951068 0 0.36411885078159001 0.32644375487552563 0 0.35994194411877378 0.32646204206530971 0 0.36132202517978662 0.32303080634539388 0 0.36348301458407639 0.32047903077872458 0 0.35962675317161102 0.31893041505789499 0 0.36411885078159001 0.32644375487552563 0 0.36132202517978662 0.32303080634539388 0 0.36348301458407639 0.32047903077872458 0 0.36411885078159001 0.32644375487552563 0 0.36348301458407639 0.32047903077872458 0 0.36646072203027302 0.32009490443849897 0 0.36348301458407639 0.32047903077872458 0 0.36646072203027302 0.32009490443849897 0 0.3659238024377004 0.31770243144255911 0 0.3659238024377004 0.31770243144255911 0 0.36344593390349789 0.31667187251247519 0 0.36604953812300478 0.31497278055865852 0 0.36348301458407639 0.32047903077872458 0 0.3659238024377004 0.31770243144255911 0 0.36344593390349789 0.31667187251247519 0 0.36348301458407639 0.32047903077872458 0 0.36344593390349789 0.31667187251247519 0 0.35962675317161102 0.31893041505789499 0 0.36344593390349789 0.31667187251247519 0 0.35962675317161102 0.31893041505789499 0 0.35878641637012221 0.31305233625990619 0 0.36344593390349789 0.31667187251247519 0 0.36331333565659901 0.31283202127524651 0 0.35878641637012221 0.31305233625990619 0 0.36331333565659901 0.31283202127524651 0 0.36604953812300478 0.31497278055865852 0 0.36630954626425261 0.31087512405144152 0 0.36344593390349789 0.31667187251247519 0 0.36331333565659901 0.31283202127524651 0 0.36604953812300478 0.31497278055865852 0 0.35878641637012221 0.31305233625990619 0 0.35512602374864599 0.31718053618965047 0 0.35090510471213721 0.31152713165908658 0 0.35512602374864599 0.31718053618965047 0 0.34983435518440159 0.31943204998396652 0 0.35090510471213721 0.31152713165908658 0 0.35962675317161102 0.31893041505789499 0 0.35878641637012221 0.31305233625990619 0 0.35512602374864599 0.31718053618965047 0 0.35962675317161102 0.31893041505789499 0 0.35512602374864599 0.31718053618965047 0 0.35673455485560862 0.32229528426682241 0 0.35512602374864599 0.31718053618965047 0 0.35673455485560862 0.32229528426682241 0 0.34983435518440159 0.31943204998396652 0 0.35673455485560862 0.32229528426682241 0 0.35060422568955008 0.32587015674736058 0 0.34983435518440159 0.31943204998396652 0 0.35994194411877378 0.32646204206530971 0 0.36132202517978662 0.32303080634539388 0 0.35673455485560862 0.32229528426682241 0 0.36132202517978662 0.32303080634539388 0 0.35962675317161102 0.31893041505789499 0 0.35673455485560862 0.32229528426682241 0 0.35994194411877378 0.32646204206530971 0 0.35673455485560862 0.32229528426682241 0 0.35627338036128769 0.32705738058013539 0 0.35994194411877378 0.32646204206530971 0 0.35627338036128769 0.32705738058013539 0 0.35835984371964152 0.33045614064968309 0 0.35627338036128769 0.32705738058013539 0 0.35060422568955008 0.32587015674736058 0 0.35398721241228231 0.33095327650953749 0 0.35673455485560862 0.32229528426682241 0 0.35627338036128769 0.32705738058013539 0 0.35060422568955008 0.32587015674736058 0 0.35060422568955008 0.32587015674736058 0 0.34514221143703899 0.32919058107390442 0 0.34284551192874652 0.32364904383841531 0 0.35060422568955008 0.32587015674736058 0 0.34983435518440159 0.31943204998396652 0 0.34284551192874652 0.32364904383841531 0 0.34983435518440159 0.31943204998396652 0 0.34480088275632298 0.31606258733578418 0 0.35090510471213721 0.31152713165908658 0 0.34983435518440159 0.31943204998396652 0 0.34480088275632298 0.31606258733578418 0 0.34284551192874652 0.32364904383841531 0 0.35146565257524442 0.34420791440797271 0 0.36266452242448938 0.34229393694352239 0 0.35562031764263757 0.34031424282986023 0 0.35302683950207769 0.33602013814058929 0 0.35562031764263757 0.34031424282986023 0 0.35672120529774148 0.33684362974708199 0 0.35202203774268331 0.33965573310897551 0 0.35302683950207769 0.33602013814058929 0 0.35562031764263757 0.34031424282986023 0 0.35146565257524442 0.34420791440797271 0 0.35202203774268331 0.33965573310897551 0 0.35562031764263757 0.34031424282986023 0 0.36266452242448938 0.34229393694352239 0 0.35562031764263757 0.34031424282986023 0 0.3582225103283424 0.33883319475427592 0 0.35562031764263757 0.34031424282986023 0 0.3582225103283424 0.33883319475427592 0 0.35672120529774148 0.33684362974708199 0 0.36001134864139028 0.33778823672905661 0 0.3582225103283424 0.33883319475427592 0 0.35672120529774148 0.33684362974708199 0 0.36001134864139028 0.33778823672905661 0 0.35672120529774148 0.33684362974708199 0 0.35899626180536931 0.33430086833413269 0 0.35899626180536931 0.33430086833413269 0 0.35641212776078268 0.33381706902087938 0 0.35835984371964152 0.33045614064968309 0 0.35672120529774148 0.33684362974708199 0 0.35899626180536931 0.33430086833413269 0 0.35641212776078268 0.33381706902087938 0 0.35627338036128769 0.32705738058013539 0 0.35835984371964152 0.33045614064968309 0 0.35398721241228231 0.33095327650953749 0 0.35641212776078268 0.33381706902087938 0 0.35835984371964152 0.33045614064968309 0 0.35398721241228231 0.33095327650953749 0 0.35302683950207769 0.33602013814058929 0 0.35641212776078268 0.33381706902087938 0 0.35398721241228231 0.33095327650953749 0 0.35302683950207769 0.33602013814058929 0 0.35398721241228231 0.33095327650953749 0 0.34924685744035389 0.33249877391857741 0 0.35302683950207769 0.33602013814058929 0 0.35672120529774148 0.33684362974708199 0 0.35641212776078268 0.33381706902087938 0 0.35302683950207769 0.33602013814058929 0 0.34924685744035389 0.33249877391857741 0 0.34788509595764172 0.33882226599831611 0 0.35060422568955008 0.32587015674736058 0 0.34924685744035389 0.33249877391857741 0 0.34514221143703899 0.32919058107390442 0 0.35060422568955008 0.32587015674736058 0 0.35398721241228231 0.33095327650953749 0 0.34924685744035389 0.33249877391857741 0 0.34924685744035389 0.33249877391857741 0 0.34514221143703899 0.32919058107390442 0 0.34474234507332802 0.33433591834825649 0 0.34924685744035389 0.33249877391857741 0 0.34474234507332802 0.33433591834825649 0 0.34788509595764172 0.33882226599831611 0 0.34474234507332802 0.33433591834825649 0 0.34788509595764172 0.33882226599831611 0 0.34057592936449049 0.33809639891542392 0 0.35146565257524442 0.34420791440797271 0 0.34788509595764172 0.33882226599831611 0 0.34269927497721508 0.34493512072036142 0 0.35202203774268331 0.33965573310897551 0 0.35302683950207769 0.33602013814058929 0 0.34788509595764172 0.33882226599831611 0 0.35146565257524442 0.34420791440797271 0 0.35202203774268331 0.33965573310897551 0 0.34788509595764172 0.33882226599831611 0 0.34057592936449049 0.33809639891542392 0 0.33318390910610529 0.34358855052096038 0 0.34269927497721508 0.34493512072036142 0 0.34788509595764172 0.33882226599831611 0 0.34057592936449049 0.33809639891542392 0 0.34269927497721508 0.34493512072036142 0 0.34474234507332802 0.33433591834825649 0 0.34057592936449049 0.33809639891542392 0 0.33946855119551672 0.33096103471374028 0 0.34514221143703899 0.32919058107390442 0 0.34474234507332802 0.33433591834825649 0 0.33946855119551672 0.33096103471374028 0 0.34057592936449049 0.33809639891542392 0 0.33946855119551672 0.33096103471374028 0 0.33283637980140879 0.33469331179832718 0 0.33946855119551672 0.33096103471374028 0 0.33283637980140879 0.33469331179832718 0 0.33464693517381472 0.32630086361949601 0 0.33283637980140879 0.33469331179832718 0 0.33464693517381472 0.32630086361949601 0 0.3250964778074269 0.32978689602061512 0 0.34057592936449049 0.33809639891542392 0 0.33283637980140879 0.33469331179832718 0 0.33318390910610529 0.34358855052096038 0 0.33283637980140879 0.33469331179832718 0 0.33318390910610529 0.34358855052096038 0 0.32611481079287369 0.33974729713420021 0 0.34480088275632298 0.31606258733578418 0 0.33769186663180051 0.31814262317354819 0 0.34192449374142192 0.30753297203612773 0 0.34480088275632298 0.31606258733578418 0 0.33769186663180051 0.31814262317354819 0 0.34284551192874652 0.32364904383841531 0 0.33946855119551672 0.33096103471374028 0 0.34284551192874652 0.32364904383841531 0 0.33464693517381472 0.32630086361949601 0 0.33769186663180051 0.31814262317354819 0 0.34284551192874652 0.32364904383841531 0 0.33464693517381472 0.32630086361949601 0 0.34514221143703899 0.32919058107390442 0 0.33946855119551672 0.33096103471374028 0 0.34284551192874652 0.32364904383841531 0 0.33769186663180051 0.31814262317354819 0 0.33464693517381472 0.32630086361949601 0 0.32994282367798861 0.32057227217232959 0 0.33464693517381472 0.32630086361949601 0 0.32994282367798861 0.32057227217232959 0 0.3250964778074269 0.32978689602061512 0 0.33769186663180051 0.31814262317354819 0 0.32994282367798861 0.32057227217232959 0 0.32867162081685902 0.31028670060733149 0 0.32176892132522322 0.32006025561378759 0 0.31440941436971798 0.31242774502049953 0 0.32867162081685902 0.31028670060733149 0 0.32994282367798861 0.32057227217232959 0 0.32176892132522322 0.32006025561378759 0 0.32867162081685902 0.31028670060733149 0 0.32176892132522322 0.32006025561378759 0 0.31484893044661 0.32778579360563193 0 0.3250964778074269 0.32978689602061512 0 0.32994282367798861 0.32057227217232959 0 0.32176892132522322 0.32006025561378759 0 0.3250964778074269 0.32978689602061512 0 0.32176892132522322 0.32006025561378759 0 0.31484893044661 0.32778579360563193 0 0.31440941436971798 0.31242774502049953 0 0.32611481079287369 0.33974729713420021 0 0.3250964778074269 0.32978689602061512 0 0.31767498628904178 0.33862919533695518 0 0.32611481079287369 0.33974729713420021 0 0.31767498628904178 0.33862919533695518 0 0.32336406622478242 0.34852958887145069 0 0.33283637980140879 0.33469331179832718 0 0.32611481079287369 0.33974729713420021 0 0.3250964778074269 0.32978689602061512 0 0.31484893044661 0.32778579360563193 0 0.31767498628904178 0.33862919533695518 0 0.30654896287530792 0.34033791233229299 0 0.31484893044661 0.32778579360563193 0 0.3250964778074269 0.32978689602061512 0 0.31767498628904178 0.33862919533695518 0 0.31767498628904178 0.33862919533695518 0 0.31315570067328902 0.3464643712977632 0 0.32336406622478242 0.34852958887145069 0 0.31315570067328902 0.3464643712977632 0 0.31355388928080707 0.35546570062290778 0 0.32336406622478242 0.34852958887145069 0 0.32336406622478242 0.34852958887145069 0 0.33442175170730049 0.35218858713626039 0 0.32437013183195901 0.3602157298059272 0 0.31355388928080707 0.35546570062290778 0 0.32336406622478242 0.34852958887145069 0 0.32437013183195901 0.3602157298059272 0 0.33318390910610529 0.34358855052096038 0 0.32611481079287369 0.33974729713420021 0 0.32336406622478242 0.34852958887145069 0 0.35030182712711511 0.35130594720886232 0 0.33442175170730049 0.35218858713626039 0 0.33389487655237682 0.3658352592629312 0 0.33318390910610529 0.34358855052096038 0 0.32336406622478242 0.34852958887145069 0 0.33442175170730049 0.35218858713626039 0 0.35030182712711511 0.35130594720886232 0 0.33442175170730049 0.35218858713626039 0 0.34269927497721508 0.34493512072036142 0 0.33318390910610529 0.34358855052096038 0 0.33442175170730049 0.35218858713626039 0 0.34269927497721508 0.34493512072036142 0 0.34270248502322931 0.38427053755298168 0 0.35268350372385993 0.36328223724825232 0 0.33389487655237682 0.3658352592629312 0 0.33442175170730049 0.35218858713626039 0 0.33389487655237682 0.3658352592629312 0 0.32437013183195901 0.3602157298059272 0 0.31661607539452802 0.37905951313608538 0 0.33389487655237682 0.3658352592629312 0 0.32437013183195901 0.3602157298059272 0 0.31661607539452802 0.37905951313608538 0 0.31355388928080707 0.35546570062290778 0 0.32437013183195901 0.3602157298059272 0 0.31661607539452802 0.37905951313608538 0 0.31355388928080707 0.35546570062290778 0 0.31661607539452802 0.37905951313608538 0 0.31355388928080707 0.35546570062290778 0 0.30541822204374358 0.36584678197342768 0 0.2987730087010142 0.37934426936791982 0 0.31661607539452802 0.37905951313608538 0 0.30541822204374358 0.36584678197342768 0 0.30541822204374358 0.36584678197342768 0 0.30393955747459928 0.35096595789874813 0 0.29215410451095353 0.36543341035917859 0 0.2987730087010142 0.37934426936791982 0 0.30541822204374358 0.36584678197342768 0 0.29215410451095353 0.36543341035917859 0 0.31315570067328902 0.3464643712977632 0 0.30393955747459928 0.35096595789874813 0 0.30654896287530792 0.34033791233229299 0 0.31315570067328902 0.3464643712977632 0 0.31355388928080707 0.35546570062290778 0 0.30393955747459928 0.35096595789874813 0 0.31355388928080707 0.35546570062290778 0 0.30541822204374358 0.36584678197342768 0 0.30393955747459928 0.35096595789874813 0 0.30393955747459928 0.35096595789874813 0 0.29215410451095353 0.36543341035917859 0 0.30393955747459928 0.35096595789874813 0 0.29720735802849829 0.34424744790442102 0 0.29027641861796738 0.35164951467646482 0 0.30393955747459928 0.35096595789874813 0 0.29720735802849829 0.34424744790442102 0 0.30654896287530792 0.34033791233229299 0 0.29720735802849829 0.34424744790442102 0 0.29027641861796738 0.35164951467646482 0 0.28998304713239348 0.34105976447064218 0 0.30393955747459928 0.35096595789874813 0 0.29027641861796738 0.35164951467646482 0 0.29215410451095353 0.36543341035917859 0 0.29027641861796738 0.35164951467646482 0 0.29215410451095353 0.36543341035917859 0 0.27920137084664282 0.3573603676334649 0 0.29027641861796738 0.35164951467646482 0 0.27920137084664282 0.3573603676334649 0 0.28068773357058369 0.34198453751068081 0 0.29027641861796738 0.35164951467646482 0 0.28068773357058369 0.34198453751068081 0 0.28998304713239348 0.34105976447064218 0 0.28036865154730628 0.37990086281960789 0 0.29215410451095353 0.36543341035917859 0 0.27920137084664282 0.3573603676334649 0 0.28036865154730628 0.37990086281960789 0 0.2987730087010142 0.37934426936791982 0 0.29215410451095353 0.36543341035917859 0 0.28036865154730628 0.37990086281960789 0 0.29215410451095353 0.36543341035917859 0 0.28036865154730628 0.37990086281960789 0 0.27920137084664282 0.3573603676334649 0 0.26173146881309822 0.35734024057335978 0 0.28036865154730628 0.37990086281960789 0 0.26173146881309822 0.35734024057335978 0 0.28036865154730628 0.37990086281960789 0 0.26173146881309822 0.35734024057335978 0 0.2641967246118288 0.36596915937278562 0 0.27920137084664282 0.3573603676334649 0 0.27030047393074008 0.3474963096498429 0 0.26173146881309822 0.35734024057335978 0 0.27920137084664282 0.3573603676334649 0 0.27030047393074008 0.3474963096498429 0 0.28068773357058369 0.34198453751068081 0 0.2430942860788903 0.33477961832711151 0 0.26173146881309822 0.35734024057335978 0 0.27030047393074008 0.3474963096498429 0 0.26173146881309822 0.35734024057335978 0 0.26240083601839698 0.33727672217147331 0 0.23816107804029091 0.35120524212074949 0 0.26173146881309822 0.35734024057335978 0 0.2641967246118288 0.36596915937278562 0 0.23816107804029091 0.35120524212074949 0 0.2641967246118288 0.36596915937278562 0 0.2492643002430574 0.365916522193315 0 0.24311907173897271 0.36013203008567057 0 0.2641967246118288 0.36596915937278562 0 0.2492643002430574 0.365916522193315 0 0.25710864090743918 0.37145542319719338 0 0.2641967246118288 0.36596915937278562 0 0.2492643002430574 0.365916522193315 0 0.25383912625151372 0.37755129754335942 0 0.25710864090743918 0.37145542319719338 0 0.26350653962281989 0.38010735630523079 0 0.25710864090743918 0.37145542319719338 0 0.2641967246118288 0.36596915937278562 0 0.2484846271056145 0.31037308609574782 0 0.25508783524565293 0.32209220201309929 0 0.26836904206483531 0.31075971332937607 0 0.25508783524565293 0.32209220201309929 0 0.26240083601839698 0.33727672217147331 0 0.26677092012209491 0.32204036282613252 0 0.25508783524565293 0.32209220201309929 0 0.26677092012209491 0.32204036282613252 0 0.26836904206483531 0.31075971332937607 0 0.2430942860788903 0.33477961832711151 0 0.25508783524565293 0.32209220201309929 0 0.26240083601839698 0.33727672217147331 0 0.2430942860788903 0.33477961832711151 0 0.26173146881309822 0.35734024057335978 0 0.26240083601839698 0.33727672217147331 0 0.26240083601839698 0.33727672217147331 0 0.27184092000699639 0.33891315949469752 0 0.27388917516664008 0.32964775149744319 0 0.26240083601839698 0.33727672217147331 0 0.27388917516664008 0.32964775149744319 0 0.26677092012209491 0.32204036282613252 0 0.27030047393074008 0.3474963096498429 0 0.26240083601839698 0.33727672217147331 0 0.27184092000699639 0.33891315949469752 0 0.27030047393074008 0.3474963096498429 0 0.27184092000699639 0.33891315949469752 0 0.28068773357058369 0.34198453751068081 0 0.27184092000699639 0.33891315949469752 0 0.28068773357058369 0.34198453751068081 0 0.27388917516664008 0.32964775149744319 0 0.28068773357058369 0.34198453751068081 0 0.27388917516664008 0.32964775149744319 0 0.28570907475377572 0.33188311037056872 0 0.27388917516664008 0.32964775149744319 0 0.26677092012209491 0.32204036282613252 0 0.28178409254690689 0.31684790712797722 0 0.27388917516664008 0.32964775149744319 0 0.28178409254690689 0.31684790712797722 0 0.28570907475377572 0.33188311037056872 0 0.26677092012209491 0.32204036282613252 0 0.28178409254690689 0.31684790712797722 0 0.26836904206483531 0.31075971332937607 0 0.28178409254690689 0.31684790712797722 0 0.29262159606390598 0.32453461147271162 0 0.29660332646403359 0.30785121346786842 0 0.28178409254690689 0.31684790712797722 0 0.29262159606390598 0.32453461147271162 0 0.28570907475377572 0.33188311037056872 0 0.28068773357058369 0.34198453751068081 0 0.28570907475377572 0.33188311037056872 0 0.28998304713239348 0.34105976447064218 0 0.29262159606390598 0.32453461147271162 0 0.28570907475377572 0.33188311037056872 0 0.29603465069114282 0.33553421189107618 0 0.29720735802849829 0.34424744790442102 0 0.29603465069114282 0.33553421189107618 0 0.28998304713239348 0.34105976447064218 0 0.28570907475377572 0.33188311037056872 0 0.29603465069114282 0.33553421189107618 0 0.28998304713239348 0.34105976447064218 0 0.29720735802849829 0.34424744790442102 0 0.29603465069114282 0.33553421189107618 0 0.30654896287530792 0.34033791233229299 0 0.29603465069114282 0.33553421189107618 0 0.30654896287530792 0.34033791233229299 0 0.30445412428221041 0.32558903425911379 0 0.29262159606390598 0.32453461147271162 0 0.29603465069114282 0.33553421189107618 0 0.30445412428221041 0.32558903425911379 0 0.31484893044661 0.32778579360563193 0 0.30654896287530792 0.34033791233229299 0 0.30445412428221041 0.32558903425911379 0 0.31767498628904178 0.33862919533695518 0 0.31315570067328902 0.3464643712977632 0 0.30654896287530792 0.34033791233229299 0 0.30445412428221041 0.32558903425911379 0 0.29660332646403359 0.30785121346786842 0 0.31440941436971798 0.31242774502049953 0 0.29262159606390598 0.32453461147271162 0 0.30445412428221041 0.32558903425911379 0 0.29660332646403359 0.30785121346786842 0 0.31484893044661 0.32778579360563193 0 0.30445412428221041 0.32558903425911379 0 0.31440941436971798 0.31242774502049953 0 0.30822946874662033 0.29998271616579031 0 0.29660332646403359 0.30785121346786842 0 0.31440941436971798 0.31242774502049953 0 0.30822946874662033 0.29998271616579031 0 0.30055108247350393 0.28416894361273021 0 0.29660332646403359 0.30785121346786842 0 0.30822946874662033 0.29998271616579031 0 0.30055108247350393 0.28416894361273021 0 0.32109763140443309 0.29547610107375327 0 0.30055108247350393 0.28416894361273021 0 0.29660332646403359 0.30785121346786842 0 0.27430616976337108 0.29100628718303567 0 0.30055108247350393 0.28416894361273021 0 0.27430616976337108 0.29100628718303567 0 0.28443506245096839 0.27205148705280008 0 0.30055108247350393 0.28416894361273021 0 0.27430616976337108 0.29100628718303567 0 0.28178409254690689 0.31684790712797722 0 0.29660332646403359 0.30785121346786842 0 0.27430616976337108 0.29100628718303567 0 0.28178409254690689 0.31684790712797722 0 0.26836904206483531 0.31075971332937607 0 0.27430616976337108 0.29100628718303567 0 0.28178409254690689 0.31684790712797722 0 0.27430616976337108 0.29100628718303567 0 0.27430616976337108 0.29100628718303567 0 0.25121587924780342 0.29702178630611242 0 0.27430616976337108 0.29100628718303567 0 0.25953152444998728 0.28294166139542631 0 0.25121587924780342 0.29702178630611242 0 0.26836904206483531 0.31075971332937607 0 0.27430616976337108 0.29100628718303567 0 0.25121587924780342 0.29702178630611242 0 0.26836904206483531 0.31075971332937607 0 0.25121587924780342 0.29702178630611242 0 0.2484846271056145 0.31037308609574782 0 0.26836904206483531 0.31075971332937607 0 0.25121587924780342 0.29702178630611242 0 0.25102838231212438 0.26850893423506528 0 0.26790857605335527 0.26889798384773289 0 0.26221447651104962 0.2479993693513689 0 0.26790857605335527 0.26889798384773289 0 0.26221447651104962 0.2479993693513689 0 0.25953152444998728 0.28294166139542631 0 0.25102838231212438 0.26850893423506528 0 0.26790857605335527 0.26889798384773289 0 0.27430616976337108 0.29100628718303567 0 0.26790857605335527 0.26889798384773289 0 0.28443506245096839 0.27205148705280008 0 0.27430616976337108 0.29100628718303567 0 0.25953152444998728 0.28294166139542631 0 0.26790857605335527 0.26889798384773289 0 0.27430616976337108 0.29100628718303567 0 0.26790857605335527 0.26889798384773289 0 0.26790857605335527 0.26889798384773289 0 0.28119448123381058 0.25405304303149878 0 0.26221447651104962 0.2479993693513689 0 0.26790857605335527 0.26889798384773289 0 0.28119448123381058 0.25405304303149878 0 0.28443506245096839 0.27205148705280008 0 0.28119448123381058 0.25405304303149878 0 0.28443506245096839 0.27205148705280008 0 0.2982150027308012 0.26213117758900317 0 0.28119448123381058 0.25405304303149878 0 0.2982150027308012 0.26213117758900317 0 0.30328699804120918 0.24394477185791469 0 0.30055108247350393 0.28416894361273021 0 0.28443506245096839 0.27205148705280008 0 0.2982150027308012 0.26213117758900317 0 0.30055108247350393 0.28416894361273021 0 0.2982150027308012 0.26213117758900317 0 0.31879452400631653 0.25919465198291952 0 0.2982150027308012 0.26213117758900317 0 0.31879452400631653 0.25919465198291952 0 0.30328699804120918 0.24394477185791469 0 0.31879452400631653 0.25919465198291952 0 0.33092809789354199 0.24744869965648561 0 0.31845456220733243 0.24449663650262579 0 0.31879452400631653 0.25919465198291952 0 0.33565265393095528 0.25675142138279861 0 0.33982225619875311 0.26765994074234428 0 0.31879452400631653 0.25919465198291952 0 0.33982225619875311 0.26765994074234428 0 0.31879452400631653 0.25919465198291952 0 0.33565265393095528 0.25675142138279861 0 0.33092809789354199 0.24744869965648561 0 0.33565265393095528 0.25675142138279861 0 0.33982225619875311 0.26765994074234428 0 0.34536281311255052 0.25941060478944128 0 0.33565265393095528 0.25675142138279861 0 0.3433555784436142 0.25004320974280247 0 0.33092809789354199 0.24744869965648561 0 0.33565265393095528 0.25675142138279861 0 0.3433555784436142 0.25004320974280247 0 0.34536281311255052 0.25941060478944128 0 0.31879452400631653 0.25919465198291952 0 0.33982225619875311 0.26765994074234428 0 0.32679599518363661 0.27733160004242491 0 0.33982225619875311 0.26765994074234428 0 0.32679599518363661 0.27733160004242491 0 0.34056182851336592 0.28206143899133118 0 0.30055108247350393 0.28416894361273021 0 0.32679599518363661 0.27733160004242491 0 0.30055108247350393 0.28416894361273021 0 0.31879452400631653 0.25919465198291952 0 0.32679599518363661 0.27733160004242491 0 0.32679599518363661 0.27733160004242491 0 0.32109763140443309 0.29547610107375327 0 0.33248404658197278 0.28876668272462419 0 0.30055108247350393 0.28416894361273021 0 0.32679599518363661 0.27733160004242491 0 0.32109763140443309 0.29547610107375327 0 0.32109763140443309 0.29547610107375327 0 0.31440941436971798 0.31242774502049953 0 0.32867162081685902 0.31028670060733149 0 0.30822946874662033 0.29998271616579031 0 0.32109763140443309 0.29547610107375327 0 0.31440941436971798 0.31242774502049953 0 0.32867162081685902 0.31028670060733149 0 0.33472549883669622 0.29791121211074773 0 0.34192449374142192 0.30753297203612773 0 0.32109763140443309 0.29547610107375327 0 0.32867162081685902 0.31028670060733149 0 0.33472549883669622 0.29791121211074773 0 0.33472549883669622 0.29791121211074773 0 0.34281583705185747 0.29966479619329672 0 0.34192449374142192 0.30753297203612773 0 0.33769186663180051 0.31814262317354819 0 0.32867162081685902 0.31028670060733149 0 0.34192449374142192 0.30753297203612773 0 0.32679599518363661 0.27733160004242491 0 0.33248404658197278 0.28876668272462419 0 0.34056182851336592 0.28206143899133118 0 0.32109763140443309 0.29547610107375327 0 0.33472549883669622 0.29791121211074773 0 0.33248404658197278 0.28876668272462419 0 0.33472549883669622 0.29791121211074773 0 0.33248404658197278 0.28876668272462419 0 0.34417327957572558 0.29277050597204329 0 0.33472549883669622 0.29791121211074773 0 0.34281583705185747 0.29966479619329672 0 0.34417327957572558 0.29277050597204329 0 0.33248404658197278 0.28876668272462419 0 0.34056182851336592 0.28206143899133118 0 0.34417327957572558 0.29277050597204329 0 0.34056182851336592 0.28206143899133118 0 0.34979868535227071 0.28728326233729501 0 0.34417327957572558 0.29277050597204329 0 0.34056182851336592 0.28206143899133118 0 0.34979868535227071 0.28728326233729501 0 0.35183199075491411 0.27966461044832719 0 0.34417327957572558 0.29277050597204329 0 0.35334053836337709 0.29410458558147129 0 0.34972900846361488 0.30172704795696642 0 0.34979868535227071 0.28728326233729501 0 0.34417327957572558 0.29277050597204329 0 0.35334053836337709 0.29410458558147129 0 0.34979868535227071 0.28728326233729501 0 0.35334053836337709 0.29410458558147129 0 0.35722235408413222 0.28831366276426512 0 0.35334053836337709 0.29410458558147129 0 0.35826071325737319 0.3003277240158499 0 0.36091512844171192 0.29433704443458902 0 0.35334053836337709 0.29410458558147129 0 0.35722235408413222 0.28831366276426512 0 0.36091512844171192 0.29433704443458902 0 0.34979868535227071 0.28728326233729501 0 0.35722235408413222 0.28831366276426512 0 0.35183199075491411 0.27966461044832719 0 0.35722235408413222 0.28831366276426512 0 0.36152496379752869 0.28359539021876212 0 0.35183199075491411 0.27966461044832719 0 0.34480088275632298 0.31606258733578418 0 0.34192449374142192 0.30753297203612773 0 0.35090510471213721 0.31152713165908658 0 0.34192449374142192 0.30753297203612773 0 0.35090510471213721 0.31152713165908658 0 0.34972900846361488 0.30172704795696642 0 0.34281583705185747 0.29966479619329672 0 0.34417327957572558 0.29277050597204329 0 0.34972900846361488 0.30172704795696642 0 0.34281583705185747 0.29966479619329672 0 0.34192449374142192 0.30753297203612773 0 0.34972900846361488 0.30172704795696642 0 0.34972900846361488 0.30172704795696642 0 0.35826071325737319 0.3003277240158499 0 0.35721607615581658 0.30656573559573969 0 0.35334053836337709 0.29410458558147129 0 0.34972900846361488 0.30172704795696642 0 0.35826071325737319 0.3003277240158499 0 0.35090510471213721 0.31152713165908658 0 0.34972900846361488 0.30172704795696642 0 0.35721607615581658 0.30656573559573969 0 0.35878641637012221 0.31305233625990619 0 0.35090510471213721 0.31152713165908658 0 0.35721607615581658 0.30656573559573969 0 0.37014896644917339 0.316543878568457 0 0.37763341047385651 0.29079382019339128 0 0.37014896644917339 0.316543878568457 0 0.37108481648816682 0.30013899891886681 0 0.36845835323010317 0.30596496181531441 0 0.37014896644917339 0.316543878568457 0 0.37763341047385651 0.29079382019339128 0 0.37695808612291098 0.31120865645681561 0 0.37014896644917339 0.316543878568457 0 0.37108481648816682 0.30013899891886681 0 0.37763341047385651 0.29079382019339128 0 0.36630954626425261 0.31087512405144152 0 0.36228941999803421 0.30896529616435242 0 0.36543096483439103 0.3064802843427199 0 0.36331333565659901 0.31283202127524651 0 0.36630954626425261 0.31087512405144152 0 0.36228941999803421 0.30896529616435242 0 0.36331333565659901 0.31283202127524651 0 0.35878641637012221 0.31305233625990619 0 0.36228941999803421 0.30896529616435242 0 0.35878641637012221 0.31305233625990619 0 0.35721607615581658 0.30656573559573969 0 0.36228941999803421 0.30896529616435242 0 0.35721607615581658 0.30656573559573969 0 0.36228941999803421 0.30896529616435242 0 0.36268018070702418 0.30398627546106088 0 0.36630954626425261 0.31087512405144152 0 0.36543096483439103 0.3064802843427199 0 0.36845835323010317 0.30596496181531441 0 0.36228941999803421 0.30896529616435242 0 0.36543096483439103 0.3064802843427199 0 0.36268018070702418 0.30398627546106088 0 0.36543096483439103 0.3064802843427199 0 0.36607900901995372 0.30349396637540749 0 0.36845835323010317 0.30596496181531441 0 0.36607900901995372 0.30349396637540749 0 0.36268018070702418 0.30398627546106088 0 0.36558719123160882 0.29969948119116269 0 0.36607900901995372 0.30349396637540749 0 0.36558719123160882 0.29969948119116269 0 0.36823835509664099 0.30133882906677939 0 0.36543096483439103 0.3064802843427199 0 0.36607900901995372 0.30349396637540749 0 0.36268018070702418 0.30398627546106088 0 0.35826071325737319 0.3003277240158499 0 0.35721607615581658 0.30656573559573969 0 0.36268018070702418 0.30398627546106088 0 0.35826071325737319 0.3003277240158499 0 0.36268018070702418 0.30398627546106088 0 0.36558719123160882 0.29969948119116269 0 0.35826071325737319 0.3003277240158499 0 0.36558719123160882 0.29969948119116269 0 0.36091512844171192 0.29433704443458902 0 0.36871223371641282 0.29817542324200702 0 0.37108481648816682 0.30013899891886681 0 0.37014933742706652 0.29575476169949788 0 0.36558719123160882 0.29969948119116269 0 0.36871223371641282 0.29817542324200702 0 0.36734652779664789 0.29411680932906442 0 0.36558719123160882 0.29969948119116269 0 0.36871223371641282 0.29817542324200702 0 0.36823835509664099 0.30133882906677939 0 0.36871223371641282 0.29817542324200702 0 0.37108481648816682 0.30013899891886681 0 0.36823835509664099 0.30133882906677939 0 0.37108481648816682 0.30013899891886681 0 0.36823835509664099 0.30133882906677939 0 0.36845835323010317 0.30596496181531441 0 0.36607900901995372 0.30349396637540749 0 0.36823835509664099 0.30133882906677939 0 0.36845835323010317 0.30596496181531441 0 0.37014896644917339 0.316543878568457 0 0.36630954626425261 0.31087512405144152 0 0.36845835323010317 0.30596496181531441 0 0.36812955944888692 0.28419813691800921 0 0.36084998839118931 0.2761252295017701 0 0.37969218042614078 0.28371066929036243 0 0.36152496379752869 0.28359539021876212 0 0.36812955944888692 0.28419813691800921 0 0.36084998839118931 0.2761252295017701 0 0.36414496955441777 0.28941104037434479 0 0.36911771796651938 0.28986917351547109 0 0.36812955944888692 0.28419813691800921 0 0.36152496379752869 0.28359539021876212 0 0.36414496955441777 0.28941104037434479 0 0.36812955944888692 0.28419813691800921 0 0.35722235408413222 0.28831366276426512 0 0.36152496379752869 0.28359539021876212 0 0.36414496955441777 0.28941104037434479 0 0.35722235408413222 0.28831366276426512 0 0.36091512844171192 0.29433704443458902 0 0.36414496955441777 0.28941104037434479 0 0.36558719123160882 0.29969948119116269 0 0.36091512844171192 0.29433704443458902 0 0.36734652779664789 0.29411680932906442 0 0.36091512844171192 0.29433704443458902 0 0.36414496955441777 0.28941104037434479 0 0.36734652779664789 0.29411680932906442 0 0.36414496955441777 0.28941104037434479 0 0.36911771796651938 0.28986917351547109 0 0.36734652779664789 0.29411680932906442 0 0.36911771796651938 0.28986917351547109 0 0.37026464520563152 0.29279186409727531 0 0.36734652779664789 0.29411680932906442 0 0.37108481648816682 0.30013899891886681 0 0.37306860395079622 0.29341917559567809 0 0.37763341047385651 0.29079382019339128 0 0.36911771796651938 0.28986917351547109 0 0.37026464520563152 0.29279186409727531 0 0.37237913536365119 0.29056320862162688 0 0.36871223371641282 0.29817542324200702 0 0.36734652779664789 0.29411680932906442 0 0.37014933742706652 0.29575476169949788 0 0.37026464520563152 0.29279186409727531 0 0.36734652779664789 0.29411680932906442 0 0.37014933742706652 0.29575476169949788 0 0.37108481648816682 0.30013899891886681 0 0.37014933742706652 0.29575476169949788 0 0.37306860395079622 0.29341917559567809 0 0.37026464520563152 0.29279186409727531 0 0.37014933742706652 0.29575476169949788 0 0.37306860395079622 0.29341917559567809 0 0.36911771796651938 0.28986917351547109 0 0.37237913536365119 0.29056320862162688 0 0.37333201972158658 0.2878654242033048 0 0.37306860395079622 0.29341917559567809 0 0.37237913536365119 0.29056320862162688 0 0.37763341047385651 0.29079382019339128 0 0.37237913536365119 0.29056320862162688 0 0.37333201972158658 0.2878654242033048 0 0.37763341047385651 0.29079382019339128 0 0.37026464520563152 0.29279186409727531 0 0.37306860395079622 0.29341917559567809 0 0.37237913536365119 0.29056320862162688 0 0.37333201972158658 0.2878654242033048 0 0.36812955944888692 0.28419813691800921 0 0.37969218042614078 0.28371066929036243 0 0.36911771796651938 0.28986917351547109 0 0.37333201972158658 0.2878654242033048 0 0.36812955944888692 0.28419813691800921 0 0.36084998839118931 0.2761252295017701 0 0.37969218042614078 0.28371066929036243 0 0.36084998839118931 0.2761252295017701 0 0.37017340450925651 0.266060206293324 0 0.3539366042426153 0.26554047293381039 0 0.36084998839118931 0.2761252295017701 0 0.38460708535355081 0.26680105137204091 0 0.36084998839118931 0.2761252295017701 0 0.37017340450925651 0.266060206293324 0 0.38460708535355081 0.26680105137204091 0 0.3539366042426153 0.26554047293381039 0 0.38129994004966872 0.25577407136566988 0 0.37169426656027921 0.24972740256563611 0 0.37017340450925651 0.266060206293324 0 0.3539366042426153 0.26554047293381039 0 0.38129994004966872 0.25577407136566988 0 0.3539366042426153 0.26554047293381039 0 0.37169426656027921 0.24972740256563611 0 0.36205361842742478 0.24882498742118489 0 0.3539366042426153 0.26554047293381039 0 0.38129994004966872 0.25577407136566988 0 0.3539366042426153 0.26554047293381039 0 0.35175757775775729 0.2532797976346674 0 0.36205361842742478 0.24882498742118489 0 0.3433555784436142 0.25004320974280247 0 0.35175757775775729 0.2532797976346674 0 0.34536281311255052 0.25941060478944128 0 0.33982225619875311 0.26765994074234428 0 0.3539366042426153 0.26554047293381039 0 0.34536281311255052 0.25941060478944128 0 0.3539366042426153 0.26554047293381039 0 0.35175757775775729 0.2532797976346674 0 0.34536281311255052 0.25941060478944128 0 0.33982225619875311 0.26765994074234428 0 0.36084998839118931 0.2761252295017701 0 0.33982225619875311 0.26765994074234428 0 0.36084998839118931 0.2761252295017701 0 0.3539366042426153 0.26554047293381039 0 0.33982225619875311 0.26765994074234428 0 0.36084998839118931 0.2761252295017701 0 0.35183199075491411 0.27966461044832719 0 0.33982225619875311 0.26765994074234428 0 0.34056182851336592 0.28206143899133118 0 0.35183199075491411 0.27966461044832719 0 0.36152496379752869 0.28359539021876212 0 0.36084998839118931 0.2761252295017701 0 0.35183199075491411 0.27966461044832719 0 0.36084998839118931 0.2761252295017701 0 0.35183199075491411 0.27966461044832719 0 0.39945440726228237 0.27350419034528239 0 0.38460708535355081 0.26680105137204091 0 0.40768566828284042 0.25774317622192677 0 0.39945440726228237 0.27350419034528239 0 0.4092682188351508 0.26816031590002881 0 0.40768566828284042 0.25774317622192677 0 0.39945440726228237 0.27350419034528239 0 0.38460708535355081 0.26680105137204091 0 0.3904751567012596 0.27530993325585928 0 0.39945440726228237 0.27350419034528239 0 0.3904751567012596 0.27530993325585928 0 0.39488150240831521 0.28173053148540511 0 0.39945440726228237 0.27350419034528239 0 0.40366985246608472 0.28285995447659418 0 0.40929088926209078 0.279020096056181 0 0.39945440726228237 0.27350419034528239 0 0.4092682188351508 0.26816031590002881 0 0.40929088926209078 0.279020096056181 0 0.39945440726228237 0.27350419034528239 0 0.39488150240831521 0.28173053148540511 0 0.40366985246608472 0.28285995447659418 0 0.38783836144724232 0.2556839199238965 0 0.38129994004966872 0.25577407136566988 0 0.40866327585672191 0.24600766979752939 0 0.38460708535355081 0.26680105137204091 0 0.40768566828284042 0.25774317622192677 0 0.38783836144724232 0.2556839199238965 0 0.40768566828284042 0.25774317622192677 0 0.40866327585672191 0.24600766979752939 0 0.38783836144724232 0.2556839199238965 0 0.38460708535355081 0.26680105137204091 0 0.40768566828284042 0.25774317622192677 0 0.38129994004966872 0.25577407136566988 0 0.40866327585672191 0.24600766979752939 0 0.38783836144724232 0.2556839199238965 0 0.38129994004966872 0.25577407136566988 0 0.38460708535355081 0.26680105137204091 0 0.38783836144724232 0.2556839199238965 0 0.38460708535355081 0.26680105137204091 0 0.38129994004966872 0.25577407136566988 0 0.37169426656027921 0.24972740256563611 0 0.38106847269238292 0.24536179082341181 0 0.37017340450925651 0.266060206293324 0 0.38129994004966872 0.25577407136566988 0 0.38460708535355081 0.26680105137204091 0 0.36084998839118931 0.2761252295017701 0 0.38460708535355081 0.26680105137204091 0 0.37969218042614078 0.28371066929036243 0 0.38460708535355081 0.26680105137204091 0 0.3904751567012596 0.27530993325585928 0 0.37969218042614078 0.28371066929036243 0 0.38460708535355081 0.26680105137204091 0 0.37969218042614078 0.28371066929036243 0 0.3904751567012596 0.27530993325585928 0 0.37969218042614078 0.28371066929036243 0 0.39488150240831521 0.28173053148540511 0 0.37969218042614078 0.28371066929036243 0 0.37763341047385651 0.29079382019339128 0 0.40259214502479168 0.29292967641552992 0 0.37763341047385651 0.29079382019339128 0 0.4027243230010164 0.30147339632314252 0 0.37969218042614078 0.28371066929036243 0 0.37763341047385651 0.29079382019339128 0 0.37333201972158658 0.2878654242033048 0 0.37969218042614078 0.28371066929036243 0 0.37763341047385651 0.29079382019339128 0 0.37763341047385651 0.29079382019339128 0 0.37695808612291098 0.31120865645681561 0 0.38599374742651271 0.30414296713942529 0 0.37763341047385651 0.29079382019339128 0 0.38599374742651271 0.30414296713942529 0 0.4027243230010164 0.30147339632314252 0 0.37695808612291098 0.31120865645681561 0 0.38599374742651271 0.30414296713942529 0 0.38754735899376969 0.31282171123814728 0 0.38599374742651271 0.30414296713942529 0 0.4027243230010164 0.30147339632314252 0 0.38754735899376969 0.31282171123814728 0 0.4027243230010164 0.30147339632314252 0 0.3956366020903157 0.32248231082130752 0 0.38754735899376969 0.31282171123814728 0 0.37969218042614078 0.28371066929036243 0 0.40259214502479168 0.29292967641552992 0 0.37969218042614078 0.28371066929036243 0 0.39488150240831521 0.28173053148540511 0 0.40259214502479168 0.29292967641552992 0 0.37763341047385651 0.29079382019339128 0 0.4027243230010164 0.30147339632314252 0 0.40259214502479168 0.29292967641552992 0 0.4027243230010164 0.30147339632314252 0 0.40259214502479168 0.29292967641552992 0 0.41139710839419091 0.29189735433941028 0 0.40259214502479168 0.29292967641552992 0 0.40366985246608472 0.28285995447659418 0 0.41139710839419091 0.29189735433941028 0 0.39488150240831521 0.28173053148540511 0 0.40259214502479168 0.29292967641552992 0 0.40366985246608472 0.28285995447659418 0 0.40366985246608472 0.28285995447659418 0 0.41139710839419091 0.29189735433941028 0 0.40929088926209078 0.279020096056181 0 0.41139710839419091 0.29189735433941028 0 0.42781523552817591 0.31215297245289481 0 0.42226183937510081 0.28327127115801121 0 0.41139710839419091 0.29189735433941028 0 0.42226183937510081 0.28327127115801121 0 0.40929088926209078 0.279020096056181 0 0.4027243230010164 0.30147339632314252 0 0.41139710839419091 0.29189735433941028 0 0.42781523552817591 0.31215297245289481 0 0.4027243230010164 0.30147339632314252 0 0.42781523552817591 0.31215297245289481 0 0.41357021602424721 0.32279281759874212 0 0.4027243230010164 0.30147339632314252 0 0.42781523552817591 0.31215297245289481 0 0.42781523552817591 0.31215297245289481 0 0.42226183937510081 0.28327127115801121 0 0.42781523552817591 0.31215297245289481 0 0.42226183937510081 0.28327127115801121 0 0.44120727567718632 0.28746005308771089 0 0.42226183937510081 0.28327127115801121 0 0.43023391716603732 0.27040224467912161 0 0.44120727567718632 0.28746005308771089 0 0.42226183937510081 0.28327127115801121 0 0.43023391716603732 0.27040224467912161 0 0.41664462513020523 0.25422696758609492 0 0.43023391716603732 0.27040224467912161 0 0.43692075095235122 0.26433370861442979 0 0.44373838257505849 0.27050131303512348 0 0.42226183937510081 0.28327127115801121 0 0.4092682188351508 0.26816031590002881 0 0.41664462513020523 0.25422696758609492 0 0.42226183937510081 0.28327127115801121 0 0.41664462513020523 0.25422696758609492 0 0.42226183937510081 0.28327127115801121 0 0.4092682188351508 0.26816031590002881 0 0.40929088926209078 0.279020096056181 0 0.40768566828284042 0.25774317622192677 0 0.41664462513020523 0.25422696758609492 0 0.40866327585672191 0.24600766979752939 0 0.40768566828284042 0.25774317622192677 0 0.41664462513020523 0.25422696758609492 0 0.4092682188351508 0.26816031590002881 0 0.40768566828284042 0.25774317622192677 0 0.41664462513020523 0.25422696758609492 0 0.42749544465446981 0.25699566217507153 0 0.45166362976964691 0.25106894999712381 0 0.43076425121212841 0.2486853010718087 0 0.41664462513020523 0.25422696758609492 0 0.42749544465446981 0.25699566217507153 0 0.43076425121212841 0.2486853010718087 0 0.43023391716603732 0.27040224467912161 0 0.41664462513020523 0.25422696758609492 0 0.42749544465446981 0.25699566217507153 0 0.41664462513020523 0.25422696758609492 0 0.43076425121212841 0.2486853010718087 0 0.42749544465446981 0.25699566217507153 0 0.43692075095235122 0.26433370861442979 0 0.44456450099631911 0.26043047377218492 0 0.43023391716603732 0.27040224467912161 0 0.42749544465446981 0.25699566217507153 0 0.43692075095235122 0.26433370861442979 0 0.42749544465446981 0.25699566217507153 0 0.45166362976964691 0.25106894999712381 0 0.42749544465446981 0.25699566217507153 0 0.44456450099631911 0.26043047377218492 0 0.45166362976964691 0.25106894999712381 0 0.43692075095235122 0.26433370861442979 0 0.44456450099631911 0.26043047377218492 0 0.44373838257505849 0.27050131303512348 0 0.44456450099631911 0.26043047377218492 0 0.44373838257505849 0.27050131303512348 0 0.45508065662597141 0.26402805921732958 0 0.44456450099631911 0.26043047377218492 0 0.45166362976964691 0.25106894999712381 0 0.45508065662597141 0.26402805921732958 0 0.44373838257505849 0.27050131303512348 0 0.45472874274978531 0.27586911806656422 0 0.44120727567718632 0.28746005308771089 0 0.43023391716603732 0.27040224467912161 0 0.44373838257505849 0.27050131303512348 0 0.44120727567718632 0.28746005308771089 0 0.44373838257505849 0.27050131303512348 0 0.45472874274978531 0.27586911806656422 0 0.45508065662597141 0.26402805921732958 0 0.45472874274978531 0.27586911806656422 0 0.46665275363318931 0.27127710252775639 0 0.46192346945889701 0.28817835066990299 0 0.45472874274978531 0.27586911806656422 0 0.46665275363318931 0.27127710252775639 0 0.45508065662597141 0.26402805921732958 0 0.45166362976964691 0.25106894999712381 0 0.46652816171208539 0.25830808769848879 0 0.47583181488482379 0.2451422378191761 0 0.45166362976964691 0.25106894999712381 0 0.45508065662597141 0.26402805921732958 0 0.46652816171208539 0.25830808769848879 0 0.46665275363318931 0.27127710252775639 0 0.45508065662597141 0.26402805921732958 0 0.46652816171208539 0.25830808769848879 0 0.46665275363318931 0.27127710252775639 0 0.46652816171208539 0.25830808769848879 0 0.48341195364679568 0.26002408893105827 0 0.46652816171208539 0.25830808769848879 0 0.48341195364679568 0.26002408893105827 0 0.47583181488482379 0.2451422378191761 0 0.46665275363318931 0.27127710252775639 0 0.48341195364679568 0.26002408893105827 0 0.48138518434246891 0.28130646820503019 0 0.46665275363318931 0.27127710252775639 0 0.48138518434246891 0.28130646820503019 0 0.46192346945889701 0.28817835066990299 0 0.5 0.26671351767664991 0 0.5 0.29421150971207138 0 0.48138518434246891 0.28130646820503019 0 0.48341195364679568 0.26002408893105827 0 0.5 0.26671351767664991 0 0.48138518434246891 0.28130646820503019 0 0.48341195364679568 0.26002408893105827 0 0.5 0.26671351767664991 0 0.50000000000000067 0.2392155256412283 0 0.5 0.29421150971207138 0 0.47556093647901088 0.30733800586058863 0 0.5 0.32170950174749302 0 0.5 0.29421150971207138 0 0.48138518434246891 0.28130646820503019 0 0.47556093647901088 0.30733800586058863 0 0.48138518434246891 0.28130646820503019 0 0.47556093647901088 0.30733800586058863 0 0.46192346945889701 0.28817835066990299 0 0.47556093647901088 0.30733800586058863 0 0.45214514511688908 0.30370412902975941 0 0.45421880844117613 0.32339126307769928 0 0.47556093647901088 0.30733800586058863 0 0.46192346945889701 0.28817835066990299 0 0.45214514511688908 0.30370412902975941 0 0.46192346945889701 0.28817835066990299 0 0.44120727567718632 0.28746005308771089 0 0.45214514511688908 0.30370412902975941 0 0.45472874274978531 0.27586911806656422 0 0.46192346945889701 0.28817835066990299 0 0.44120727567718632 0.28746005308771089 0 0.42781523552817591 0.31215297245289481 0 0.44120727567718632 0.28746005308771089 0 0.45214514511688908 0.30370412902975941 0 0.42781523552817591 0.31215297245289481 0 0.45421880844117613 0.32339126307769928 0 0.43298436918619881 0.33903622913929549 0 0.42781523552817591 0.31215297245289481 0 0.45214514511688908 0.30370412902975941 0 0.45421880844117613 0.32339126307769928 0 0.42781523552817591 0.31215297245289481 0 0.45421880844117613 0.32339126307769928 0 0.45421880844117613 0.32339126307769928 0 0.45970761232660212 0.34692044601787542 0 0.43298436918619881 0.33903622913929549 0 0.45421880844117613 0.32339126307769928 0 0.48062238135417568 0.33462955370250519 0 0.45421880844117613 0.32339126307769928 0 0.48062238135417568 0.33462955370250519 0 0.45970761232660212 0.34692044601787542 0 0.47556093647901088 0.30733800586058863 0 0.45421880844117613 0.32339126307769928 0 0.48062238135417568 0.33462955370250519 0 0.48062238135417568 0.33462955370250519 0 0.5 0.32170950174749302 0 0.5 0.34920749378291471 0 0.47556093647901088 0.30733800586058863 0 0.48062238135417568 0.33462955370250519 0 0.5 0.32170950174749302 0 0.5 0.34920749378291471 0 0.48254603458521478 0.3522402998402685 0 0.5 0.37670548581833618 0 0.48062238135417568 0.33462955370250519 0 0.5 0.34920749378291471 0 0.48254603458521478 0.3522402998402685 0 0.48254603458521478 0.3522402998402685 0 0.46972057754862501 0.36630584452178799 0 0.45970761232660212 0.34692044601787542 0 0.48062238135417568 0.33462955370250519 0 0.48254603458521478 0.3522402998402685 0 0.45970761232660212 0.34692044601787542 0 0.48254603458521478 0.3522402998402685 0 0.46972057754862501 0.36630584452178799 0 0.5 0.37670548581833618 0 0.46972057754862501 0.36630584452178799 0 0.43815350284422228 0.36591948582569622 0 0.45848938469160699 0.38276388730883248 0 0.46972057754862501 0.36630584452178799 0 0.45970761232660212 0.34692044601787542 0 0.43815350284422228 0.36591948582569622 0 0.45970761232660212 0.34692044601787542 0 0.43815350284422228 0.36591948582569622 0 0.43298436918619881 0.33903622913929549 0 0.43815350284422228 0.36591948582569622 0 0.4167242930516859 0.35972934744593471 0 0.42344095457037051 0.38268701701273461 0 0.4167242930516859 0.35972934744593471 0 0.40101385701800268 0.38518895784325291 0 0.4167242930516859 0.35972934744593471 0 0.40181680918128981 0.35947395412181382 0 0.40101385701800268 0.38518895784325291 0 0.4167242930516859 0.35972934744593471 0 0.40869055031553031 0.33881917925707022 0 0.40181680918128981 0.35947395412181382 0 0.4167242930516859 0.35972934744593471 0 0.43298436918619881 0.33903622913929549 0 0.40869055031553031 0.33881917925707022 0 0.43815350284422228 0.36591948582569622 0 0.4167242930516859 0.35972934744593471 0 0.43298436918619881 0.33903622913929549 0 0.43815350284422228 0.36591948582569622 0 0.43298436918619881 0.33903622913929549 0 0.42781523552817591 0.31215297245289481 0 0.43298436918619881 0.33903622913929549 0 0.42781523552817591 0.31215297245289481 0 0.43298436918619881 0.33903622913929549 0 0.41357021602424721 0.32279281759874212 0 0.43298436918619881 0.33903622913929549 0 0.41357021602424721 0.32279281759874212 0 0.40869055031553031 0.33881917925707022 0 0.40869055031553031 0.33881917925707022 0 0.39369601167170543 0.33564153172070438 0 0.39209274976778918 0.34814598654190299 0 0.40869055031553031 0.33881917925707022 0 0.39369601167170543 0.33564153172070438 0 0.3956366020903157 0.32248231082130752 0 0.39369601167170543 0.33564153172070438 0 0.3956366020903157 0.32248231082130752 0 0.38362385659697051 0.32926172455430031 0 0.39369601167170543 0.33564153172070438 0 0.38635485741833753 0.33883185827426582 0 0.39209274976778918 0.34814598654190299 0 0.41357021602424721 0.32279281759874212 0 0.40869055031553031 0.33881917925707022 0 0.3956366020903157 0.32248231082130752 0 0.4027243230010164 0.30147339632314252 0 0.41357021602424721 0.32279281759874212 0 0.3956366020903157 0.32248231082130752 0 0.3956366020903157 0.32248231082130752 0 0.38754735899376969 0.31282171123814728 0 0.38479800915553353 0.32074741934569512 0 0.38754735899376969 0.31282171123814728 0 0.38479800915553353 0.32074741934569512 0 0.37917338616632867 0.3168755173424983 0 0.3956366020903157 0.32248231082130752 0 0.38479800915553353 0.32074741934569512 0 0.38362385659697051 0.32926172455430031 0 0.38479800915553353 0.32074741934569512 0 0.37832625022041982 0.32264150287239662 0 0.38362385659697051 0.32926172455430031 0 0.37577016905582622 0.32787937856968757 0 0.37832625022041982 0.32264150287239662 0 0.38362385659697051 0.32926172455430031 0 0.37577016905582622 0.32787937856968757 0 0.37506056064123422 0.32471797871916308 0 0.37832625022041982 0.32264150287239662 0 0.37368960646642962 0.31911015363466272 0 0.37506056064123422 0.32471797871916308 0 0.37832625022041982 0.32264150287239662 0 0.37695808612291098 0.31120865645681561 0 0.38754735899376969 0.31282171123814728 0 0.37917338616632867 0.3168755173424983 0 0.38479800915553353 0.32074741934569512 0 0.37832625022041982 0.32264150287239662 0 0.37917338616632867 0.3168755173424983 0 0.37368960646642962 0.31911015363466272 0 0.37832625022041982 0.32264150287239662 0 0.37917338616632867 0.3168755173424983 0 0.37499251130121058 0.31593455150060828 0 0.37368960646642962 0.31911015363466272 0 0.37917338616632867 0.3168755173424983 0 0.37499251130121058 0.31593455150060828 0 0.37695808612291098 0.31120865645681561 0 0.37917338616632867 0.3168755173424983 0 0.38635485741833753 0.33883185827426582 0 0.3795813787571668 0.3363772241379393 0 0.38278029029805521 0.34473282441648212 0 0.39369601167170543 0.33564153172070438 0 0.38635485741833753 0.33883185827426582 0 0.38362385659697051 0.32926172455430031 0 0.38635485741833753 0.33883185827426582 0 0.38362385659697051 0.32926172455430031 0 0.3795813787571668 0.3363772241379393 0 0.37577016905582622 0.32787937856968757 0 0.38362385659697051 0.32926172455430031 0 0.37868435463470768 0.3315773541462857 0 0.38362385659697051 0.32926172455430031 0 0.37868435463470768 0.3315773541462857 0 0.3795813787571668 0.3363772241379393 0 0.37577016905582622 0.32787937856968757 0 0.37868435463470768 0.3315773541462857 0 0.375263113682131 0.33313320718557798 0 0.37868435463470768 0.3315773541462857 0 0.375263113682131 0.33313320718557798 0 0.3795813787571668 0.3363772241379393 0 0.37369311900952262 0.33836265764115908 0 0.3795813787571668 0.3363772241379393 0 0.37670219357667811 0.34177383067972761 0 0.3795813787571668 0.3363772241379393 0 0.37670219357667811 0.34177383067972761 0 0.38278029029805521 0.34473282441648212 0 0.37369311900952262 0.33836265764115908 0 0.375263113682131 0.33313320718557798 0 0.3795813787571668 0.3363772241379393 0 0.3809821990389497 0.35490418517770578 0 0.39056259575344082 0.36548629952090861 0 0.39209274976778918 0.34814598654190299 0 0.37486749369974542 0.34694596905823039 0 0.37670219357667811 0.34177383067972761 0 0.38278029029805521 0.34473282441648212 0 0.37486749369974542 0.34694596905823039 0 0.38278029029805521 0.34473282441648212 0 0.3809821990389497 0.35490418517770578 0 0.38278029029805521 0.34473282441648212 0 0.3809821990389497 0.35490418517770578 0 0.39209274976778918 0.34814598654190299 0 0.38635485741833753 0.33883185827426582 0 0.38278029029805521 0.34473282441648212 0 0.39209274976778918 0.34814598654190299 0 0.37228166628853332 0.35471301169251829 0 0.37486749369974542 0.34694596905823039 0 0.3809821990389497 0.35490418517770578 0 0.37414389550204002 0.36898578533419818 0 0.3809821990389497 0.35490418517770578 0 0.39056259575344082 0.36548629952090861 0 0.37414389550204002 0.36898578533419818 0 0.39056259575344082 0.36548629952090861 0 0.40101385701800268 0.38518895784325291 0 0.37414389550204002 0.36898578533419818 0 0.37228166628853332 0.35471301169251829 0 0.3809821990389497 0.35490418517770578 0 0.39056259575344082 0.36548629952090861 0 0.40181680918128981 0.35947395412181382 0 0.40101385701800268 0.38518895784325291 0 0.39056259575344082 0.36548629952090861 0 0.40181680918128981 0.35947395412181382 0 0.39209274976778918 0.34814598654190299 0 0.40869055031553031 0.33881917925707022 0 0.40181680918128981 0.35947395412181382 0 0.39209274976778918 0.34814598654190299 0 0.40101385701800268 0.38518895784325291 0 0.38530342098431941 0.41064856824057122 0 0.40101385701800268 0.38518895784325291 0 0.38530342098431941 0.41064856824057122 0 0.41521715527738928 0.40390661881175682 0 0.3736470799201031 0.39378130610698531 0 0.37414389550204002 0.36898578533419818 0 0.40101385701800268 0.38518895784325291 0 0.3736470799201031 0.39378130610698531 0 0.40101385701800268 0.38518895784325291 0 0.38530342098431941 0.41064856824057122 0 0.36959298495063608 0.43610817863788948 0 0.38530342098431941 0.41064856824057122 0 0.36959298495063608 0.43610817863788948 0 0.38530342098431941 0.41064856824057122 0 0.3889231515195431 0.43141286456833011 0 0.3889231515195431 0.43141286456833011 0 0.40362265567455102 0.42304679086704539 0 0.39942544658573009 0.43872588670818857 0 0.40362265567455102 0.42304679086704539 0 0.41248490446316177 0.43293377153942381 0 0.39942544658573009 0.43872588670818857 0 0.38530342098431941 0.41064856824057122 0 0.3889231515195431 0.43141286456833011 0 0.40362265567455102 0.42304679086704539 0 0.38530342098431941 0.41064856824057122 0 0.40362265567455102 0.42304679086704539 0 0.41521715527738928 0.40390661881175682 0 0.40362265567455102 0.42304679086704539 0 0.42233359500988371 0.42307221464191669 0 0.41521715527738928 0.40390661881175682 0 0.40362265567455102 0.42304679086704539 0 0.41248490446316177 0.43293377153942381 0 0.42233359500988371 0.42307221464191669 0 0.41248490446316177 0.43293377153942381 0 0.42233359500988371 0.42307221464191669 0 0.42326813014219627 0.43909650749986368 0 0.42233359500988371 0.42307221464191669 0 0.43681876433844857 0.43497208046478802 0 0.42326813014219627 0.43909650749986368 0 0.42233359500988371 0.42307221464191669 0 0.43681876433844857 0.43497208046478802 0 0.43655617137350622 0.42038510460191503 0 0.42233359500988371 0.42307221464191669 0 0.42830887421762198 0.41018013153495869 0 0.41521715527738928 0.40390661881175682 0 0.42233359500988371 0.42307221464191669 0 0.42830887421762198 0.41018013153495869 0 0.43655617137350622 0.42038510460191503 0 0.42830887421762198 0.41018013153495869 0 0.43655617137350622 0.42038510460191503 0 0.439625884597032 0.40642404903869822 0 0.42978568865087441 0.39901034440009059 0 0.42344095457037051 0.38268701701273461 0 0.4433226365022459 0.39280274251209668 0 0.42978568865087441 0.39901034440009059 0 0.41521715527738928 0.40390661881175682 0 0.42344095457037051 0.38268701701273461 0 0.42830887421762198 0.41018013153495869 0 0.42978568865087441 0.39901034440009059 0 0.439625884597032 0.40642404903869822 0 0.42830887421762198 0.41018013153495869 0 0.42978568865087441 0.39901034440009059 0 0.41521715527738928 0.40390661881175682 0 0.4167242930516859 0.35972934744593471 0 0.40101385701800268 0.38518895784325291 0 0.42344095457037051 0.38268701701273461 0 0.40101385701800268 0.38518895784325291 0 0.41521715527738928 0.40390661881175682 0 0.42344095457037051 0.38268701701273461 0 0.43815350284422228 0.36591948582569622 0 0.42344095457037051 0.38268701701273461 0 0.4433226365022459 0.39280274251209668 0 0.43815350284422228 0.36591948582569622 0 0.4433226365022459 0.39280274251209668 0 0.43815350284422228 0.36591948582569622 0 0.4433226365022459 0.39280274251209668 0 0.45848938469160699 0.38276388730883248 0 0.4433226365022459 0.39280274251209668 0 0.4587292321942566 0.40377894109977869 0 0.44849177016026981 0.41968599919849731 0 0.4433226365022459 0.39280274251209668 0 0.44849177016026981 0.41968599919849731 0 0.42978568865087441 0.39901034440009059 0 0.4433226365022459 0.39280274251209668 0 0.439625884597032 0.40642404903869822 0 0.4433226365022459 0.39280274251209668 0 0.4587292321942566 0.40377894109977869 0 0.45848938469160699 0.38276388730883248 0 0.4587292321942566 0.40377894109977869 0 0.45848938469160699 0.38276388730883248 0 0.47720201034463561 0.39055994944820821 0 0.46972057754862501 0.36630584452178799 0 0.45848938469160699 0.38276388730883248 0 0.47720201034463561 0.39055994944820821 0 0.46972057754862501 0.36630584452178799 0 0.47720201034463561 0.39055994944820821 0 0.5 0.37670548581833618 0 0.47720201034463561 0.39055994944820821 0 0.5 0.40420347785375749 0 0.47329291580914951 0.41490179660840648 0 0.4587292321942566 0.40377894109977869 0 0.47720201034463561 0.39055994944820821 0 0.47329291580914951 0.41490179660840648 0 0.47720201034463561 0.39055994944820821 0 0.5 0.40420347785375749 0 0.5 0.37670548581833618 0 0.48546521128148462 0.42572005307568972 0 0.49999999999999828 0.43170146988917901 0 0.48502495584706629 0.44181750450007778 0 0.49999999999999828 0.43170146988917901 0 0.48502495584706629 0.44181750450007778 0 0.5 0.40420347785375749 0 0.48546521128148462 0.42572005307568972 0 0.47329291580914951 0.41490179660840648 0 0.5 0.40420347785375749 0 0.48546521128148462 0.42572005307568972 0 0.49999999999999828 0.43170146988917901 0 0.48546521128148462 0.42572005307568972 0 0.47462076711180717 0.43403653248997731 0 0.48502495584706629 0.44181750450007778 0 0.47329291580914951 0.41490179660840648 0 0.47462076711180717 0.43403653248997731 0 0.45927084092720188 0.43580976915473651 0 0.48546521128148462 0.42572005307568972 0 0.47329291580914951 0.41490179660840648 0 0.47462076711180717 0.43403653248997731 0 0.45927084092720188 0.43580976915473651 0 0.44849177016026981 0.41968599919849731 0 0.47329291580914951 0.41490179660840648 0 0.45927084092720188 0.43580976915473651 0 0.44849177016026981 0.41968599919849731 0 0.45927084092720188 0.43580976915473651 0 0.44849177016026981 0.41968599919849731 0 0.45165089640657707 0.43611575462809582 0 0.4587292321942566 0.40377894109977869 0 0.47329291580914951 0.41490179660840648 0 0.44849177016026981 0.41968599919849731 0 0.4433226365022459 0.39280274251209668 0 0.44849177016026981 0.41968599919849731 0 0.439625884597032 0.40642404903869822 0 0.43655617137350622 0.42038510460191503 0 0.44849177016026981 0.41968599919849731 0 0.439625884597032 0.40642404903869822 0 0.44849177016026981 0.41968599919849731 0 0.439625884597032 0.40642404903869822 0 0.44849177016026981 0.41968599919849731 0 0.45165089640657707 0.43611575462809582 0 0.44386952542921521 0.4295111469185629 0 0.44849177016026981 0.41968599919849731 0 0.45165089640657707 0.43611575462809582 0 0.45165089640657707 0.43611575462809582 0 0.44386952542921521 0.4295111469185629 0 0.44519082659473158 0.43782150968735878 0 0.43655617137350622 0.42038510460191503 0 0.44849177016026981 0.41968599919849731 0 0.44386952542921521 0.4295111469185629 0 0.43681876433844857 0.43497208046478802 0 0.43655617137350622 0.42038510460191503 0 0.44386952542921521 0.4295111469185629 0 0.43681876433844857 0.43497208046478802 0 0.44386952542921521 0.4295111469185629 0 0.44519082659473158 0.43782150968735878 0 0.43681876433844857 0.43497208046478802 0 0.44519082659473158 0.43782150968735878 0 0.44362096681603608 0.44566090358066651 0 0.43681876433844857 0.43497208046478802 0 0.44362096681603608 0.44566090358066651 0 0.43343701099378978 0.44857281610427868 0 0.44362096681603608 0.44566090358066651 0 0.44110505044236059 0.45564825146568327 0 0.43343701099378978 0.44857281610427868 0 0.44362096681603608 0.44566090358066651 0 0.45255374853073171 0.45216262504332899 0 0.45221828903371142 0.44335246171580328 0 0.44362096681603608 0.44566090358066651 0 0.45255374853073171 0.45216262504332899 0 0.44110505044236059 0.45564825146568327 0 0.44519082659473158 0.43782150968735878 0 0.44362096681603608 0.44566090358066651 0 0.45221828903371142 0.44335246171580328 0 0.45165089640657707 0.43611575462809582 0 0.44519082659473158 0.43782150968735878 0 0.45221828903371142 0.44335246171580328 0 0.45255374853073171 0.45216262504332899 0 0.44518446721829791 0.46873079822848901 0 0.44110505044236059 0.45564825146568327 0 0.44518446721829791 0.46873079822848901 0 0.44110505044236059 0.45564825146568327 0 0.43072905865294731 0.46311411437165317 0 0.47284597636140308 0.45611600571247141 0 0.46302896313844299 0.47272331085799019 0 0.45255374853073171 0.45216262504332899 0 0.44518446721829791 0.46873079822848901 0 0.47004991169413368 0.45193353911097589 0 0.47004991169413368 0.45193353911097589 0 0.47284597636140308 0.45611600571247141 0 0.46302896313844299 0.47272331085799019 0 0.44518446721829791 0.46873079822848901 0 0.47004991169413368 0.45193353911097589 0 0.46302896313844299 0.47272331085799019 0 0.44518446721829791 0.46873079822848901 0 0.47004991169413368 0.45193353911097589 0 0.45927084092720188 0.43580976915473651 0 0.47004991169413368 0.45193353911097589 0 0.45927084092720188 0.43580976915473651 0 0.45930684530103161 0.44617181272829648 0 0.47004991169413368 0.45193353911097589 0 0.47462076711180717 0.43403653248997731 0 0.45927084092720188 0.43580976915473651 0 0.47004991169413368 0.45193353911097589 0 0.45255374853073171 0.45216262504332899 0 0.45930684530103161 0.44617181272829648 0 0.47004991169413368 0.45193353911097589 0 0.45927084092720188 0.43580976915473651 0 0.45221828903371142 0.44335246171580328 0 0.45930684530103161 0.44617181272829648 0 0.45927084092720188 0.43580976915473651 0 0.45165089640657707 0.43611575462809582 0 0.45221828903371142 0.44335246171580328 0 0.45255374853073171 0.45216262504332899 0 0.45221828903371142 0.44335246171580328 0 0.45930684530103161 0.44617181272829648 0 0.47462076711180717 0.43403653248997731 0 0.47004991169413368 0.45193353911097589 0 0.48502495584706629 0.44181750450007778 0 0.48189680466807888 0.45106209462173341 0 0.47450081081676521 0.45331654521044668 0 0.48502495584706629 0.44181750450007778 0 0.47004991169413368 0.45193353911097589 0 0.48502495584706629 0.44181750450007778 0 0.47004991169413368 0.45193353911097589 0 0.47450081081676521 0.45331654521044668 0 0.48502495584706629 0.44181750450007778 0 0.47284597636140308 0.45611600571247141 0 0.48050552008400071 0.46757346096286262 0 0.46302896313844299 0.47272331085799019 0 0.47004991169413368 0.45193353911097589 0 0.47284597636140308 0.45611600571247141 0 0.47004991169413368 0.45193353911097589 0 0.47450081081676521 0.45331654521044668 0 0.47284597636140308 0.45611600571247141 0 0.47450081081676521 0.45331654521044668 0 0.47284597636140308 0.45611600571247141 0 0.47951191807974908 0.45654698881850991 0 0.47450081081676521 0.45331654521044668 0 0.47284597636140308 0.45611600571247141 0 0.47284597636140308 0.45611600571247141 0 0.48050552008400071 0.46757346096286262 0 0.47284597636140308 0.45611600571247141 0 0.48050552008400071 0.46757346096286262 0 0.47951191807974908 0.45654698881850991 0 0.48189680466807888 0.45106209462173341 0 0.47951191807974908 0.45654698881850991 0 0.4878104784684959 0.4546668375850359 0 0.48050552008400071 0.46757346096286262 0 0.47951191807974908 0.45654698881850991 0 0.4878104784684959 0.4546668375850359 0 0.48189680466807888 0.45106209462173341 0 0.47450081081676521 0.45331654521044668 0 0.47951191807974908 0.45654698881850991 0 0.48050552008400071 0.46757346096286262 0 0.4878104784684959 0.4546668375850359 0 0.49999999999999928 0.46182898591187349 0 0.48050552008400071 0.46757346096286262 0 0.49999999999999928 0.46182898591187349 0 0.49999999999999828 0.43170146988917901 0 0.4878104784684959 0.4546668375850359 0 0.49999999999999928 0.46182898591187349 0 0.49999999999999828 0.43170146988917901 0 0.4878104784684959 0.4546668375850359 0 0.48502495584706629 0.44181750450007778 0 0.48189680466807888 0.45106209462173341 0 0.4878104784684959 0.4546668375850359 0 0.48502495584706629 0.44181750450007778 0 0.49999999999999928 0.46182898591187349 0 0.5 0.5 0 0.49753071700976492 0.4930404390193398 0 0.5 0.5 0 0.47501141284236448 0.48698608464618232 0 0.44690499747156931 0.4999999999999995 0 0.5 0.5 0 0.49753071700976492 0.4930404390193398 0 0.47501141284236448 0.48698608464618232 0 0.49753071700976492 0.4930404390193398 0 0.48901811854688337 0.4803069499911008 0 0.47501141284236448 0.48698608464618232 0 0.49753071700976492 0.4930404390193398 0 0.48901811854688337 0.4803069499911008 0 0.48050552008400071 0.46757346096286262 0 0.49999999999999928 0.46182898591187349 0 0.48901811854688337 0.4803069499911008 0 0.49999999999999928 0.46182898591187349 0 0.49753071700976492 0.4930404390193398 0 0.48901811854688337 0.4803069499911008 0 0.48050552008400071 0.46757346096286262 0 0.48901811854688337 0.4803069499911008 0 0.48050552008400071 0.46757346096286262 0 0.46302896313844299 0.47272331085799019 0 0.48901811854688337 0.4803069499911008 0 0.47689100365292297 0.47689745161453417 0 0.47501141284236448 0.48698608464618232 0 0.48050552008400071 0.46757346096286262 0 0.47689100365292297 0.47689745161453417 0 0.46302896313844299 0.47272331085799019 0 0.48050552008400071 0.46757346096286262 0 0.48901811854688337 0.4803069499911008 0 0.47689100365292297 0.47689745161453417 0 0.47689100365292297 0.47689745161453417 0 0.47501141284236448 0.48698608464618232 0 0.46302896313844299 0.47272331085799019 0 0.47501141284236448 0.48698608464618232 0 0.45496698030500621 0.48636165542899479 0 0.44690499747156931 0.4999999999999995 0 0.47501141284236448 0.48698608464618232 0 0.45496698030500621 0.48636165542899479 0 0.46302896313844299 0.47272331085799019 0 0.45496698030500621 0.48636165542899479 0 0.46302896313844299 0.47272331085799019 0 0.46302896313844299 0.47272331085799019 0 0.43620850627812668 0.48062654530969717 0 0.44518446721829791 0.46873079822848901 0 0.46302896313844299 0.47272331085799019 0 0.43620850627812668 0.48062654530969717 0 0.45496698030500621 0.48636165542899479 0 0.46302896313844299 0.47272331085799019 0 0.43620850627812668 0.48062654530969717 0 0.45496698030500621 0.48636165542899479 0 0.44690499747156931 0.4999999999999995 0 0.43620850627812668 0.48062654530969717 0 0.45496698030500621 0.48636165542899479 0 0.44690499747156931 0.4999999999999995 0 0.42031902274246069 0.48552805734600057 0 0.41743852268843429 0.5 0 0.43620850627812668 0.48062654530969717 0 0.44690499747156931 0.4999999999999995 0 0.41743852268843429 0.5 0 0.43620850627812668 0.48062654530969717 0 0.42031902274246069 0.48552805734600057 0 0.41743852268843429 0.5 0 0.40134209412993838 0.48520307466421098 0 0.42031902274246069 0.48552805734600057 0 0.40973563488985532 0.47579104778557152 0 0.40134209412993838 0.48520307466421098 0 0.42031902274246069 0.48552805734600057 0 0.40973563488985532 0.47579104778557152 0 0.41789473538963601 0.46705380048502582 0 0.44518446721829791 0.46873079822848901 0 0.42031902274246069 0.48552805734600057 0 0.43072905865294731 0.46311411437165317 0 0.44518446721829791 0.46873079822848901 0 0.42031902274246069 0.48552805734600057 0 0.43620850627812668 0.48062654530969717 0 0.44518446721829791 0.46873079822848901 0 0.42031902274246069 0.48552805734600057 0 0.42031902274246069 0.48552805734600057 0 0.43072905865294731 0.46311411437165317 0 0.41789473538963601 0.46705380048502582 0 0.44110505044236059 0.45564825146568327 0 0.43072905865294731 0.46311411437165317 0 0.43343701099378978 0.44857281610427868 0 0.43072905865294731 0.46311411437165317 0 0.43343701099378978 0.44857281610427868 0 0.42053980660522761 0.45341513910658388 0 0.43072905865294731 0.46311411437165317 0 0.41789473538963601 0.46705380048502582 0 0.42053980660522761 0.45341513910658388 0 0.43681876433844857 0.43497208046478802 0 0.43343701099378978 0.44857281610427868 0 0.42326813014219627 0.43909650749986368 0 0.43343701099378978 0.44857281610427868 0 0.42326813014219627 0.43909650749986368 0 0.42053980660522761 0.45341513910658388 0 0.41248490446316177 0.43293377153942381 0 0.42326813014219627 0.43909650749986368 0 0.41215324011006321 0.44426916471351768 0 0.42326813014219627 0.43909650749986368 0 0.41215324011006321 0.44426916471351768 0 0.42053980660522761 0.45341513910658388 0 0.41215324011006321 0.44426916471351768 0 0.42053980660522761 0.45341513910658388 0 0.40575666434273311 0.45838443146516472 0 0.41248490446316177 0.43293377153942381 0 0.41215324011006321 0.44426916471351768 0 0.39942544658573009 0.43872588670818857 0 0.40973563488985532 0.47579104778557152 0 0.41789473538963601 0.46705380048502582 0 0.40575666434273311 0.45838443146516472 0 0.41789473538963601 0.46705380048502582 0 0.42053980660522761 0.45341513910658388 0 0.40575666434273311 0.45838443146516472 0 0.40973563488985532 0.47579104778557152 0 0.40575666434273311 0.45838443146516472 0 0.39457326129307041 0.46924519202038539 0 0.40575666434273311 0.45838443146516472 0 0.38748492612950952 0.44892285829301931 0 0.39457326129307041 0.46924519202038539 0 0.40575666434273311 0.45838443146516472 0 0.39942544658573009 0.43872588670818857 0 0.38748492612950952 0.44892285829301931 0 0.3889231515195431 0.43141286456833011 0 0.39942544658573009 0.43872588670818857 0 0.38748492612950952 0.44892285829301931 0 0.41215324011006321 0.44426916471351768 0 0.40575666434273311 0.45838443146516472 0 0.39942544658573009 0.43872588670818857 0 0.36980735363827261 0.46050290225189661 0 0.36959298495063608 0.43610817863788948 0 0.38748492612950952 0.44892285829301931 0 0.36959298495063608 0.43610817863788948 0 0.3889231515195431 0.43141286456833011 0 0.38748492612950952 0.44892285829301931 0 0.36980735363827261 0.46050290225189661 0 0.38748492612950952 0.44892285829301931 0 0.39457326129307041 0.46924519202038539 0 0.36980735363827261 0.46050290225189661 0 0.37801407526051067 0.48065415083330842 0 0.39457326129307041 0.46924519202038539 0 0.37801407526051067 0.48065415083330842 0 0.38797204790529932 0.5 0 0.40134209412993838 0.48520307466421098 0 0.41743852268843429 0.5 0 0.38797204790529932 0.5 0 0.40134209412993838 0.48520307466421098 0 0.40973563488985532 0.47579104778557152 0 0.40134209412993838 0.48520307466421098 0 0.39457326129307041 0.46924519202038539 0 0.37801407526051067 0.48065415083330842 0 0.40134209412993838 0.48520307466421098 0 0.39457326129307041 0.46924519202038539 0 0.33471388977496319 0.083869725553476451 0 0.32003772732572838 0.080925826065863432 0 0.34163206045391592 0.099703108374672819 0 0.32003772732572838 0.080925826065863432 0 0.34163206045391592 0.099703108374672819 0 0.33471388977496319 0.083869725553476451 0 0.34163206045391592 0.099703108374672819 0 0.35085433501378249 0.086695181415402722 0 0.33471388977496319 0.083869725553476451 0 0.34209731100959018 0.06531632876058778 0 0.3490795063897344 0.076610282135673974 0 0.33471388977496319 0.083869725553476451 0 0.34209731100959018 0.06531632876058778 0 0.32721969837032222 0.069259436753723466 0 0.33471388977496319 0.083869725553476451 0 0.32721969837032222 0.069259436753723466 0 0.32003772732572838 0.080925826065863432 0 0.31518448171420999 0.065085558788002928 0 0.32721969837032222 0.069259436753723466 0 0.32003772732572838 0.080925826065863432 0 0.32003772732572838 0.080925826065863432 0 0.31657863646219547 0.093324099257994786 0 0.34163206045391592 0.099703108374672819 0 0.32003772732572838 0.080925826065863432 0 0.31657863646219547 0.093324099257994786 0 0.30227411453462139 0.089652133027170247 0 0.33471388977496319 0.083869725553476451 0 0.32003772732572838 0.080925826065863432 0 0.31657863646219547 0.093324099257994786 0 0.32025759602694659 0.1047776340902011 0 0.34163206045391592 0.099703108374672819 0 0.31657863646219547 0.093324099257994786 0 0.32025759602694659 0.1047776340902011 0 0.30640852481201453 0.1024735992044304 0 0.32025759602694659 0.1047776340902011 0 0.31114536757858358 0.11742006929579971 0 0.30640852481201453 0.1024735992044304 0 0.32606950933900308 0.1158177097477945 0 0.31114536757858358 0.11742006929579971 0 0.3195478300457561 0.1332621056988223 0 0.32025759602694659 0.1047776340902011 0 0.32606950933900308 0.1158177097477945 0 0.31114536757858358 0.11742006929579971 0 0.33761965874988609 0.1186889285033586 0 0.34163206045391592 0.099703108374672819 0 0.34956654336434939 0.1234914401014125 0 0.32606950933900308 0.1158177097477945 0 0.33761965874988609 0.1186889285033586 0 0.34163206045391592 0.099703108374672819 0 0.32606950933900308 0.1158177097477945 0 0.33761965874988609 0.1186889285033586 0 0.33436770153514289 0.13112975471366969 0 0.33761965874988609 0.1186889285033586 0 0.34956654336434939 0.1234914401014125 0 0.33436770153514289 0.13112975471366969 0 0.32025759602694659 0.1047776340902011 0 0.32606950933900308 0.1158177097477945 0 0.34163206045391592 0.099703108374672819 0 0.34163206045391592 0.099703108374672819 0 0.35755874922647762 0.098360434014750309 0 0.36322639358210312 0.11848039068348271 0 0.34163206045391592 0.099703108374672819 0 0.36322639358210312 0.11848039068348271 0 0.34163206045391592 0.099703108374672819 0 0.35755874922647762 0.098360434014750309 0 0.35085433501378249 0.086695181415402722 0 0.34163206045391592 0.099703108374672819 0 0.34956654336434939 0.1234914401014125 0 0.36322639358210312 0.11848039068348271 0 0.36322639358210312 0.11848039068348271 0 0.37045299287494049 0.09679375479102828 0 0.38005682511468147 0.12140739343396729 0 0.35755874922647762 0.098360434014750309 0 0.36322639358210312 0.11848039068348271 0 0.37045299287494049 0.09679375479102828 0 0.35755874922647762 0.098360434014750309 0 0.37045299287494049 0.09679375479102828 0 0.35979627253246887 0.087956112087811941 0 0.37045299287494049 0.09679375479102828 0 0.36986657419494789 0.075759843690150083 0 0.37682589963749002 0.081332762740894418 0 0.37045299287494049 0.09679375479102828 0 0.35979627253246887 0.087956112087811941 0 0.36084916063519962 0.072180116148089279 0 0.37045299287494049 0.09679375479102828 0 0.36084916063519962 0.072180116148089279 0 0.36986657419494789 0.075759843690150083 0 0.37045299287494049 0.09679375479102828 0 0.36084916063519962 0.072180116148089279 0 0.35755874922647762 0.098360434014750309 0 0.35979627253246887 0.087956112087811941 0 0.35085433501378249 0.086695181415402722 0 0.35979627253246887 0.087956112087811941 0 0.35560274156159061 0.081403828627082772 0 0.36084916063519962 0.072180116148089279 0 0.33471388977496319 0.083869725553476451 0 0.35085433501378249 0.086695181415402722 0 0.3490795063897344 0.076610282135673974 0 0.35979627253246887 0.087956112087811941 0 0.35560274156159061 0.081403828627082772 0 0.35085433501378249 0.086695181415402722 0 0.35560274156159061 0.081403828627082772 0 0.35085433501378249 0.086695181415402722 0 0.3490795063897344 0.076610282135673974 0 0.34209731100959018 0.06531632876058778 0 0.3490795063897344 0.076610282135673974 0 0.36084916063519962 0.072180116148089279 0 0.36448270712015302 0.068442951443566186 0 0.36084916063519962 0.072180116148089279 0 0.35124532839545858 0.047566477505150237 0 0.35560274156159061 0.081403828627082772 0 0.3490795063897344 0.076610282135673974 0 0.36084916063519962 0.072180116148089279 0 0.36448270712015302 0.068442951443566186 0 0.36084916063519962 0.072180116148089279 0 0.36986657419494789 0.075759843690150083 0 0.36986657419494789 0.075759843690150083 0 0.37596532967213542 0.069868995675824025 0 0.37682589963749002 0.081332762740894418 0 0.36448270712015302 0.068442951443566186 0 0.36986657419494789 0.075759843690150083 0 0.37084641292541748 0.06878424193773866 0 0.36986657419494789 0.075759843690150083 0 0.37084641292541748 0.06878424193773866 0 0.37596532967213542 0.069868995675824025 0 0.36448270712015302 0.068442951443566186 0 0.37084641292541748 0.06878424193773866 0 0.37307104071443398 0.061065176941414383 0 0.37084641292541748 0.06878424193773866 0 0.37307104071443398 0.061065176941414383 0 0.37596532967213542 0.069868995675824025 0 0.36448270712015302 0.068442951443566186 0 0.37307104071443398 0.061065176941414383 0 0.37146335928247548 0.04052602251159599 0 0.36448270712015302 0.068442951443566186 0 0.37146335928247548 0.04052602251159599 0 0.35124532839545858 0.047566477505150237 0 0.36448270712015302 0.068442951443566186 0 0.37146335928247548 0.04052602251159599 0 0.37146335928247548 0.04052602251159599 0 0.35572529983931911 0.032753521421585163 0 0.36312657459820519 0.022962182453169309 0 0.37146335928247548 0.04052602251159599 0 0.35572529983931911 0.032753521421585163 0 0.35124532839545858 0.047566477505150237 0 0.35572529983931911 0.032753521421585163 0 0.35124532839545858 0.047566477505150237 0 0.3321968515854315 0.028027004478648001 0 0.36084916063519962 0.072180116148089279 0 0.35124532839545858 0.047566477505150237 0 0.34209731100959018 0.06531632876058778 0 0.36084916063519962 0.072180116148089279 0 0.35124532839545858 0.047566477505150237 0 0.36312657459820519 0.022962182453169309 0 0.35936362748920009 0.0091271431172253586 0 0.37844401144479839 0.012609093579625891 0 0.35936362748920009 0.0091271431172253586 0 0.37844401144479839 0.012609093579625891 0 0.36665723294200347 -0.001883505129568449 0 0.35936362748920009 0.0091271431172253586 0 0.36665723294200347 -0.001883505129568449 0 0.35531676971978082 -0.0033532784323768001 0 0.37146335928247548 0.04052602251159599 0 0.36312657459820519 0.022962182453169309 0 0.37844401144479839 0.012609093579625891 0 0.37146335928247548 0.04052602251159599 0 0.37844401144479839 0.012609093579625891 0 0.35572529983931911 0.032753521421585163 0 0.35063657493523293 0.0197951316358141 0 0.3321968515854315 0.028027004478648001 0 0.35572529983931911 0.032753521421585163 0 0.36312657459820519 0.022962182453169309 0 0.35063657493523293 0.0197951316358141 0 0.36312657459820519 0.022962182453169309 0 0.35063657493523293 0.0197951316358141 0 0.35936362748920009 0.0091271431172253586 0 0.35936362748920009 0.0091271431172253586 0 0.33689267375143878 0.0039255003288513873 0 0.35531676971978082 -0.0033532784323768001 0 0.35063657493523293 0.0197951316358141 0 0.35936362748920009 0.0091271431172253586 0 0.33689267375143878 0.0039255003288513873 0 0.33689267375143878 0.0039255003288513873 0 0.3321968515854315 0.028027004478648001 0 0.30352242257352219 0.0039185454548519476 0 0.35063657493523293 0.0197951316358141 0 0.33689267375143878 0.0039255003288513873 0 0.3321968515854315 0.028027004478648001 0 0.3321968515854315 0.028027004478648001 0 0.32406508202711942 0.05109974460068676 0 0.30086563814790429 0.035038583275740692 0 0.34209731100959018 0.06531632876058778 0 0.32721969837032222 0.069259436753723466 0 0.32406508202711942 0.05109974460068676 0 0.34209731100959018 0.06531632876058778 0 0.35124532839545858 0.047566477505150237 0 0.32406508202711942 0.05109974460068676 0 0.35124532839545858 0.047566477505150237 0 0.3321968515854315 0.028027004478648001 0 0.32406508202711942 0.05109974460068676 0 0.31518448171420999 0.065085558788002928 0 0.32721969837032222 0.069259436753723466 0 0.32406508202711942 0.05109974460068676 0 0.31518448171420999 0.065085558788002928 0 0.32406508202711942 0.05109974460068676 0 0.29882370077581188 0.062479238108283437 0 0.32406508202711942 0.05109974460068676 0 0.29882370077581188 0.062479238108283437 0 0.30086563814790429 0.035038583275740692 0 0.32406508202711942 0.05109974460068676 0 0.30086563814790429 0.035038583275740692 0 0.30086563814790429 0.035038583275740692 0 0.28350496565293731 0.043820562147367653 0 0.27766619426868899 0.018977421950794569 0 0.29882370077581188 0.062479238108283437 0 0.30086563814790429 0.035038583275740692 0 0.28350496565293731 0.043820562147367653 0 0.29882370077581188 0.062479238108283437 0 0.28350496565293731 0.043820562147367653 0 0.28339325744793759 0.061338593161917712 0 0.3321968515854315 0.028027004478648001 0 0.30086563814790429 0.035038583275740692 0 0.30352242257352219 0.0039185454548519476 0 0.30086563814790429 0.035038583275740692 0 0.27766619426868899 0.018977421950794569 0 0.30086563814790429 0.035038583275740692 0 0.30352242257352219 0.0039185454548519476 0 0.27766619426868899 0.018977421950794569 0 0.30352242257352219 0.0039185454548519476 0 0.27766619426868899 0.018977421950794569 0 0.27708695819087842 -0.0025378708656911609 0 0.27766619426868899 0.018977421950794569 0 0.25446675038947358 0.0029162606258486688 0 0.27766619426868899 0.018977421950794569 0 0.26047117107291767 -0.0019720443344692288 0 0.27708695819087842 -0.0025378708656911609 0 0.27766619426868899 0.018977421950794569 0 0.2600935707136679 0.019574361616358959 0 0.26464981823601458 0.038183209123269009 0 0.2600935707136679 0.019574361616358959 0 0.26464981823601458 0.038183209123269009 0 0.25044211127373811 0.032849993626191502 0 0.27766619426868899 0.018977421950794569 0 0.2600935707136679 0.019574361616358959 0 0.25446675038947358 0.0029162606258486688 0 0.27766619426868899 0.018977421950794569 0 0.25446675038947358 0.0029162606258486688 0 0.26047117107291767 -0.0019720443344692288 0 0.25446675038947358 0.0029162606258486688 0 0.26047117107291767 -0.0019720443344692288 0 0.28339325744793759 0.061338593161917712 0 0.2699795556074106 0.054659435659755229 0 0.26514968559830832 0.069915803624621298 0 0.28350496565293731 0.043820562147367653 0 0.28339325744793759 0.061338593161917712 0 0.2699795556074106 0.054659435659755229 0 0.28350496565293731 0.043820562147367653 0 0.27766619426868899 0.018977421950794569 0 0.26464981823601458 0.038183209123269009 0 0.28350496565293731 0.043820562147367653 0 0.2699795556074106 0.054659435659755229 0 0.26464981823601458 0.038183209123269009 0 0.26464981823601458 0.038183209123269009 0 0.25174039047255609 0.044464402284776217 0 0.2585751734657834 0.052327775232976027 0 0.26464981823601458 0.038183209123269009 0 0.25044211127373811 0.032849993626191502 0 0.25174039047255609 0.044464402284776217 0 0.25174039047255609 0.044464402284776217 0 0.25102243244437311 0.053297338652025752 0 0.2585751734657834 0.052327775232976027 0 0.2699795556074106 0.054659435659755229 0 0.26464981823601458 0.038183209123269009 0 0.2585751734657834 0.052327775232976027 0 0.2699795556074106 0.054659435659755229 0 0.2585751734657834 0.052327775232976027 0 0.26000268679747079 0.061003988239662958 0 0.2699795556074106 0.054659435659755229 0 0.26000268679747079 0.061003988239662958 0 0.26514968559830832 0.069915803624621298 0 0.2585751734657834 0.052327775232976027 0 0.26000268679747079 0.061003988239662958 0 0.2530174900015254 0.0600809219264858 0 0.25102243244437311 0.053297338652025752 0 0.2585751734657834 0.052327775232976027 0 0.2530174900015254 0.0600809219264858 0 0.24751669685985911 0.059618880130872708 0 0.25102243244437311 0.053297338652025752 0 0.2530174900015254 0.0600809219264858 0 0.24853219730195361 0.063845178725116872 0 0.2530174900015254 0.0600809219264858 0 0.25274476311700622 0.067427493409812952 0 0.2530174900015254 0.0600809219264858 0 0.25274476311700622 0.067427493409812952 0 0.26000268679747079 0.061003988239662958 0 0.2530174900015254 0.0600809219264858 0 0.25274476311700622 0.067427493409812952 0 0.25274476311700622 0.067427493409812952 0 0.25243039498113262 0.075895774732197205 0 0.24842415088314279 0.069033451464499671 0 0.25274476311700622 0.067427493409812952 0 0.25243039498113262 0.075895774732197205 0 0.25274476311700622 0.067427493409812952 0 0.25243039498113262 0.075895774732197205 0 0.26514968559830832 0.069915803624621298 0 0.25243039498113262 0.075895774732197205 0 0.26514968559830832 0.069915803624621298 0 0.26417250328098718 0.085299079350852347 0 0.25243039498113262 0.075895774732197205 0 0.26514968559830832 0.069915803624621298 0 0.26000268679747079 0.061003988239662958 0 0.25274476311700622 0.067427493409812952 0 0.26514968559830832 0.069915803624621298 0 0.25274476311700622 0.067427493409812952 0 0.26514968559830832 0.069915803624621298 0 0.25243039498113262 0.075895774732197205 0 0.26417250328098718 0.085299079350852347 0 0.25158482098595109 0.098673396421397969 0 0.25243039498113262 0.075895774732197205 0 0.25158482098595109 0.098673396421397969 0 0.26417250328098718 0.085299079350852347 0 0.27563544099652842 0.091217529053328833 0 0.26597619666038957 0.098681263799979324 0 0.26417250328098718 0.085299079350852347 0 0.27658940398852799 0.081360569412953818 0 0.27563544099652842 0.091217529053328833 0 0.26514968559830832 0.069915803624621298 0 0.26417250328098718 0.085299079350852347 0 0.27658940398852799 0.081360569412953818 0 0.27658940398852799 0.081360569412953818 0 0.27563544099652842 0.091217529053328833 0 0.28742128170162778 0.087331448045782731 0 0.28339325744793759 0.061338593161917712 0 0.26514968559830832 0.069915803624621298 0 0.29259370646201821 0.075420814845242989 0 0.26514968559830832 0.069915803624621298 0 0.27658940398852799 0.081360569412953818 0 0.29259370646201821 0.075420814845242989 0 0.28339325744793759 0.061338593161917712 0 0.26514968559830832 0.069915803624621298 0 0.26514968559830832 0.069915803624621298 0 0.29259370646201821 0.075420814845242989 0 0.29882370077581188 0.062479238108283437 0 0.28339325744793759 0.061338593161917712 0 0.29259370646201821 0.075420814845242989 0 0.27658940398852799 0.081360569412953818 0 0.29259370646201821 0.075420814845242989 0 0.28742128170162778 0.087331448045782731 0 0.27563544099652842 0.091217529053328833 0 0.28742128170162778 0.087331448045782731 0 0.29001374252644291 0.099006193890217781 0 0.28742128170162778 0.087331448045782731 0 0.30227411453462139 0.089652133027170247 0 0.29001374252644291 0.099006193890217781 0 0.29259370646201821 0.075420814845242989 0 0.28742128170162778 0.087331448045782731 0 0.30227411453462139 0.089652133027170247 0 0.32003772732572838 0.080925826065863432 0 0.29259370646201821 0.075420814845242989 0 0.30227411453462139 0.089652133027170247 0 0.32003772732572838 0.080925826065863432 0 0.29259370646201821 0.075420814845242989 0 0.32003772732572838 0.080925826065863432 0 0.29882370077581188 0.062479238108283437 0 0.29259370646201821 0.075420814845242989 0 0.32003772732572838 0.080925826065863432 0 0.29882370077581188 0.062479238108283437 0 0.31518448171420999 0.065085558788002928 0 0.32003772732572838 0.080925826065863432 0 0.29882370077581188 0.062479238108283437 0 0.29818169174329712 0.11066146566519899 0 0.31114536757858358 0.11742006929579971 0 0.294250496481684 0.12267566802032639 0 0.31114536757858358 0.11742006929579971 0 0.294250496481684 0.12267566802032639 0 0.30313841955192899 0.13260249050964579 0 0.29818169174329712 0.11066146566519899 0 0.31114536757858358 0.11742006929579971 0 0.30640852481201453 0.1024735992044304 0 0.30227411453462139 0.089652133027170247 0 0.30640852481201453 0.1024735992044304 0 0.29001374252644291 0.099006193890217781 0 0.29818169174329712 0.11066146566519899 0 0.30640852481201453 0.1024735992044304 0 0.29001374252644291 0.099006193890217781 0 0.31657863646219547 0.093324099257994786 0 0.30227411453462139 0.089652133027170247 0 0.30640852481201453 0.1024735992044304 0 0.29818169174329712 0.11066146566519899 0 0.29001374252644291 0.099006193890217781 0 0.28729541733308872 0.1128284558108848 0 0.29001374252644291 0.099006193890217781 0 0.28729541733308872 0.1128284558108848 0 0.27577858748266387 0.1072301355245756 0 0.29818169174329712 0.11066146566519899 0 0.28729541733308872 0.1128284558108848 0 0.294250496481684 0.12267566802032639 0 0.28729541733308872 0.1128284558108848 0 0.294250496481684 0.12267566802032639 0 0.28067449336876182 0.1220521091494646 0 0.28067449336876182 0.1220521091494646 0 0.26956705708048567 0.1198361090660386 0 0.27577858748266387 0.1072301355245756 0 0.28729541733308872 0.1128284558108848 0 0.28067449336876182 0.1220521091494646 0 0.27577858748266387 0.1072301355245756 0 0.26956705708048567 0.1198361090660386 0 0.27577858748266387 0.1072301355245756 0 0.26270963055581759 0.11098617864974181 0 0.27563544099652842 0.091217529053328833 0 0.27577858748266387 0.1072301355245756 0 0.26597619666038957 0.098681263799979324 0 0.27563544099652842 0.091217529053328833 0 0.29001374252644291 0.099006193890217781 0 0.27577858748266387 0.1072301355245756 0 0.27577858748266387 0.1072301355245756 0 0.26597619666038957 0.098681263799979324 0 0.26270963055581759 0.11098617864974181 0 0.25158482098595109 0.098673396421397969 0 0.25094552198087999 0.11589449234768209 0 0.25158482098595109 0.098673396421397969 0 0.26270963055581759 0.11098617864974181 0 0.25094552198087999 0.11589449234768209 0 0.26417250328098718 0.085299079350852347 0 0.26597619666038957 0.098681263799979324 0 0.25158482098595109 0.098673396421397969 0 0.26597619666038957 0.098681263799979324 0 0.25158482098595109 0.098673396421397969 0 0.26270963055581759 0.11098617864974181 0 0.25158482098595109 0.098673396421397969 0 0.26270963055581759 0.11098617864974181 0 0.25094552198087999 0.11589449234768209 0 0.25030622297580962 0.13311558827396619 0 0.26022612795132161 0.12333036834530881 0 0.25094552198087999 0.11589449234768209 0 0.25030622297580962 0.13311558827396619 0 0.26956705708048567 0.1198361090660386 0 0.26022612795132161 0.12333036834530881 0 0.26270963055581759 0.11098617864974181 0 0.26022612795132161 0.12333036834530881 0 0.26270963055581759 0.11098617864974181 0 0.25094552198087999 0.11589449234768209 0 0.26956705708048567 0.1198361090660386 0 0.26022612795132161 0.12333036834530881 0 0.26675796828336718 0.1380571931171293 0 0.26022612795132161 0.12333036834530881 0 0.25030622297580962 0.13311558827396619 0 0.26675796828336718 0.1380571931171293 0 0.25030622297580962 0.13311558827396619 0 0.26675796828336718 0.1380571931171293 0 0.25030622297580962 0.13311558827396619 0 0.26675796828336718 0.1380571931171293 0 0.25638724149227848 0.14295410589973731 0 0.25004344172447263 0.14019424959050239 0 0.25030622297580962 0.13311558827396619 0 0.25638724149227848 0.14295410589973731 0 0.25004344172447263 0.14019424959050239 0 0.25030622297580962 0.13311558827396619 0 0.26675796828336718 0.1380571931171293 0 0.28320971359092417 0.1429987979602943 0 0.26675796828336718 0.1380571931171293 0 0.28666270206708028 0.1324408374186071 0 0.28320971359092417 0.1429987979602943 0 0.28067449336876182 0.1220521091494646 0 0.26956705708048567 0.1198361090660386 0 0.26675796828336718 0.1380571931171293 0 0.28067449336876182 0.1220521091494646 0 0.26675796828336718 0.1380571931171293 0 0.28666270206708028 0.1324408374186071 0 0.26675796828336718 0.1380571931171293 0 0.27436529468354132 0.15433220537778311 0 0.26010861073109098 0.15248373785575309 0 0.26675796828336718 0.1380571931171293 0 0.27436529468354132 0.15433220537778311 0 0.28320971359092417 0.1429987979602943 0 0.26675796828336718 0.1380571931171293 0 0.26010861073109098 0.15248373785575309 0 0.25638724149227848 0.14295410589973731 0 0.2496536413094039 0.15044712256699261 0 0.25004344172447263 0.14019424959050239 0 0.25638724149227848 0.14295410589973731 0 0.24653130607993951 0.16237692388552691 0 0.2496536413094039 0.15044712256699261 0 0.26010861073109098 0.15248373785575309 0 0.2496536413094039 0.15044712256699261 0 0.26010861073109098 0.15248373785575309 0 0.25638724149227848 0.14295410589973731 0 0.24653130607993951 0.16237692388552691 0 0.25292738168467233 0.17649485219682931 0 0.26638423851283249 0.16867758561061549 0 0.24653130607993951 0.16237692388552691 0 0.26010861073109098 0.15248373785575309 0 0.26638423851283249 0.16867758561061549 0 0.24528107816237801 0.1907036486386274 0 0.25292738168467233 0.17649485219682931 0 0.26633433714882182 0.18577592949096661 0 0.25292738168467233 0.17649485219682931 0 0.26633433714882182 0.18577592949096661 0 0.26638423851283249 0.16867758561061549 0 0.27723266788850742 0.181048228772968 0 0.26638423851283249 0.16867758561061549 0 0.28391425324491287 0.17071999404263091 0 0.26633433714882182 0.18577592949096661 0 0.27723266788850742 0.181048228772968 0 0.26638423851283249 0.16867758561061549 0 0.27436529468354132 0.15433220537778311 0 0.26010861073109098 0.15248373785575309 0 0.26638423851283249 0.16867758561061549 0 0.27436529468354132 0.15433220537778311 0 0.26638423851283249 0.16867758561061549 0 0.28391425324491287 0.17071999404263091 0 0.27436529468354132 0.15433220537778311 0 0.28391425324491287 0.17071999404263091 0 0.29097703849613438 0.15773848939083679 0 0.28391425324491287 0.17071999404263091 0 0.2931647794093819 0.16879209887591959 0 0.29097703849613438 0.15773848939083679 0 0.2931647794093819 0.16879209887591959 0 0.29097703849613438 0.15773848939083679 0 0.30040947706207388 0.16512632217721829 0 0.28391425324491287 0.17071999404263091 0 0.28743664533084129 0.187357279865842 0 0.29743995151898561 0.17866098634217961 0 0.27723266788850742 0.181048228772968 0 0.28391425324491287 0.17071999404263091 0 0.28743664533084129 0.187357279865842 0 0.28391425324491287 0.17071999404263091 0 0.2931647794093819 0.16879209887591959 0 0.29743995151898561 0.17866098634217961 0 0.28743664533084129 0.187357279865842 0 0.29743995151898561 0.17866098634217961 0 0.29971043857951379 0.19298806906372529 0 0.29743995151898561 0.17866098634217961 0 0.30929675685570829 0.1858318568065235 0 0.29971043857951379 0.19298806906372529 0 0.29743995151898561 0.17866098634217961 0 0.3101655001798202 0.17563615506282959 0 0.30040947706207388 0.16512632217721829 0 0.29743995151898561 0.17866098634217961 0 0.3101655001798202 0.17563615506282959 0 0.30929675685570829 0.1858318568065235 0 0.30040947706207388 0.16512632217721829 0 0.30453528129870422 0.15487579661148021 0 0.32848741365188411 0.1727716232507491 0 0.29097703849613438 0.15773848939083679 0 0.30040947706207388 0.16512632217721829 0 0.30453528129870422 0.15487579661148021 0 0.2931647794093819 0.16879209887591959 0 0.29743995151898561 0.17866098634217961 0 0.30040947706207388 0.16512632217721829 0 0.29097703849613438 0.15773848939083679 0 0.30453528129870422 0.15487579661148021 0 0.29618567382365713 0.14404403195872001 0 0.30453528129870422 0.15487579661148021 0 0.30873747279203018 0.14281046260302349 0 0.29618567382365713 0.14404403195872001 0 0.30453528129870422 0.15487579661148021 0 0.30873747279203018 0.14281046260302349 0 0.32007589174333823 0.14676000458717811 0 0.30873747279203018 0.14281046260302349 0 0.30313841955192899 0.13260249050964579 0 0.3195478300457561 0.1332621056988223 0 0.31114536757858358 0.11742006929579971 0 0.30313841955192899 0.13260249050964579 0 0.3195478300457561 0.1332621056988223 0 0.30873747279203018 0.14281046260302349 0 0.30313841955192899 0.13260249050964579 0 0.29618567382365713 0.14404403195872001 0 0.294250496481684 0.12267566802032639 0 0.30313841955192899 0.13260249050964579 0 0.28666270206708028 0.1324408374186071 0 0.30313841955192899 0.13260249050964579 0 0.28666270206708028 0.1324408374186071 0 0.29618567382365713 0.14404403195872001 0 0.294250496481684 0.12267566802032639 0 0.28067449336876182 0.1220521091494646 0 0.28666270206708028 0.1324408374186071 0 0.28666270206708028 0.1324408374186071 0 0.28320971359092417 0.1429987979602943 0 0.29618567382365713 0.14404403195872001 0 0.27436529468354132 0.15433220537778311 0 0.29097703849613438 0.15773848939083679 0 0.28320971359092417 0.1429987979602943 0 0.29097703849613438 0.15773848939083679 0 0.28320971359092417 0.1429987979602943 0 0.29618567382365713 0.14404403195872001 0 0.28119448123381058 0.25405304303149878 0 0.26221447651104962 0.2479993693513689 0 0.28440499104296979 0.23439140090611099 0 0.26221447651104962 0.2479993693513689 0 0.26853130556434218 0.23400660741274959 0 0.28440499104296979 0.23439140090611099 0 0.26221447651104962 0.2479993693513689 0 0.28440499104296979 0.23439140090611099 0 0.2457442494512444 0.24022391879071339 0 0.26221447651104962 0.2479993693513689 0 0.25511338863332461 0.22468137717712711 0 0.26221447651104962 0.2479993693513689 0 0.25511338863332461 0.22468137717712711 0 0.26853130556434218 0.23400660741274959 0 0.26221447651104962 0.2479993693513689 0 0.25511338863332461 0.22468137717712711 0 0.25511338863332461 0.22468137717712711 0 0.25242827713160498 0.21540237912569379 0 0.25511338863332461 0.22468137717712711 0 0.2794126892910288 0.21617120911671081 0 0.25511338863332461 0.22468137717712711 0 0.26853130556434218 0.23400660741274959 0 0.2794126892910288 0.21617120911671081 0 0.26853130556434218 0.23400660741274959 0 0.2794126892910288 0.21617120911671081 0 0.28440499104296979 0.23439140090611099 0 0.25511338863332461 0.22468137717712711 0 0.2794126892910288 0.21617120911671081 0 0.26644318031571418 0.20408753099865831 0 0.2794126892910288 0.21617120911671081 0 0.26644318031571418 0.20408753099865831 0 0.27722953884408802 0.19656269719262509 0 0.24528107816237801 0.1907036486386274 0 0.26644318031571418 0.20408753099865831 0 0.25242827713160498 0.21540237912569379 0 0.25511338863332461 0.22468137717712711 0 0.26644318031571418 0.20408753099865831 0 0.25242827713160498 0.21540237912569379 0 0.26644318031571418 0.20408753099865831 0 0.25242827713160498 0.21540237912569379 0 0.24528107816237801 0.1907036486386274 0 0.26633433714882182 0.18577592949096661 0 0.26644318031571418 0.20408753099865831 0 0.26633433714882182 0.18577592949096661 0 0.26644318031571418 0.20408753099865831 0 0.27722953884408802 0.19656269719262509 0 0.27723266788850742 0.181048228772968 0 0.28743664533084129 0.187357279865842 0 0.27722953884408802 0.19656269719262509 0 0.26633433714882182 0.18577592949096661 0 0.27723266788850742 0.181048228772968 0 0.27722953884408802 0.19656269719262509 0 0.28743664533084129 0.187357279865842 0 0.27722953884408802 0.19656269719262509 0 0.28939512316467059 0.2005252056429343 0 0.28743664533084129 0.187357279865842 0 0.28939512316467059 0.2005252056429343 0 0.29971043857951379 0.19298806906372529 0 0.30929675685570829 0.1858318568065235 0 0.29971043857951379 0.19298806906372529 0 0.31162694501442678 0.19735313208654229 0 0.29971043857951379 0.19298806906372529 0 0.31162694501442678 0.19735313208654229 0 0.30371198994873311 0.20766104105629449 0 0.28939512316467059 0.2005252056429343 0 0.29971043857951379 0.19298806906372529 0 0.30371198994873311 0.20766104105629449 0 0.2794126892910288 0.21617120911671081 0 0.30371198994873311 0.20766104105629449 0 0.2794126892910288 0.21617120911671081 0 0.30371198994873311 0.20766104105629449 0 0.30659550557489001 0.220783432460853 0 0.2794126892910288 0.21617120911671081 0 0.27722953884408802 0.19656269719262509 0 0.28939512316467059 0.2005252056429343 0 0.2794126892910288 0.21617120911671081 0 0.28939512316467059 0.2005252056429343 0 0.30371198994873311 0.20766104105629449 0 0.30659550557489001 0.220783432460853 0 0.28440499104296979 0.23439140090611099 0 0.2794126892910288 0.21617120911671081 0 0.30659550557489001 0.220783432460853 0 0.28440499104296979 0.23439140090611099 0 0.30659550557489001 0.220783432460853 0 0.30328699804120918 0.24394477185791469 0 0.28440499104296979 0.23439140090611099 0 0.30659550557489001 0.220783432460853 0 0.30328699804120918 0.24394477185791469 0 0.31607427666693672 0.2331905299380852 0 0.28119448123381058 0.25405304303149878 0 0.30328699804120918 0.24394477185791469 0 0.28440499104296979 0.23439140090611099 0 0.3433555784436142 0.25004320974280247 0 0.34183468199228573 0.23727684870966961 0 0.33092809789354199 0.24744869965648561 0 0.34183468199228573 0.23727684870966961 0 0.3288410404878227 0.2348757256337824 0 0.33092809789354199 0.24744869965648561 0 0.3288410404878227 0.2348757256337824 0 0.33092809789354199 0.24744869965648561 0 0.31845456220733243 0.24449663650262579 0 0.31879452400631653 0.25919465198291952 0 0.30328699804120918 0.24394477185791469 0 0.31845456220733243 0.24449663650262579 0 0.30328699804120918 0.24394477185791469 0 0.31845456220733243 0.24449663650262579 0 0.31607427666693672 0.2331905299380852 0 0.3288410404878227 0.2348757256337824 0 0.31845456220733243 0.24449663650262579 0 0.31607427666693672 0.2331905299380852 0 0.3288410404878227 0.2348757256337824 0 0.31607427666693672 0.2331905299380852 0 0.32372534117020862 0.22390137225637691 0 0.30659550557489001 0.220783432460853 0 0.31607427666693672 0.2331905299380852 0 0.32372534117020862 0.22390137225637691 0 0.3288410404878227 0.2348757256337824 0 0.32372534117020862 0.22390137225637691 0 0.33832986301458301 0.22348170923356889 0 0.34183468199228573 0.23727684870966961 0 0.3288410404878227 0.2348757256337824 0 0.33832986301458301 0.22348170923356889 0 0.32372534117020862 0.22390137225637691 0 0.33832986301458301 0.22348170923356889 0 0.32878602010681029 0.20717546401559489 0 0.33832986301458301 0.22348170923356889 0 0.32878602010681029 0.20717546401559489 0 0.35089693608391498 0.21212819010674691 0 0.32878602010681029 0.20717546401559489 0 0.35097653463873058 0.19356749557033681 0 0.35089693608391498 0.21212819010674691 0 0.30659550557489001 0.220783432460853 0 0.32372534117020862 0.22390137225637691 0 0.32878602010681029 0.20717546401559489 0 0.31162694501442678 0.19735313208654229 0 0.30371198994873311 0.20766104105629449 0 0.32878602010681029 0.20717546401559489 0 0.30371198994873311 0.20766104105629449 0 0.30659550557489001 0.220783432460853 0 0.32878602010681029 0.20717546401559489 0 0.30659550557489001 0.220783432460853 0 0.32878602010681029 0.20717546401559489 0 0.32878602010681029 0.20717546401559489 0 0.31972446529152482 0.19052244909679969 0 0.3336272658304279 0.18895925974375941 0 0.31162694501442678 0.19735313208654229 0 0.32878602010681029 0.20717546401559489 0 0.31972446529152482 0.19052244909679969 0 0.30929675685570829 0.1858318568065235 0 0.31162694501442678 0.19735313208654229 0 0.31972446529152482 0.19052244909679969 0 0.32878602010681029 0.20717546401559489 0 0.3336272658304279 0.18895925974375941 0 0.35097653463873058 0.19356749557033681 0 0.32878602010681029 0.20717546401559489 0 0.35097653463873058 0.19356749557033681 0 0.3336272658304279 0.18895925974375941 0 0.35097653463873058 0.19356749557033681 0 0.35656535024169428 0.1804169243242798 0 0.35097653463873058 0.19356749557033681 0 0.35896651107905142 0.20360726904620211 0 0.35089693608391498 0.21212819010674691 0 0.35097653463873058 0.19356749557033681 0 0.36405518175537521 0.19484170215684679 0 0.35896651107905142 0.20360726904620211 0 0.35097653463873058 0.19356749557033681 0 0.36405518175537521 0.19484170215684679 0 0.35656535024169428 0.1804169243242798 0 0.36405518175537521 0.19484170215684679 0 0.35656535024169428 0.1804169243242798 0 0.38464328683150451 0.18806222539781059 0 0.36405518175537521 0.19484170215684679 0 0.36923798170140371 0.20928007436804161 0 0.38464328683150451 0.18806222539781059 0 0.36405518175537521 0.19484170215684679 0 0.36923798170140371 0.20928007436804161 0 0.35896651107905142 0.20360726904620211 0 0.36923798170140371 0.20928007436804161 0 0.36132702422268731 0.21787493872225441 0 0.35896651107905142 0.20360726904620211 0 0.36923798170140371 0.20928007436804161 0 0.36132702422268731 0.21787493872225441 0 0.37292139258550783 0.22672254500020811 0 0.36132702422268731 0.21787493872225441 0 0.35896651107905142 0.20360726904620211 0 0.35089693608391498 0.21212819010674691 0 0.34183468199228573 0.23727684870966961 0 0.33832986301458301 0.22348170923356889 0 0.35524969613090918 0.22837961108452459 0 0.36132702422268731 0.21787493872225441 0 0.35089693608391498 0.21212819010674691 0 0.35524969613090918 0.22837961108452459 0 0.33832986301458301 0.22348170923356889 0 0.35089693608391498 0.21212819010674691 0 0.35524969613090918 0.22837961108452459 0 0.36132702422268731 0.21787493872225441 0 0.35524969613090918 0.22837961108452459 0 0.37292139258550783 0.22672254500020811 0 0.35524969613090918 0.22837961108452459 0 0.37292139258550783 0.22672254500020811 0 0.36587213359177301 0.2378375665458646 0 0.37292139258550783 0.22672254500020811 0 0.36587213359177301 0.2378375665458646 0 0.3757768555661396 0.240133652284411 0 0.36587213359177301 0.2378375665458646 0 0.37169426656027921 0.24972740256563611 0 0.3757768555661396 0.240133652284411 0 0.36587213359177301 0.2378375665458646 0 0.37169426656027921 0.24972740256563611 0 0.36205361842742478 0.24882498742118489 0 0.36587213359177301 0.2378375665458646 0 0.36205361842742478 0.24882498742118489 0 0.35356337405553911 0.24205426642971811 0 0.35175757775775729 0.2532797976346674 0 0.36205361842742478 0.24882498742118489 0 0.35356337405553911 0.24205426642971811 0 0.35524969613090918 0.22837961108452459 0 0.36587213359177301 0.2378375665458646 0 0.35356337405553911 0.24205426642971811 0 0.34183468199228573 0.23727684870966961 0 0.35524969613090918 0.22837961108452459 0 0.35356337405553911 0.24205426642971811 0 0.3433555784436142 0.25004320974280247 0 0.34183468199228573 0.23727684870966961 0 0.35356337405553911 0.24205426642971811 0 0.3433555784436142 0.25004320974280247 0 0.35175757775775729 0.2532797976346674 0 0.35356337405553911 0.24205426642971811 0 0.33379856680907583 0.1437068241164389 0 0.32007589174333823 0.14676000458717811 0 0.33365817402274128 0.15789089208148979 0 0.33379856680907583 0.1437068241164389 0 0.33365817402274128 0.15789089208148979 0 0.34780073530519279 0.14835628742565241 0 0.33379856680907583 0.1437068241164389 0 0.34780073530519279 0.14835628742565241 0 0.34586764947947463 0.1362539899128139 0 0.33379856680907583 0.1437068241164389 0 0.33436770153514289 0.13112975471366969 0 0.34586764947947463 0.1362539899128139 0 0.34956654336434939 0.1234914401014125 0 0.33436770153514289 0.13112975471366969 0 0.34586764947947463 0.1362539899128139 0 0.33379856680907583 0.1437068241164389 0 0.33436770153514289 0.13112975471366969 0 0.3195478300457561 0.1332621056988223 0 0.32606950933900308 0.1158177097477945 0 0.33436770153514289 0.13112975471366969 0 0.3195478300457561 0.1332621056988223 0 0.30873747279203018 0.14281046260302349 0 0.3195478300457561 0.1332621056988223 0 0.32007589174333823 0.14676000458717811 0 0.30453528129870422 0.15487579661148021 0 0.32007589174333823 0.14676000458717811 0 0.33365817402274128 0.15789089208148979 0 0.33379856680907583 0.1437068241164389 0 0.3195478300457561 0.1332621056988223 0 0.32007589174333823 0.14676000458717811 0 0.30453528129870422 0.15487579661148021 0 0.33365817402274128 0.15789089208148979 0 0.30453528129870422 0.15487579661148021 0 0.32848741365188411 0.1727716232507491 0 0.33365817402274128 0.15789089208148979 0 0.30040947706207388 0.16512632217721829 0 0.32848741365188411 0.1727716232507491 0 0.3101655001798202 0.17563615506282959 0 0.30040947706207388 0.16512632217721829 0 0.32848741365188411 0.1727716232507491 0 0.3101655001798202 0.17563615506282959 0 0.31983557186529732 0.18171103000860481 0 0.32848741365188411 0.1727716232507491 0 0.3336272658304279 0.18895925974375941 0 0.31983557186529732 0.18171103000860481 0 0.32848741365188411 0.1727716232507491 0 0.3101655001798202 0.17563615506282959 0 0.30929675685570829 0.1858318568065235 0 0.31983557186529732 0.18171103000860481 0 0.30929675685570829 0.1858318568065235 0 0.31972446529152482 0.19052244909679969 0 0.31983557186529732 0.18171103000860481 0 0.31972446529152482 0.19052244909679969 0 0.3336272658304279 0.18895925974375941 0 0.31983557186529732 0.18171103000860481 0 0.32848741365188411 0.1727716232507491 0 0.34507730906385942 0.16855187839241309 0 0.35656535024169428 0.1804169243242798 0 0.3336272658304279 0.18895925974375941 0 0.32848741365188411 0.1727716232507491 0 0.35656535024169428 0.1804169243242798 0 0.32848741365188411 0.1727716232507491 0 0.35656535024169428 0.1804169243242798 0 0.32848741365188411 0.1727716232507491 0 0.33365817402274128 0.15789089208148979 0 0.34507730906385942 0.16855187839241309 0 0.33365817402274128 0.15789089208148979 0 0.34507730906385942 0.16855187839241309 0 0.36278106674677829 0.1609059875514994 0 0.34507730906385942 0.16855187839241309 0 0.35656535024169428 0.1804169243242798 0 0.36278106674677829 0.1609059875514994 0 0.33365817402274128 0.15789089208148979 0 0.36278106674677829 0.1609059875514994 0 0.35656535024169428 0.1804169243242798 0 0.37356219856206202 0.1741215612114578 0 0.38464328683150451 0.18806222539781059 0 0.35656535024169428 0.1804169243242798 0 0.38464328683150451 0.18806222539781059 0 0.35656535024169428 0.1804169243242798 0 0.37356219856206202 0.1741215612114578 0 0.36278106674677829 0.1609059875514994 0 0.36278106674677829 0.1609059875514994 0 0.36531512046589693 0.1378839500987098 0 0.37680076681991098 0.15092733218095339 0 0.36278106674677829 0.1609059875514994 0 0.34780073530519279 0.14835628742565241 0 0.36531512046589693 0.1378839500987098 0 0.34780073530519279 0.14835628742565241 0 0.34586764947947463 0.1362539899128139 0 0.36531512046589693 0.1378839500987098 0 0.33365817402274128 0.15789089208148979 0 0.36278106674677829 0.1609059875514994 0 0.34780073530519279 0.14835628742565241 0 0.34956654336434939 0.1234914401014125 0 0.34586764947947463 0.1362539899128139 0 0.36531512046589693 0.1378839500987098 0 0.34956654336434939 0.1234914401014125 0 0.36322639358210312 0.11848039068348271 0 0.36531512046589693 0.1378839500987098 0 0.36322639358210312 0.11848039068348271 0 0.36531512046589693 0.1378839500987098 0 0.38482072671029011 0.13725767299229241 0 0.36322639358210312 0.11848039068348271 0 0.38482072671029011 0.13725767299229241 0 0.36322639358210312 0.11848039068348271 0 0.38482072671029011 0.13725767299229241 0 0.38005682511468147 0.12140739343396729 0 0.38482072671029011 0.13725767299229241 0 0.39398634319161102 0.12556361147638159 0 0.38005682511468147 0.12140739343396729 0 0.38482072671029011 0.13725767299229241 0 0.39398634319161102 0.12556361147638159 0 0.40386822996399702 0.1370092008917044 0 0.39398634319161102 0.12556361147638159 0 0.40386822996399702 0.1370092008917044 0 0.40630256149234217 0.12337914253670321 0 0.38482072671029011 0.13725767299229241 0 0.40641505983847698 0.15603495530110209 0 0.38482072671029011 0.13725767299229241 0 0.40386822996399702 0.1370092008917044 0 0.40641505983847698 0.15603495530110209 0 0.38482072671029011 0.13725767299229241 0 0.39190395947081519 0.16392108302150901 0 0.40641505983847698 0.15603495530110209 0 0.36531512046589693 0.1378839500987098 0 0.38482072671029011 0.13725767299229241 0 0.37680076681991098 0.15092733218095339 0 0.38482072671029011 0.13725767299229241 0 0.37680076681991098 0.15092733218095339 0 0.39190395947081519 0.16392108302150901 0 0.36278106674677829 0.1609059875514994 0 0.39190395947081519 0.16392108302150901 0 0.36278106674677829 0.1609059875514994 0 0.37680076681991098 0.15092733218095339 0 0.39190395947081519 0.16392108302150901 0 0.37356219856206202 0.1741215612114578 0 0.36278106674677829 0.1609059875514994 0 0.39190395947081519 0.16392108302150901 0 0.37356219856206202 0.1741215612114578 0 0.39190395947081519 0.16392108302150901 0 0.38464328683150451 0.18806222539781059 0 0.4059128807594603 0.17981630131623391 0 0.39190395947081519 0.16392108302150901 0 0.38464328683150451 0.18806222539781059 0 0.39190395947081519 0.16392108302150901 0 0.42102685219485209 0.16693617849151851 0 0.40641505983847698 0.15603495530110209 0 0.4059128807594603 0.17981630131623391 0 0.39190395947081519 0.16392108302150901 0 0.42102685219485209 0.16693617849151851 0 0.42102685219485209 0.16693617849151851 0 0.40641505983847698 0.15603495530110209 0 0.41490094777653419 0.14712571815411829 0 0.39190395947081519 0.16392108302150901 0 0.42102685219485209 0.16693617849151851 0 0.4059128807594603 0.17981630131623391 0 0.42102685219485209 0.16693617849151851 0 0.42759287120751482 0.1799189573059411 0 0.4059128807594603 0.17981630131623391 0 0.42759287120751482 0.1799189573059411 0 0.42045703890892938 0.19185412915784311 0 0.42102685219485209 0.16693617849151851 0 0.42759287120751482 0.1799189573059411 0 0.45014974491888898 0.16995127396152809 0 0.42759287120751482 0.1799189573059411 0 0.42045703890892938 0.19185412915784311 0 0.43799329450951457 0.1898848624547933 0 0.42102685219485209 0.16693617849151851 0 0.45014974491888898 0.16995127396152809 0 0.42102685219485209 0.16693617849151851 0 0.43641214087317609 0.15776157540708571 0 0.42820809332857229 0.14540676379554701 0 0.42102685219485209 0.16693617849151851 0 0.43641214087317609 0.15776157540708571 0 0.45014974491888898 0.16995127396152809 0 0.43641214087317609 0.15776157540708571 0 0.42820809332857229 0.14540676379554701 0 0.44305345270963392 0.14224085277467549 0 0.42820809332857229 0.14540676379554701 0 0.43267139290449452 0.12562392175117529 0 0.41815906511665779 0.13368892679480551 0 0.42820809332857229 0.14540676379554701 0 0.43267139290449452 0.12562392175117529 0 0.44305345270963392 0.14224085277467549 0 0.43267139290449452 0.12562392175117529 0 0.41815906511665779 0.13368892679480551 0 0.41840244549433692 0.1204435227777134 0 0.41815906511665779 0.13368892679480551 0 0.41840244549433692 0.1204435227777134 0 0.40630256149234217 0.12337914253670321 0 0.40386822996399702 0.1370092008917044 0 0.41815906511665779 0.13368892679480551 0 0.40630256149234217 0.12337914253670321 0 0.40386822996399702 0.1370092008917044 0 0.41815906511665779 0.13368892679480551 0 0.41490094777653419 0.14712571815411829 0 0.42102685219485209 0.16693617849151851 0 0.42820809332857229 0.14540676379554701 0 0.41490094777653419 0.14712571815411829 0 0.40386822996399702 0.1370092008917044 0 0.40641505983847698 0.15603495530110209 0 0.41490094777653419 0.14712571815411829 0 0.42820809332857229 0.14540676379554701 0 0.41815906511665779 0.13368892679480551 0 0.41490094777653419 0.14712571815411829 0 0.39196586341458151 0.242441409442547 0 0.40329821407583749 0.23025496453590971 0 0.40866327585672191 0.24600766979752939 0 0.38129994004966872 0.25577407136566988 0 0.39196586341458151 0.242441409442547 0 0.40866327585672191 0.24600766979752939 0 0.38129994004966872 0.25577407136566988 0 0.39196586341458151 0.242441409442547 0 0.38106847269238292 0.24536179082341181 0 0.37169426656027921 0.24972740256563611 0 0.38106847269238292 0.24536179082341181 0 0.3757768555661396 0.240133652284411 0 0.37292139258550783 0.22672254500020811 0 0.3757768555661396 0.240133652284411 0 0.38460543787124563 0.238732418458795 0 0.38106847269238292 0.24536179082341181 0 0.3757768555661396 0.240133652284411 0 0.38460543787124563 0.238732418458795 0 0.39196586341458151 0.242441409442547 0 0.38106847269238292 0.24536179082341181 0 0.38460543787124563 0.238732418458795 0 0.39196586341458151 0.242441409442547 0 0.38460543787124563 0.238732418458795 0 0.38844350160088592 0.2284985707660753 0 0.37292139258550783 0.22672254500020811 0 0.38460543787124563 0.238732418458795 0 0.38844350160088592 0.2284985707660753 0 0.37292139258550783 0.22672254500020811 0 0.38844350160088592 0.2284985707660753 0 0.38369130631537601 0.21297307403445409 0 0.38844350160088592 0.2284985707660753 0 0.39679964264504158 0.21937630878092959 0 0.38369130631537601 0.21297307403445409 0 0.38844350160088592 0.2284985707660753 0 0.39679964264504158 0.21937630878092959 0 0.40329821407583749 0.23025496453590971 0 0.39196586341458151 0.242441409442547 0 0.38844350160088592 0.2284985707660753 0 0.40329821407583749 0.23025496453590971 0 0.39679964264504158 0.21937630878092959 0 0.40329821407583749 0.23025496453590971 0 0.41066806580544729 0.2160617609406458 0 0.39598296716959969 0.20626700748070109 0 0.40513352984814438 0.19492560706685999 0 0.41066806580544729 0.2160617609406458 0 0.39679964264504158 0.21937630878092959 0 0.39598296716959969 0.20626700748070109 0 0.41066806580544729 0.2160617609406458 0 0.39679964264504158 0.21937630878092959 0 0.39598296716959969 0.20626700748070109 0 0.38369130631537601 0.21297307403445409 0 0.36923798170140371 0.20928007436804161 0 0.37292139258550783 0.22672254500020811 0 0.38369130631537601 0.21297307403445409 0 0.36923798170140371 0.20928007436804161 0 0.38369130631537601 0.21297307403445409 0 0.38464328683150451 0.18806222539781059 0 0.39598296716959969 0.20626700748070109 0 0.38369130631537601 0.21297307403445409 0 0.38464328683150451 0.18806222539781059 0 0.39598296716959969 0.20626700748070109 0 0.38464328683150451 0.18806222539781059 0 0.40513352984814438 0.19492560706685999 0 0.4059128807594603 0.17981630131623391 0 0.38464328683150451 0.18806222539781059 0 0.40513352984814438 0.19492560706685999 0 0.40513352984814438 0.19492560706685999 0 0.42045703890892938 0.19185412915784311 0 0.42444067869502011 0.20693424997503959 0 0.4059128807594603 0.17981630131623391 0 0.40513352984814438 0.19492560706685999 0 0.42045703890892938 0.19185412915784311 0 0.42045703890892938 0.19185412915784311 0 0.42444067869502011 0.20693424997503959 0 0.43799329450951457 0.1898848624547933 0 0.42444067869502011 0.20693424997503959 0 0.44184419378540352 0.2076794424592901 0 0.43799329450951457 0.1898848624547933 0 0.42444067869502011 0.20693424997503959 0 0.4302098735549707 0.2206458244329694 0 0.44184419378540352 0.2076794424592901 0 0.42444067869502011 0.20693424997503959 0 0.41066806580544729 0.2160617609406458 0 0.4302098735549707 0.2206458244329694 0 0.40513352984814438 0.19492560706685999 0 0.42444067869502011 0.20693424997503959 0 0.41066806580544729 0.2160617609406458 0 0.41066806580544729 0.2160617609406458 0 0.41777320819135039 0.22984229758728861 0 0.4302098735549707 0.2206458244329694 0 0.40329821407583749 0.23025496453590971 0 0.41066806580544729 0.2160617609406458 0 0.41777320819135039 0.22984229758728861 0 0.4302098735549707 0.2206458244329694 0 0.43602661166377499 0.2362412682293889 0 0.44584438813649652 0.2203436080528294 0 0.41777320819135039 0.22984229758728861 0 0.4302098735549707 0.2206458244329694 0 0.43602661166377499 0.2362412682293889 0 0.43602661166377499 0.2362412682293889 0 0.43076425121212841 0.2486853010718087 0 0.40866327585672191 0.24600766979752939 0 0.43602661166377499 0.2362412682293889 0 0.40866327585672191 0.24600766979752939 0 0.41777320819135039 0.22984229758728861 0 0.43602661166377499 0.2362412682293889 0 0.40866327585672191 0.24600766979752939 0 0.41664462513020523 0.25422696758609492 0 0.43076425121212841 0.2486853010718087 0 0.40866327585672191 0.24600766979752939 0 0.40329821407583749 0.23025496453590971 0 0.41777320819135039 0.22984229758728861 0 0.40866327585672191 0.24600766979752939 0 0.45166362976964691 0.25106894999712381 0 0.45384283414141641 0.23962742592169059 0 0.47583181488482379 0.2451422378191761 0 0.45166362976964691 0.25106894999712381 0 0.47583181488482379 0.2451422378191761 0 0.45384283414141641 0.23962742592169059 0 0.47692141707070451 0.23056955077157251 0 0.45166362976964691 0.25106894999712381 0 0.43076425121212841 0.2486853010718087 0 0.45384283414141641 0.23962742592169059 0 0.43602661166377499 0.2362412682293889 0 0.43076425121212841 0.2486853010718087 0 0.45384283414141641 0.23962742592169059 0 0.43076425121212841 0.2486853010718087 0 0.45384283414141641 0.23962742592169059 0 0.43602661166377499 0.2362412682293889 0 0.46338994747082818 0.22647486666124839 0 0.43602661166377499 0.2362412682293889 0 0.44584438813649652 0.2203436080528294 0 0.46338994747082818 0.22647486666124839 0 0.43602661166377499 0.2362412682293889 0 0.45384283414141641 0.23962742592169059 0 0.46338994747082818 0.22647486666124839 0 0.44584438813649652 0.2203436080528294 0 0.46338994747082818 0.22647486666124839 0 0.4574246187180494 0.20998202225832771 0 0.45384283414141641 0.23962742592169059 0 0.46338994747082818 0.22647486666124839 0 0.47692141707070451 0.23056955077157251 0 0.46338994747082818 0.22647486666124839 0 0.4574246187180494 0.20998202225832771 0 0.47311107537994651 0.21060674662752529 0 0.4574246187180494 0.20998202225832771 0 0.46861366351278472 0.19789432193598561 0 0.47311107537994651 0.21060674662752529 0 0.44584438813649652 0.2203436080528294 0 0.4574246187180494 0.20998202225832771 0 0.44184419378540352 0.2076794424592901 0 0.4302098735549707 0.2206458244329694 0 0.44584438813649652 0.2203436080528294 0 0.44184419378540352 0.2076794424592901 0 0.4574246187180494 0.20998202225832771 0 0.44184419378540352 0.2076794424592901 0 0.45120510308892831 0.19507838461398491 0 0.44184419378540352 0.2076794424592901 0 0.43799329450951457 0.1898848624547933 0 0.45120510308892831 0.19507838461398491 0 0.4574246187180494 0.20998202225832771 0 0.45120510308892831 0.19507838461398491 0 0.46861366351278472 0.19789432193598561 0 0.45120510308892831 0.19507838461398491 0 0.46861366351278472 0.19789432193598561 0 0.45014974491888898 0.16995127396152809 0 0.46861366351278472 0.19789432193598561 0 0.48377650321145821 0.20030440734603891 0 0.47890777313388699 0.17818810929941131 0 0.46861366351278472 0.19789432193598561 0 0.48377650321145821 0.20030440734603891 0 0.47311107537994651 0.21060674662752529 0 0.48377650321145821 0.20030440734603891 0 0.5 0.19442179120654851 0 0.47890777313388699 0.17818810929941131 0 0.48377650321145821 0.20030440734603891 0 0.5 0.19442179120654851 0 0.49075328327788142 0.2167084650931079 0 0.5 0.19442179120654851 0 0.49075328327788142 0.2167084650931079 0 0.49999999999999339 0.2215116756214566 0 0.48377650321145821 0.20030440734603891 0 0.49075328327788142 0.2167084650931079 0 0.47311107537994651 0.21060674662752529 0 0.46338994747082818 0.22647486666124839 0 0.49075328327788142 0.2167084650931079 0 0.47311107537994651 0.21060674662752529 0 0.46338994747082818 0.22647486666124839 0 0.49075328327788142 0.2167084650931079 0 0.46338994747082818 0.22647486666124839 0 0.49075328327788142 0.2167084650931079 0 0.47692141707070451 0.23056955077157251 0 0.47692141707070451 0.23056955077157251 0 0.49999999999999339 0.2215116756214566 0 0.50000000000000067 0.2392155256412283 0 0.49075328327788142 0.2167084650931079 0 0.47692141707070451 0.23056955077157251 0 0.49999999999999339 0.2215116756214566 0 0.47692141707070451 0.23056955077157251 0 0.49999999999999339 0.2215116756214566 0 0.50000000000000067 0.2392155256412283 0 0.47583181488482379 0.2451422378191761 0 0.48341195364679568 0.26002408893105827 0 0.50000000000000067 0.2392155256412283 0 0.47583181488482379 0.2451422378191761 0 0.47692141707070451 0.23056955077157251 0 0.50000000000000067 0.2392155256412283 0 0.47583181488482379 0.2451422378191761 0 0.45384283414141641 0.23962742592169059 0 0.47692141707070451 0.23056955077157251 0 0.47583181488482379 0.2451422378191761 0 0.46053260521531592 0.14091734283165991 0 0.45014974491888898 0.16995127396152809 0 0.47759274938693741 0.15337993901402261 0 0.46053260521531592 0.14091734283165991 0 0.47596637305353268 0.1236489788231635 0 0.45094723062946279 0.12208098845927939 0 0.46053260521531592 0.14091734283165991 0 0.44305345270963392 0.14224085277467549 0 0.45094723062946279 0.12208098845927939 0 0.43267139290449452 0.12562392175117529 0 0.44305345270963392 0.14224085277467549 0 0.45094723062946279 0.12208098845927939 0 0.46053260521531592 0.14091734283165991 0 0.44305345270963392 0.14224085277467549 0 0.45014974491888898 0.16995127396152809 0 0.43641214087317609 0.15776157540708571 0 0.44305345270963392 0.14224085277467549 0 0.45014974491888898 0.16995127396152809 0 0.42759287120751482 0.1799189573059411 0 0.43799329450951457 0.1898848624547933 0 0.45014974491888898 0.16995127396152809 0 0.43799329450951457 0.1898848624547933 0 0.45120510308892831 0.19507838461398491 0 0.45014974491888898 0.16995127396152809 0 0.46861366351278472 0.19789432193598561 0 0.45014974491888898 0.16995127396152809 0 0.47890777313388699 0.17818810929941131 0 0.45014974491888898 0.16995127396152809 0 0.47890777313388699 0.17818810929941131 0 0.47759274938693741 0.15337993901402261 0 0.5 0.19442179120654851 0 0.47890777313388699 0.17818810929941131 0 0.5 0.16733190679164031 0 0.47890777313388699 0.17818810929941131 0 0.5 0.16733190679164031 0 0.47759274938693741 0.15337993901402261 0 0.5 0.16733190679164031 0 0.47759274938693741 0.15337993901402261 0 0.5 0.14024202237673219 0 0.46053260521531592 0.14091734283165991 0 0.47759274938693741 0.15337993901402261 0 0.47596637305353268 0.1236489788231635 0 0.5 0.14024202237673219 0 0.5 0.11315213796182411 0 0.47596637305353268 0.1236489788231635 0 0.47759274938693741 0.15337993901402261 0 0.5 0.14024202237673219 0 0.47596637305353268 0.1236489788231635 0 0.5 0.11315213796182411 0 0.48146508414057748 0.097867616362435003 0 0.47596637305353268 0.1236489788231635 0 0.5 0.11315213796182411 0 0.48146508414057748 0.097867616362435003 0 0.5 0.08606225354691599 0 0.48146508414057748 0.097867616362435003 0 0.46684480345772023 0.083704774648097419 0 0.46085076100455152 0.1051260388446932 0 0.48146508414057748 0.097867616362435003 0 0.47596637305353268 0.1236489788231635 0 0.46085076100455152 0.1051260388446932 0 0.5 0.08606225354691599 0 0.48297411160829701 0.071419164250366693 0 0.5 0.058972369132007867 0 0.48146508414057748 0.097867616362435003 0 0.5 0.08606225354691599 0 0.48297411160829701 0.071419164250366693 0 0.48146508414057748 0.097867616362435003 0 0.48297411160829701 0.071419164250366693 0 0.46684480345772023 0.083704774648097419 0 0.48297411160829701 0.071419164250366693 0 0.46368779630991369 0.062884433647911922 0 0.46684480345772023 0.083704774648097419 0 0.46368779630991369 0.062884433647911922 0 0.4455316944648699 0.078385408113317706 0 0.46368779630991369 0.062884433647911922 0 0.46684480345772023 0.083704774648097419 0 0.4455316944648699 0.078385408113317706 0 0.46684480345772023 0.083704774648097419 0 0.4455316944648699 0.078385408113317706 0 0.46085076100455152 0.1051260388446932 0 0.4455316944648699 0.078385408113317706 0 0.46085076100455152 0.1051260388446932 0 0.43655847815144871 0.087567909291679069 0 0.4455316944648699 0.078385408113317706 0 0.43655847815144871 0.087567909291679069 0 0.43300293116684879 0.070359854062556224 0 0.4455316944648699 0.078385408113317706 0 0.43300293116684879 0.070359854062556224 0 0.44432728466234178 0.059795406129610977 0 0.46368779630991369 0.062884433647911922 0 0.4455316944648699 0.078385408113317706 0 0.44432728466234178 0.059795406129610977 0 0.47596637305353268 0.1236489788231635 0 0.46085076100455152 0.1051260388446932 0 0.45094723062946279 0.12208098845927939 0 0.46085076100455152 0.1051260388446932 0 0.43655847815144871 0.087567909291679069 0 0.46085076100455152 0.1051260388446932 0 0.43845481143497073 0.110031162788742 0 0.43302597451412722 0.09911942802672713 0 0.46085076100455152 0.1051260388446932 0 0.43302597451412722 0.09911942802672713 0 0.43655847815144871 0.087567909291679069 0 0.43267139290449452 0.12562392175117529 0 0.45094723062946279 0.12208098845927939 0 0.43845481143497073 0.110031162788742 0 0.46085076100455152 0.1051260388446932 0 0.45094723062946279 0.12208098845927939 0 0.43845481143497073 0.110031162788742 0 0.43267139290449452 0.12562392175117529 0 0.43845481143497073 0.110031162788742 0 0.42512360996164289 0.1101942667169049 0 0.43267139290449452 0.12562392175117529 0 0.42512360996164289 0.1101942667169049 0 0.41840244549433692 0.1204435227777134 0 0.42512360996164289 0.1101942667169049 0 0.41840244549433692 0.1204435227777134 0 0.41145911669595331 0.1096997076075869 0 0.41840244549433692 0.1204435227777134 0 0.41145911669595331 0.1096997076075869 0 0.40630256149234217 0.12337914253670321 0 0.41145911669595331 0.1096997076075869 0 0.41782870111656589 0.098086010242617663 0 0.40188519574572068 0.098349840232826835 0 0.41782870111656589 0.098086010242617663 0 0.41132824907511162 0.087668761689670915 0 0.40188519574572068 0.098349840232826835 0 0.42512360996164289 0.1101942667169049 0 0.41145911669595331 0.1096997076075869 0 0.41782870111656589 0.098086010242617663 0 0.41782870111656589 0.098086010242617663 0 0.43302597451412722 0.09911942802672713 0 0.42198136315300161 0.08812274721924529 0 0.42512360996164289 0.1101942667169049 0 0.41782870111656589 0.098086010242617663 0 0.43302597451412722 0.09911942802672713 0 0.43845481143497073 0.110031162788742 0 0.42512360996164289 0.1101942667169049 0 0.43302597451412722 0.09911942802672713 0 0.43655847815144871 0.087567909291679069 0 0.42198136315300161 0.08812274721924529 0 0.41226619529834591 0.070009779738664735 0 0.43655847815144871 0.087567909291679069 0 0.41226619529834591 0.070009779738664735 0 0.43302597451412722 0.09911942802672713 0 0.43655847815144871 0.087567909291679069 0 0.42198136315300161 0.08812274721924529 0 0.43300293116684879 0.070359854062556224 0 0.41226619529834591 0.070009779738664735 0 0.42739758089851382 0.054541393999090262 0 0.43655847815144871 0.087567909291679069 0 0.43300293116684879 0.070359854062556224 0 0.41226619529834591 0.070009779738664735 0 0.42198136315300161 0.08812274721924529 0 0.41226619529834591 0.070009779738664735 0 0.41132824907511162 0.087668761689670915 0 0.41226619529834591 0.070009779738664735 0 0.41132824907511162 0.087668761689670915 0 0.39992923875424519 0.082621500021195282 0 0.41782870111656589 0.098086010242617663 0 0.42198136315300161 0.08812274721924529 0 0.41132824907511162 0.087668761689670915 0 0.41132824907511162 0.087668761689670915 0 0.39992923875424519 0.082621500021195282 0 0.40188519574572068 0.098349840232826835 0 0.39992923875424519 0.082621500021195282 0 0.38759228221014619 0.095233220303727467 0 0.40188519574572068 0.098349840232826835 0 0.39992923875424519 0.082621500021195282 0 0.38759228221014619 0.095233220303727467 0 0.41226619529834591 0.070009779738664735 0 0.39707386889515511 0.070908779594843374 0 0.39683376059791597 0.058855427163935138 0 0.41226619529834591 0.070009779738664735 0 0.39683376059791597 0.058855427163935138 0 0.41226619529834591 0.070009779738664735 0 0.39992923875424519 0.082621500021195282 0 0.41226619529834591 0.070009779738664735 0 0.39992923875424519 0.082621500021195282 0 0.39707386889515511 0.070908779594843374 0 0.39992923875424519 0.082621500021195282 0 0.39707386889515511 0.070908779594843374 0 0.38583977896057609 0.075316135258006081 0 0.39707386889515511 0.070908779594843374 0 0.38282045226763678 0.060547433734587333 0 0.39683376059791597 0.058855427163935138 0 0.39707386889515511 0.070908779594843374 0 0.38583977896057609 0.075316135258006081 0 0.38282045226763678 0.060547433734587333 0 0.38583977896057609 0.075316135258006081 0 0.37596532967213542 0.069868995675824025 0 0.37682589963749002 0.081332762740894418 0 0.37307104071443398 0.061065176941414383 0 0.37596532967213542 0.069868995675824025 0 0.38282045226763678 0.060547433734587333 0 0.38583977896057609 0.075316135258006081 0 0.37596532967213542 0.069868995675824025 0 0.38282045226763678 0.060547433734587333 0 0.39992923875424519 0.082621500021195282 0 0.38412803848747967 0.086259474622970303 0 0.38759228221014619 0.095233220303727467 0 0.39992923875424519 0.082621500021195282 0 0.38583977896057609 0.075316135258006081 0 0.38412803848747967 0.086259474622970303 0 0.37045299287494049 0.09679375479102828 0 0.38412803848747967 0.086259474622970303 0 0.38759228221014619 0.095233220303727467 0 0.38583977896057609 0.075316135258006081 0 0.38412803848747967 0.086259474622970303 0 0.37682589963749002 0.081332762740894418 0 0.37045299287494049 0.09679375479102828 0 0.38412803848747967 0.086259474622970303 0 0.37682589963749002 0.081332762740894418 0 0.37045299287494049 0.09679375479102828 0 0.38005682511468147 0.12140739343396729 0 0.37045299287494049 0.09679375479102828 0 0.38759228221014619 0.095233220303727467 0 0.38890959528695412 0.1083938038889192 0 0.37045299287494049 0.09679375479102828 0 0.38890959528695412 0.1083938038889192 0 0.38005682511468147 0.12140739343396729 0 0.39398634319161102 0.12556361147638159 0 0.38890959528695412 0.1083938038889192 0 0.38005682511468147 0.12140739343396729 0 0.39398634319161102 0.12556361147638159 0 0.38890959528695412 0.1083938038889192 0 0.39948393258462489 0.11301500309558379 0 0.39398634319161102 0.12556361147638159 0 0.40630256149234217 0.12337914253670321 0 0.39948393258462489 0.11301500309558379 0 0.41145911669595331 0.1096997076075869 0 0.40630256149234217 0.12337914253670321 0 0.39948393258462489 0.11301500309558379 0 0.41145911669595331 0.1096997076075869 0 0.39948393258462489 0.11301500309558379 0 0.40188519574572068 0.098349840232826835 0 0.38759228221014619 0.095233220303727467 0 0.38890959528695412 0.1083938038889192 0 0.40188519574572068 0.098349840232826835 0 0.38890959528695412 0.1083938038889192 0 0.39948393258462489 0.11301500309558379 0 0.40188519574572068 0.098349840232826835 0 0.3912475249538237 0.025882868266216091 0 0.40325323122183843 0.024352223252143548 0 0.39536881189699241 0.01378873843063998 0 0.3912475249538237 0.025882868266216091 0 0.40325323122183843 0.024352223252143548 0 0.39805180056669343 0.032772735105760037 0 0.40325323122183843 0.024352223252143548 0 0.39805180056669343 0.032772735105760037 0 0.40655765028286611 0.035582104639029083 0 0.40325323122183843 0.024352223252143548 0 0.39536881189699241 0.01378873843063998 0 0.40720094273855439 0.01372602960598159 0 0.40060323373222451 0.0042547197705496897 0 0.39536881189699241 0.01378873843063998 0 0.40720094273855439 0.01372602960598159 0 0.40060323373222451 0.0042547197705496897 0 0.41081432206005303 0.0037114498956348132 0 0.4046584776842293 -0.0050702490882302163 0 0.40060323373222451 0.0042547197705496897 0 0.41081432206005303 0.0037114498956348132 0 0.40720094273855439 0.01372602960598159 0 0.40060323373222451 0.0042547197705496897 0 0.39025836247721268 0.0036292771787240202 0 0.39531848553630572 -0.0042569273994520467 0 0.40060323373222451 0.0042547197705496897 0 0.39536881189699241 0.01378873843063998 0 0.39025836247721268 0.0036292771787240202 0 0.37844401144479839 0.012609093579625891 0 0.38356146703633898 -0.0078565650350033434 0 0.37844401144479839 0.012609093579625891 0 0.39025836247721268 0.0036292771787240202 0 0.38356146703633898 -0.0078565650350033434 0 0.39536881189699241 0.01378873843063998 0 0.37844401144479839 0.012609093579625891 0 0.39025836247721268 0.0036292771787240202 0 0.3912475249538237 0.025882868266216091 0 0.37844401144479839 0.012609093579625891 0 0.38063223185621792 0.036578263657106522 0 0.37844401144479839 0.012609093579625891 0 0.38063223185621792 0.036578263657106522 0 0.37146335928247548 0.04052602251159599 0 0.37844401144479839 0.012609093579625891 0 0.38063223185621792 0.036578263657106522 0 0.3912475249538237 0.025882868266216091 0 0.39536881189699241 0.01378873843063998 0 0.37844401144479839 0.012609093579625891 0 0.37146335928247548 0.04052602251159599 0 0.38063223185621792 0.036578263657106522 0 0.38282045226763678 0.060547433734587333 0 0.3912475249538237 0.025882868266216091 0 0.38063223185621792 0.036578263657106522 0 0.3908528121234538 0.035995570554822158 0 0.38063223185621792 0.036578263657106522 0 0.38791705742610771 0.044539104287684539 0 0.3908528121234538 0.035995570554822158 0 0.38791705742610771 0.044539104287684539 0 0.38282045226763678 0.060547433734587333 0 0.39079668350586277 0.051215399393808793 0 0.37307104071443398 0.061065176941414383 0 0.37146335928247548 0.04052602251159599 0 0.38282045226763678 0.060547433734587333 0 0.38063223185621792 0.036578263657106522 0 0.38791705742610771 0.044539104287684539 0 0.38282045226763678 0.060547433734587333 0 0.38063223185621792 0.036578263657106522 0 0.38282045226763678 0.060547433734587333 0 0.38282045226763678 0.060547433734587333 0 0.39683376059791597 0.058855427163935138 0 0.39079668350586277 0.051215399393808793 0 0.41226619529834591 0.070009779738664735 0 0.39683376059791597 0.058855427163935138 0 0.40948896714378957 0.05055434744181983 0 0.39683376059791597 0.058855427163935138 0 0.39079668350586277 0.051215399393808793 0 0.39674782008621368 0.04348041067995833 0 0.39683376059791597 0.058855427163935138 0 0.39674782008621368 0.04348041067995833 0 0.40948896714378957 0.05055434744181983 0 0.3908528121234538 0.035995570554822158 0 0.39805180056669343 0.032772735105760037 0 0.39674782008621368 0.04348041067995833 0 0.3912475249538237 0.025882868266216091 0 0.3908528121234538 0.035995570554822158 0 0.39805180056669343 0.032772735105760037 0 0.38791705742610771 0.044539104287684539 0 0.3908528121234538 0.035995570554822158 0 0.39674782008621368 0.04348041067995833 0 0.38791705742610771 0.044539104287684539 0 0.39079668350586277 0.051215399393808793 0 0.39674782008621368 0.04348041067995833 0 0.39674782008621368 0.04348041067995833 0 0.40655765028286611 0.035582104639029083 0 0.40948896714378957 0.05055434744181983 0 0.39805180056669343 0.032772735105760037 0 0.39674782008621368 0.04348041067995833 0 0.40655765028286611 0.035582104639029083 0 0.40655765028286611 0.035582104639029083 0 0.41713079569888262 0.040856968430241461 0 0.41557099838193923 0.024039796491718179 0 0.41713079569888262 0.040856968430241461 0 0.42755741698364552 0.032815777208855347 0 0.41557099838193923 0.024039796491718179 0 0.40655765028286611 0.035582104639029083 0 0.41713079569888262 0.040856968430241461 0 0.40948896714378957 0.05055434744181983 0 0.41226619529834591 0.070009779738664735 0 0.40948896714378957 0.05055434744181983 0 0.42739758089851382 0.054541393999090262 0 0.41713079569888262 0.040856968430241461 0 0.40948896714378957 0.05055434744181983 0 0.42739758089851382 0.054541393999090262 0 0.41226619529834591 0.070009779738664735 0 0.42739758089851382 0.054541393999090262 0 0.43300293116684879 0.070359854062556224 0 0.42739758089851382 0.054541393999090262 0 0.44432728466234178 0.059795406129610977 0 0.41713079569888262 0.040856968430241461 0 0.42739758089851382 0.054541393999090262 0 0.42755741698364552 0.032815777208855347 0 0.42739758089851382 0.054541393999090262 0 0.42755741698364552 0.032815777208855347 0 0.44252896649868317 0.039073008259517338 0 0.42739758089851382 0.054541393999090262 0 0.44252896649868317 0.039073008259517338 0 0.42755741698364552 0.032815777208855347 0 0.4358194844604939 0.024219735287320941 0 0.44252896649868317 0.039073008259517338 0 0.42755741698364552 0.032815777208855347 0 0.41557099838193923 0.024039796491718179 0 0.4265644217351573 0.014684511896395219 0 0.4358194844604939 0.024219735287320941 0 0.4265644217351573 0.014684511896395219 0 0.44548351627008242 0.01642882659412407 0 0.42755741698364552 0.032815777208855347 0 0.4358194844604939 0.024219735287320941 0 0.4265644217351573 0.014684511896395219 0 0.41557099838193923 0.024039796491718179 0 0.4165272652869268 0.01155925859927168 0 0.4265644217351573 0.014684511896395219 0 0.41557099838193923 0.024039796491718179 0 0.40720094273855439 0.01372602960598159 0 0.4165272652869268 0.01155925859927168 0 0.40325323122183843 0.024352223252143548 0 0.41557099838193923 0.024039796491718179 0 0.40720094273855439 0.01372602960598159 0 0.40325323122183843 0.024352223252143548 0 0.40655765028286611 0.035582104639029083 0 0.41557099838193923 0.024039796491718179 0 0.41081432206005303 0.0037114498956348132 0 0.40720094273855439 0.01372602960598159 0 0.4165272652869268 0.01155925859927168 0 0.4165272652869268 0.01155925859927168 0 0.42248564151892998 0.0016345051066286029 0 0.4265644217351573 0.014684511896395219 0 0.41081432206005303 0.0037114498956348132 0 0.4165272652869268 0.01155925859927168 0 0.42248564151892998 0.0016345051066286029 0 0.42248564151892998 0.0016345051066286029 0 0.4265644217351573 0.014684511896395219 0 0.4382820622288856 -0.0014159552958160841 0 0.4265644217351573 0.014684511896395219 0 0.44548351627008242 0.01642882659412407 0 0.4382820622288856 -0.0014159552958160841 0 0.45100246047295739 0.0046664116742636159 0 0.44548351627008242 0.01642882659412407 0 0.4382820622288856 -0.0014159552958160841 0 0.45100246047295739 0.0046664116742636159 0 0.44548351627008242 0.01642882659412407 0 0.4580470330794123 0.0188547641718908 0 0.4358194844604939 0.024219735287320941 0 0.4514029071021442 0.02821869916314456 0 0.44548351627008242 0.01642882659412407 0 0.4358194844604939 0.024219735287320941 0 0.4514029071021442 0.02821869916314456 0 0.44252896649868317 0.039073008259517338 0 0.4514029071021442 0.02821869916314456 0 0.44548351627008242 0.01642882659412407 0 0.4580470330794123 0.0188547641718908 0 0.4514029071021442 0.02821869916314456 0 0.4580470330794123 0.0188547641718908 0 0.46553563141862692 0.027383902935855992 0 0.4580470330794123 0.0188547641718908 0 0.46553563141862692 0.027383902935855992 0 0.471035018561343 0.01684384088441979 0 0.4580470330794123 0.0188547641718908 0 0.4620271672997433 0.0081957990277541914 0 0.471035018561343 0.01684384088441979 0 0.4620271672997433 0.0081957990277541914 0 0.47207727543944228 0.0077163925679632076 0 0.45540766643685782 -0.0078732224449345398 0 0.4620271672997433 0.0081957990277541914 0 0.47207727543944228 0.0077163925679632076 0 0.471035018561343 0.01684384088441979 0 0.45100246047295739 0.0046664116742636159 0 0.4620271672997433 0.0081957990277541914 0 0.45540766643685782 -0.0078732224449345398 0 0.45100246047295739 0.0046664116742636159 0 0.4580470330794123 0.0188547641718908 0 0.4620271672997433 0.0081957990277541914 0 0.42739758089851382 0.054541393999090262 0 0.44432728466234178 0.059795406129610977 0 0.44252896649868317 0.039073008259517338 0 0.44432728466234178 0.059795406129610977 0 0.44252896649868317 0.039073008259517338 0 0.46100281088556699 0.043351957730158222 0 0.4514029071021442 0.02821869916314456 0 0.44252896649868317 0.039073008259517338 0 0.46100281088556699 0.043351957730158222 0 0.4514029071021442 0.02821869916314456 0 0.46553563141862692 0.027383902935855992 0 0.46100281088556699 0.043351957730158222 0 0.46553563141862692 0.027383902935855992 0 0.46100281088556699 0.043351957730158222 0 0.4764725540003833 0.035303178421407518 0 0.46368779630991369 0.062884433647911922 0 0.44432728466234178 0.059795406129610977 0 0.46100281088556699 0.043351957730158222 0 0.48297411160829701 0.071419164250366693 0 0.46368779630991369 0.062884433647911922 0 0.48184389815495748 0.047383459182506117 0 0.46368779630991369 0.062884433647911922 0 0.46100281088556699 0.043351957730158222 0 0.48184389815495748 0.047383459182506117 0 0.46368779630991369 0.062884433647911922 0 0.48184389815495748 0.047383459182506117 0 0.46100281088556699 0.043351957730158222 0 0.48184389815495748 0.047383459182506117 0 0.4764725540003833 0.035303178421407518 0 0.48184389815495748 0.047383459182506117 0 0.50000000000000089 0.031882484717099757 0 0.48184389815495748 0.047383459182506117 0 0.50000000000000089 0.031882484717099757 0 0.5 0.058972369132007867 0 0.48184389815495748 0.047383459182506117 0 0.4764725540003833 0.035303178421407518 0 0.50000000000000089 0.031882484717099757 0 0.48297411160829701 0.071419164250366693 0 0.48184389815495748 0.047383459182506117 0 0.5 0.058972369132007867 0 0.48173822001607031 0.002441982684480838 0 0.47207727543944228 0.0077163925679632076 0 0.45540766643685782 -0.0078732224449345398 0 0.48073089036299149 0.01447516008145705 0 0.48088876464914698 0.0066420825236524483 0 0.47207727543944228 0.0077163925679632076 0 0.48088876464914698 0.0066420825236524483 0 0.48173822001607031 0.002441982684480838 0 0.48944624590280772 0.014576472087587141 0 0.48073089036299149 0.01447516008145705 0 0.48088876464914698 0.0066420825236524483 0 0.48944624590280772 0.014576472087587141 0 0.48088876464914698 0.0066420825236524483 0 0.48173822001607031 0.002441982684480838 0 0.47207727543944228 0.0077163925679632076 0 0.48088876464914698 0.0066420825236524483 0 0.48173822001607031 0.002441982684480838 0 0.48073089036299149 0.01447516008145705 0 0.47207727543944228 0.0077163925679632076 0 0.471035018561343 0.01684384088441979 0 0.46553563141862692 0.027383902935855992 0 0.471035018561343 0.01684384088441979 0 0.48098968552297122 0.023479159592672289 0 0.46553563141862692 0.027383902935855992 0 0.4764725540003833 0.035303178421407518 0 0.48098968552297122 0.023479159592672289 0 0.48073089036299149 0.01447516008145705 0 0.471035018561343 0.01684384088441979 0 0.48098968552297122 0.023479159592672289 0 0.48073089036299149 0.01447516008145705 0 0.48098968552297122 0.023479159592672289 0 0.48944624590280772 0.014576472087587141 0 0.50000000000000089 0.031882484717099757 0 0.50000000000000044 0.0095961811708810997 0 0.48944624590280772 0.014576472087587141 0 0.4764725540003833 0.035303178421407518 0 0.50000000000000089 0.031882484717099757 0 0.48098968552297122 0.023479159592672289 0 0.50000000000000089 0.031882484717099757 0 0.48098968552297122 0.023479159592672289 0 0.48944624590280772 0.014576472087587141 0 0.48173822001607031 0.002441982684480838 0 0.50000000000000044 0.0095961811708810997 0 0.48944624590280772 0.014576472087587141 0 0.48173822001607031 0.002441982684480838 0 0.50000000000000044 0.0095961811708810997 0 0.48173822001607031 0.002441982684480838 0 0.50000000000000044 0.0095961811708810997 0 0.5 -0.01553848795347695 0 0.48173822001607031 0.002441982684480838 0 0.5 -0.01553848795347695 0 0.48723509010938909 -0.024737082977995831 0 0.48173822001607031 0.002441982684480838 0 0.48723509010938909 -0.024737082977995831 0 0.48173822001607031 0.002441982684480838 0 0.46944239540012012 -0.021901386132034111 0 0.45540766643685782 -0.0078732224449345398 0 0.48173822001607031 0.002441982684480838 0 0.46944239540012012 -0.021901386132034111 0 0.48723509010938909 -0.024737082977995831 0 0.46944239540012012 -0.021901386132034111 0 0.48723509010938909 -0.024737082977995831 0 0.47311684284700922 -0.039980301183512167 0 0.5 -0.01553848795347695 0 0.48723509010938909 -0.024737082977995831 0 0.5 -0.040673157077835087 0 0.48723509010938909 -0.024737082977995831 0 0.49273196020270971 -0.051916148640471983 0 0.48034048547664182 -0.050194577481915269 0 0.48723509010938909 -0.024737082977995831 0 0.49273196020270971 -0.051916148640471983 0 0.48723509010938909 -0.024737082977995831 0 0.5 -0.040673157077835087 0 0.49273196020270971 -0.051916148640471983 0 0.5 -0.040673157077835087 0 0.49273196020270971 -0.051916148640471983 0 0.5 -0.065807826202193331 0 0.49273196020270971 -0.051916148640471983 0 0.48384360039889979 -0.062204599920787272 0 0.48034048547664182 -0.050194577481915269 0 0.48034048547664182 -0.050194577481915269 0 0.47035120232490191 -0.060528185902064997 0 0.47311684284700922 -0.039980301183512167 0 0.47035120232490191 -0.060528185902064997 0 0.47311684284700922 -0.039980301183512167 0 0.48384360039889979 -0.062204599920787272 0 0.48034048547664182 -0.050194577481915269 0 0.47035120232490191 -0.060528185902064997 0 0.48723509010938909 -0.024737082977995831 0 0.48034048547664182 -0.050194577481915269 0 0.47311684284700922 -0.039980301183512167 0 0.46944239540012012 -0.021901386132034111 0 0.47311684284700922 -0.039980301183512167 0 0.44971415759127392 -0.039358306738208573 0 0.47035120232490191 -0.060528185902064997 0 0.47311684284700922 -0.039980301183512167 0 0.44971415759127392 -0.039358306738208573 0 0.47035120232490191 -0.060528185902064997 0 0.44971415759127392 -0.039358306738208573 0 0.47035120232490191 -0.060528185902064997 0 0.43963483674523918 -0.055334607978488382 0 0.44971415759127392 -0.039358306738208573 0 0.43963483674523918 -0.055334607978488382 0 0.44971415759127392 -0.039358306738208573 0 0.42419530264354072 -0.042652000491910397 0 0.46944239540012012 -0.021901386132034111 0 0.44971415759127392 -0.039358306738208573 0 0.45540766643685782 -0.0078732224449345398 0 0.44971415759127392 -0.039358306738208573 0 0.42907711285764621 -0.01818842757435184 0 0.44971415759127392 -0.039358306738208573 0 0.45540766643685782 -0.0078732224449345398 0 0.42907711285764621 -0.01818842757435184 0 0.45540766643685782 -0.0078732224449345398 0 0.42907711285764621 -0.01818842757435184 0 0.45100246047295739 0.0046664116742636159 0 0.4382820622288856 -0.0014159552958160841 0 0.45540766643685782 -0.0078732224449345398 0 0.4382820622288856 -0.0014159552958160841 0 0.45540766643685782 -0.0078732224449345398 0 0.42907711285764621 -0.01818842757435184 0 0.48173822001607031 0.002441982684480838 0 0.45540766643685782 -0.0078732224449345398 0 0.47129126618897188 -0.1223351355815797 0 0.47148248434309947 -0.114916285604633 0 0.48087269318342413 -0.1216818802472065 0 0.47148248434309947 -0.114916285604633 0 0.48087269318342413 -0.1216818802472065 0 0.47838814501791832 -0.1066654575105275 0 0.48087269318342413 -0.1216818802472065 0 0.48924328608656842 -0.1141618265083332 0 0.47838814501791832 -0.1066654575105275 0 0.5 -0.1122204549214597 0 0.48924328608656842 -0.1141618265083332 0 0.5 -0.13349841451636779 0 0.48087269318342413 -0.1216818802472065 0 0.48924328608656842 -0.1141618265083332 0 0.5 -0.13349841451636779 0 0.5 -0.1122204549214597 0 0.48924328608656842 -0.1141618265083332 0 0.48827073793524339 -0.097774102912636218 0 0.48924328608656842 -0.1141618265083332 0 0.48827073793524339 -0.097774102912636218 0 0.47838814501791832 -0.1066654575105275 0 0.5 -0.1122204549214597 0 0.48827073793524339 -0.097774102912636218 0 0.50000000000000266 -0.090942495326551576 0 0.47652975213937199 -0.091635549067057065 0 0.46683976751390588 -0.086617099886465918 0 0.46456669494636288 -0.10350535152343909 0 0.48827073793524339 -0.097774102912636218 0 0.47838814501791832 -0.1066654575105275 0 0.47652975213937199 -0.091635549067057065 0 0.47148248434309947 -0.114916285604633 0 0.47838814501791832 -0.1066654575105275 0 0.46456669494636288 -0.10350535152343909 0 0.47838814501791832 -0.1066654575105275 0 0.47652975213937199 -0.091635549067057065 0 0.46456669494636288 -0.10350535152343909 0 0.48827073793524339 -0.097774102912636218 0 0.47652975213937199 -0.091635549067057065 0 0.48517560116245317 -0.075735340614307423 0 0.47652975213937199 -0.091635549067057065 0 0.48517560116245317 -0.075735340614307423 0 0.46683976751390588 -0.086617099886465918 0 0.47652975213937199 -0.091635549067057065 0 0.46683976751390588 -0.086617099886465918 0 0.50000000000000266 -0.090942495326551576 0 0.49822883029603021 -0.079095214302948247 0 0.5 -0.065807826202193331 0 0.48827073793524339 -0.097774102912636218 0 0.50000000000000266 -0.090942495326551576 0 0.48517560116245317 -0.075735340614307423 0 0.50000000000000266 -0.090942495326551576 0 0.48517560116245317 -0.075735340614307423 0 0.50000000000000266 -0.090942495326551576 0 0.49822883029603021 -0.079095214302948247 0 0.48517560116245317 -0.075735340614307423 0 0.49273196020270971 -0.051916148640471983 0 0.49822883029603021 -0.079095214302948247 0 0.48384360039889979 -0.062204599920787272 0 0.49822883029603021 -0.079095214302948247 0 0.48517560116245317 -0.075735340614307423 0 0.49273196020270971 -0.051916148640471983 0 0.48384360039889979 -0.062204599920787272 0 0.49822883029603021 -0.079095214302948247 0 0.49273196020270971 -0.051916148640471983 0 0.49822883029603021 -0.079095214302948247 0 0.5 -0.065807826202193331 0 0.47035120232490191 -0.060528185902064997 0 0.48517560116245317 -0.075735340614307423 0 0.47035120232490191 -0.060528185902064997 0 0.48517560116245317 -0.075735340614307423 0 0.46683976751390588 -0.086617099886465918 0 0.48384360039889979 -0.062204599920787272 0 0.47035120232490191 -0.060528185902064997 0 0.48517560116245317 -0.075735340614307423 0 0.47035120232490191 -0.060528185902064997 0 0.46683976751390588 -0.086617099886465918 0 0.47035120232490191 -0.060528185902064997 0 0.44249197108241189 -0.074007360679063244 0 0.46683976751390588 -0.086617099886465918 0 0.47035120232490191 -0.060528185902064997 0 0.43963483674523918 -0.055334607978488382 0 0.44249197108241189 -0.074007360679063244 0 0.44249197108241189 -0.074007360679063244 0 0.46683976751390588 -0.086617099886465918 0 0.4490662803509099 -0.094083529251462475 0 0.44249197108241189 -0.074007360679063244 0 0.4490662803509099 -0.094083529251462475 0 0.42834270349958448 -0.099226311759436261 0 0.44249197108241189 -0.074007360679063244 0 0.46683976751390588 -0.086617099886465918 0 0.46683976751390588 -0.086617099886465918 0 0.46456669494636288 -0.10350535152343909 0 0.4490662803509099 -0.094083529251462475 0 0.46683976751390588 -0.086617099886465918 0 0.46456669494636288 -0.10350535152343909 0 0.46456669494636288 -0.10350535152343909 0 0.4490662803509099 -0.094083529251462475 0 0.44386094964032902 -0.11054798122052439 0 0.4490662803509099 -0.094083529251462475 0 0.44386094964032902 -0.11054798122052439 0 0.42834270349958448 -0.099226311759436261 0 0.44386094964032902 -0.11054798122052439 0 0.46257396642688631 -0.12529077885077469 0 0.45239247298790419 -0.125419693033265 0 0.44386094964032902 -0.11054798122052439 0 0.42916935431308728 -0.1205456085246996 0 0.4435038969132965 -0.12540022695152131 0 0.44386094964032902 -0.11054798122052439 0 0.45239247298790419 -0.125419693033265 0 0.4435038969132965 -0.12540022695152131 0 0.44386094964032902 -0.11054798122052439 0 0.46229362237882032 -0.1203936031604123 0 0.46257396642688631 -0.12529077885077469 0 0.46456669494636288 -0.10350535152343909 0 0.46229362237882032 -0.1203936031604123 0 0.46456669494636288 -0.10350535152343909 0 0.44386094964032902 -0.11054798122052439 0 0.46229362237882032 -0.1203936031604123 0 0.44386094964032902 -0.11054798122052439 0 0.46257396642688631 -0.12529077885077469 0 0.47148248434309947 -0.114916285604633 0 0.46456669494636288 -0.10350535152343909 0 0.46229362237882032 -0.1203936031604123 0 0.47129126618897188 -0.1223351355815797 0 0.46229362237882032 -0.1203936031604123 0 0.46257396642688631 -0.12529077885077469 0 0.47129126618897188 -0.1223351355815797 0 0.47148248434309947 -0.114916285604633 0 0.46229362237882032 -0.1203936031604123 0 0.44386094964032902 -0.11054798122052439 0 0.42916935431308728 -0.1205456085246996 0 0.42834270349958448 -0.099226311759436261 0 0.41143930547928681 -0.11934523636421419 0 0.42916935431308728 -0.1205456085246996 0 0.42834270349958448 -0.099226311759436261 0 0.41143930547928681 -0.11934523636421419 0 0.40555832972599831 -0.095826118330896617 0 0.41143930547928681 -0.11934523636421419 0 0.42834270349958448 -0.099226311759436261 0 0.40555832972599831 -0.095826118330896617 0 0.42834270349958448 -0.099226311759436261 0 0.41884290658632428 -0.080552882507727325 0 0.40555832972599831 -0.095826118330896617 0 0.41884290658632428 -0.080552882507727325 0 0.39967735397270959 -0.072307000297579083 0 0.40555832972599831 -0.095826118330896617 0 0.44249197108241189 -0.074007360679063244 0 0.42834270349958448 -0.099226311759436261 0 0.41884290658632428 -0.080552882507727325 0 0.44249197108241189 -0.074007360679063244 0 0.41814417465091752 -0.061397621471661459 0 0.43963483674523918 -0.055334607978488382 0 0.44249197108241189 -0.074007360679063244 0 0.41814417465091752 -0.061397621471661459 0 0.44249197108241189 -0.074007360679063244 0 0.41884290658632428 -0.080552882507727325 0 0.41814417465091752 -0.061397621471661459 0 0.41884290658632428 -0.080552882507727325 0 0.39967735397270959 -0.072307000297579083 0 0.41814417465091752 -0.061397621471661459 0 0.39967735397270959 -0.072307000297579083 0 0.38669795957132042 -0.057310603286660967 0 0.37240766699872252 -0.068318548019290964 0 0.39967735397270959 -0.072307000297579083 0 0.37781097748786241 -0.089314889372882261 0 0.37240766699872252 -0.068318548019290964 0 0.39967735397270959 -0.072307000297579083 0 0.37781097748786241 -0.089314889372882261 0 0.40555832972599831 -0.095826118330896617 0 0.39967735397270959 -0.072307000297579083 0 0.40555832972599831 -0.095826118330896617 0 0.40555832972599831 -0.095826118330896617 0 0.38953803654933628 -0.10754997095337659 0 0.39823574772599779 -0.11763079726210079 0 0.37781097748786241 -0.089314889372882261 0 0.40555832972599831 -0.095826118330896617 0 0.38953803654933628 -0.10754997095337659 0 0.37781097748786241 -0.089314889372882261 0 0.38953803654933628 -0.10754997095337659 0 0.37644505785585192 -0.1058120404938334 0 0.38953803654933628 -0.10754997095337659 0 0.37644505785585192 -0.1058120404938334 0 0.37720890243704291 -0.12310924361699779 0 0.38953803654933628 -0.10754997095337659 0 0.37720890243704291 -0.12310924361699779 0 0.38918813321375051 -0.12739880168557821 0 0.38953803654933628 -0.10754997095337659 0 0.39823574772599779 -0.11763079726210079 0 0.38918813321375051 -0.12739880168557821 0 0.41143930547928681 -0.11934523636421419 0 0.39823574772599779 -0.11763079726210079 0 0.40257569972698831 -0.13396225485532559 0 0.41143930547928681 -0.11934523636421419 0 0.40555832972599831 -0.095826118330896617 0 0.39823574772599779 -0.11763079726210079 0 0.42011428296152808 -0.02169968792975261 0 0.41401194260749391 -0.028450411104576211 0 0.41343304557213612 -0.018371446868227208 0 0.42011428296152808 -0.02169968792975261 0 0.41343304557213612 -0.018371446868227208 0 0.41928481904255338 -0.01548900553927589 0 0.42011428296152808 -0.02169968792975261 0 0.41928481904255338 -0.01548900553927589 0 0.42542521438275183 -0.0144422395697206 0 0.42011428296152808 -0.02169968792975261 0 0.41401194260749391 -0.028450411104576211 0 0.42742255973229643 -0.030069766767760062 0 0.41401194260749391 -0.028450411104576211 0 0.40522076275047969 -0.019933987949522329 0 0.40044964155059998 -0.029094842751199331 0 0.41401194260749391 -0.028450411104576211 0 0.41343304557213612 -0.018371446868227208 0 0.40522076275047969 -0.019933987949522329 0 0.41343304557213612 -0.018371446868227208 0 0.40806592415966281 -0.01253819616599721 0 0.40522076275047969 -0.019933987949522329 0 0.40806592415966281 -0.01253819616599721 0 0.4135204533098043 -0.0054466611181140526 0 0.41498054603746559 -0.011947546426581419 0 0.41343304557213612 -0.018371446868227208 0 0.40806592415966281 -0.01253819616599721 0 0.41498054603746559 -0.011947546426581419 0 0.41081432206005303 0.0037114498956348132 0 0.4135204533098043 -0.0054466611181140526 0 0.4046584776842293 -0.0050702490882302163 0 0.40806592415966281 -0.01253819616599721 0 0.4135204533098043 -0.0054466611181140526 0 0.4046584776842293 -0.0050702490882302163 0 0.41081432206005303 0.0037114498956348132 0 0.42248564151892998 0.0016345051066286029 0 0.4135204533098043 -0.0054466611181140526 0 0.42248564151892998 0.0016345051066286029 0 0.4135204533098043 -0.0054466611181140526 0 0.42119781252485211 -0.0083000839364812864 0 0.41343304557213612 -0.018371446868227208 0 0.41498054603746559 -0.011947546426581419 0 0.41928481904255338 -0.01548900553927589 0 0.4135204533098043 -0.0054466611181140526 0 0.41498054603746559 -0.011947546426581419 0 0.42119781252485211 -0.0083000839364812864 0 0.41498054603746559 -0.011947546426581419 0 0.42119781252485211 -0.0083000839364812864 0 0.41928481904255338 -0.01548900553927589 0 0.42542521438275183 -0.0144422395697206 0 0.42820760236351979 -0.0076976995852137747 0 0.42907711285764621 -0.01818842757435184 0 0.4382820622288856 -0.0014159552958160841 0 0.42820760236351979 -0.0076976995852137747 0 0.42907711285764621 -0.01818842757435184 0 0.42119781252485211 -0.0083000839364812864 0 0.41928481904255338 -0.01548900553927589 0 0.42542521438275183 -0.0144422395697206 0 0.42248564151892998 0.0016345051066286029 0 0.4382820622288856 -0.0014159552958160841 0 0.42820760236351979 -0.0076976995852137747 0 0.42119781252485211 -0.0083000839364812864 0 0.42542521438275183 -0.0144422395697206 0 0.42820760236351979 -0.0076976995852137747 0 0.42248564151892998 0.0016345051066286029 0 0.42119781252485211 -0.0083000839364812864 0 0.42820760236351979 -0.0076976995852137747 0 0.44971415759127392 -0.039358306738208573 0 0.42907711285764621 -0.01818842757435184 0 0.42742255973229643 -0.030069766767760062 0 0.42011428296152808 -0.02169968792975261 0 0.42907711285764621 -0.01818842757435184 0 0.42742255973229643 -0.030069766767760062 0 0.42011428296152808 -0.02169968792975261 0 0.42542521438275183 -0.0144422395697206 0 0.42907711285764621 -0.01818842757435184 0 0.42011428296152808 -0.02169968792975261 0 0.42907711285764621 -0.01818842757435184 0 0.42542521438275183 -0.0144422395697206 0 0.42907711285764621 -0.01818842757435184 0 0.44971415759127392 -0.039358306738208573 0 0.42742255973229643 -0.030069766767760062 0 0.42419530264354072 -0.042652000491910397 0 0.41401194260749391 -0.028450411104576211 0 0.42742255973229643 -0.030069766767760062 0 0.42419530264354072 -0.042652000491910397 0 0.43963483674523918 -0.055334607978488382 0 0.42419530264354072 -0.042652000491910397 0 0.41814417465091752 -0.061397621471661459 0 0.41814417465091752 -0.061397621471661459 0 0.41107184061272262 -0.047596707948501772 0 0.39379637821942232 -0.04878788226426127 0 0.42419530264354072 -0.042652000491910397 0 0.41814417465091752 -0.061397621471661459 0 0.41107184061272262 -0.047596707948501772 0 0.41401194260749391 -0.028450411104576211 0 0.42419530264354072 -0.042652000491910397 0 0.40815150693701141 -0.037549327566173699 0 0.42419530264354072 -0.042652000491910397 0 0.41107184061272262 -0.047596707948501772 0 0.40815150693701141 -0.037549327566173699 0 0.41401194260749391 -0.028450411104576211 0 0.40815150693701141 -0.037549327566173699 0 0.40044964155059998 -0.029094842751199331 0 0.41107184061272262 -0.047596707948501772 0 0.40815150693701141 -0.037549327566173699 0 0.39379637821942232 -0.04878788226426127 0 0.40815150693701141 -0.037549327566173699 0 0.39379637821942232 -0.04878788226426127 0 0.40044964155059998 -0.029094842751199331 0 0.39379637821942232 -0.04878788226426127 0 0.38867892262788012 -0.028322223649632432 0 0.39379637821942232 -0.04878788226426127 0 0.38867892262788012 -0.028322223649632432 0 0.40044964155059998 -0.029094842751199331 0 0.39967735397270959 -0.072307000297579083 0 0.39379637821942232 -0.04878788226426127 0 0.38669795957132042 -0.057310603286660967 0 0.41814417465091752 -0.061397621471661459 0 0.39379637821942232 -0.04878788226426127 0 0.39967735397270959 -0.072307000297579083 0 0.39379637821942232 -0.04878788226426127 0 0.39967735397270959 -0.072307000297579083 0 0.41814417465091752 -0.061397621471661459 0 0.39379637821942232 -0.04878788226426127 0 0.39379637821942232 -0.04878788226426127 0 0.38896036142985008 -0.046283306103098283 0 0.38669795957132042 -0.057310603286660967 0 0.37839056082150663 -0.050608978831784571 0 0.37240766699872252 -0.068318548019290964 0 0.38669795957132042 -0.057310603286660967 0 0.37839056082150663 -0.050608978831784571 0 0.38896036142985008 -0.046283306103098283 0 0.39379637821942232 -0.04878788226426127 0 0.38669795957132042 -0.057310603286660967 0 0.38896036142985008 -0.046283306103098283 0 0.39379637821942232 -0.04878788226426127 0 0.38896036142985008 -0.046283306103098283 0 0.38867892262788012 -0.028322223649632432 0 0.3834615598562825 -0.037386722635115492 0 0.38896036142985008 -0.046283306103098283 0 0.38867892262788012 -0.028322223649632432 0 0.37839056082150663 -0.050608978831784571 0 0.3834615598562825 -0.037386722635115492 0 0.38896036142985008 -0.046283306103098283 0 0.37839056082150663 -0.050608978831784571 0 0.3834615598562825 -0.037386722635115492 0 0.37356965880113402 -0.040783236975350308 0 0.38867892262788012 -0.028322223649632432 0 0.38356146703633898 -0.0078565650350033434 0 0.3834615598562825 -0.037386722635115492 0 0.37600683512296651 -0.014087071697862221 0 0.37356965880113402 -0.040783236975350308 0 0.3834615598562825 -0.037386722635115492 0 0.38867892262788012 -0.028322223649632432 0 0.37600683512296651 -0.014087071697862221 0 0.38867892262788012 -0.028322223649632432 0 0.37600683512296651 -0.014087071697862221 0 0.38356146703633898 -0.0078565650350033434 0 0.38867892262788012 -0.028322223649632432 0 0.39658225960386179 -0.014459285545308009 0 0.38356146703633898 -0.0078565650350033434 0 0.38867892262788012 -0.028322223649632432 0 0.40044964155059998 -0.029094842751199331 0 0.39658225960386179 -0.014459285545308009 0 0.40522076275047969 -0.019933987949522329 0 0.40044964155059998 -0.029094842751199331 0 0.39658225960386179 -0.014459285545308009 0 0.40806592415966281 -0.01253819616599721 0 0.40522076275047969 -0.019933987949522329 0 0.39658225960386179 -0.014459285545308009 0 0.40060323373222451 0.0042547197705496897 0 0.4046584776842293 -0.0050702490882302163 0 0.39531848553630572 -0.0042569273994520467 0 0.40806592415966281 -0.01253819616599721 0 0.4046584776842293 -0.0050702490882302163 0 0.39658225960386179 -0.014459285545308009 0 0.4046584776842293 -0.0050702490882302163 0 0.39658225960386179 -0.014459285545308009 0 0.39531848553630572 -0.0042569273994520467 0 0.39658225960386179 -0.014459285545308009 0 0.39531848553630572 -0.0042569273994520467 0 0.38356146703633898 -0.0078565650350033434 0 0.39025836247721268 0.0036292771787240202 0 0.39531848553630572 -0.0042569273994520467 0 0.38356146703633898 -0.0078565650350033434 0 0.37844401144479839 0.012609093579625891 0 0.37600683512296651 -0.014087071697862221 0 0.37844401144479839 0.012609093579625891 0 0.37600683512296651 -0.014087071697862221 0 0.38356146703633898 -0.0078565650350033434 0 0.37600683512296651 -0.014087071697862221 0 0.36665723294200347 -0.001883505129568449 0 0.35850646790810559 -0.01395473468271459 0 0.37844401144479839 0.012609093579625891 0 0.37600683512296651 -0.014087071697862221 0 0.36665723294200347 -0.001883505129568449 0 0.36665723294200347 -0.001883505129568449 0 0.35531676971978082 -0.0033532784323768001 0 0.35850646790810559 -0.01395473468271459 0 0.37600683512296651 -0.014087071697862221 0 0.37356965880113402 -0.040783236975350308 0 0.37600683512296651 -0.014087071697862221 0 0.36404947753274258 -0.026706798856440471 0 0.35850646790810559 -0.01395473468271459 0 0.37600683512296651 -0.014087071697862221 0 0.36404947753274258 -0.026706798856440471 0 0.37356965880113402 -0.040783236975350308 0 0.34748556133762742 -0.02738266599094942 0 0.35850646790810559 -0.01395473468271459 0 0.34370628527030811 -0.0115647124322744 0 0.36404947753274258 -0.026706798856440471 0 0.34748556133762742 -0.02738266599094942 0 0.35850646790810559 -0.01395473468271459 0 0.36404947753274258 -0.026706798856440471 0 0.34748556133762742 -0.02738266599094942 0 0.36012817770438982 -0.039413746555128387 0 0.33689267375143878 0.0039255003288513873 0 0.35531676971978082 -0.0033532784323768001 0 0.34370628527030811 -0.0115647124322744 0 0.35531676971978082 -0.0033532784323768001 0 0.35850646790810559 -0.01395473468271459 0 0.34370628527030811 -0.0115647124322744 0 0.33689267375143878 0.0039255003288513873 0 0.34370628527030811 -0.0115647124322744 0 0.32469666258817742 -0.019557632270551 0 0.33689267375143878 0.0039255003288513873 0 0.30352242257352219 0.0039185454548519476 0 0.32469666258817742 -0.019557632270551 0 0.34748556133762742 -0.02738266599094942 0 0.34370628527030811 -0.0115647124322744 0 0.32469666258817742 -0.019557632270551 0 0.34748556133762742 -0.02738266599094942 0 0.32469666258817742 -0.019557632270551 0 0.33457477032001748 -0.043965109755099818 0 0.31326255248553708 -0.043768501277314603 0 0.32924913997341337 -0.063603686862235317 0 0.31014365419524398 -0.06072536978512106 0 0.31326255248553708 -0.043768501277314603 0 0.32924913997341337 -0.063603686862235317 0 0.31326255248553708 -0.043768501277314603 0 0.33457477032001748 -0.043965109755099818 0 0.32924913997341337 -0.063603686862235317 0 0.32469666258817742 -0.019557632270551 0 0.31326255248553708 -0.043768501277314603 0 0.33457477032001748 -0.043965109755099818 0 0.33457477032001748 -0.043965109755099818 0 0.34313363496153881 -0.061193084728204693 0 0.35029003257871461 -0.048624574981710279 0 0.33457477032001748 -0.043965109755099818 0 0.34313363496153881 -0.061193084728204693 0 0.32924913997341337 -0.063603686862235317 0 0.35029003257871461 -0.048624574981710279 0 0.36524615827173029 -0.053571455971191423 0 0.35631850447425872 -0.066333179594821989 0 0.34313363496153881 -0.061193084728204693 0 0.35029003257871461 -0.048624574981710279 0 0.35631850447425872 -0.066333179594821989 0 0.35029003257871461 -0.048624574981710279 0 0.36012817770438982 -0.039413746555128387 0 0.36524615827173029 -0.053571455971191423 0 0.34748556133762742 -0.02738266599094942 0 0.33457477032001748 -0.043965109755099818 0 0.35029003257871461 -0.048624574981710279 0 0.34748556133762742 -0.02738266599094942 0 0.35029003257871461 -0.048624574981710279 0 0.36012817770438982 -0.039413746555128387 0 0.36404947753274258 -0.026706798856440471 0 0.36012817770438982 -0.039413746555128387 0 0.37356965880113402 -0.040783236975350308 0 0.36012817770438982 -0.039413746555128387 0 0.37356965880113402 -0.040783236975350308 0 0.36524615827173029 -0.053571455971191423 0 0.37839056082150663 -0.050608978831784571 0 0.36524615827173029 -0.053571455971191423 0 0.37240766699872252 -0.068318548019290964 0 0.37839056082150663 -0.050608978831784571 0 0.37356965880113402 -0.040783236975350308 0 0.36524615827173029 -0.053571455971191423 0 0.36524615827173029 -0.053571455971191423 0 0.37240766699872252 -0.068318548019290964 0 0.35631850447425872 -0.066333179594821989 0 0.37240766699872252 -0.068318548019290964 0 0.36259903827425999 -0.08213590949324566 0 0.35631850447425872 -0.066333179594821989 0 0.37781097748786241 -0.089314889372882261 0 0.37240766699872252 -0.068318548019290964 0 0.36259903827425999 -0.08213590949324566 0 0.37781097748786241 -0.089314889372882261 0 0.36259903827425999 -0.08213590949324566 0 0.3612223149491664 -0.1032740580320769 0 0.34523572746128989 -0.083438872447156087 0 0.3612223149491664 -0.1032740580320769 0 0.36259903827425999 -0.08213590949324566 0 0.34523572746128989 -0.083438872447156087 0 0.3612223149491664 -0.1032740580320769 0 0.34313363496153881 -0.061193084728204693 0 0.34523572746128989 -0.083438872447156087 0 0.35631850447425872 -0.066333179594821989 0 0.36259903827425999 -0.08213590949324566 0 0.34523572746128989 -0.083438872447156087 0 0.35631850447425872 -0.066333179594821989 0 0.37720890243704291 -0.12310924361699779 0 0.36253108037134668 -0.1248744885805331 0 0.3612223149491664 -0.1032740580320769 0 0.37644505785585192 -0.1058120404938334 0 0.37720890243704291 -0.12310924361699779 0 0.3612223149491664 -0.1032740580320769 0 0.37720890243704291 -0.12310924361699779 0 0.3612223149491664 -0.1032740580320769 0 0.37781097748786241 -0.089314889372882261 0 0.37644505785585192 -0.1058120404938334 0 0.3612223149491664 -0.1032740580320769 0 0.34523572746128989 -0.083438872447156087 0 0.3612223149491664 -0.1032740580320769 0 0.33932087337301742 -0.1007066993955318 0 0.3612223149491664 -0.1032740580320769 0 0.34941185211170689 -0.1127717253903176 0 0.33932087337301742 -0.1007066993955318 0 0.36253108037134668 -0.1248744885805331 0 0.33587402752894302 -0.122350175475488 0 0.36253108037134668 -0.1248744885805331 0 0.34941185211170689 -0.1127717253903176 0 0.33587402752894302 -0.122350175475488 0 0.36253108037134668 -0.1248744885805331 0 0.3612223149491664 -0.1032740580320769 0 0.34941185211170689 -0.1127717253903176 0 0.34941185211170689 -0.1127717253903176 0 0.33587402752894302 -0.122350175475488 0 0.33932087337301742 -0.1007066993955318 0 0.33587402752894302 -0.122350175475488 0 0.33932087337301742 -0.1007066993955318 0 0.31943204723016899 -0.10139701157958859 0 0.33932087337301742 -0.1007066993955318 0 0.31943204723016899 -0.10139701157958859 0 0.32474927095682959 -0.081008353448563344 0 0.33587402752894302 -0.122350175475488 0 0.31943204723016899 -0.10139701157958859 0 0.3092169746865393 -0.1198258623704429 0 0.33587402752894302 -0.122350175475488 0 0.3092169746865393 -0.1198258623704429 0 0.34523572746128989 -0.083438872447156087 0 0.32924913997341337 -0.063603686862235317 0 0.32474927095682959 -0.081008353448563344 0 0.34523572746128989 -0.083438872447156087 0 0.32924913997341337 -0.063603686862235317 0 0.34313363496153881 -0.061193084728204693 0 0.34523572746128989 -0.083438872447156087 0 0.32924913997341337 -0.063603686862235317 0 0.34523572746128989 -0.083438872447156087 0 0.33932087337301742 -0.1007066993955318 0 0.32474927095682959 -0.081008353448563344 0 0.31943204723016899 -0.10139701157958859 0 0.32474927095682959 -0.081008353448563344 0 0.31117343018006932 -0.08835554327446378 0 0.32474927095682959 -0.081008353448563344 0 0.30201438303726968 -0.075929904193525521 0 0.32474927095682959 -0.081008353448563344 0 0.30201438303726968 -0.075929904193525521 0 0.31117343018006932 -0.08835554327446378 0 0.32924913997341337 -0.063603686862235317 0 0.32474927095682959 -0.081008353448563344 0 0.31014365419524398 -0.06072536978512106 0 0.32474927095682959 -0.081008353448563344 0 0.30201438303726968 -0.075929904193525521 0 0.31014365419524398 -0.06072536978512106 0 0.30201438303726968 -0.075929904193525521 0 0.31014365419524398 -0.06072536978512106 0 0.29222542489931519 -0.060978945333093171 0 0.31117343018006932 -0.08835554327446378 0 0.29442961060618023 -0.089764156713605506 0 0.30306705175182019 -0.101009202806625 0 0.30201438303726968 -0.075929904193525521 0 0.31117343018006932 -0.08835554327446378 0 0.29442961060618023 -0.089764156713605506 0 0.29442961060618023 -0.089764156713605506 0 0.28691460331806928 -0.079185378374353493 0 0.27734124638624891 -0.089737863242296378 0 0.30201438303726968 -0.075929904193525521 0 0.29442961060618023 -0.089764156713605506 0 0.28691460331806928 -0.079185378374353493 0 0.30201438303726968 -0.075929904193525521 0 0.27927949511770961 -0.070851454938488739 0 0.29222542489931519 -0.060978945333093171 0 0.30201438303726968 -0.075929904193525521 0 0.27927949511770961 -0.070851454938488739 0 0.30201438303726968 -0.075929904193525521 0 0.28691460331806928 -0.079185378374353493 0 0.27927949511770961 -0.070851454938488739 0 0.28691460331806928 -0.079185378374353493 0 0.27927949511770961 -0.070851454938488739 0 0.27809334201771629 -0.079209584513290715 0 0.28691460331806928 -0.079185378374353493 0 0.27927949511770961 -0.070851454938488739 0 0.27927949511770961 -0.070851454938488739 0 0.27868582307562201 -0.055886184139343542 0 0.29222542489931519 -0.060978945333093171 0 0.31943204723016899 -0.10139701157958859 0 0.3092169746865393 -0.1198258623704429 0 0.30306705175182019 -0.101009202806625 0 0.3092169746865393 -0.1198258623704429 0 0.30306705175182019 -0.101009202806625 0 0.28879183359809052 -0.10393054527906551 0 0.31943204723016899 -0.10139701157958859 0 0.31117343018006932 -0.08835554327446378 0 0.30306705175182019 -0.101009202806625 0 0.28879183359809052 -0.10393054527906551 0 0.28255992184413548 -0.11730154926539781 0 0.27267591943638608 -0.1048970298088977 0 0.29442961060618023 -0.089764156713605506 0 0.28879183359809052 -0.10393054527906551 0 0.27734124638624891 -0.089737863242296378 0 0.29442961060618023 -0.089764156713605506 0 0.30306705175182019 -0.101009202806625 0 0.28879183359809052 -0.10393054527906551 0 0.3092169746865393 -0.1198258623704429 0 0.28255992184413548 -0.11730154926539781 0 0.3092169746865393 -0.1198258623704429 0 0.28879183359809052 -0.10393054527906551 0 0.28255992184413548 -0.11730154926539781 0 0.3092169746865393 -0.1198258623704429 0 0.28255992184413548 -0.11730154926539781 0 0.28721398294742878 -0.13035474923543569 0 0.28255992184413548 -0.11730154926539781 0 0.26776517015272971 -0.1222840496799191 0 0.28721398294742878 -0.13035474923543569 0 0.28255992184413548 -0.11730154926539781 0 0.26776517015272971 -0.1222840496799191 0 0.27267591943638608 -0.1048970298088977 0 0.26776517015272971 -0.1222840496799191 0 0.27267591943638608 -0.1048970298088977 0 0.26047800574605201 -0.11084537767631369 0 0.28879183359809052 -0.10393054527906551 0 0.27267591943638608 -0.1048970298088977 0 0.27734124638624891 -0.089737863242296378 0 0.27267591943638608 -0.1048970298088977 0 0.27734124638624891 -0.089737863242296378 0 0.26256105175446781 -0.092679464148907056 0 0.25771864553297669 -0.099620140202181948 0 0.26047800574605201 -0.11084537767631369 0 0.24375228786211539 -0.116580291014256 0 0.27267591943638608 -0.1048970298088977 0 0.25771864553297669 -0.099620140202181948 0 0.26256105175446781 -0.092679464148907056 0 0.25771864553297669 -0.099620140202181948 0 0.25304747237378489 -0.090741332181114118 0 0.24292322406264641 -0.096552741650977186 0 0.25771864553297669 -0.099620140202181948 0 0.26256105175446781 -0.092679464148907056 0 0.25304747237378489 -0.090741332181114118 0 0.27267591943638608 -0.1048970298088977 0 0.25771864553297669 -0.099620140202181948 0 0.26047800574605201 -0.11084537767631369 0 0.26776517015272971 -0.1222840496799191 0 0.26153006621115998 -0.13421007507225571 0 0.24375228786211539 -0.116580291014256 0 0.26776517015272971 -0.1222840496799191 0 0.24375228786211539 -0.116580291014256 0 0.26776517015272971 -0.1222840496799191 0 0.26047800574605201 -0.11084537767631369 0 0.24375228786211539 -0.116580291014256 0 0.27927949511770961 -0.070851454938488739 0 0.25811154610651499 -0.066123023671663908 0 0.26329678137076351 -0.053405898285071182 0 0.27927949511770961 -0.070851454938488739 0 0.25811154610651499 -0.066123023671663908 0 0.26883802324883782 -0.077063641498024305 0 0.27927949511770961 -0.070851454938488739 0 0.25811154610651499 -0.066123023671663908 0 0.26883802324883782 -0.077063641498024305 0 0.27927949511770961 -0.070851454938488739 0 0.27809334201771629 -0.079209584513290715 0 0.26883802324883782 -0.077063641498024305 0 0.27809334201771629 -0.079209584513290715 0 0.27734124638624891 -0.089737863242296378 0 0.26883802324883782 -0.077063641498024305 0 0.27734124638624891 -0.089737863242296378 0 0.25202197504294188 -0.078400955310045109 0 0.28691460331806928 -0.079185378374353493 0 0.27809334201771629 -0.079209584513290715 0 0.27734124638624891 -0.089737863242296378 0 0.27734124638624891 -0.089737863242296378 0 0.26256105175446781 -0.092679464148907056 0 0.25202197504294188 -0.078400955310045109 0 0.27734124638624891 -0.089737863242296378 0 0.25202197504294188 -0.078400955310045109 0 0.26256105175446781 -0.092679464148907056 0 0.25304747237378489 -0.090741332181114118 0 0.25202197504294188 -0.078400955310045109 0 0.25304747237378489 -0.090741332181114118 0 0.25202197504294188 -0.078400955310045109 0 0.24624903761231479 -0.086847438891893419 0 0.26883802324883782 -0.077063641498024305 0 0.25202197504294188 -0.078400955310045109 0 0.25811154610651499 -0.066123023671663908 0 0.25811154610651499 -0.066123023671663908 0 0.26329678137076351 -0.053405898285071182 0 0.24870160087168189 -0.052882304334001928 0 0.26329678137076351 -0.053405898285071182 0 0.24870160087168189 -0.052882304334001928 0 0.24731406762381819 -0.035960341631652723 0 0.27927949511770961 -0.070851454938488739 0 0.26329678137076351 -0.053405898285071182 0 0.27868582307562201 -0.055886184139343542 0 0.27927949511770961 -0.070851454938488739 0 0.26329678137076351 -0.053405898285071182 0 0.26329678137076351 -0.053405898285071182 0 0.27868582307562201 -0.055886184139343542 0 0.27337213238318842 -0.044040078526876879 0 0.27868582307562201 -0.055886184139343542 0 0.27337213238318842 -0.044040078526876879 0 0.28525528160713332 -0.050154543613187753 0 0.26329678137076351 -0.053405898285071182 0 0.27337213238318842 -0.044040078526876879 0 0.26311483972878968 -0.036713614733010089 0 0.27337213238318842 -0.044040078526876879 0 0.27217486102646721 -0.027861542379398439 0 0.28494473946257981 -0.034556038004921102 0 0.27337213238318842 -0.044040078526876879 0 0.26311483972878968 -0.036713614733010089 0 0.27217486102646721 -0.027861542379398439 0 0.27337213238318842 -0.044040078526876879 0 0.28525528160713332 -0.050154543613187753 0 0.28494473946257981 -0.034556038004921102 0 0.26311483972878968 -0.036713614733010089 0 0.25941635623971138 -0.02230021284205122 0 0.24731406762381819 -0.035960341631652723 0 0.26329678137076351 -0.053405898285071182 0 0.24731406762381819 -0.035960341631652723 0 0.26329678137076351 -0.053405898285071182 0 0.26311483972878968 -0.036713614733010089 0 0.24731406762381819 -0.035960341631652723 0 0.25941635623971138 -0.02230021284205122 0 0.24731406762381819 -0.035960341631652723 0 0.2482857443068576 -0.021714794414400052 0 0.25941635623971138 -0.02230021284205122 0 0.25508119948702751 -0.010083838205662381 0 0.2482857443068576 -0.021714794414400052 0 0.26311483972878968 -0.036713614733010089 0 0.25941635623971138 -0.02230021284205122 0 0.27217486102646721 -0.027861542379398439 0 0.2541426920980116 -0.0036136263454906951 0 0.25508119948702751 -0.010083838205662381 0 0.24138147174972829 -0.0061427828714447699 0 0.2541426920980116 -0.0036136263454906951 0 0.25508119948702751 -0.010083838205662381 0 0.26047117107291767 -0.0019720443344692288 0 0.25446675038947358 0.0029162606258486688 0 0.2541426920980116 -0.0036136263454906951 0 0.26047117107291767 -0.0019720443344692288 0 0.25941635623971138 -0.02230021284205122 0 0.25508119948702751 -0.010083838205662381 0 0.26474460583379889 -0.01023883548432745 0 0.25941635623971138 -0.02230021284205122 0 0.26474460583379889 -0.01023883548432745 0 0.27166734417845928 -0.01430021117376327 0 0.25508119948702751 -0.010083838205662381 0 0.26474460583379889 -0.01023883548432745 0 0.26047117107291767 -0.0019720443344692288 0 0.26474460583379889 -0.01023883548432745 0 0.26047117107291767 -0.0019720443344692288 0 0.27708695819087842 -0.0025378708656911609 0 0.26474460583379889 -0.01023883548432745 0 0.27166734417845928 -0.01430021117376327 0 0.27708695819087842 -0.0025378708656911609 0 0.27166734417845928 -0.01430021117376327 0 0.27708695819087842 -0.0025378708656911609 0 0.28469269166600031 -0.01545933141113482 0 0.27217486102646721 -0.027861542379398439 0 0.28469269166600031 -0.01545933141113482 0 0.28494473946257981 -0.034556038004921102 0 0.25941635623971138 -0.02230021284205122 0 0.27166734417845928 -0.01430021117376327 0 0.27217486102646721 -0.027861542379398439 0 0.27166734417845928 -0.01430021117376327 0 0.27217486102646721 -0.027861542379398439 0 0.28469269166600031 -0.01545933141113482 0 0.28469269166600031 -0.01545933141113482 0 0.29727596499766062 -0.023933315692393788 0 0.28494473946257981 -0.034556038004921102 0 0.30352242257352219 0.0039185454548519476 0 0.28469269166600031 -0.01545933141113482 0 0.29727596499766062 -0.023933315692393788 0 0.30352242257352219 0.0039185454548519476 0 0.27708695819087842 -0.0025378708656911609 0 0.28469269166600031 -0.01545933141113482 0 0.30352242257352219 0.0039185454548519476 0 0.32469666258817742 -0.019557632270551 0 0.29727596499766062 -0.023933315692393788 0 0.32469666258817742 -0.019557632270551 0 0.31326255248553708 -0.043768501277314603 0 0.29727596499766062 -0.023933315692393788 0 0.31326255248553708 -0.043768501277314603 0 0.29727596499766062 -0.023933315692393788 0 0.2968975050950291 -0.045887416406534938 0 0.31326255248553708 -0.043768501277314603 0 0.29727596499766062 -0.023933315692393788 0 0.31326255248553708 -0.043768501277314603 0 0.2968975050950291 -0.045887416406534938 0 0.31014365419524398 -0.06072536978512106 0 0.2968975050950291 -0.045887416406534938 0 0.31014365419524398 -0.06072536978512106 0 0.29222542489931519 -0.060978945333093171 0 0.2968975050950291 -0.045887416406534938 0 0.29222542489931519 -0.060978945333093171 0 0.28525528160713332 -0.050154543613187753 0 0.27868582307562201 -0.055886184139343542 0 0.29222542489931519 -0.060978945333093171 0 0.28525528160713332 -0.050154543613187753 0 0.2968975050950291 -0.045887416406534938 0 0.28525528160713332 -0.050154543613187753 0 0.28494473946257981 -0.034556038004921102 0 0.29727596499766062 -0.023933315692393788 0 0.2968975050950291 -0.045887416406534938 0 0.28494473946257981 -0.034556038004921102 0 0.29579617193404978 -0.19432558104056491 0 0.30588539897632072 -0.22256652654210629 0 0.2776594049058328 -0.2175861504380624 0 0.29579617193404978 -0.19432558104056491 0 0.2776594049058328 -0.2175861504380624 0 0.2764107852420567 -0.19644220614923899 0 0.29579617193404978 -0.19432558104056491 0 0.2764107852420567 -0.19644220614923899 0 0.2792899687438003 -0.18116405860585089 0 0.29579617193404978 -0.19432558104056491 0 0.31045946319455608 -0.20263901644370941 0 0.31057073564158039 -0.17760626025882659 0 0.29579617193404978 -0.19432558104056491 0 0.30588539897632072 -0.22256652654210629 0 0.31045946319455608 -0.20263901644370941 0 0.30588539897632072 -0.22256652654210629 0 0.32020032842118662 -0.2136972324735969 0 0.29579617193404978 -0.19432558104056491 0 0.31045946319455608 -0.20263901644370941 0 0.30588539897632072 -0.22256652654210629 0 0.29681701546221179 -0.23419681124085551 0 0.31597462601859122 -0.25080747204364812 0 0.30111904597271899 -0.2536098058489899 0 0.30588539897632072 -0.22256652654210629 0 0.29681701546221179 -0.23419681124085551 0 0.31597462601859122 -0.25080747204364812 0 0.30588539897632072 -0.22256652654210629 0 0.31597462601859122 -0.25080747204364812 0 0.29681701546221179 -0.23419681124085551 0 0.31597462601859122 -0.25080747204364812 0 0.29681701546221179 -0.23419681124085551 0 0.30111904597271899 -0.2536098058489899 0 0.28456511698073272 -0.25518130134833977 0 0.29681701546221179 -0.23419681124085551 0 0.27830026498091959 -0.23745462562099759 0 0.28456511698073272 -0.25518130134833977 0 0.30588539897632072 -0.22256652654210629 0 0.29681701546221179 -0.23419681124085551 0 0.2776594049058328 -0.2175861504380624 0 0.29681701546221179 -0.23419681124085551 0 0.27830026498091959 -0.23745462562099759 0 0.2776594049058328 -0.2175861504380624 0 0.29681701546221179 -0.23419681124085551 0 0.2776594049058328 -0.2175861504380624 0 0.26584409390649738 -0.23415831621220631 0 0.27830026498091959 -0.23745462562099759 0 0.2776594049058328 -0.2175861504380624 0 0.26584409390649738 -0.23415831621220631 0 0.25658827463044448 -0.2222138965281123 0 0.2776594049058328 -0.2175861504380624 0 0.27830026498091959 -0.23745462562099759 0 0.28456511698073272 -0.25518130134833977 0 0.26629969424128969 -0.25192769388052821 0 0.26584409390649738 -0.23415831621220631 0 0.27830026498091959 -0.23745462562099759 0 0.26629969424128969 -0.25192769388052821 0 0.26584409390649738 -0.23415831621220631 0 0.25037283077400019 -0.2416092145933311 0 0.26629969424128969 -0.25192769388052821 0 0.25037283077400019 -0.2416092145933311 0 0.25658827463044448 -0.2222138965281123 0 0.2446094219978813 -0.2276121794933563 0 0.26584409390649738 -0.23415831621220631 0 0.25037283077400019 -0.2416092145933311 0 0.25658827463044448 -0.2222138965281123 0 0.25658827463044448 -0.2222138965281123 0 0.2776594049058328 -0.2175861504380624 0 0.25850179434945381 -0.20097548963526929 0 0.25658827463044448 -0.2222138965281123 0 0.25850179434945381 -0.20097548963526929 0 0.23907695871134879 -0.21289681242661959 0 0.2776594049058328 -0.2175861504380624 0 0.25850179434945381 -0.20097548963526929 0 0.2776594049058328 -0.2175861504380624 0 0.2764107852420567 -0.19644220614923899 0 0.25850179434945381 -0.20097548963526929 0 0.2764107852420567 -0.19644220614923899 0 0.25850179434945381 -0.20097548963526929 0 0.26539786460737957 -0.18100391429238191 0 0.25850179434945381 -0.20097548963526929 0 0.26539786460737957 -0.18100391429238191 0 0.23934418379307471 -0.18436482883247621 0 0.26539786460737957 -0.18100391429238191 0 0.25449645062408999 -0.16331052089379791 0 0.23934418379307471 -0.18436482883247621 0 0.26539786460737957 -0.18100391429238191 0 0.25449645062408999 -0.16331052089379791 0 0.27043371620885309 -0.16438603764101259 0 0.25449645062408999 -0.16331052089379791 0 0.27043371620885309 -0.16438603764101259 0 0.2633734196266177 -0.15149826902969399 0 0.27043371620885309 -0.16438603764101259 0 0.2792899687438003 -0.18116405860585089 0 0.28570694489177878 -0.1660846355390232 0 0.27043371620885309 -0.16438603764101259 0 0.27930784456020519 -0.15183985913025491 0 0.28570694489177878 -0.1660846355390232 0 0.26539786460737957 -0.18100391429238191 0 0.27043371620885309 -0.16438603764101259 0 0.2792899687438003 -0.18116405860585089 0 0.2764107852420567 -0.19644220614923899 0 0.26539786460737957 -0.18100391429238191 0 0.2792899687438003 -0.18116405860585089 0 0.26153006621115998 -0.13421007507225571 0 0.24375228786211539 -0.116580291014256 0 0.24955680073527009 -0.143898101237383 0 0.26153006621115998 -0.13421007507225571 0 0.24375228786211539 -0.116580291014256 0 0.25449645062408999 -0.16331052089379791 0 0.2633734196266177 -0.15149826902969399 0 0.24955680073527009 -0.143898101237383 0 0.26153006621115998 -0.13421007507225571 0 0.2633734196266177 -0.15149826902969399 0 0.24955680073527009 -0.143898101237383 0 0.27043371620885309 -0.16438603764101259 0 0.2633734196266177 -0.15149826902969399 0 0.27930784456020519 -0.15183985913025491 0 0.27561771784950778 -0.13784369003748159 0 0.28570694489177878 -0.1660846355390232 0 0.26153006621115998 -0.13421007507225571 0 0.27930784456020519 -0.15183985913025491 0 0.27561771784950778 -0.13784369003748159 0 0.27930784456020519 -0.15183985913025491 0 0.27561771784950778 -0.13784369003748159 0 0.28570694489177878 -0.1660846355390232 0 0.26153006621115998 -0.13421007507225571 0 0.2633734196266177 -0.15149826902969399 0 0.27930784456020519 -0.15183985913025491 0 0.26153006621115998 -0.13421007507225571 0 0.27930784456020519 -0.15183985913025491 0 0.26776517015272971 -0.1222840496799191 0 0.27561771784950778 -0.13784369003748159 0 0.28721398294742878 -0.13035474923543569 0 0.26776517015272971 -0.1222840496799191 0 0.26153006621115998 -0.13421007507225571 0 0.27561771784950778 -0.13784369003748159 0 0.27561771784950778 -0.13784369003748159 0 0.28721398294742878 -0.13035474923543569 0 0.28891568690104508 -0.14625428249578579 0 0.28721398294742878 -0.13035474923543569 0 0.28891568690104508 -0.14625428249578579 0 0.29920842625061578 -0.1386190615635868 0 0.28891568690104508 -0.14625428249578579 0 0.29920842625061578 -0.1386190615635868 0 0.29789574789403661 -0.15876522012859751 0 0.27561771784950778 -0.13784369003748159 0 0.28891568690104508 -0.14625428249578579 0 0.28570694489177878 -0.1660846355390232 0 0.30985117626407932 -0.1486491484402036 0 0.29920842625061578 -0.1386190615635868 0 0.29789574789403661 -0.15876522012859751 0 0.30985117626407932 -0.1486491484402036 0 0.29789574789403661 -0.15876522012859751 0 0.3134799250960158 -0.16133035304856411 0 0.30985117626407932 -0.1486491484402036 0 0.29920842625061578 -0.1386190615635868 0 0.31980994510895661 -0.13408045692276491 0 0.3092169746865393 -0.1198258623704429 0 0.28721398294742878 -0.13035474923543569 0 0.29920842625061578 -0.1386190615635868 0 0.3092169746865393 -0.1198258623704429 0 0.29920842625061578 -0.1386190615635868 0 0.31980994510895661 -0.13408045692276491 0 0.29579617193404978 -0.19432558104056491 0 0.2792899687438003 -0.18116405860585089 0 0.28570694489177878 -0.1660846355390232 0 0.29579617193404978 -0.19432558104056491 0 0.28570694489177878 -0.1660846355390232 0 0.29579617193404978 -0.19432558104056491 0 0.28570694489177878 -0.1660846355390232 0 0.29784246694311001 -0.17248502473641619 0 0.28891568690104508 -0.14625428249578579 0 0.28570694489177878 -0.1660846355390232 0 0.29789574789403661 -0.15876522012859751 0 0.28570694489177878 -0.1660846355390232 0 0.29789574789403661 -0.15876522012859751 0 0.29784246694311001 -0.17248502473641619 0 0.29789574789403661 -0.15876522012859751 0 0.31057073564158039 -0.17760626025882659 0 0.3134799250960158 -0.16133035304856411 0 0.29789574789403661 -0.15876522012859751 0 0.31057073564158039 -0.17760626025882659 0 0.29784246694311001 -0.17248502473641619 0 0.29789574789403661 -0.15876522012859751 0 0.31057073564158039 -0.17760626025882659 0 0.29579617193404978 -0.19432558104056491 0 0.31057073564158039 -0.17760626025882659 0 0.29784246694311001 -0.17248502473641619 0 0.31057073564158039 -0.17760626025882659 0 0.33117051957001492 -0.16690810347740409 0 0.33960500058918919 -0.18923554211963439 0 0.31057073564158039 -0.17760626025882659 0 0.32324572338912438 -0.19644730038905581 0 0.3134799250960158 -0.16133035304856411 0 0.33117051957001492 -0.16690810347740409 0 0.32297156368297691 -0.15191279281852399 0 0.31057073564158039 -0.17760626025882659 0 0.3134799250960158 -0.16133035304856411 0 0.33117051957001492 -0.16690810347740409 0 0.33117051957001492 -0.16690810347740409 0 0.34312821131240068 -0.1490342399984359 0 0.35150112372442083 -0.17432517416681301 0 0.33117051957001492 -0.16690810347740409 0 0.35150112372442083 -0.17432517416681301 0 0.33960500058918919 -0.18923554211963439 0 0.33587402752894302 -0.122350175475488 0 0.3092169746865393 -0.1198258623704429 0 0.31980994510895661 -0.13408045692276491 0 0.30985117626407932 -0.1486491484402036 0 0.31980994510895661 -0.13408045692276491 0 0.32297156368297691 -0.15191279281852399 0 0.30985117626407932 -0.1486491484402036 0 0.3134799250960158 -0.16133035304856411 0 0.32297156368297691 -0.15191279281852399 0 0.33117051957001492 -0.16690810347740409 0 0.32297156368297691 -0.15191279281852399 0 0.34312821131240068 -0.1490342399984359 0 0.31980994510895661 -0.13408045692276491 0 0.32297156368297691 -0.15191279281852399 0 0.34312821131240068 -0.1490342399984359 0 0.33587402752894302 -0.122350175475488 0 0.31980994510895661 -0.13408045692276491 0 0.34312821131240068 -0.1490342399984359 0 0.36253108037134668 -0.1248744885805331 0 0.33587402752894302 -0.122350175475488 0 0.3555623608711499 -0.1359942506039106 0 0.33587402752894302 -0.122350175475488 0 0.34312821131240068 -0.1490342399984359 0 0.3555623608711499 -0.1359942506039106 0 0.34312821131240068 -0.1490342399984359 0 0.3555623608711499 -0.1359942506039106 0 0.36858459771950869 -0.15733985743645959 0 0.3555623608711499 -0.1359942506039106 0 0.36652086356581781 -0.12946943863695781 0 0.36858459771950869 -0.15733985743645959 0 0.36652086356581781 -0.12946943863695781 0 0.36858459771950869 -0.15733985743645959 0 0.36652086356581781 -0.12946943863695781 0 0.36858459771950869 -0.15733985743645959 0 0.3787995421462832 -0.1425544525875144 0 0.36652086356581781 -0.12946943863695781 0 0.37808333446084269 -0.1309391893982525 0 0.3787995421462832 -0.1425544525875144 0 0.36253108037134668 -0.1248744885805331 0 0.36652086356581781 -0.12946943863695781 0 0.37808333446084269 -0.1309391893982525 0 0.36253108037134668 -0.1248744885805331 0 0.3555623608711499 -0.1359942506039106 0 0.36652086356581781 -0.12946943863695781 0 0.35150112372442083 -0.17432517416681301 0 0.37064833187319962 -0.1852102762359614 0 0.35587008128221181 -0.19822302573298239 0 0.35150112372442083 -0.17432517416681301 0 0.35587008128221181 -0.19822302573298239 0 0.33960500058918919 -0.18923554211963439 0 0.34312821131240068 -0.1490342399984359 0 0.35150112372442083 -0.17432517416681301 0 0.36858459771950869 -0.15733985743645959 0 0.36858459771950869 -0.15733985743645959 0 0.37064833187319962 -0.1852102762359614 0 0.35150112372442083 -0.17432517416681301 0 0.36858459771950869 -0.15733985743645959 0 0.37064833187319962 -0.1852102762359614 0 0.36858459771950869 -0.15733985743645959 0 0.37064833187319962 -0.1852102762359614 0 0.3834788620725188 -0.17954848884060079 0 0.37064833187319962 -0.1852102762359614 0 0.37271206602689039 -0.21308069503546309 0 0.38139900114097952 -0.20469292352659629 0 0.37064833187319962 -0.1852102762359614 0 0.37271206602689039 -0.21308069503546309 0 0.37064833187319962 -0.1852102762359614 0 0.37271206602689039 -0.21308069503546309 0 0.35587008128221181 -0.19822302573298239 0 0.37271206602689039 -0.21308069503546309 0 0.35603419272415182 -0.2169366224123114 0 0.35587008128221181 -0.19822302573298239 0 0.35603419272415182 -0.2169366224123114 0 0.35587008128221181 -0.19822302573298239 0 0.33592071113666833 -0.21528834051928489 0 0.35587008128221181 -0.19822302573298239 0 0.33960500058918919 -0.18923554211963439 0 0.33592071113666833 -0.21528834051928489 0 0.33960500058918919 -0.18923554211963439 0 0.33592071113666833 -0.21528834051928489 0 0.32324572338912438 -0.19644730038905581 0 0.33592071113666833 -0.21528834051928489 0 0.32324572338912438 -0.19644730038905581 0 0.33592071113666833 -0.21528834051928489 0 0.32020032842118662 -0.2136972324735969 0 0.32324572338912438 -0.19644730038905581 0 0.31045946319455608 -0.20263901644370941 0 0.32020032842118662 -0.2136972324735969 0 0.32324572338912438 -0.19644730038905581 0 0.31057073564158039 -0.17760626025882659 0 0.33960500058918919 -0.18923554211963439 0 0.32324572338912438 -0.19644730038905581 0 0.31045946319455608 -0.20263901644370941 0 0.31057073564158039 -0.17760626025882659 0 0.32324572338912438 -0.19644730038905581 0 0.32549034540926353 -0.23154497847382799 0 0.33517615116993849 -0.24743488902137309 0 0.31597462601859122 -0.25080747204364812 0 0.30588539897632072 -0.22256652654210629 0 0.32549034540926353 -0.23154497847382799 0 0.31597462601859122 -0.25080747204364812 0 0.30588539897632072 -0.22256652654210629 0 0.32020032842118662 -0.2136972324735969 0 0.32549034540926353 -0.23154497847382799 0 0.33592071113666833 -0.21528834051928489 0 0.32020032842118662 -0.2136972324735969 0 0.32549034540926353 -0.23154497847382799 0 0.33592071113666833 -0.21528834051928489 0 0.32549034540926353 -0.23154497847382799 0 0.34859569888421221 -0.23412938064951411 0 0.33592071113666833 -0.21528834051928489 0 0.34859569888421221 -0.23412938064951411 0 0.32549034540926353 -0.23154497847382799 0 0.33517615116993849 -0.24743488902137309 0 0.34859569888421221 -0.23412938064951411 0 0.33517615116993849 -0.24743488902137309 0 0.34859569888421221 -0.23412938064951411 0 0.35185333732921159 -0.25428502110151557 0 0.34859569888421221 -0.23412938064951411 0 0.36075586336603621 -0.2426037127049111 0 0.35185333732921159 -0.25428502110151557 0 0.34859569888421221 -0.23412938064951411 0 0.36291464790978972 -0.22902601310760301 0 0.36075586336603621 -0.2426037127049111 0 0.35603419272415182 -0.2169366224123114 0 0.34859569888421221 -0.23412938064951411 0 0.36291464790978972 -0.22902601310760301 0 0.35603419272415182 -0.2169366224123114 0 0.33592071113666833 -0.21528834051928489 0 0.34859569888421221 -0.23412938064951411 0 0.37271206602689039 -0.21308069503546309 0 0.35603419272415182 -0.2169366224123114 0 0.36291464790978972 -0.22902601310760301 0 0.37271206602689039 -0.21308069503546309 0 0.37477580018058132 -0.24095111383496479 0 0.37555308153547928 -0.22286467051027881 0 0.37271206602689039 -0.21308069503546309 0 0.37477580018058132 -0.24095111383496479 0 0.37271206602689039 -0.21308069503546309 0 0.36291464790978972 -0.22902601310760301 0 0.37477580018058132 -0.24095111383496479 0 0.36075586336603621 -0.2426037127049111 0 0.37477580018058132 -0.24095111383496479 0 0.36563983252638571 -0.25462703483095822 0 0.36291464790978972 -0.22902601310760301 0 0.36075586336603621 -0.2426037127049111 0 0.37477580018058132 -0.24095111383496479 0 0.37477580018058132 -0.24095111383496479 0 0.39321551516580561 -0.23618023300957031 0 0.38725375881062551 -0.25185160038302579 0 0.39321551516580561 -0.23618023300957031 0 0.41087794879613182 -0.2494957955088617 0 0.40741230325918792 -0.23450562481703699 0 0.39321551516580561 -0.23618023300957031 0 0.41087794879613182 -0.2494957955088617 0 0.39321551516580561 -0.23618023300957031 0 0.38725375881062551 -0.25185160038302579 0 0.39640803358832022 -0.25154779433757402 0 0.39321551516580561 -0.23618023300957031 0 0.41087794879613182 -0.2494957955088617 0 0.39640803358832022 -0.25154779433757402 0 0.4055308246994358 -0.22407667781788709 0 0.39424069285124719 -0.22310079746779379 0 0.40434357831770951 -0.21487406561090469 0 0.4055308246994358 -0.22407667781788709 0 0.39424069285124719 -0.22310079746779379 0 0.40741230325918792 -0.23450562481703699 0 0.39321551516580561 -0.23618023300957031 0 0.39424069285124719 -0.22310079746779379 0 0.40741230325918792 -0.23450562481703699 0 0.37477580018058132 -0.24095111383496479 0 0.39321551516580561 -0.23618023300957031 0 0.37555308153547928 -0.22286467051027881 0 0.39424069285124719 -0.22310079746779379 0 0.37555308153547928 -0.22286467051027881 0 0.38300691860546521 -0.21527996176244341 0 0.39321551516580561 -0.23618023300957031 0 0.37555308153547928 -0.22286467051027881 0 0.39321551516580561 -0.23618023300957031 0 0.39424069285124719 -0.22310079746779379 0 0.37555308153547928 -0.22286467051027881 0 0.37271206602689039 -0.21308069503546309 0 0.37555308153547928 -0.22286467051027881 0 0.38300691860546521 -0.21527996176244341 0 0.37271206602689039 -0.21308069503546309 0 0.38139900114097952 -0.20469292352659629 0 0.38300691860546521 -0.21527996176244341 0 0.38139900114097952 -0.20469292352659629 0 0.39078770323730427 -0.19674260859680251 0 0.39112975147272949 -0.2126607222720846 0 0.38139900114097952 -0.20469292352659629 0 0.38300691860546521 -0.21527996176244341 0 0.39112975147272949 -0.2126607222720846 0 0.39424069285124719 -0.22310079746779379 0 0.38300691860546521 -0.21527996176244341 0 0.39112975147272949 -0.2126607222720846 0 0.37064833187319962 -0.1852102762359614 0 0.38139900114097952 -0.20469292352659629 0 0.39078770323730427 -0.19674260859680251 0 0.39078770323730427 -0.19674260859680251 0 0.40475141021500721 -0.1910589369573561 0 0.39510197637232292 -0.1839605883432579 0 0.39078770323730427 -0.19674260859680251 0 0.40426546228868082 -0.20108352786525729 0 0.397631623829106 -0.20634023108626229 0 0.39078770323730427 -0.19674260859680251 0 0.40426546228868082 -0.20108352786525729 0 0.40475141021500721 -0.1910589369573561 0 0.39078770323730427 -0.19674260859680251 0 0.39112975147272949 -0.2126607222720846 0 0.397631623829106 -0.20634023108626229 0 0.39112975147272949 -0.2126607222720846 0 0.397631623829106 -0.20634023108626229 0 0.40434357831770951 -0.21487406561090469 0 0.39424069285124719 -0.22310079746779379 0 0.39112975147272949 -0.2126607222720846 0 0.40434357831770951 -0.21487406561090469 0 0.40426546228868082 -0.20108352786525729 0 0.397631623829106 -0.20634023108626229 0 0.40434357831770951 -0.21487406561090469 0 0.40434357831770951 -0.21487406561090469 0 0.41713092845542321 -0.20900944133272009 0 0.41612672436959858 -0.22382622337581301 0 0.40426546228868082 -0.20108352786525729 0 0.40434357831770951 -0.21487406561090469 0 0.41713092845542321 -0.20900944133272009 0 0.41713092845542321 -0.20900944133272009 0 0.42330136258736267 -0.2174116668913772 0 0.41612672436959858 -0.22382622337581301 0 0.40475141021500721 -0.1910589369573561 0 0.41487892771890261 -0.19826025474908979 0 0.4146572714410397 -0.186958864794112 0 0.40426546228868082 -0.20108352786525729 0 0.41713092845542321 -0.20900944133272009 0 0.41487892771890261 -0.19826025474908979 0 0.40426546228868082 -0.20108352786525729 0 0.40475141021500721 -0.1910589369573561 0 0.41487892771890261 -0.19826025474908979 0 0.41713092845542321 -0.20900944133272009 0 0.41487892771890261 -0.19826025474908979 0 0.42701217502226602 -0.19751647228806199 0 0.41487892771890261 -0.19826025474908979 0 0.42053294087941678 -0.1923617771039739 0 0.42701217502226602 -0.19751647228806199 0 0.42053294087941678 -0.1923617771039739 0 0.4146572714410397 -0.186958864794112 0 0.42558338933545942 -0.1867115165846317 0 0.41487892771890261 -0.19826025474908979 0 0.42053294087941678 -0.1923617771039739 0 0.4146572714410397 -0.186958864794112 0 0.42701217502226602 -0.19751647228806199 0 0.43844209377108118 -0.18689286854296691 0 0.44355474576021348 -0.2050869029196882 0 0.42053294087941678 -0.1923617771039739 0 0.42701217502226602 -0.19751647228806199 0 0.42558338933545942 -0.1867115165846317 0 0.42701217502226602 -0.19751647228806199 0 0.42558338933545942 -0.1867115165846317 0 0.43844209377108118 -0.18689286854296691 0 0.42701217502226602 -0.19751647228806199 0 0.43006687167525981 -0.21185300334864521 0 0.44355474576021348 -0.2050869029196882 0 0.41713092845542321 -0.20900944133272009 0 0.42330136258736267 -0.2174116668913772 0 0.43006687167525981 -0.21185300334864521 0 0.42330136258736267 -0.2174116668913772 0 0.43006687167525981 -0.21185300334864521 0 0.42988092584916948 -0.2249579995083304 0 0.41713092845542321 -0.20900944133272009 0 0.42701217502226602 -0.19751647228806199 0 0.43006687167525981 -0.21185300334864521 0 0.43006687167525981 -0.21185300334864521 0 0.42988092584916948 -0.2249579995083304 0 0.44009267276725389 -0.2176624614444449 0 0.42330136258736267 -0.2174116668913772 0 0.42988092584916948 -0.2249579995083304 0 0.41612672436959858 -0.22382622337581301 0 0.42988092584916948 -0.2249579995083304 0 0.43458399188612801 -0.2397076170126072 0 0.42159465327244361 -0.23640953485310751 0 0.42988092584916948 -0.2249579995083304 0 0.42159465327244361 -0.23640953485310751 0 0.41612672436959858 -0.22382622337581301 0 0.42988092584916948 -0.2249579995083304 0 0.43458399188612801 -0.2397076170126072 0 0.44416109061426973 -0.22983272991065171 0 0.43458399188612801 -0.2397076170126072 0 0.42656562700980838 -0.24831468624349931 0 0.4372088962240912 -0.25169219704383999 0 0.43458399188612801 -0.2397076170126072 0 0.42656562700980838 -0.24831468624349931 0 0.42159465327244361 -0.23640953485310751 0 0.42656562700980838 -0.24831468624349931 0 0.42159465327244361 -0.23640953485310751 0 0.41087794879613182 -0.2494957955088617 0 0.42159465327244361 -0.23640953485310751 0 0.41087794879613182 -0.2494957955088617 0 0.40741230325918792 -0.23450562481703699 0 0.4055308246994358 -0.22407667781788709 0 0.40741230325918792 -0.23450562481703699 0 0.41612672436959858 -0.22382622337581301 0 0.4055308246994358 -0.22407667781788709 0 0.40434357831770951 -0.21487406561090469 0 0.41612672436959858 -0.22382622337581301 0 0.42159465327244361 -0.23640953485310751 0 0.40741230325918792 -0.23450562481703699 0 0.41612672436959858 -0.22382622337581301 0 0.39823574772599779 -0.11763079726210079 0 0.40257569972698831 -0.13396225485532559 0 0.38918813321375051 -0.12739880168557821 0 0.40257569972698831 -0.13396225485532559 0 0.38918813321375051 -0.12739880168557821 0 0.39017348084279901 -0.13955387731924049 0 0.38918813321375051 -0.12739880168557821 0 0.37808333446084269 -0.1309391893982525 0 0.39017348084279901 -0.13955387731924049 0 0.37720890243704291 -0.12310924361699779 0 0.36253108037134668 -0.1248744885805331 0 0.38918813321375051 -0.12739880168557821 0 0.36253108037134668 -0.1248744885805331 0 0.38918813321375051 -0.12739880168557821 0 0.37808333446084269 -0.1309391893982525 0 0.36253108037134668 -0.1248744885805331 0 0.38918813321375051 -0.12739880168557821 0 0.37808333446084269 -0.1309391893982525 0 0.39017348084279901 -0.13955387731924049 0 0.3787995421462832 -0.1425544525875144 0 0.36858459771950869 -0.15733985743645959 0 0.3787995421462832 -0.1425544525875144 0 0.38535727780346091 -0.1527557998392445 0 0.39017348084279901 -0.13955387731924049 0 0.3787995421462832 -0.1425544525875144 0 0.38535727780346091 -0.1527557998392445 0 0.40257569972698831 -0.13396225485532559 0 0.39822107621443897 -0.1501202070538992 0 0.41732028123257531 -0.14286435439753159 0 0.40257569972698831 -0.13396225485532559 0 0.39017348084279901 -0.13955387731924049 0 0.39822107621443897 -0.1501202070538992 0 0.39017348084279901 -0.13955387731924049 0 0.38535727780346091 -0.1527557998392445 0 0.39822107621443897 -0.1501202070538992 0 0.39822107621443897 -0.1501202070538992 0 0.39107178753907162 -0.16851380255406381 0 0.40713652226246821 -0.16744863749245631 0 0.39107178753907162 -0.16851380255406381 0 0.40713652226246821 -0.16744863749245631 0 0.38535727780346091 -0.1527557998392445 0 0.39822107621443897 -0.1501202070538992 0 0.39107178753907162 -0.16851380255406381 0 0.39107178753907162 -0.16851380255406381 0 0.40460499843718001 -0.17902112385493851 0 0.40713652226246821 -0.16744863749245631 0 0.36858459771950869 -0.15733985743645959 0 0.38535727780346091 -0.1527557998392445 0 0.39107178753907162 -0.16851380255406381 0 0.36858459771950869 -0.15733985743645959 0 0.39107178753907162 -0.16851380255406381 0 0.3834788620725188 -0.17954848884060079 0 0.39107178753907162 -0.16851380255406381 0 0.3834788620725188 -0.17954848884060079 0 0.39510197637232292 -0.1839605883432579 0 0.39078770323730427 -0.19674260859680251 0 0.3834788620725188 -0.17954848884060079 0 0.39510197637232292 -0.1839605883432579 0 0.37064833187319962 -0.1852102762359614 0 0.39078770323730427 -0.19674260859680251 0 0.3834788620725188 -0.17954848884060079 0 0.39107178753907162 -0.16851380255406381 0 0.39510197637232292 -0.1839605883432579 0 0.40460499843718001 -0.17902112385493851 0 0.40475141021500721 -0.1910589369573561 0 0.39510197637232292 -0.1839605883432579 0 0.40460499843718001 -0.17902112385493851 0 0.40475141021500721 -0.1910589369573561 0 0.40460499843718001 -0.17902112385493851 0 0.4146572714410397 -0.186958864794112 0 0.40460499843718001 -0.17902112385493851 0 0.41491102279317088 -0.17618591298838529 0 0.4146572714410397 -0.186958864794112 0 0.40460499843718001 -0.17902112385493851 0 0.41491102279317088 -0.17618591298838529 0 0.40713652226246821 -0.16744863749245631 0 0.41491102279317088 -0.17618591298838529 0 0.42527009306055918 -0.1746571334479238 0 0.4232012569858648 -0.16638347243084889 0 0.41491102279317088 -0.17618591298838529 0 0.42095079563492938 -0.18072636251124541 0 0.42527009306055918 -0.1746571334479238 0 0.41491102279317088 -0.17618591298838529 0 0.42095079563492938 -0.18072636251124541 0 0.4146572714410397 -0.186958864794112 0 0.42095079563492938 -0.18072636251124541 0 0.4146572714410397 -0.186958864794112 0 0.42558338933545942 -0.1867115165846317 0 0.43180268423531071 -0.1802632517690351 0 0.42527009306055918 -0.1746571334479238 0 0.44880083799057491 -0.164686103644653 0 0.42095079563492938 -0.18072636251124541 0 0.42558338933545942 -0.1867115165846317 0 0.43180268423531071 -0.1802632517690351 0 0.42558338933545942 -0.1867115165846317 0 0.43180268423531071 -0.1802632517690351 0 0.43844209377108118 -0.18689286854296691 0 0.42095079563492938 -0.18072636251124541 0 0.43180268423531071 -0.1802632517690351 0 0.42527009306055918 -0.1746571334479238 0 0.42527009306055918 -0.1746571334479238 0 0.4232012569858648 -0.16638347243084889 0 0.44880083799057491 -0.164686103644653 0 0.4232012569858648 -0.16638347243084889 0 0.43334283997313311 -0.15135273030925811 0 0.44880083799057491 -0.164686103644653 0 0.4232012569858648 -0.16638347243084889 0 0.44880083799057491 -0.164686103644653 0 0.42527009306055918 -0.1746571334479238 0 0.4232012569858648 -0.16638347243084889 0 0.4232012569858648 -0.16638347243084889 0 0.40713652226246821 -0.16744863749245631 0 0.41732028123257531 -0.14286435439753159 0 0.41491102279317088 -0.17618591298838529 0 0.4232012569858648 -0.16638347243084889 0 0.40713652226246821 -0.16744863749245631 0 0.4232012569858648 -0.16638347243084889 0 0.40713652226246821 -0.16744863749245631 0 0.4232012569858648 -0.16638347243084889 0 0.41732028123257531 -0.14286435439753159 0 0.39822107621443897 -0.1501202070538992 0 0.40713652226246821 -0.16744863749245631 0 0.41732028123257531 -0.14286435439753159 0 0.41732028123257531 -0.14286435439753159 0 0.43334283997313311 -0.15135273030925811 0 0.43763345530417341 -0.13584027725706749 0 0.4232012569858648 -0.16638347243084889 0 0.41732028123257531 -0.14286435439753159 0 0.43334283997313311 -0.15135273030925811 0 0.42916935431308728 -0.1205456085246996 0 0.41732028123257531 -0.14286435439753159 0 0.43763345530417341 -0.13584027725706749 0 0.42916935431308728 -0.1205456085246996 0 0.4435038969132965 -0.12540022695152131 0 0.43763345530417341 -0.13584027725706749 0 0.41143930547928681 -0.11934523636421419 0 0.42916935431308728 -0.1205456085246996 0 0.41732028123257531 -0.14286435439753159 0 0.41143930547928681 -0.11934523636421419 0 0.40257569972698831 -0.13396225485532559 0 0.41732028123257531 -0.14286435439753159 0 0.41143930547928681 -0.11934523636421419 0 0.41732028123257531 -0.14286435439753159 0 0.46257396642688631 -0.12529077885077469 0 0.46381730130484328 -0.1363472541609663 0 0.4585659370706795 -0.1308283620105129 0 0.46381730130484328 -0.1363472541609663 0 0.4585659370706795 -0.1308283620105129 0 0.45274550479158487 -0.1345999168850856 0 0.46381730130484328 -0.1363472541609663 0 0.45274550479158487 -0.1345999168850856 0 0.46138481906560302 -0.14686228775601681 0 0.46257396642688631 -0.12529077885077469 0 0.4585659370706795 -0.1308283620105129 0 0.45239247298790419 -0.125419693033265 0 0.4585659370706795 -0.1308283620105129 0 0.45239247298790419 -0.125419693033265 0 0.45274550479158487 -0.1345999168850856 0 0.45239247298790419 -0.125419693033265 0 0.4435038969132965 -0.12540022695152131 0 0.45274550479158487 -0.1345999168850856 0 0.4435038969132965 -0.12540022695152131 0 0.43763345530417341 -0.13584027725706749 0 0.45274550479158487 -0.1345999168850856 0 0.43763345530417341 -0.13584027725706749 0 0.45274550479158487 -0.1345999168850856 0 0.44678149142501389 -0.1466682631704162 0 0.43334283997313311 -0.15135273030925811 0 0.44678149142501389 -0.1466682631704162 0 0.44880083799057491 -0.164686103644653 0 0.44678149142501389 -0.1466682631704162 0 0.46138481906560302 -0.14686228775601681 0 0.44880083799057491 -0.164686103644653 0 0.43334283997313311 -0.15135273030925811 0 0.43763345530417341 -0.13584027725706749 0 0.44678149142501389 -0.1466682631704162 0 0.45274550479158487 -0.1345999168850856 0 0.44678149142501389 -0.1466682631704162 0 0.46138481906560302 -0.14686228775601681 0 0.46138481906560302 -0.14686228775601681 0 0.44880083799057491 -0.164686103644653 0 0.47440041899528501 -0.16298873485845719 0 0.44880083799057491 -0.164686103644653 0 0.46834799031954211 -0.17915452781490099 0 0.47440041899528501 -0.16298873485845719 0 0.44880083799057491 -0.164686103644653 0 0.47440041899528501 -0.16298873485845719 0 0.43180268423531071 -0.1802632517690351 0 0.44880083799057491 -0.164686103644653 0 0.43844209377108118 -0.18689286854296691 0 0.44880083799057491 -0.164686103644653 0 0.43844209377108118 -0.18689286854296691 0 0.45508032593701309 -0.1914137801830845 0 0.44880083799057491 -0.164686103644653 0 0.46834799031954211 -0.17915452781490099 0 0.45508032593701309 -0.1914137801830845 0 0.46834799031954211 -0.17915452781490099 0 0.48419704391512092 -0.17843144908975531 0 0.47440041899528501 -0.16298873485845719 0 0.46834799031954211 -0.17915452781490099 0 0.48419704391512092 -0.17843144908975531 0 0.47823681026078202 -0.19812675643970101 0 0.48419704391512092 -0.17843144908975531 0 0.49999999999999523 -0.16129136607226169 0 0.5 -0.1905958602634561 0 0.49999999999999523 -0.16129136607226169 0 0.47440041899528501 -0.16298873485845719 0 0.50000000000000067 -0.1547763741112759 0 0.48419704391512092 -0.17843144908975531 0 0.49999999999999523 -0.16129136607226169 0 0.47440041899528501 -0.16298873485845719 0 0.49999999999999523 -0.16129136607226169 0 0.47440041899528501 -0.16298873485845719 0 0.46138481906560302 -0.14686228775601681 0 0.47440041899528501 -0.16298873485845719 0 0.48128698321344371 -0.14003357648102521 0 0.46381730130484328 -0.1363472541609663 0 0.46138481906560302 -0.14686228775601681 0 0.48128698321344371 -0.14003357648102521 0 0.50000000000000067 -0.1547763741112759 0 0.48128698321344371 -0.14003357648102521 0 0.50000000000000067 -0.1547763741112759 0 0.5 -0.13349841451636779 0 0.48128698321344371 -0.14003357648102521 0 0.47440041899528501 -0.16298873485845719 0 0.50000000000000067 -0.1547763741112759 0 0.48128698321344371 -0.14003357648102521 0 0.48087269318342413 -0.1216818802472065 0 0.5 -0.13349841451636779 0 0.48128698321344371 -0.14003357648102521 0 0.46257396642688631 -0.12529077885077469 0 0.48128698321344371 -0.14003357648102521 0 0.46257396642688631 -0.12529077885077469 0 0.46381730130484328 -0.1363472541609663 0 0.48128698321344371 -0.14003357648102521 0 0.47129126618897188 -0.1223351355815797 0 0.48087269318342413 -0.1216818802472065 0 0.48128698321344371 -0.14003357648102521 0 0.47129126618897188 -0.1223351355815797 0 0.46257396642688631 -0.12529077885077469 0 0.48128698321344371 -0.14003357648102521 0 0.46029750420545162 -0.23134667767863379 0 0.45079963313025367 -0.219495204315066 0 0.46126535540865482 -0.21094244298034759 0 0.46029750420545162 -0.23134667767863379 0 0.46126535540865482 -0.21094244298034759 0 0.47937109712497578 -0.22608105856418539 0 0.46029750420545162 -0.23134667767863379 0 0.44856132313442931 -0.24393079079591279 0 0.47387431588802909 -0.25499376211151131 0 0.46029750420545162 -0.23134667767863379 0 0.44856132313442931 -0.24393079079591279 0 0.44416109061426973 -0.22983272991065171 0 0.43458399188612801 -0.2397076170126072 0 0.44856132313442931 -0.24393079079591279 0 0.4372088962240912 -0.25169219704383999 0 0.43458399188612801 -0.2397076170126072 0 0.44856132313442931 -0.24393079079591279 0 0.44416109061426973 -0.22983272991065171 0 0.46029750420545162 -0.23134667767863379 0 0.44416109061426973 -0.22983272991065171 0 0.45079963313025367 -0.219495204315066 0 0.44416109061426973 -0.22983272991065171 0 0.45079963313025367 -0.219495204315066 0 0.44009267276725389 -0.2176624614444449 0 0.42988092584916948 -0.2249579995083304 0 0.44416109061426973 -0.22983272991065171 0 0.44009267276725389 -0.2176624614444449 0 0.45079963313025367 -0.219495204315066 0 0.44355474576021348 -0.2050869029196882 0 0.46126535540865482 -0.21094244298034759 0 0.43006687167525981 -0.21185300334864521 0 0.44009267276725389 -0.2176624614444449 0 0.44355474576021348 -0.2050869029196882 0 0.45079963313025367 -0.219495204315066 0 0.44009267276725389 -0.2176624614444449 0 0.44355474576021348 -0.2050869029196882 0 0.43844209377108118 -0.18689286854296691 0 0.44355474576021348 -0.2050869029196882 0 0.45508032593701309 -0.1914137801830845 0 0.46834799031954211 -0.17915452781490099 0 0.45508032593701309 -0.1914137801830845 0 0.47823681026078202 -0.19812675643970101 0 0.44355474576021348 -0.2050869029196882 0 0.45508032593701309 -0.1914137801830845 0 0.46126535540865482 -0.21094244298034759 0 0.45508032593701309 -0.1914137801830845 0 0.46126535540865482 -0.21094244298034759 0 0.47823681026078202 -0.19812675643970101 0 0.46126535540865482 -0.21094244298034759 0 0.47823681026078202 -0.19812675643970101 0 0.47937109712497578 -0.22608105856418539 0 0.48419704391512092 -0.17843144908975531 0 0.47823681026078202 -0.19812675643970101 0 0.5 -0.1905958602634561 0 0.47823681026078202 -0.19812675643970101 0 0.5 -0.1905958602634561 0 0.5 -0.21990035445465039 0 0.47823681026078202 -0.19812675643970101 0 0.5 -0.21990035445465039 0 0.47937109712497578 -0.22608105856418539 0 0.5 -0.21990035445465039 0 0.47937109712497578 -0.22608105856418539 0 0.50000000000000444 -0.24920484864584491 0 0.46029750420545162 -0.23134667767863379 0 0.47937109712497578 -0.22608105856418539 0 0.47387431588802909 -0.25499376211151131 0 0.47937109712497578 -0.22608105856418539 0 0.50000000000000444 -0.24920484864584491 0 0.47387431588802909 -0.25499376211151131 0 0.50000000000000444 -0.24920484864584491 0 0.4915669900217115 -0.25615479242606781 0 0.5 -0.27170772691138367 0 0.50000000000000444 -0.24920484864584491 0 0.4915669900217115 -0.25615479242606781 0 0.47387431588802909 -0.25499376211151131 0 0.50000000000000444 -0.24920484864584491 0 0.47387431588802909 -0.25499376211151131 0 0.4915669900217115 -0.25615479242606781 0 0.48280749151585822 -0.27129304150170008 0 0.47954864786353962 -0.26301133191085868 0 0.4915669900217115 -0.25615479242606781 0 0.5 -0.27170772691138367 0 0.48280749151585822 -0.27129304150170008 0 0.5 -0.27170772691138367 0 0.48280749151585822 -0.27129304150170008 0 0.48951500520952212 -0.28458010338455908 0 0.48280749151585822 -0.27129304150170008 0 0.47474596181800061 -0.28621450290334632 0 0.48951500520952212 -0.28458010338455908 0 0.48280749151585822 -0.27129304150170008 0 0.47416229901770612 -0.26612875971404459 0 0.47954864786353962 -0.26301133191085868 0 0.48280749151585822 -0.27129304150170008 0 0.47416229901770612 -0.26612875971404459 0 0.47052118473631321 -0.27447720361836658 0 0.47416229901770612 -0.26612875971404459 0 0.47052118473631321 -0.27447720361836658 0 0.46319689217890331 -0.26835660325056299 0 0.48280749151585822 -0.27129304150170008 0 0.47052118473631321 -0.27447720361836658 0 0.47474596181800061 -0.28621450290334632 0 0.4915669900217115 -0.25615479242606781 0 0.46965781089888248 -0.25846873400162218 0 0.4915669900217115 -0.25615479242606781 0 0.47387431588802909 -0.25499376211151131 0 0.46965781089888248 -0.25846873400162218 0 0.4915669900217115 -0.25615479242606781 0 0.47954864786353962 -0.26301133191085868 0 0.46965781089888248 -0.25846873400162218 0 0.47416229901770612 -0.26612875971404459 0 0.47954864786353962 -0.26301133191085868 0 0.46965781089888248 -0.25846873400162218 0 0.47416229901770612 -0.26612875971404459 0 0.46965781089888248 -0.25846873400162218 0 0.46319689217890331 -0.26835660325056299 0 0.46965781089888248 -0.25846873400162218 0 0.46319689217890331 -0.26835660325056299 0 0.4477486317760534 -0.26078267557717671 0 0.44856132313442931 -0.24393079079591279 0 0.47387431588802909 -0.25499376211151131 0 0.4477486317760534 -0.26078267557717671 0 0.47387431588802909 -0.25499376211151131 0 0.4477486317760534 -0.26078267557717671 0 0.46965781089888248 -0.25846873400162218 0 0.4477486317760534 -0.26078267557717671 0 0.47387431588802909 -0.25499376211151131 0 0.46965781089888248 -0.25846873400162218 0 0.4477486317760534 -0.26078267557717671 0 0.47052118473631321 -0.27447720361836658 0 0.45389453446556111 -0.28192564334160541 0 0.47474596181800061 -0.28621450290334632 0 0.47052118473631321 -0.27447720361836658 0 0.46319689217890331 -0.26835660325056299 0 0.45389453446556111 -0.28192564334160541 0 0.46319689217890331 -0.26835660325056299 0 0.4477486317760534 -0.26078267557717671 0 0.45389453446556111 -0.28192564334160541 0 0.45389453446556111 -0.28192564334160541 0 0.430823863629894 -0.26453285558412298 0 0.45389453446556111 -0.28192564334160541 0 0.430823863629894 -0.26453285558412298 0 0.43570592202634773 -0.28205449164250063 0 0.4477486317760534 -0.26078267557717671 0 0.45389453446556111 -0.28192564334160541 0 0.430823863629894 -0.26453285558412298 0 0.4477486317760534 -0.26078267557717671 0 0.42854038242645709 -0.26281135800815408 0 0.44856132313442931 -0.24393079079591279 0 0.4477486317760534 -0.26078267557717671 0 0.4372088962240912 -0.25169219704383999 0 0.4477486317760534 -0.26078267557717671 0 0.42854038242645709 -0.26281135800815408 0 0.4372088962240912 -0.25169219704383999 0 0.4477486317760534 -0.26078267557717671 0 0.430823863629894 -0.26453285558412298 0 0.44815314542162782 -0.30273998798419938 0 0.44271266904340639 -0.31513600928105973 0 0.43092107089682352 -0.30573631325696571 0 0.44815314542162782 -0.30273998798419938 0 0.43874415768382158 -0.29310671547163403 0 0.43092107089682352 -0.30573631325696571 0 0.43874415768382158 -0.29310671547163403 0 0.45389453446556111 -0.28192564334160541 0 0.43570592202634773 -0.28205449164250063 0 0.44815314542162782 -0.30273998798419938 0 0.43874415768382158 -0.29310671547163403 0 0.45389453446556111 -0.28192564334160541 0 0.45389453446556111 -0.28192564334160541 0 0.46668010371271101 -0.29937682325086112 0 0.47474596181800061 -0.28621450290334632 0 0.44815314542162782 -0.30273998798419938 0 0.45389453446556111 -0.28192564334160541 0 0.46668010371271101 -0.29937682325086112 0 0.46668010371271101 -0.29937682325086112 0 0.45907432653114449 -0.32014896664993769 0 0.44815314542162782 -0.30273998798419938 0 0.46668010371271101 -0.29937682325086112 0 0.45907432653114449 -0.32014896664993769 0 0.46668010371271101 -0.29937682325086112 0 0.48375110351916628 -0.30725513966339157 0 0.45907432653114449 -0.32014896664993769 0 0.46668010371271101 -0.29937682325086112 0 0.48375110351916628 -0.30725513966339157 0 0.47474596181800061 -0.28621450290334632 0 0.48375110351916628 -0.30725513966339157 0 0.47474596181800061 -0.28621450290334632 0 0.48951500520952212 -0.28458010338455908 0 0.48375110351916628 -0.30725513966339157 0 0.5 -0.29421060517692271 0 0.48951500520952212 -0.28458010338455908 0 0.5 -0.27170772691138367 0 0.5 -0.29421060517692271 0 0.48951500520952212 -0.28458010338455908 0 0.48375110351916628 -0.30725513966339157 0 0.5 -0.29421060517692271 0 0.49999999999999972 -0.31671348344246159 0 0.48375110351916628 -0.30725513966339157 0 0.49999999999999972 -0.31671348344246159 0 0.48658745812515303 -0.32591538654610069 0 0.49999999999999972 -0.31671348344246159 0 0.49107839048707969 -0.33844651150006611 0 0.49999999999999972 -0.31671348344246159 0 0.48658745812515303 -0.32591538654610069 0 0.49107839048707969 -0.33844651150006611 0 0.49999999999999972 -0.31671348344246159 0 0.5 -0.34354646621870782 0 0.49107839048707969 -0.33844651150006611 0 0.48658745812515303 -0.32591538654610069 0 0.49107839048707969 -0.33844651150006611 0 0.48013111160135669 -0.33592777501669763 0 0.48658745812515303 -0.32591538654610069 0 0.48013111160135669 -0.33592777501669763 0 0.47588582758327369 -0.32632043512378739 0 0.48013111160135669 -0.33592777501669763 0 0.46883970942210401 -0.33989811375075968 0 0.47588582758327369 -0.32632043512378739 0 0.48375110351916628 -0.30725513966339157 0 0.48658745812515303 -0.32591538654610069 0 0.47588582758327369 -0.32632043512378739 0 0.48375110351916628 -0.30725513966339157 0 0.47588582758327369 -0.32632043512378739 0 0.45907432653114449 -0.32014896664993769 0 0.5 -0.37037944899495368 0 0.48466784746851571 -0.3739080713738358 0 0.48215678097416009 -0.36017953955767068 0 0.5 -0.34354646621870782 0 0.49107839048707969 -0.33844651150006611 0 0.48215678097416009 -0.36017953955767068 0 0.49107839048707969 -0.33844651150006611 0 0.48013111160135669 -0.33592777501669763 0 0.48215678097416009 -0.36017953955767068 0 0.5 -0.34354646621870782 0 0.5 -0.37037944899495368 0 0.48215678097416009 -0.36017953955767068 0 0.49107839048707969 -0.33844651150006611 0 0.48215678097416009 -0.36017953955767068 0 0.48013111160135669 -0.33592777501669763 0 0.46883970942210401 -0.33989811375075968 0 0.48215678097416009 -0.36017953955767068 0 0.46883970942210401 -0.33989811375075968 0 0.48215678097416009 -0.36017953955767068 0 0.46166172922915721 -0.35810144835948332 0 0.48215678097416009 -0.36017953955767068 0 0.47323517146124039 -0.38191256761527542 0 0.48215678097416009 -0.36017953955767068 0 0.4671179630262795 -0.37324494563770522 0 0.47323517146124039 -0.38191256761527542 0 0.48466784746851571 -0.3739080713738358 0 0.48215678097416009 -0.36017953955767068 0 0.47323517146124039 -0.38191256761527542 0 0.48215678097416009 -0.36017953955767068 0 0.4671179630262795 -0.37324494563770522 0 0.46166172922915721 -0.35810144835948332 0 0.45652460043480969 -0.37267172771365881 0 0.46166172922915721 -0.35810144835948332 0 0.44386277216801179 -0.36169325344809122 0 0.45652460043480969 -0.37267172771365881 0 0.4671179630262795 -0.37324494563770522 0 0.46166172922915721 -0.35810144835948332 0 0.46883970942210401 -0.33989811375075968 0 0.46166172922915721 -0.35810144835948332 0 0.45146854934957792 -0.34092111004901438 0 0.43963091224731599 -0.34751792105314822 0 0.44386277216801179 -0.36169325344809122 0 0.45146854934957792 -0.34092111004901438 0 0.44386277216801179 -0.36169325344809122 0 0.45146854934957792 -0.34092111004901438 0 0.46166172922915721 -0.35810144835948332 0 0.44386277216801179 -0.36169325344809122 0 0.45146854934957792 -0.34092111004901438 0 0.44386277216801179 -0.36169325344809122 0 0.43376943787959182 -0.36708850497004442 0 0.43808065797110041 -0.37748478958974491 0 0.45652460043480969 -0.37267172771365881 0 0.44386277216801179 -0.36169325344809122 0 0.44783900322824399 -0.38008781189722518 0 0.44386277216801179 -0.36169325344809122 0 0.43808065797110041 -0.37748478958974491 0 0.44386277216801179 -0.36169325344809122 0 0.43808065797110041 -0.37748478958974491 0 0.44783900322824399 -0.38008781189722518 0 0.45652460043480969 -0.37267172771365881 0 0.44386277216801179 -0.36169325344809122 0 0.46883970942210401 -0.33989811375075968 0 0.45907432653114449 -0.32014896664993769 0 0.45146854934957792 -0.34092111004901438 0 0.45907432653114449 -0.32014896664993769 0 0.45146854934957792 -0.34092111004901438 0 0.46883970942210401 -0.33989811375075968 0 0.47588582758327369 -0.32632043512378739 0 0.45907432653114449 -0.32014896664993769 0 0.43963091224731599 -0.34751792105314822 0 0.45146854934957792 -0.34092111004901438 0 0.43565299676263758 -0.3352386806192425 0 0.45146854934957792 -0.34092111004901438 0 0.44493724809618768 -0.32603283426431229 0 0.43565299676263758 -0.3352386806192425 0 0.45907432653114449 -0.32014896664993769 0 0.45146854934957792 -0.34092111004901438 0 0.44493724809618768 -0.32603283426431229 0 0.45907432653114449 -0.32014896664993769 0 0.44493724809618768 -0.32603283426431229 0 0.44271266904340639 -0.31513600928105973 0 0.44493724809618768 -0.32603283426431229 0 0.44271266904340639 -0.31513600928105973 0 0.43047755427124879 -0.32102194424988317 0 0.44815314542162782 -0.30273998798419938 0 0.45907432653114449 -0.32014896664993769 0 0.44271266904340639 -0.31513600928105973 0 0.44271266904340639 -0.31513600928105973 0 0.43047755427124879 -0.32102194424988317 0 0.43092107089682352 -0.30573631325696571 0 0.43047755427124879 -0.32102194424988317 0 0.41919911313656122 -0.31385112706466711 0 0.41739686236043672 -0.32199345155319897 0 0.43047755427124879 -0.32102194424988317 0 0.41919911313656122 -0.31385112706466711 0 0.43092107089682352 -0.30573631325696571 0 0.43047755427124879 -0.32102194424988317 0 0.42053718701310799 -0.32957674384091618 0 0.41739686236043672 -0.32199345155319897 0 0.44493724809618768 -0.32603283426431229 0 0.43047755427124879 -0.32102194424988317 0 0.43565299676263758 -0.3352386806192425 0 0.43565299676263758 -0.3352386806192425 0 0.42053718701310799 -0.32957674384091618 0 0.4250793590774925 -0.34540704162396091 0 0.43963091224731599 -0.34751792105314822 0 0.43565299676263758 -0.3352386806192425 0 0.4250793590774925 -0.34540704162396091 0 0.43047755427124879 -0.32102194424988317 0 0.43565299676263758 -0.3352386806192425 0 0.42053718701310799 -0.32957674384091618 0 0.4062959459869725 -0.32912082979983148 0 0.4250793590774925 -0.34540704162396091 0 0.41055923831377589 -0.34398547157316572 0 0.42053718701310799 -0.32957674384091618 0 0.4062959459869725 -0.32912082979983148 0 0.4250793590774925 -0.34540704162396091 0 0.4062959459869725 -0.32912082979983148 0 0.4250793590774925 -0.34540704162396091 0 0.42053718701310799 -0.32957674384091618 0 0.4062959459869725 -0.32912082979983148 0 0.40802480504278882 -0.32457497099322458 0 0.4062959459869725 -0.32912082979983148 0 0.40802480504278882 -0.32457497099322458 0 0.4062959459869725 -0.32912082979983148 0 0.40802480504278882 -0.32457497099322458 0 0.40572459905769331 -0.31910551143285631 0 0.40802480504278882 -0.32457497099322458 0 0.4119015194344513 -0.31818912214386269 0 0.41739686236043672 -0.32199345155319897 0 0.40802480504278882 -0.32457497099322458 0 0.4119015194344513 -0.31818912214386269 0 0.40572459905769331 -0.31910551143285631 0 0.4119015194344513 -0.31818912214386269 0 0.41919911313656122 -0.31385112706466711 0 0.40916221757477672 -0.31142054967536659 0 0.4119015194344513 -0.31818912214386269 0 0.40572459905769331 -0.31910551143285631 0 0.40916221757477672 -0.31142054967536659 0 0.4119015194344513 -0.31818912214386269 0 0.41919911313656122 -0.31385112706466711 0 0.41739686236043672 -0.32199345155319897 0 0.42053718701310799 -0.32957674384091618 0 0.40802480504278882 -0.32457497099322458 0 0.41739686236043672 -0.32199345155319897 0 0.44386277216801179 -0.36169325344809122 0 0.43376943787959182 -0.36708850497004442 0 0.42728564025893462 -0.35958684797927032 0 0.42489657602010461 -0.37065940299189432 0 0.43376943787959182 -0.36708850497004442 0 0.43808065797110041 -0.37748478958974491 0 0.42489657602010461 -0.37065940299189432 0 0.43376943787959182 -0.36708850497004442 0 0.42728564025893462 -0.35958684797927032 0 0.44386277216801179 -0.36169325344809122 0 0.4250793590774925 -0.34540704162396091 0 0.43963091224731599 -0.34751792105314822 0 0.44386277216801179 -0.36169325344809122 0 0.4250793590774925 -0.34540704162396091 0 0.44386277216801179 -0.36169325344809122 0 0.42728564025893462 -0.35958684797927032 0 0.4250793590774925 -0.34540704162396091 0 0.42728564025893462 -0.35958684797927032 0 0.4250793590774925 -0.34540704162396091 0 0.41069622259092692 -0.35617360609135817 0 0.4250793590774925 -0.34540704162396091 0 0.41055923831377589 -0.34398547157316572 0 0.41069622259092692 -0.35617360609135817 0 0.41055923831377589 -0.34398547157316572 0 0.41069622259092692 -0.35617360609135817 0 0.40016542559971202 -0.34524040877751239 0 0.42489657602010461 -0.37065940299189432 0 0.42728564025893462 -0.35958684797927032 0 0.41069622259092692 -0.35617360609135817 0 0.42489657602010461 -0.37065940299189432 0 0.41069622259092692 -0.35617360609135817 0 0.4070765621089808 -0.37107032214525337 0 0.42489657602010461 -0.37065940299189432 0 0.41069622259092692 -0.35617360609135817 0 0.39585190457779329 -0.37201308858561799 0 0.3940349052124521 -0.36135998775519362 0 0.38601585554704992 -0.38244526212700758 0 0.41069622259092692 -0.35617360609135817 0 0.4070765621089808 -0.37107032214525337 0 0.3940349052124521 -0.36135998775519362 0 0.4070765621089808 -0.37107032214525337 0 0.39585190457779329 -0.37201308858561799 0 0.3940349052124521 -0.36135998775519362 0 0.39585190457779329 -0.37201308858561799 0 0.3940349052124521 -0.36135998775519362 0 0.3940349052124521 -0.36135998775519362 0 0.40016542559971202 -0.34524040877751239 0 0.38974443050024338 -0.33620485529262373 0 0.3940349052124521 -0.36135998775519362 0 0.38974443050024338 -0.33620485529262373 0 0.3940349052124521 -0.36135998775519362 0 0.40016542559971202 -0.34524040877751239 0 0.41069622259092692 -0.35617360609135817 0 0.3940349052124521 -0.36135998775519362 0 0.40016542559971202 -0.34524040877751239 0 0.3940349052124521 -0.36135998775519362 0 0.38974443050024338 -0.33620485529262373 0 0.37368731816096312 -0.34897020548070451 0 0.3940349052124521 -0.36135998775519362 0 0.38601585554704992 -0.38244526212700758 0 0.3940349052124521 -0.36135998775519362 0 0.38601585554704992 -0.38244526212700758 0 0.3689120952668708 -0.37284951495870189 0 0.3940349052124521 -0.36135998775519362 0 0.3689120952668708 -0.37284951495870189 0 0.37368731816096312 -0.34897020548070451 0 0.4062959459869725 -0.32912082979983148 0 0.40572459905769331 -0.31910551143285631 0 0.39816778062817881 -0.31191488097197773 0 0.4062959459869725 -0.32912082979983148 0 0.38974443050024338 -0.33620485529262373 0 0.38545395578803499 -0.31104972283005378 0 0.4062959459869725 -0.32912082979983148 0 0.38545395578803499 -0.31104972283005378 0 0.4062959459869725 -0.32912082979983148 0 0.38545395578803499 -0.31104972283005378 0 0.39816778062817881 -0.31191488097197773 0 0.40572459905769331 -0.31910551143285631 0 0.39816778062817881 -0.31191488097197773 0 0.40916221757477672 -0.31142054967536659 0 0.4062959459869725 -0.32912082979983148 0 0.40016542559971202 -0.34524040877751239 0 0.38974443050024338 -0.33620485529262373 0 0.4062959459869725 -0.32912082979983148 0 0.40016542559971202 -0.34524040877751239 0 0.4062959459869725 -0.32912082979983148 0 0.41055923831377589 -0.34398547157316572 0 0.40016542559971202 -0.34524040877751239 0 0.38974443050024338 -0.33620485529262373 0 0.36945761595668469 -0.32738841673247931 0 0.37368731816096312 -0.34897020548070451 0 0.38974443050024338 -0.33620485529262373 0 0.38545395578803499 -0.31104972283005378 0 0.36945761595668469 -0.32738841673247931 0 0.38974443050024338 -0.33620485529262373 0 0.38545395578803499 -0.31104972283005378 0 0.38545395578803499 -0.31104972283005378 0 0.38245755150739558 -0.29348174920317632 0 0.37101427446782781 -0.29852975601036341 0 0.38545395578803499 -0.31104972283005378 0 0.38245755150739558 -0.29348174920317632 0 0.38545395578803499 -0.31104972283005378 0 0.37101427446782781 -0.29852975601036341 0 0.38545395578803499 -0.31104972283005378 0 0.39567659353887108 -0.29306988619604551 0 0.38245755150739558 -0.29348174920317632 0 0.39816778062817881 -0.31191488097197773 0 0.40563314249086863 -0.30155395497769039 0 0.39567659353887108 -0.29306988619604551 0 0.38545395578803499 -0.31104972283005378 0 0.39816778062817881 -0.31191488097197773 0 0.39567659353887108 -0.29306988619604551 0 0.39816778062817881 -0.31191488097197773 0 0.40563314249086863 -0.30155395497769039 0 0.40916221757477672 -0.31142054967536659 0 0.39567659353887108 -0.29306988619604551 0 0.40514250542832608 -0.27022331558021301 0 0.41160024963212011 -0.28933460066763711 0 0.40563314249086863 -0.30155395497769039 0 0.39567659353887108 -0.29306988619604551 0 0.41160024963212011 -0.28933460066763711 0 0.38245755150739558 -0.29348174920317632 0 0.37946114722675722 -0.27591377557629859 0 0.39567659353887108 -0.29306988619604551 0 0.38245755150739558 -0.29348174920317632 0 0.37946114722675722 -0.27591377557629859 0 0.38245755150739558 -0.29348174920317632 0 0.37795999762798671 -0.28395322059410122 0 0.37946114722675722 -0.27591377557629859 0 0.37519981906117678 -0.29055939022370142 0 0.38245755150739558 -0.29348174920317632 0 0.37101427446782781 -0.29852975601036341 0 0.37519981906117678 -0.29055939022370142 0 0.38245755150739558 -0.29348174920317632 0 0.37795999762798671 -0.28395322059410122 0 0.37795999762798671 -0.28395322059410122 0 0.37946114722675722 -0.27591377557629859 0 0.37739853904771847 -0.27637080706343392 0 0.37739853904771847 -0.27637080706343392 0 0.37683953433427181 -0.26882153263446662 0 0.37273728942595791 -0.27740364396778311 0 0.37795999762798671 -0.28395322059410122 0 0.37739853904771847 -0.27637080706343392 0 0.37273728942595791 -0.27740364396778311 0 0.37946114722675722 -0.27591377557629859 0 0.38774772661347989 -0.26664574742688191 0 0.3964002279028962 -0.26984905957103239 0 0.37946114722675722 -0.27591377557629859 0 0.3964002279028962 -0.26984905957103239 0 0.37795999762798671 -0.28395322059410122 0 0.37739853904771847 -0.27637080706343392 0 0.37739853904771847 -0.27637080706343392 0 0.37273728942595791 -0.27740364396778311 0 0.37946114722675722 -0.27591377557629859 0 0.37739853904771847 -0.27637080706343392 0 0.37683953433427181 -0.26882153263446662 0 0.37946114722675722 -0.27591377557629859 0 0.37739853904771847 -0.27637080706343392 0 0.37946114722675722 -0.27591377557629859 0 0.37843581040967561 -0.26746760801825881 0 0.38284686623937531 -0.26497045393317709 0 0.37946114722675722 -0.27591377557629859 0 0.37683953433427181 -0.26882153263446662 0 0.37843581040967561 -0.26746760801825881 0 0.37739853904771847 -0.27637080706343392 0 0.37683953433427181 -0.26882153263446662 0 0.37683953433427181 -0.26882153263446662 0 0.37843581040967561 -0.26746760801825881 0 0.37946114722675722 -0.27591377557629859 0 0.38774772661347989 -0.26664574742688191 0 0.38284686623937531 -0.26497045393317709 0 0.37477580018058132 -0.24095111383496479 0 0.37683953433427181 -0.26882153263446662 0 0.38107906364546162 -0.25934379353391329 0 0.37477580018058132 -0.24095111383496479 0 0.37683953433427181 -0.26882153263446662 0 0.37477580018058132 -0.24095111383496479 0 0.38107906364546162 -0.25934379353391329 0 0.38725375881062551 -0.25185160038302579 0 0.37843581040967561 -0.26746760801825881 0 0.38107906364546162 -0.25934379353391329 0 0.38284686623937531 -0.26497045393317709 0 0.37683953433427181 -0.26882153263446662 0 0.37843581040967561 -0.26746760801825881 0 0.38107906364546162 -0.25934379353391329 0 0.38107906364546162 -0.25934379353391329 0 0.38632261189823958 -0.26200045239958702 0 0.38284686623937531 -0.26497045393317709 0 0.38774772661347989 -0.26664574742688191 0 0.38632261189823958 -0.26200045239958702 0 0.38284686623937531 -0.26497045393317709 0 0.38774772661347989 -0.26664574742688191 0 0.38955528694719099 -0.2630172622662057 0 0.39295554709344072 -0.26445586107842978 0 0.38774772661347989 -0.26664574742688191 0 0.38632261189823958 -0.26200045239958702 0 0.38955528694719099 -0.2630172622662057 0 0.38632261189823958 -0.26200045239958702 0 0.38955528694719099 -0.2630172622662057 0 0.39119526218360401 -0.25896698815992442 0 0.38632261189823958 -0.26200045239958702 0 0.38725375881062551 -0.25185160038302579 0 0.39119526218360401 -0.25896698815992442 0 0.38107906364546162 -0.25934379353391329 0 0.38632261189823958 -0.26200045239958702 0 0.38725375881062551 -0.25185160038302579 0 0.40314688718896508 -0.2619981766022052 0 0.39707581272688741 -0.26613449373937459 0 0.41345304600685079 -0.26440480953867462 0 0.39707581272688741 -0.26613449373937459 0 0.41345304600685079 -0.26440480953867462 0 0.38725375881062551 -0.25185160038302579 0 0.39640803358832022 -0.25154779433757402 0 0.39119526218360401 -0.25896698815992442 0 0.39640803358832022 -0.25154779433757402 0 0.39702034872720737 -0.26014738253762237 0 0.39119526218360401 -0.25896698815992442 0 0.39702034872720737 -0.26014738253762237 0 0.39119526218360401 -0.25896698815992442 0 0.39295554709344072 -0.26445586107842978 0 0.38955528694719099 -0.2630172622662057 0 0.39119526218360401 -0.25896698815992442 0 0.39295554709344072 -0.26445586107842978 0 0.39702034872720737 -0.26014738253762237 0 0.39295554709344072 -0.26445586107842978 0 0.39707581272688741 -0.26613449373937459 0 0.39702034872720737 -0.26014738253762237 0 0.40314688718896508 -0.2619981766022052 0 0.39707581272688741 -0.26613449373937459 0 0.40314688718896508 -0.2619981766022052 0 0.40257909468765629 -0.25704117102420471 0 0.40998094690083942 -0.2590606397541646 0 0.39702034872720737 -0.26014738253762237 0 0.40314688718896508 -0.2619981766022052 0 0.40257909468765629 -0.25704117102420471 0 0.39640803358832022 -0.25154779433757402 0 0.39702034872720737 -0.26014738253762237 0 0.40257909468765629 -0.25704117102420471 0 0.41087794879613182 -0.2494957955088617 0 0.39640803358832022 -0.25154779433757402 0 0.40257909468765629 -0.25704117102420471 0 0.40514250542832608 -0.27022331558021301 0 0.3964002279028962 -0.26984905957103239 0 0.41345304600685079 -0.26440480953867462 0 0.37946114722675722 -0.27591377557629859 0 0.40514250542832608 -0.27022331558021301 0 0.3964002279028962 -0.26984905957103239 0 0.39707581272688741 -0.26613449373937459 0 0.3964002279028962 -0.26984905957103239 0 0.41345304600685079 -0.26440480953867462 0 0.37946114722675722 -0.27591377557629859 0 0.40514250542832608 -0.27022331558021301 0 0.3964002279028962 -0.26984905957103239 0 0.41345304600685079 -0.26440480953867462 0 0.39567659353887108 -0.29306988619604551 0 0.37946114722675722 -0.27591377557629859 0 0.40514250542832608 -0.27022331558021301 0 0.38774772661347989 -0.26664574742688191 0 0.39295554709344072 -0.26445586107842978 0 0.3964002279028962 -0.26984905957103239 0 0.39295554709344072 -0.26445586107842978 0 0.39707581272688741 -0.26613449373937459 0 0.3964002279028962 -0.26984905957103239 0 0.40514250542832608 -0.27022331558021301 0 0.41345304600685079 -0.26440480953867462 0 0.430823863629894 -0.26453285558412298 0 0.40514250542832608 -0.27022331558021301 0 0.430823863629894 -0.26453285558412298 0 0.40514250542832608 -0.27022331558021301 0 0.42166373126508722 -0.27984448092147479 0 0.41160024963212011 -0.28933460066763711 0 0.40514250542832608 -0.27022331558021301 0 0.42166373126508722 -0.27984448092147479 0 0.430823863629894 -0.26453285558412298 0 0.41087794879613182 -0.2494957955088617 0 0.41984775782459283 -0.2623632460968765 0 0.42854038242645709 -0.26281135800815408 0 0.41087794879613182 -0.2494957955088617 0 0.42854038242645709 -0.26281135800815408 0 0.41087794879613182 -0.2494957955088617 0 0.40257909468765629 -0.25704117102420471 0 0.40998094690083942 -0.2590606397541646 0 0.41087794879613182 -0.2494957955088617 0 0.40998094690083942 -0.2590606397541646 0 0.41984775782459283 -0.2623632460968765 0 0.40314688718896508 -0.2619981766022052 0 0.40998094690083942 -0.2590606397541646 0 0.41345304600685079 -0.26440480953867462 0 0.41345304600685079 -0.26440480953867462 0 0.41984775782459283 -0.2623632460968765 0 0.42854038242645709 -0.26281135800815408 0 0.40998094690083942 -0.2590606397541646 0 0.41345304600685079 -0.26440480953867462 0 0.41984775782459283 -0.2623632460968765 0 0.41345304600685079 -0.26440480953867462 0 0.42854038242645709 -0.26281135800815408 0 0.41345304600685079 -0.26440480953867462 0 0.41984775782459283 -0.2623632460968765 0 0.42656562700980838 -0.24831468624349931 0 0.41087794879613182 -0.2494957955088617 0 0.42854038242645709 -0.26281135800815408 0 0.4477486317760534 -0.26078267557717671 0 0.42854038242645709 -0.26281135800815408 0 0.430823863629894 -0.26453285558412298 0 0.41345304600685079 -0.26440480953867462 0 0.42854038242645709 -0.26281135800815408 0 0.430823863629894 -0.26453285558412298 0 0.42854038242645709 -0.26281135800815408 0 0.430823863629894 -0.26453285558412298 0 0.42656562700980838 -0.24831468624349931 0 0.42854038242645709 -0.26281135800815408 0 0.4372088962240912 -0.25169219704383999 0 0.42166373126508722 -0.27984448092147479 0 0.430823863629894 -0.26453285558412298 0 0.43570592202634773 -0.28205449164250063 0 0.42166373126508722 -0.27984448092147479 0 0.43570592202634773 -0.28205449164250063 0 0.42504611560874761 -0.29307714113289868 0 0.43874415768382158 -0.29310671547163403 0 0.43570592202634773 -0.28205449164250063 0 0.42504611560874761 -0.29307714113289868 0 0.43874415768382158 -0.29310671547163403 0 0.42504611560874761 -0.29307714113289868 0 0.43092107089682352 -0.30573631325696571 0 0.41919911313656122 -0.31385112706466711 0 0.43092107089682352 -0.30573631325696571 0 0.41692698488998292 -0.30249561446253759 0 0.42504611560874761 -0.29307714113289868 0 0.43092107089682352 -0.30573631325696571 0 0.41692698488998292 -0.30249561446253759 0 0.41919911313656122 -0.31385112706466711 0 0.41692698488998292 -0.30249561446253759 0 0.40916221757477672 -0.31142054967536659 0 0.40563314249086863 -0.30155395497769039 0 0.41692698488998292 -0.30249561446253759 0 0.40916221757477672 -0.31142054967536659 0 0.40563314249086863 -0.30155395497769039 0 0.41692698488998292 -0.30249561446253759 0 0.41160024963212011 -0.28933460066763711 0 0.42166373126508722 -0.27984448092147479 0 0.42504611560874761 -0.29307714113289868 0 0.41160024963212011 -0.28933460066763711 0 0.42504611560874761 -0.29307714113289868 0 0.41692698488998292 -0.30249561446253759 0 0.41160024963212011 -0.28933460066763711 0 0.5 -0.5 0 0.47532784176218862 -0.47257481327436679 0 0.43264288253940292 -0.48275234633568048 0 0.5 -0.5 0 0.41749257905485199 -0.50000000000000033 0 0.43264288253940292 -0.48275234633568048 0 0.47532784176218862 -0.47257481327436679 0 0.44779318602395363 -0.46550469267136052 0 0.43264288253940292 -0.48275234633568048 0 0.44779318602395363 -0.46550469267136052 0 0.43264288253940292 -0.48275234633568048 0 0.5 -0.5 0 0.47532784176218862 -0.47257481327436679 0 0.49999999999999828 -0.44642064777577001 0 0.47532784176218862 -0.47257481327436679 0 0.47918453573141367 -0.4495963838019249 0 0.46294348950850428 -0.44825703900704061 0 0.47532784176218862 -0.47257481327436679 0 0.49999999999999828 -0.44642064777577001 0 0.47918453573141367 -0.4495963838019249 0 0.49999999999999828 -0.44642064777577001 0 0.47846681165496419 -0.4311330351505217 0 0.49999999999999828 -0.44642064777577001 0 0.47918453573141367 -0.4495963838019249 0 0.47846681165496419 -0.4311330351505217 0 0.47918453573141367 -0.4495963838019249 0 0.46294348950850428 -0.44825703900704061 0 0.47846681165496419 -0.4311330351505217 0 0.46294348950850428 -0.44825703900704061 0 0.44442683605218691 -0.44583817528272968 0 0.45721208074107311 -0.43281318479414382 0 0.46294348950850428 -0.44825703900704061 0 0.44779318602395363 -0.46550469267136052 0 0.47532784176218862 -0.47257481327436679 0 0.46294348950850428 -0.44825703900704061 0 0.44779318602395363 -0.46550469267136052 0 0.44779318602395363 -0.46550469267136052 0 0.44442683605218691 -0.44583817528272968 0 0.43057418754349119 -0.46211781715143319 0 0.46294348950850428 -0.44825703900704061 0 0.44779318602395363 -0.46550469267136052 0 0.44442683605218691 -0.44583817528272968 0 0.44442683605218691 -0.44583817528272968 0 0.44324354583686831 -0.42153379012121539 0 0.45721208074107311 -0.43281318479414382 0 0.44442683605218691 -0.44583817528272968 0 0.44324354583686831 -0.42153379012121539 0 0.42653452723640378 -0.44279137365393179 0 0.44324354583686831 -0.42153379012121539 0 0.45693362330993059 -0.41584542252527262 0 0.45721208074107311 -0.43281318479414382 0 0.45693362330993059 -0.41584542252527262 0 0.4354004349648965 -0.40055780990002432 0 0.44324354583686831 -0.42153379012121539 0 0.45693362330993059 -0.41584542252527262 0 0.4354004349648965 -0.40055780990002432 0 0.45693362330993059 -0.41584542252527262 0 0.46461049463358839 -0.41117161714406408 0 0.47846681165496419 -0.4311330351505217 0 0.45693362330993059 -0.41584542252527262 0 0.46461049463358839 -0.41117161714406408 0 0.45329728287846061 -0.39963099679296588 0 0.46294348950850428 -0.44825703900704061 0 0.45721208074107311 -0.43281318479414382 0 0.47846681165496419 -0.4311330351505217 0 0.45693362330993059 -0.41584542252527262 0 0.45721208074107311 -0.43281318479414382 0 0.47846681165496419 -0.4311330351505217 0 0.45693362330993059 -0.41584542252527262 0 0.47846681165496419 -0.4311330351505217 0 0.49999999999999828 -0.44642064777577001 0 0.47846681165496419 -0.4311330351505217 0 0.5 -0.42181653977348488 0 0.5 -0.42181653977348488 0 0.48394518954555588 -0.41195106762427058 0 0.49999999999999789 -0.3972124317711998 0 0.47846681165496419 -0.4311330351505217 0 0.5 -0.42181653977348488 0 0.48394518954555588 -0.41195106762427058 0 0.46461049463358839 -0.41117161714406408 0 0.47846681165496419 -0.4311330351505217 0 0.48394518954555588 -0.41195106762427058 0 0.46461049463358839 -0.41117161714406408 0 0.48394518954555588 -0.41195106762427058 0 0.47664864143922919 -0.39842171428208217 0 0.47664864143922919 -0.39842171428208217 0 0.47975395238035062 -0.3854291032725421 0 0.46812846895096999 -0.38912968091376021 0 0.47664864143922919 -0.39842171428208217 0 0.49999999999999789 -0.3972124317711998 0 0.48779058149940679 -0.38751051868815611 0 0.48394518954555588 -0.41195106762427058 0 0.47664864143922919 -0.39842171428208217 0 0.49999999999999789 -0.3972124317711998 0 0.47664864143922919 -0.39842171428208217 0 0.49999999999999789 -0.3972124317711998 0 0.5 -0.37037944899495368 0 0.49999999999999789 -0.3972124317711998 0 0.48779058149940679 -0.38751051868815611 0 0.5 -0.37037944899495368 0 0.48466784746851571 -0.3739080713738358 0 0.48779058149940679 -0.38751051868815611 0 0.48466784746851571 -0.3739080713738358 0 0.47975395238035062 -0.3854291032725421 0 0.47323517146124039 -0.38191256761527542 0 0.48466784746851571 -0.3739080713738358 0 0.48779058149940679 -0.38751051868815611 0 0.47975395238035062 -0.3854291032725421 0 0.47664864143922919 -0.39842171428208217 0 0.48779058149940679 -0.38751051868815611 0 0.47975395238035062 -0.3854291032725421 0 0.47975395238035062 -0.3854291032725421 0 0.47323517146124039 -0.38191256761527542 0 0.46812846895096999 -0.38912968091376021 0 0.46918642870160698 -0.38365020197922722 0 0.47323517146124039 -0.38191256761527542 0 0.46812846895096999 -0.38912968091376021 0 0.4671179630262795 -0.37324494563770522 0 0.46918642870160698 -0.38365020197922722 0 0.47323517146124039 -0.38191256761527542 0 0.45652460043480969 -0.37267172771365881 0 0.4671179630262795 -0.37324494563770522 0 0.46918642870160698 -0.38365020197922722 0 0.45652460043480969 -0.37267172771365881 0 0.46918642870160698 -0.38365020197922722 0 0.45652460043480969 -0.37267172771365881 0 0.45606522570456098 -0.38599652494351028 0 0.44783900322824399 -0.38008781189722518 0 0.45652460043480969 -0.37267172771365881 0 0.46918642870160698 -0.38365020197922722 0 0.45606522570456098 -0.38599652494351028 0 0.46918642870160698 -0.38365020197922722 0 0.45606522570456098 -0.38599652494351028 0 0.46812846895096999 -0.38912968091376021 0 0.46461049463358839 -0.41117161714406408 0 0.47664864143922919 -0.39842171428208217 0 0.45329728287846061 -0.39963099679296588 0 0.47664864143922919 -0.39842171428208217 0 0.45329728287846061 -0.39963099679296588 0 0.47664864143922919 -0.39842171428208217 0 0.46812846895096999 -0.38912968091376021 0 0.45329728287846061 -0.39963099679296588 0 0.46461049463358839 -0.41117161714406408 0 0.45329728287846061 -0.39963099679296588 0 0.45606522570456098 -0.38599652494351028 0 0.46812846895096999 -0.38912968091376021 0 0.45329728287846061 -0.39963099679296588 0 0.45693362330993059 -0.41584542252527262 0 0.45329728287846061 -0.39963099679296588 0 0.4354004349648965 -0.40055780990002432 0 0.45329728287846061 -0.39963099679296588 0 0.4354004349648965 -0.40055780990002432 0 0.45329728287846061 -0.39963099679296588 0 0.4390969294492823 -0.3851451998924304 0 0.4354004349648965 -0.40055780990002432 0 0.45329728287846061 -0.39963099679296588 0 0.4390969294492823 -0.3851451998924304 0 0.45606522570456098 -0.38599652494351028 0 0.4390969294492823 -0.3851451998924304 0 0.44783900322824399 -0.38008781189722518 0 0.45606522570456098 -0.38599652494351028 0 0.45329728287846061 -0.39963099679296588 0 0.4390969294492823 -0.3851451998924304 0 0.4390969294492823 -0.3851451998924304 0 0.43808065797110041 -0.37748478958974491 0 0.44783900322824399 -0.38008781189722518 0 0.42782015831496062 -0.38505662608606978 0 0.4354004349648965 -0.40055780990002432 0 0.41188669282555868 -0.38386409155992901 0 0.42489657602010461 -0.37065940299189432 0 0.4390969294492823 -0.3851451998924304 0 0.42782015831496062 -0.38505662608606978 0 0.42489657602010461 -0.37065940299189432 0 0.4390969294492823 -0.3851451998924304 0 0.43808065797110041 -0.37748478958974491 0 0.42489657602010461 -0.37065940299189432 0 0.4390969294492823 -0.3851451998924304 0 0.4390969294492823 -0.3851451998924304 0 0.42782015831496062 -0.38505662608606978 0 0.4354004349648965 -0.40055780990002432 0 0.4354004349648965 -0.40055780990002432 0 0.41188669282555868 -0.38386409155992901 0 0.4354004349648965 -0.40055780990002432 0 0.40669862042327182 -0.40204417319942209 0 0.4354004349648965 -0.40055780990002432 0 0.40669862042327182 -0.40204417319942209 0 0.41188669282555868 -0.38386409155992901 0 0.42489657602010461 -0.37065940299189432 0 0.42782015831496062 -0.38505662608606978 0 0.41188669282555868 -0.38386409155992901 0 0.42489657602010461 -0.37065940299189432 0 0.4070765621089808 -0.37107032214525337 0 0.41188669282555868 -0.38386409155992901 0 0.4070765621089808 -0.37107032214525337 0 0.39585190457779329 -0.37201308858561799 0 0.39886607975096749 -0.38470810625682389 0 0.40669862042327182 -0.40204417319942209 0 0.41188669282555868 -0.38386409155992901 0 0.39886607975096749 -0.38470810625682389 0 0.4070765621089808 -0.37107032214525337 0 0.41188669282555868 -0.38386409155992901 0 0.39886607975096749 -0.38470810625682389 0 0.39585190457779329 -0.37201308858561799 0 0.39886607975096749 -0.38470810625682389 0 0.38601585554704992 -0.38244526212700758 0 0.39886607975096749 -0.38470810625682389 0 0.38601585554704992 -0.38244526212700758 0 0.37799680588164719 -0.40353053649882148 0 0.38601585554704992 -0.38244526212700758 0 0.37799680588164719 -0.40353053649882148 0 0.38601585554704992 -0.38244526212700758 0 0.37799680588164719 -0.40353053649882148 0 0.36816388811638329 -0.39545065246060412 0 0.37799680588164719 -0.40353053649882148 0 0.37635446215448021 -0.40784891206015261 0 0.37799680588164719 -0.40353053649882148 0 0.37505152225636262 -0.40368306209891941 0 0.37635446215448021 -0.40784891206015261 0 0.37799680588164719 -0.40353053649882148 0 0.37505152225636262 -0.40368306209891941 0 0.40669862042327182 -0.40204417319942209 0 0.39886607975096749 -0.38470810625682389 0 0.37799680588164719 -0.40353053649882148 0 0.40669862042327182 -0.40204417319942209 0 0.37799680588164719 -0.40353053649882148 0 0.40669862042327182 -0.40204417319942209 0 0.38553791301154328 -0.41840677215457472 0 0.40567792500840172 -0.4277251834563135 0 0.40669862042327182 -0.40204417319942209 0 0.37799680588164719 -0.40353053649882148 0 0.38553791301154328 -0.41840677215457472 0 0.38553791301154328 -0.41840677215457472 0 0.36905142820508552 -0.42917232846767789 0 0.37241381966677689 -0.417360225696081 0 0.38553791301154328 -0.41840677215457472 0 0.37635446215448021 -0.40784891206015261 0 0.37241381966677689 -0.417360225696081 0 0.37799680588164719 -0.40353053649882148 0 0.38553791301154328 -0.41840677215457472 0 0.37635446215448021 -0.40784891206015261 0 0.38553791301154328 -0.41840677215457472 0 0.38807715457860831 -0.4388905332329941 0 0.36905142820508552 -0.42917232846767789 0 0.38553791301154328 -0.41840677215457472 0 0.40567792500840172 -0.4277251834563135 0 0.38807715457860831 -0.4388905332329941 0 0.40567792500840172 -0.4277251834563135 0 0.42351101069396863 -0.41893046606618117 0 0.42653452723640378 -0.44279137365393179 0 0.4354004349648965 -0.40055780990002432 0 0.40669862042327182 -0.40204417319942209 0 0.42351101069396863 -0.41893046606618117 0 0.40669862042327182 -0.40204417319942209 0 0.40567792500840172 -0.4277251834563135 0 0.42351101069396863 -0.41893046606618117 0 0.44324354583686831 -0.42153379012121539 0 0.4354004349648965 -0.40055780990002432 0 0.42351101069396863 -0.41893046606618117 0 0.44324354583686831 -0.42153379012121539 0 0.42653452723640378 -0.44279137365393179 0 0.44324354583686831 -0.42153379012121539 0 0.42351101069396863 -0.41893046606618117 0 0.42653452723640378 -0.44279137365393179 0 0.44442683605218691 -0.44583817528272968 0 0.42653452723640378 -0.44279137365393179 0 0.43057418754349119 -0.46211781715143319 0 0.42653452723640378 -0.44279137365393179 0 0.43057418754349119 -0.46211781715143319 0 0.40982550863593931 -0.46404895718664829 0 0.42653452723640378 -0.44279137365393179 0 0.40982550863593931 -0.46404895718664829 0 0.42653452723640378 -0.44279137365393179 0 0.40982550863593931 -0.46404895718664829 0 0.4036378289262339 -0.44671034290208689 0 0.40567792500840172 -0.4277251834563135 0 0.42653452723640378 -0.44279137365393179 0 0.4036378289262339 -0.44671034290208689 0 0.40567792500840172 -0.4277251834563135 0 0.4036378289262339 -0.44671034290208689 0 0.38807715457860831 -0.4388905332329941 0 0.4036378289262339 -0.44671034290208689 0 0.38807715457860831 -0.4388905332329941 0 0.38807402917181633 -0.46009566698054732 0 0.38807715457860831 -0.4388905332329941 0 0.3733961412993268 -0.45022493016754961 0 0.36905142820508552 -0.42917232846767789 0 0.38807715457860831 -0.4388905332329941 0 0.38807402917181633 -0.46009566698054732 0 0.3733961412993268 -0.45022493016754961 0 0.38807402917181633 -0.46009566698054732 0 0.36593927904035028 -0.47432204071884282 0 0.3733961412993268 -0.45022493016754961 0 0.40982550863593931 -0.46404895718664829 0 0.4036378289262339 -0.44671034290208689 0 0.38807402917181633 -0.46009566698054732 0 0.40982550863593931 -0.46404895718664829 0 0.39311649003547477 -0.48530654071936469 0 0.40982550863593931 -0.46404895718664829 0 0.38807402917181633 -0.46009566698054732 0 0.39311649003547477 -0.48530654071936469 0 0.38807402917181633 -0.46009566698054732 0 0.39311649003547477 -0.48530654071936469 0 0.36593927904035028 -0.47432204071884282 0 0.37603974257992701 -0.49999999999999978 0 0.39311649003547477 -0.48530654071936469 0 0.36593927904035028 -0.47432204071884282 0 0.37603974257992701 -0.49999999999999978 0 0.39676616081738958 -0.5 0 0.39311649003547477 -0.48530654071936469 0 0.39676616081738958 -0.5 0 0.39311649003547477 -0.48530654071936469 0 0.41749257905485199 -0.50000000000000033 0 0.40982550863593931 -0.46404895718664829 0 0.41749257905485199 -0.50000000000000033 0 0.43264288253940292 -0.48275234633568048 0 0.40982550863593931 -0.46404895718664829 0 0.39311649003547477 -0.48530654071936469 0 0.41749257905485199 -0.50000000000000033 0 0.43057418754349119 -0.46211781715143319 0 0.40982550863593931 -0.46404895718664829 0 0.43264288253940292 -0.48275234633568048 0 0.44779318602395363 -0.46550469267136052 0 0.43057418754349119 -0.46211781715143319 0 0.43264288253940292 -0.48275234633568048 0 0.41749257905485199 -0.50000000000000033 0 0.43264288253940292 -0.48275234633568048 0 0.32215468257820618 -0.5 0 0.33760568703239408 -0.47417818032706111 0 0.31005432530219129 -0.48106067464861729 0 0.33760568703239408 -0.47417818032706111 0 0.3189449745883719 -0.46117016543644002 0 0.31005432530219129 -0.48106067464861729 0 0.32215468257820618 -0.5 0 0.33760568703239408 -0.47417818032706111 0 0.34909721257906662 -0.5 0 0.37603974257992701 -0.49999999999999978 0 0.34909721257906662 -0.5 0 0.36593927904035028 -0.47432204071884282 0 0.37603974257992701 -0.49999999999999978 0 0.36593927904035028 -0.47432204071884282 0 0.33760568703239408 -0.47417818032706111 0 0.34909721257906662 -0.5 0 0.36593927904035028 -0.47432204071884282 0 0.33760568703239408 -0.47417818032706111 0 0.36593927904035028 -0.47432204071884282 0 0.35583881550077368 -0.44864408143768569 0 0.36593927904035028 -0.47432204071884282 0 0.35583881550077368 -0.44864408143768569 0 0.36593927904035028 -0.47432204071884282 0 0.3733961412993268 -0.45022493016754961 0 0.35583881550077368 -0.44864408143768569 0 0.3733961412993268 -0.45022493016754961 0 0.35583881550077368 -0.44864408143768569 0 0.36905142820508552 -0.42917232846767789 0 0.35583881550077368 -0.44864408143768569 0 0.33540415989768779 -0.44905252560006492 0 0.34573835196119679 -0.42296612215652868 0 0.33760568703239408 -0.47417818032706111 0 0.35583881550077368 -0.44864408143768569 0 0.33540415989768779 -0.44905252560006492 0 0.33760568703239408 -0.47417818032706111 0 0.33540415989768779 -0.44905252560006492 0 0.3189449745883719 -0.46117016543644002 0 0.33540415989768779 -0.44905252560006492 0 0.3189449745883719 -0.46117016543644002 0 0.32126124445813709 -0.43429719032362252 0 0.3189449745883719 -0.46117016543644002 0 0.32126124445813709 -0.43429719032362252 0 0.30480654487456732 -0.44641521679941309 0 0.32126124445813709 -0.43429719032362252 0 0.3193156137706864 -0.40941365839269389 0 0.29937418247959258 -0.41817563384508599 0 0.3193156137706864 -0.40941365839269389 0 0.34573835196119679 -0.42296612215652868 0 0.33563788842162012 -0.39728816287537172 0 0.34573835196119679 -0.42296612215652868 0 0.33563788842162012 -0.39728816287537172 0 0.33540415989768779 -0.44905252560006492 0 0.32126124445813709 -0.43429719032362252 0 0.34573835196119679 -0.42296612215652868 0 0.32126124445813709 -0.43429719032362252 0 0.3193156137706864 -0.40941365839269389 0 0.34573835196119679 -0.42296612215652868 0 0.35583881550077368 -0.44864408143768569 0 0.34573835196119679 -0.42296612215652868 0 0.36905142820508552 -0.42917232846767789 0 0.35583881550077368 -0.44864408143768569 0 0.34573835196119679 -0.42296612215652868 0 0.36905142820508552 -0.42917232846767789 0 0.37241381966677689 -0.417360225696081 0 0.36195200988480669 -0.41065981681110758 0 0.36990343230398692 -0.40830781576793279 0 0.37241381966677689 -0.417360225696081 0 0.36195200988480669 -0.41065981681110758 0 0.37635446215448021 -0.40784891206015261 0 0.36990343230398692 -0.40830781576793279 0 0.37241381966677689 -0.417360225696081 0 0.37505152225636262 -0.40368306209891941 0 0.37635446215448021 -0.40784891206015261 0 0.36990343230398692 -0.40830781576793279 0 0.36990343230398692 -0.40830781576793279 0 0.36195200988480669 -0.41065981681110758 0 0.36876771314038492 -0.40452533678464098 0 0.34573835196119679 -0.42296612215652868 0 0.36195200988480669 -0.41065981681110758 0 0.35211107663302149 -0.40015425695529971 0 0.34573835196119679 -0.42296612215652868 0 0.36905142820508552 -0.42917232846767789 0 0.36195200988480669 -0.41065981681110758 0 0.34573835196119679 -0.42296612215652868 0 0.35211107663302149 -0.40015425695529971 0 0.33563788842162012 -0.39728816287537172 0 0.35211107663302149 -0.40015425695529971 0 0.35352794608594401 -0.38791341326287138 0 0.33563788842162012 -0.39728816287537172 0 0.35211107663302149 -0.40015425695529971 0 0.36816388811638329 -0.39545065246060412 0 0.35352794608594401 -0.38791341326287138 0 0.36195200988480669 -0.41065981681110758 0 0.36816388811638329 -0.39545065246060412 0 0.36876771314038492 -0.40452533678464098 0 0.36195200988480669 -0.41065981681110758 0 0.35211107663302149 -0.40015425695529971 0 0.36816388811638329 -0.39545065246060412 0 0.37505152225636262 -0.40368306209891941 0 0.36816388811638329 -0.39545065246060412 0 0.36876771314038492 -0.40452533678464098 0 0.37799680588164719 -0.40353053649882148 0 0.37505152225636262 -0.40368306209891941 0 0.36816388811638329 -0.39545065246060412 0 0.37505152225636262 -0.40368306209891941 0 0.36990343230398692 -0.40830781576793279 0 0.36876771314038492 -0.40452533678464098 0 0.38601585554704992 -0.38244526212700758 0 0.36816388811638329 -0.39545065246060412 0 0.3689120952668708 -0.37284951495870189 0 0.36816388811638329 -0.39545065246060412 0 0.35352794608594401 -0.38791341326287138 0 0.3689120952668708 -0.37284951495870189 0 0.35352794608594401 -0.38791341326287138 0 0.33563788842162012 -0.39728816287537172 0 0.34467783115022588 -0.37252705130409253 0 0.35352794608594401 -0.38791341326287138 0 0.3689120952668708 -0.37284951495870189 0 0.34467783115022588 -0.37252705130409253 0 0.33563788842162012 -0.39728816287537172 0 0.3255374248820434 -0.37161020359421471 0 0.33563788842162012 -0.39728816287537172 0 0.34467783115022588 -0.37252705130409253 0 0.3255374248820434 -0.37161020359421471 0 0.3193156137706864 -0.40941365839269389 0 0.33563788842162012 -0.39728816287537172 0 0.30534853388527528 -0.38930881101125692 0 0.33563788842162012 -0.39728816287537172 0 0.30534853388527528 -0.38930881101125692 0 0.3255374248820434 -0.37161020359421471 0 0.30534853388527528 -0.38930881101125692 0 0.3255374248820434 -0.37161020359421471 0 0.30525369772634148 -0.37164386163485291 0 0.30534853388527528 -0.38930881101125692 0 0.28783989868818821 -0.37644057584389279 0 0.30525369772634148 -0.37164386163485291 0 0.3193156137706864 -0.40941365839269389 0 0.30534853388527528 -0.38930881101125692 0 0.29937418247959258 -0.41817563384508599 0 0.30534853388527528 -0.38930881101125692 0 0.28922044672054198 -0.39637746652331562 0 0.29937418247959258 -0.41817563384508599 0 0.28922044672054198 -0.39637746652331562 0 0.27510086349567708 -0.39798721671617321 0 0.28320928432356041 -0.41012407252970262 0 0.28922044672054198 -0.39637746652331562 0 0.28783989868818821 -0.37644057584389279 0 0.27924907625512951 -0.38731579260330862 0 0.30534853388527528 -0.38930881101125692 0 0.28922044672054198 -0.39637746652331562 0 0.28783989868818821 -0.37644057584389279 0 0.30534853388527528 -0.38930881101125692 0 0.28783989868818821 -0.37644057584389279 0 0.28783989868818821 -0.37644057584389279 0 0.27447250226623809 -0.37821124143188289 0 0.27924907625512951 -0.38731579260330862 0 0.27447250226623809 -0.37821124143188289 0 0.27924907625512951 -0.38731579260330862 0 0.26961167010500181 -0.38756246250127813 0 0.27447250226623809 -0.37821124143188289 0 0.26961167010500181 -0.38756246250127813 0 0.26423397132697279 -0.37890457124200982 0 0.26961167010500181 -0.38756246250127813 0 0.26423397132697279 -0.37890457124200982 0 0.25687819372407023 -0.38903915957053298 0 0.26423397132697279 -0.37890457124200982 0 0.25687819372407023 -0.38903915957053298 0 0.24987622704845311 -0.37613765202982719 0 0.25108303853213881 -0.40002667887407228 0 0.26390234922262928 -0.39930308446362528 0 0.256136481120742 -0.41447562176841068 0 0.25687819372407023 -0.38903915957053298 0 0.25108303853213881 -0.40002667887407228 0 0.24309899287842279 -0.39271330151873202 0 0.25687819372407023 -0.38903915957053298 0 0.25108303853213881 -0.40002667887407228 0 0.26390234922262928 -0.39930308446362528 0 0.26961167010500181 -0.38756246250127813 0 0.25687819372407023 -0.38903915957053298 0 0.26390234922262928 -0.39930308446362528 0 0.26390234922262928 -0.39930308446362528 0 0.27510086349567708 -0.39798721671617321 0 0.2708804648698091 -0.41009655218672442 0 0.26961167010500181 -0.38756246250127813 0 0.26390234922262928 -0.39930308446362528 0 0.27510086349567708 -0.39798721671617321 0 0.28922044672054198 -0.39637746652331562 0 0.27924907625512951 -0.38731579260330862 0 0.27510086349567708 -0.39798721671617321 0 0.27924907625512951 -0.38731579260330862 0 0.26961167010500181 -0.38756246250127813 0 0.27510086349567708 -0.39798721671617321 0 0.27510086349567708 -0.39798721671617321 0 0.2708804648698091 -0.41009655218672442 0 0.28320928432356041 -0.41012407252970262 0 0.2708804648698091 -0.41009655218672442 0 0.256136481120742 -0.41447562176841068 0 0.27433621812851161 -0.42550461519375637 0 0.2708804648698091 -0.41009655218672442 0 0.27433621812851161 -0.42550461519375637 0 0.28320928432356041 -0.41012407252970262 0 0.26390234922262928 -0.39930308446362528 0 0.2708804648698091 -0.41009655218672442 0 0.256136481120742 -0.41447562176841068 0 0.25108303853213881 -0.40002667887407228 0 0.256136481120742 -0.41447562176841068 0 0.24629253832767661 -0.41022035877505542 0 0.256136481120742 -0.41447562176841068 0 0.25513396950241118 -0.43290986753561628 0 0.2453827316299185 -0.42192330194190181 0 0.256136481120742 -0.41447562176841068 0 0.25513396950241118 -0.43290986753561628 0 0.27433621812851161 -0.42550461519375637 0 0.25513396950241118 -0.43290986753561628 0 0.27433621812851161 -0.42550461519375637 0 0.26752346795397081 -0.44788636482661331 0 0.27433621812851161 -0.42550461519375637 0 0.29937418247959258 -0.41817563384508599 0 0.28546596250580908 -0.44246723239800262 0 0.29937418247959258 -0.41817563384508599 0 0.30480654487456732 -0.44641521679941309 0 0.28546596250580908 -0.44246723239800262 0 0.28922044672054198 -0.39637746652331562 0 0.28320928432356041 -0.41012407252970262 0 0.29937418247959258 -0.41817563384508599 0 0.27433621812851161 -0.42550461519375637 0 0.28320928432356041 -0.41012407252970262 0 0.29937418247959258 -0.41817563384508599 0 0.32126124445813709 -0.43429719032362252 0 0.29937418247959258 -0.41817563384508599 0 0.30480654487456732 -0.44641521679941309 0 0.3189449745883719 -0.46117016543644002 0 0.30480654487456732 -0.44641521679941309 0 0.28880919487484108 -0.4658549053918814 0 0.30480654487456732 -0.44641521679941309 0 0.28880919487484108 -0.4658549053918814 0 0.28546596250580908 -0.44246723239800262 0 0.27433621812851161 -0.42550461519375637 0 0.28546596250580908 -0.44246723239800262 0 0.26752346795397081 -0.44788636482661331 0 0.28880919487484108 -0.4658549053918814 0 0.28546596250580908 -0.44246723239800262 0 0.26752346795397081 -0.44788636482661331 0 0.25513396950241118 -0.43290986753561628 0 0.26752346795397081 -0.44788636482661331 0 0.24480843210435321 -0.45079661158300749 0 0.26752346795397081 -0.44788636482661331 0 0.2588368117714554 -0.46700690363883102 0 0.24480843210435321 -0.45079661158300749 0 0.28880919487484108 -0.4658549053918814 0 0.26752346795397081 -0.44788636482661331 0 0.2588368117714554 -0.46700690363883102 0 0.28880919487484108 -0.4658549053918814 0 0.2588368117714554 -0.46700690363883102 0 0.27227655507569209 -0.48076744006000099 0 0.2588368117714554 -0.46700690363883102 0 0.27227655507569209 -0.48076744006000099 0 0.25270961841775552 -0.48460016746525392 0 0.2588368117714554 -0.46700690363883102 0 0.25270961841775552 -0.48460016746525392 0 0.23949561189523169 -0.47426551941090739 0 0.25270961841775552 -0.48460016746525392 0 0.26826962257648529 -0.5 0 0.2413270925756249 -0.5 0 0.27227655507569209 -0.48076744006000099 0 0.25270961841775552 -0.48460016746525392 0 0.26826962257648529 -0.5 0 0.27227655507569209 -0.48076744006000099 0 0.26826962257648529 -0.5 0 0.29521215257734579 -0.5 0 0.28880919487484108 -0.4658549053918814 0 0.27227655507569209 -0.48076744006000099 0 0.29521215257734579 -0.5 0 0.28880919487484108 -0.4658549053918814 0 0.29521215257734579 -0.5 0 0.31005432530219129 -0.48106067464861729 0 0.3189449745883719 -0.46117016543644002 0 0.28880919487484108 -0.4658549053918814 0 0.31005432530219129 -0.48106067464861729 0 0.32215468257820618 -0.5 0 0.29521215257734579 -0.5 0 0.31005432530219129 -0.48106067464861729 0 0.33463237856908817 -0.28956894479377399 0 0.33485830675890288 -0.30442904333306592 0 0.35657459314761941 -0.2860097891906741 0 0.33463237856908817 -0.28956894479377399 0 0.32894302133540282 -0.28710755170783531 0 0.35195887039823659 -0.28200771363307098 0 0.32894302133540282 -0.28710755170783531 0 0.35195887039823659 -0.28200771363307098 0 0.32894302133540282 -0.28710755170783531 0 0.33255663915089151 -0.29722249741805129 0 0.33463237856908817 -0.28956894479377399 0 0.32894302133540282 -0.28710755170783531 0 0.33255663915089151 -0.29722249741805129 0 0.32894302133540282 -0.28710755170783531 0 0.33255663915089151 -0.29722249741805129 0 0.32301709761150521 -0.2972128627914089 0 0.33485830675890288 -0.30442904333306592 0 0.34824447571033601 -0.30253517369681238 0 0.34533870308018377 -0.31598934501886372 0 0.33485830675890288 -0.30442904333306592 0 0.33255663915089151 -0.29722249741805129 0 0.32434770264142349 -0.30499280498860082 0 0.33463237856908817 -0.28956894479377399 0 0.33485830675890288 -0.30442904333306592 0 0.33255663915089151 -0.29722249741805129 0 0.32301709761150521 -0.2972128627914089 0 0.32434770264142349 -0.30499280498860082 0 0.3171485971304504 -0.30589952111326829 0 0.32434770264142349 -0.30499280498860082 0 0.3171485971304504 -0.30589952111326829 0 0.31314202037018413 -0.32284829747545468 0 0.33485830675890288 -0.30442904333306592 0 0.32434770264142349 -0.30499280498860082 0 0.31314202037018413 -0.32284829747545468 0 0.33255663915089151 -0.29722249741805129 0 0.32301709761150521 -0.2972128627914089 0 0.32434770264142349 -0.30499280498860082 0 0.3171485971304504 -0.30589952111326829 0 0.31208952779935789 -0.2908419387292881 0 0.30833746379913463 -0.30503745501229762 0 0.32301709761150521 -0.2972128627914089 0 0.3171485971304504 -0.30589952111326829 0 0.31208952779935789 -0.2908419387292881 0 0.32894302133540282 -0.28710755170783531 0 0.31611371382327402 -0.28007222207304999 0 0.31208952779935789 -0.2908419387292881 0 0.32894302133540282 -0.28710755170783531 0 0.32301709761150521 -0.2972128627914089 0 0.31208952779935789 -0.2908419387292881 0 0.32894302133540282 -0.28710755170783531 0 0.31208952779935789 -0.2908419387292881 0 0.32894302133540282 -0.28710755170783531 0 0.32245882367699719 -0.26895751187574157 0 0.32894302133540282 -0.28710755170783531 0 0.31611371382327402 -0.28007222207304999 0 0.32245882367699719 -0.26895751187574157 0 0.31611371382327402 -0.28007222207304999 0 0.32245882367699719 -0.26895751187574157 0 0.30706455279928557 -0.27339796693147528 0 0.32245882367699719 -0.26895751187574157 0 0.30981211567343969 -0.26250129009931661 0 0.30706455279928557 -0.27339796693147528 0 0.32245882367699719 -0.26895751187574157 0 0.31597462601859122 -0.25080747204364812 0 0.32245882367699719 -0.26895751187574157 0 0.31597462601859122 -0.25080747204364812 0 0.30981211567343969 -0.26250129009931661 0 0.32245882367699719 -0.26895751187574157 0 0.31597462601859122 -0.25080747204364812 0 0.33396674820841349 -0.26640759283836002 0 0.31597462601859122 -0.25080747204364812 0 0.33396674820841349 -0.26640759283836002 0 0.33517615116993849 -0.24743488902137309 0 0.33396674820841349 -0.26640759283836002 0 0.35185333732921159 -0.25428502110151557 0 0.33517615116993849 -0.24743488902137309 0 0.31597462601859122 -0.25080747204364812 0 0.33396674820841349 -0.26640759283836002 0 0.32894302133540282 -0.28710755170783531 0 0.32245882367699719 -0.26895751187574157 0 0.33396674820841349 -0.26640759283836002 0 0.33396674820841349 -0.26640759283836002 0 0.35195887039823659 -0.28200771363307098 0 0.32894302133540282 -0.28710755170783531 0 0.33396674820841349 -0.26640759283836002 0 0.35195887039823659 -0.28200771363307098 0 0.33396674820841349 -0.26640759283836002 0 0.35159414215374007 -0.26901089914998932 0 0.35195887039823659 -0.28200771363307098 0 0.35159414215374007 -0.26901089914998932 0 0.36459381448795669 -0.2792080702757721 0 0.35195887039823659 -0.28200771363307098 0 0.36459381448795669 -0.2792080702757721 0 0.35195887039823659 -0.28200771363307098 0 0.33396674820841349 -0.26640759283836002 0 0.35159414215374007 -0.26901089914998932 0 0.35185333732921159 -0.25428502110151557 0 0.35159414215374007 -0.26901089914998932 0 0.35185333732921159 -0.25428502110151557 0 0.36435388824524378 -0.26651308148643732 0 0.37477580018058132 -0.24095111383496479 0 0.37683953433427181 -0.26882153263446662 0 0.36563983252638571 -0.25462703483095822 0 0.36075586336603621 -0.2426037127049111 0 0.35185333732921159 -0.25428502110151557 0 0.36563983252638571 -0.25462703483095822 0 0.35185333732921159 -0.25428502110151557 0 0.36563983252638571 -0.25462703483095822 0 0.36435388824524378 -0.26651308148643732 0 0.37683953433427181 -0.26882153263446662 0 0.36563983252638571 -0.25462703483095822 0 0.36435388824524378 -0.26651308148643732 0 0.36459381448795669 -0.2792080702757721 0 0.36308990924476459 -0.28048364807874221 0 0.35195887039823659 -0.28200771363307098 0 0.36459381448795669 -0.2792080702757721 0 0.36308990924476459 -0.28048364807874221 0 0.37273728942595791 -0.27740364396778311 0 0.36459381448795669 -0.2792080702757721 0 0.36308990924476459 -0.28048364807874221 0 0.35159414215374007 -0.26901089914998932 0 0.36459381448795669 -0.2792080702757721 0 0.36435388824524378 -0.26651308148643732 0 0.37683953433427181 -0.26882153263446662 0 0.36459381448795669 -0.2792080702757721 0 0.36435388824524378 -0.26651308148643732 0 0.36459381448795669 -0.2792080702757721 0 0.37273728942595791 -0.27740364396778311 0 0.37683953433427181 -0.26882153263446662 0 0.36459381448795669 -0.2792080702757721 0 0.37273728942595791 -0.27740364396778311 0 0.37683953433427181 -0.26882153263446662 0 0.36459381448795669 -0.2792080702757721 0 0.36308990924476459 -0.28048364807874221 0 0.37273728942595791 -0.27740364396778311 0 0.37795999762798671 -0.28395322059410122 0 0.37273728942595791 -0.27740364396778311 0 0.36936745264149701 -0.28627283508716472 0 0.35657459314761941 -0.2860097891906741 0 0.35620629985463748 -0.30371251724464648 0 0.37101427446782781 -0.29852975601036341 0 0.36308990924476459 -0.28048364807874221 0 0.37273728942595791 -0.27740364396778311 0 0.36936745264149701 -0.28627283508716472 0 0.37519981906117678 -0.29055939022370142 0 0.37795999762798671 -0.28395322059410122 0 0.36936745264149701 -0.28627283508716472 0 0.37519981906117678 -0.29055939022370142 0 0.36936745264149701 -0.28627283508716472 0 0.37101427446782781 -0.29852975601036341 0 0.36936745264149701 -0.28627283508716472 0 0.35657459314761941 -0.2860097891906741 0 0.37101427446782781 -0.29852975601036341 0 0.35657459314761941 -0.2860097891906741 0 0.37101427446782781 -0.29852975601036341 0 0.36308990924476459 -0.28048364807874221 0 0.36936745264149701 -0.28627283508716472 0 0.35657459314761941 -0.2860097891906741 0 0.36308990924476459 -0.28048364807874221 0 0.35657459314761941 -0.2860097891906741 0 0.36308990924476459 -0.28048364807874221 0 0.35366972758071469 -0.28349111722646431 0 0.33463237856908817 -0.28956894479377399 0 0.35366972758071469 -0.28349111722646431 0 0.33463237856908817 -0.28956894479377399 0 0.35366972758071469 -0.28349111722646431 0 0.35195887039823659 -0.28200771363307098 0 0.36308990924476459 -0.28048364807874221 0 0.35366972758071469 -0.28349111722646431 0 0.35195887039823659 -0.28200771363307098 0 0.33485830675890288 -0.30442904333306592 0 0.35657459314761941 -0.2860097891906741 0 0.36308990924476459 -0.28048364807874221 0 0.35366972758071469 -0.28349111722646431 0 0.35657459314761941 -0.2860097891906741 0 0.33463237856908817 -0.28956894479377399 0 0.35366972758071469 -0.28349111722646431 0 0.35657459314761941 -0.2860097891906741 0 0.35366972758071469 -0.28349111722646431 0 0.35657459314761941 -0.2860097891906741 0 0.35366972758071469 -0.28349111722646431 0 0.35195887039823659 -0.28200771363307098 0 0.35620629985463748 -0.30371251724464648 0 0.36380134767337091 -0.31365371592763602 0 0.34533870308018377 -0.31598934501886372 0 0.35657459314761941 -0.2860097891906741 0 0.34824447571033601 -0.30253517369681238 0 0.35620629985463748 -0.30371251724464648 0 0.33485830675890288 -0.30442904333306592 0 0.35657459314761941 -0.2860097891906741 0 0.34824447571033601 -0.30253517369681238 0 0.34824447571033601 -0.30253517369681238 0 0.35620629985463748 -0.30371251724464648 0 0.34533870308018377 -0.31598934501886372 0 0.38545395578803499 -0.31104972283005378 0 0.37101427446782781 -0.29852975601036341 0 0.36380134767337091 -0.31365371592763602 0 0.35620629985463748 -0.30371251724464648 0 0.37101427446782781 -0.29852975601036341 0 0.36380134767337091 -0.31365371592763602 0 0.38545395578803499 -0.31104972283005378 0 0.36380134767337091 -0.31365371592763602 0 0.36945761595668469 -0.32738841673247931 0 0.36380134767337091 -0.31365371592763602 0 0.36945761595668469 -0.32738841673247931 0 0.35533723689285712 -0.32525253772940937 0 0.36945761595668469 -0.32738841673247931 0 0.35618710249729552 -0.34088690244721892 0 0.35533723689285712 -0.32525253772940937 0 0.36945761595668469 -0.32738841673247931 0 0.35618710249729552 -0.34088690244721892 0 0.37368731816096312 -0.34897020548070451 0 0.35618710249729552 -0.34088690244721892 0 0.33810128782584858 -0.35072533414536311 0 0.34064131712366241 -0.33181983138849169 0 0.35618710249729552 -0.34088690244721892 0 0.35533723689285712 -0.32525253772940937 0 0.34064131712366241 -0.33181983138849169 0 0.34533870308018377 -0.31598934501886372 0 0.35533723689285712 -0.32525253772940937 0 0.34064131712366241 -0.33181983138849169 0 0.36380134767337091 -0.31365371592763602 0 0.34533870308018377 -0.31598934501886372 0 0.35533723689285712 -0.32525253772940937 0 0.3689120952668708 -0.37284951495870189 0 0.37368731816096312 -0.34897020548070451 0 0.35738528973841999 -0.35772904562383351 0 0.35618710249729552 -0.34088690244721892 0 0.37368731816096312 -0.34897020548070451 0 0.35738528973841999 -0.35772904562383351 0 0.35618710249729552 -0.34088690244721892 0 0.35738528973841999 -0.35772904562383351 0 0.33810128782584858 -0.35072533414536311 0 0.35738528973841999 -0.35772904562383351 0 0.34467783115022588 -0.37252705130409253 0 0.33810128782584858 -0.35072533414536311 0 0.3689120952668708 -0.37284951495870189 0 0.35738528973841999 -0.35772904562383351 0 0.34467783115022588 -0.37252705130409253 0 0.34467783115022588 -0.37252705130409253 0 0.33810128782584858 -0.35072533414536311 0 0.3255374248820434 -0.37161020359421471 0 0.31543696134246668 -0.34593224431305769 0 0.3255374248820434 -0.37161020359421471 0 0.30900602422585888 -0.35865430802761772 0 0.31543696134246668 -0.34593224431305769 0 0.3255374248820434 -0.37161020359421471 0 0.33810128782584858 -0.35072533414536311 0 0.31543696134246668 -0.34593224431305769 0 0.3255374248820434 -0.37161020359421471 0 0.3255374248820434 -0.37161020359421471 0 0.30525369772634148 -0.37164386163485291 0 0.30900602422585888 -0.35865430802761772 0 0.34533870308018377 -0.31598934501886372 0 0.33130220335757699 -0.32186248444176119 0 0.34064131712366241 -0.33181983138849169 0 0.33485830675890288 -0.30442904333306592 0 0.34533870308018377 -0.31598934501886372 0 0.33130220335757699 -0.32186248444176119 0 0.33810128782584858 -0.35072533414536311 0 0.34064131712366241 -0.33181983138849169 0 0.3268430880468266 -0.33457206034663262 0 0.33130220335757699 -0.32186248444176119 0 0.34064131712366241 -0.33181983138849169 0 0.3268430880468266 -0.33457206034663262 0 0.31543696134246668 -0.34593224431305769 0 0.3268430880468266 -0.33457206034663262 0 0.31314202037018413 -0.32284829747545468 0 0.33810128782584858 -0.35072533414536311 0 0.31543696134246668 -0.34593224431305769 0 0.3268430880468266 -0.33457206034663262 0 0.33130220335757699 -0.32186248444176119 0 0.3268430880468266 -0.33457206034663262 0 0.31314202037018413 -0.32284829747545468 0 0.33485830675890288 -0.30442904333306592 0 0.31314202037018413 -0.32284829747545468 0 0.3171485971304504 -0.30589952111326829 0 0.31314202037018413 -0.32284829747545468 0 0.3109911447756647 -0.31350988965823029 0 0.33485830675890288 -0.30442904333306592 0 0.33130220335757699 -0.32186248444176119 0 0.31314202037018413 -0.32284829747545468 0 0.31314202037018413 -0.32284829747545468 0 0.30533649780288991 -0.32025428503190068 0 0.3109911447756647 -0.31350988965823029 0 0.30533649780288991 -0.32025428503190068 0 0.3109911447756647 -0.31350988965823029 0 0.30833746379913463 -0.30503745501229762 0 0.31543696134246668 -0.34593224431305769 0 0.30533649780288991 -0.32025428503190068 0 0.30314188851555429 -0.3464145030398364 0 0.30533649780288991 -0.32025428503190068 0 0.29792146783109758 -0.32077626486014349 0 0.30314188851555429 -0.3464145030398364 0 0.31543696134246668 -0.34593224431305769 0 0.31314202037018413 -0.32284829747545468 0 0.30533649780288991 -0.32025428503190068 0 0.29792146783109758 -0.32077626486014349 0 0.30314188851555429 -0.3464145030398364 0 0.31543696134246668 -0.34593224431305769 0 0.30533649780288991 -0.32025428503190068 0 0.29792146783109758 -0.32077626486014349 0 0.29422135484035322 -0.33366994296298719 0 0.30314188851555429 -0.3464145030398364 0 0.29422135484035322 -0.33366994296298719 0 0.29546103181119637 -0.34185893253319311 0 0.30314188851555429 -0.3464145030398364 0 0.29422135484035322 -0.33366994296298719 0 0.29546103181119637 -0.34185893253319311 0 0.28827175492889229 -0.34275780055790278 0 0.29546103181119637 -0.34185893253319311 0 0.28827175492889229 -0.34275780055790278 0 0.29811044553331972 -0.34650788457159087 0 0.29422135484035322 -0.33366994296298719 0 0.28827175492889229 -0.34275780055790278 0 0.27955848846152698 -0.33666113426449551 0 0.29422135484035322 -0.33366994296298719 0 0.28744860979629389 -0.32474860906702402 0 0.27955848846152698 -0.33666113426449551 0 0.28744860979629389 -0.32474860906702402 0 0.29019889155513462 -0.31620785207956748 0 0.28097437988070417 -0.31138482246715898 0 0.29792146783109758 -0.32077626486014349 0 0.29019889155513462 -0.31620785207956748 0 0.29244758100571983 -0.32385066724243061 0 0.29422135484035322 -0.33366994296298719 0 0.28744860979629389 -0.32474860906702402 0 0.29244758100571983 -0.32385066724243061 0 0.29792146783109758 -0.32077626486014349 0 0.29422135484035322 -0.33366994296298719 0 0.29244758100571983 -0.32385066724243061 0 0.28744860979629389 -0.32474860906702402 0 0.29019889155513462 -0.31620785207956748 0 0.29244758100571983 -0.32385066724243061 0 0.30525369772634148 -0.37164386163485291 0 0.30031449930387721 -0.36082981960256849 0 0.30900602422585888 -0.35865430802761772 0 0.30525369772634148 -0.37164386163485291 0 0.30031449930387721 -0.36082981960256849 0 0.29483415024835152 -0.36747827247447862 0 0.30080593951138668 -0.35381036279877531 0 0.30900602422585888 -0.35865430802761772 0 0.30314188851555429 -0.3464145030398364 0 0.30080593951138668 -0.35381036279877531 0 0.29811044553331972 -0.34650788457159087 0 0.29345683997832372 -0.35664529875226292 0 0.30031449930387721 -0.36082981960256849 0 0.30080593951138668 -0.35381036279877531 0 0.30900602422585888 -0.35865430802761772 0 0.30031449930387721 -0.36082981960256849 0 0.30080593951138668 -0.35381036279877531 0 0.29345683997832372 -0.35664529875226292 0 0.31543696134246668 -0.34593224431305769 0 0.30900602422585888 -0.35865430802761772 0 0.30314188851555429 -0.3464145030398364 0 0.30080593951138668 -0.35381036279877531 0 0.30314188851555429 -0.3464145030398364 0 0.29811044553331972 -0.34650788457159087 0 0.29546103181119637 -0.34185893253319311 0 0.30314188851555429 -0.3464145030398364 0 0.29811044553331972 -0.34650788457159087 0 0.29811044553331972 -0.34650788457159087 0 0.29345683997832372 -0.35664529875226292 0 0.28122462644821988 -0.35688066365974619 0 0.28827175492889229 -0.34275780055790278 0 0.29811044553331972 -0.34650788457159087 0 0.28122462644821988 -0.35688066365974619 0 0.28827175492889229 -0.34275780055790278 0 0.28122462644821988 -0.35688066365974619 0 0.27955848846152698 -0.33666113426449551 0 0.29811044553331972 -0.34650788457159087 0 0.28122462644821988 -0.35688066365974619 0 0.29345683997832372 -0.35664529875226292 0 0.28676543400443838 -0.36101512068260139 0 0.28122462644821988 -0.35688066365974619 0 0.28676543400443838 -0.36101512068260139 0 0.28122462644821988 -0.35688066365974619 0 0.28783989868818821 -0.37644057584389279 0 0.30525369772634148 -0.37164386163485291 0 0.29483415024835152 -0.36747827247447862 0 0.28783989868818821 -0.37644057584389279 0 0.28676543400443838 -0.36101512068260139 0 0.27033126349110148 -0.36357234067652822 0 0.29357505063040601 -0.36145191270551408 0 0.28676543400443838 -0.36101512068260139 0 0.29483415024835152 -0.36747827247447862 0 0.30031449930387721 -0.36082981960256849 0 0.29357505063040601 -0.36145191270551408 0 0.29483415024835152 -0.36747827247447862 0 0.30031449930387721 -0.36082981960256849 0 0.29345683997832372 -0.35664529875226292 0 0.29357505063040601 -0.36145191270551408 0 0.29345683997832372 -0.35664529875226292 0 0.29357505063040601 -0.36145191270551408 0 0.28676543400443838 -0.36101512068260139 0 0.28783989868818821 -0.37644057584389279 0 0.28676543400443838 -0.36101512068260139 0 0.29483415024835152 -0.36747827247447862 0 0.28783989868818821 -0.37644057584389279 0 0.27033126349110148 -0.36357234067652822 0 0.28783989868818821 -0.37644057584389279 0 0.27447250226623809 -0.37821124143188289 0 0.27033126349110148 -0.36357234067652822 0 0.28676543400443838 -0.36101512068260139 0 0.27033126349110148 -0.36357234067652822 0 0.28122462644821988 -0.35688066365974619 0 0.27447250226623809 -0.37821124143188289 0 0.26423397132697279 -0.37890457124200982 0 0.27033126349110148 -0.36357234067652822 0 0.27033126349110148 -0.36357234067652822 0 0.28122462644821988 -0.35688066365974619 0 0.28122462644821988 -0.35688066365974619 0 0.26082083375001269 -0.34165569813656432 0 0.27033126349110148 -0.36357234067652822 0 0.28122462644821988 -0.35688066365974619 0 0.26082083375001269 -0.34165569813656432 0 0.28122462644821988 -0.35688066365974619 0 0.27955848846152698 -0.33666113426449551 0 0.26082083375001269 -0.34165569813656432 0 0.27033126349110148 -0.36357234067652822 0 0.25099839141978419 -0.34936335514031408 0 0.27033126349110148 -0.36357234067652822 0 0.25099839141978419 -0.34936335514031408 0 0.26082083375001269 -0.34165569813656432 0 0.27033126349110148 -0.36357234067652822 0 0.25099839141978419 -0.34936335514031408 0 0.24534349961555019 -0.36253701182870851 0 0.26423397132697279 -0.37890457124200982 0 0.27033126349110148 -0.36357234067652822 0 0.24987622704845311 -0.37613765202982719 0 0.27033126349110148 -0.36357234067652822 0 0.24534349961555019 -0.36253701182870851 0 0.24987622704845311 -0.37613765202982719 0 0.27033126349110148 -0.36357234067652822 0 0.24987622704845311 -0.37613765202982719 0 0.28744860979629389 -0.32474860906702402 0 0.26598899428458778 -0.32103793389256657 0 0.27955848846152698 -0.33666113426449551 0 0.28744860979629389 -0.32474860906702402 0 0.26598899428458778 -0.32103793389256657 0 0.28097437988070417 -0.31138482246715898 0 0.26598899428458778 -0.32103793389256657 0 0.27955848846152698 -0.33666113426449551 0 0.26082083375001269 -0.34165569813656432 0 0.26082083375001269 -0.34165569813656432 0 0.2404170410518052 -0.32643073261338312 0 0.26598899428458778 -0.32103793389256657 0 0.26082083375001269 -0.34165569813656432 0 0.2404170410518052 -0.32643073261338312 0 0.25099839141978419 -0.34936335514031408 0 0.26082083375001269 -0.34165569813656432 0 0.2404170410518052 -0.32643073261338312 0 0.26598899428458778 -0.32103793389256657 0 0.24423538898563429 -0.30587701823941071 0 0.2404170410518052 -0.32643073261338312 0 0.26846821806613752 -0.30050752245993012 0 0.24423538898563429 -0.30587701823941071 0 0.25301376652256202 -0.2892367573709661 0 0.26846821806613752 -0.30050752245993012 0 0.24423538898563429 -0.30587701823941071 0 0.26598899428458778 -0.32103793389256657 0 0.26846821806613752 -0.30050752245993012 0 0.24423538898563429 -0.30587701823941071 0 0.25301376652256202 -0.2892367573709661 0 0.26500420865911251 -0.28331687632378699 0 0.26846821806613752 -0.30050752245993012 0 0.25301376652256202 -0.2892367573709661 0 0.26500420865911251 -0.28331687632378699 0 0.2507153324002197 -0.27704953531328702 0 0.26500420865911251 -0.28331687632378699 0 0.27805302037335089 -0.28584974436810762 0 0.26846821806613752 -0.30050752245993012 0 0.27805302037335089 -0.28584974436810762 0 0.26846821806613752 -0.30050752245993012 0 0.29270104714664102 -0.29513802668045069 0 0.26500420865911251 -0.28331687632378699 0 0.27805302037335089 -0.28584974436810762 0 0.27342558025451552 -0.27498979272208851 0 0.26598899428458778 -0.32103793389256657 0 0.26846821806613752 -0.30050752245993012 0 0.28097437988070417 -0.31138482246715898 0 0.26846821806613752 -0.30050752245993012 0 0.28097437988070417 -0.31138482246715898 0 0.29270104714664102 -0.29513802668045069 0 0.26846821806613752 -0.30050752245993012 0 0.29270104714664102 -0.29513802668045069 0 0.29792146783109758 -0.32077626486014349 0 0.29270104714664102 -0.29513802668045069 0 0.29019889155513462 -0.31620785207956748 0 0.28097437988070417 -0.31138482246715898 0 0.29270104714664102 -0.29513802668045069 0 0.29792146783109758 -0.32077626486014349 0 0.29019889155513462 -0.31620785207956748 0 0.29270104714664102 -0.29513802668045069 0 0.29792146783109758 -0.32077626486014349 0 0.29270104714664102 -0.29513802668045069 0 0.29523603426331357 -0.29457632575074338 0 0.27805302037335089 -0.28584974436810762 0 0.29026987947112831 -0.28319821192468808 0 0.29270104714664102 -0.29513802668045069 0 0.27805302037335089 -0.28584974436810762 0 0.29026987947112831 -0.28319821192468808 0 0.28863308206368682 -0.27515966401439529 0 0.29026987947112831 -0.28319821192468808 0 0.29523603426331357 -0.29457632575074338 0 0.29026987947112831 -0.28319821192468808 0 0.29523603426331357 -0.29457632575074338 0 0.30320790951940702 -0.28313078900162059 0 0.29026987947112831 -0.28319821192468808 0 0.29270104714664102 -0.29513802668045069 0 0.29523603426331357 -0.29457632575074338 0 0.29026987947112831 -0.28319821192468808 0 0.29270104714664102 -0.29513802668045069 0 0.29270104714664102 -0.29513802668045069 0 0.29523603426331357 -0.29457632575074338 0 0.29523603426331357 -0.29457632575074338 0 0.31208952779935789 -0.2908419387292881 0 0.29523603426331357 -0.29457632575074338 0 0.30320790951940702 -0.28313078900162059 0 0.31208952779935789 -0.2908419387292881 0 0.29523603426331357 -0.29457632575074338 0 0.31208952779935789 -0.2908419387292881 0 0.30833746379913463 -0.30503745501229762 0 0.31611371382327402 -0.28007222207304999 0 0.30320790951940702 -0.28313078900162059 0 0.31208952779935789 -0.2908419387292881 0 0.30533649780288991 -0.32025428503190068 0 0.29523603426331357 -0.29457632575074338 0 0.30833746379913463 -0.30503745501229762 0 0.30533649780288991 -0.32025428503190068 0 0.29792146783109758 -0.32077626486014349 0 0.29523603426331357 -0.29457632575074338 0 0.30533649780288991 -0.32025428503190068 0 0.29523603426331357 -0.29457632575074338 0 0.3171485971304504 -0.30589952111326829 0 0.3109911447756647 -0.31350988965823029 0 0.30833746379913463 -0.30503745501229762 0 0.29812220868357159 -0.26533402464574418 0 0.30111904597271899 -0.2536098058489899 0 0.30981211567343969 -0.26250129009931661 0 0.31597462601859122 -0.25080747204364812 0 0.30111904597271899 -0.2536098058489899 0 0.30981211567343969 -0.26250129009931661 0 0.29812220868357159 -0.26533402464574418 0 0.30981211567343969 -0.26250129009931661 0 0.30706455279928557 -0.27339796693147528 0 0.31611371382327402 -0.28007222207304999 0 0.30320790951940702 -0.28313078900162059 0 0.30706455279928557 -0.27339796693147528 0 0.29026987947112831 -0.28319821192468808 0 0.30320790951940702 -0.28313078900162059 0 0.29755036247591721 -0.27602563541609298 0 0.30320790951940702 -0.28313078900162059 0 0.30706455279928557 -0.27339796693147528 0 0.29755036247591721 -0.27602563541609298 0 0.29812220868357159 -0.26533402464574418 0 0.30706455279928557 -0.27339796693147528 0 0.29755036247591721 -0.27602563541609298 0 0.29812220868357159 -0.26533402464574418 0 0.29755036247591721 -0.27602563541609298 0 0.28863308206368682 -0.27515966401439529 0 0.29026987947112831 -0.28319821192468808 0 0.28863308206368682 -0.27515966401439529 0 0.29026987947112831 -0.28319821192468808 0 0.29755036247591721 -0.27602563541609298 0 0.28863308206368682 -0.27515966401439529 0 0.28863308206368682 -0.27515966401439529 0 0.28456511698073272 -0.25518130134833977 0 0.29812220868357159 -0.26533402464574418 0 0.28863308206368682 -0.27515966401439529 0 0.28456511698073272 -0.25518130134833977 0 0.29812220868357159 -0.26533402464574418 0 0.30111904597271899 -0.2536098058489899 0 0.28456511698073272 -0.25518130134833977 0 0.28863308206368682 -0.27515966401439529 0 0.28456511698073272 -0.25518130134833977 0 0.27223885194073971 -0.26265851400849172 0 0.28456511698073272 -0.25518130134833977 0 0.27223885194073971 -0.26265851400849172 0 0.26629969424128969 -0.25192769388052821 0 0.27223885194073971 -0.26265851400849172 0 0.26629969424128969 -0.25192769388052821 0 0.2629172406837702 -0.26740365320709081 0 0.26500420865911251 -0.28331687632378699 0 0.27342558025451552 -0.27498979272208851 0 0.2629172406837702 -0.26740365320709081 0 0.28863308206368682 -0.27515966401439529 0 0.27223885194073971 -0.26265851400849172 0 0.27342558025451552 -0.27498979272208851 0 0.27805302037335089 -0.28584974436810762 0 0.28863308206368682 -0.27515966401439529 0 0.27342558025451552 -0.27498979272208851 0 0.27223885194073971 -0.26265851400849172 0 0.27342558025451552 -0.27498979272208851 0 0.2629172406837702 -0.26740365320709081 0 0.26500420865911251 -0.28331687632378699 0 0.2629172406837702 -0.26740365320709081 0 0.2507153324002197 -0.27704953531328702 0 0.2629172406837702 -0.26740365320709081 0 0.2507153324002197 -0.27704953531328702 0 0.2466218950091964 -0.26012473444713258 0 0.25037283077400019 -0.2416092145933311 0 0.26629969424128969 -0.25192769388052821 0 0.2466218950091964 -0.26012473444713258 0 0.26629969424128969 -0.25192769388052821 0 0.2629172406837702 -0.26740365320709081 0 0.2466218950091964 -0.26012473444713258 0 0.25037283077400019 -0.2416092145933311 0 0.2466218950091964 -0.26012473444713258 0 0.2339549802858914 -0.24933471903745599 0 0.2466218950091964 -0.26012473444713258 0 0.22717476572977791 -0.26325637954660608 0 0.2339549802858914 -0.24933471903745599 0 0.2466218950091964 -0.26012473444713258 0 0.23628574795648369 -0.27498419313581679 0 0.22717476572977791 -0.26325637954660608 0 0.2507153324002197 -0.27704953531328702 0 0.2466218950091964 -0.26012473444713258 0 0.23628574795648369 -0.27498419313581679 0 0.2507153324002197 -0.27704953531328702 0 0.23628574795648369 -0.27498419313581679 0 0.24044913557019401 -0.28723099739492908 0 0.2247339410531527 -0.27667652802353632 0 0.21554844428562811 -0.26491471108287651 0 0.21653111649902579 -0.28712771180040292 0 0.23628574795648369 -0.27498419313581679 0 0.2247339410531527 -0.27667652802353632 0 0.22717476572977791 -0.26325637954660608 0 0.2247339410531527 -0.27667652802353632 0 0.22717476572977791 -0.26325637954660608 0 0.21554844428562811 -0.26491471108287651 0 0.22717476572977791 -0.26325637954660608 0 0.22331750647786899 -0.25281133177650322 0 0.2339549802858914 -0.24933471903745599 0 0.22717476572977791 -0.26325637954660608 0 0.22331750647786899 -0.25281133177650322 0 0.21554844428562811 -0.26491471108287651 0 0.2084475354763706 -0.25511513831035743 0 0.21554844428562811 -0.26491471108287651 0 0.1982966667633215 -0.26354120971092698 0 0.21554844428562811 -0.26491471108287651 0 0.21456577207223029 -0.24270171036535029 0 0.22331750647786899 -0.25281133177650322 0 0.21554844428562811 -0.26491471108287651 0 0.21456577207223029 -0.24270171036535029 0 0.2084475354763706 -0.25511513831035743 0 0.21554844428562811 -0.26491471108287651 0 0.21336353465090491 -0.24693864317134839 0 0.21554844428562811 -0.26491471108287651 0 0.21336353465090491 -0.24693864317134839 0 0.21456577207223029 -0.24270171036535029 0 0.2084475354763706 -0.25511513831035743 0 0.1982966667633215 -0.26354120971092698 0 0.2080714594183444 -0.2424179483002232 0 0.1982966667633215 -0.26354120971092698 0 0.2080714594183444 -0.2424179483002232 0 0.21554844428562811 -0.26491471108287651 0 0.21653111649902579 -0.28712771180040292 0 0.21554844428562811 -0.26491471108287651 0 0.20859607852913339 -0.28093905456482821 0 0.21653111649902579 -0.28712771180040292 0 0.21554844428562811 -0.26491471108287651 0 0.20859607852913339 -0.28093905456482821 0 0.2011380539128553 -0.27767933622792518 0 0.21554844428562811 -0.26491471108287651 0 0.2011380539128553 -0.27767933622792518 0 0.1982966667633215 -0.26354120971092698 0 0.1982966667633215 -0.26354120971092698 0 0.18852187410829821 -0.28466447112163068 0 0.1982966667633215 -0.26354120971092698 0 0.18852187410829821 -0.28466447112163068 0 0.1845366839674035 -0.26640487959885623 0 0.2011380539128553 -0.27767933622792518 0 0.1982966667633215 -0.26354120971092698 0 0.18852187410829821 -0.28466447112163068 0 0.1982966667633215 -0.26354120971092698 0 0.2080714594183444 -0.2424179483002232 0 0.19254414318066221 -0.24961624770678509 0 0.1982966667633215 -0.26354120971092698 0 0.18706352147094041 -0.25756661524031438 0 0.1845366839674035 -0.26640487959885623 0 0.1982966667633215 -0.26354120971092698 0 0.18706352147094041 -0.25756661524031438 0 0.19254414318066221 -0.24961624770678509 0 0.18706352147094041 -0.25756661524031438 0 0.19254414318066221 -0.24961624770678509 0 0.18399505531774341 -0.24981832115951039 0 0.20249447748908611 -0.29813355613580778 0 0.1976485991634879 -0.30796138879627621 0 0.19462594870140809 -0.30164723750547567 0 0.20249447748908611 -0.29813355613580778 0 0.19462594870140809 -0.30164723750547567 0 0.19392418081794471 -0.29575522021664652 0 0.20249447748908611 -0.29813355613580778 0 0.1976485991634879 -0.30796138879627621 0 0.20782414549410869 -0.30817847155873718 0 0.1976485991634879 -0.30796138879627621 0 0.20782414549410869 -0.30817847155873718 0 0.20282381327660201 -0.31505297042611552 0 0.1976485991634879 -0.30796138879627621 0 0.19009702279388629 -0.3064242775921906 0 0.18802618722583669 -0.31833181955932999 0 0.1976485991634879 -0.30796138879627621 0 0.19009702279388629 -0.3064242775921906 0 0.19462594870140809 -0.30164723750547567 0 0.19009702279388629 -0.3064242775921906 0 0.19462594870140809 -0.30164723750547567 0 0.1880606218677118 -0.30022154946313712 0 0.19462594870140809 -0.30164723750547567 0 0.19110113081553529 -0.29631368747161629 0 0.19392418081794471 -0.29575522021664652 0 0.1880606218677118 -0.30022154946313712 0 0.19110113081553529 -0.29631368747161629 0 0.18734834214976739 -0.29514628785519947 0 0.19462594870140809 -0.30164723750547567 0 0.1880606218677118 -0.30022154946313712 0 0.19110113081553529 -0.29631368747161629 0 0.20249447748908611 -0.29813355613580778 0 0.18747516626574931 -0.28692639975368628 0 0.20249447748908611 -0.29813355613580778 0 0.19392418081794471 -0.29575522021664652 0 0.18747516626574931 -0.28692639975368628 0 0.19110113081553529 -0.29631368747161629 0 0.19392418081794471 -0.29575522021664652 0 0.18747516626574931 -0.28692639975368628 0 0.19110113081553529 -0.29631368747161629 0 0.18747516626574931 -0.28692639975368628 0 0.18734834214976739 -0.29514628785519947 0 0.18852187410829821 -0.28466447112163068 0 0.19787122383615691 -0.29172525818392958 0 0.18852187410829821 -0.28466447112163068 0 0.19731262536099689 -0.28481999283041842 0 0.19787122383615691 -0.29172525818392958 0 0.18852187410829821 -0.28466447112163068 0 0.19787122383615691 -0.29172525818392958 0 0.18747516626574931 -0.28692639975368628 0 0.18852187410829821 -0.28466447112163068 0 0.18747516626574931 -0.28692639975368628 0 0.2011380539128553 -0.27767933622792518 0 0.18852187410829821 -0.28466447112163068 0 0.19731262536099689 -0.28481999283041842 0 0.201719349586677 -0.2852109057881882 0 0.19787122383615691 -0.29172525818392958 0 0.206049533411369 -0.28982701925762389 0 0.19731262536099689 -0.28481999283041842 0 0.201719349586677 -0.2852109057881882 0 0.19787122383615691 -0.29172525818392958 0 0.2011380539128553 -0.27767933622792518 0 0.19731262536099689 -0.28481999283041842 0 0.201719349586677 -0.2852109057881882 0 0.20249447748908611 -0.29813355613580778 0 0.19787122383615691 -0.29172525818392958 0 0.18747516626574931 -0.28692639975368628 0 0.20249447748908611 -0.29813355613580778 0 0.19787122383615691 -0.29172525818392958 0 0.206049533411369 -0.28982701925762389 0 0.20249447748908611 -0.29813355613580778 0 0.206049533411369 -0.28982701925762389 0 0.20903552332543929 -0.29406903275804652 0 0.206049533411369 -0.28982701925762389 0 0.20903552332543929 -0.29406903275804652 0 0.21653111649902579 -0.28712771180040292 0 0.20249447748908611 -0.29813355613580778 0 0.20903552332543929 -0.29406903275804652 0 0.2123558614978226 -0.29827812898856709 0 0.20859607852913339 -0.28093905456482821 0 0.206049533411369 -0.28982701925762389 0 0.21653111649902579 -0.28712771180040292 0 0.20859607852913339 -0.28093905456482821 0 0.201719349586677 -0.2852109057881882 0 0.206049533411369 -0.28982701925762389 0 0.20859607852913339 -0.28093905456482821 0 0.2011380539128553 -0.27767933622792518 0 0.201719349586677 -0.2852109057881882 0 0.20903552332543929 -0.29406903275804652 0 0.21653111649902579 -0.28712771180040292 0 0.2123558614978226 -0.29827812898856709 0 0.21653111649902579 -0.28712771180040292 0 0.2175137887124228 -0.30934071251792922 0 0.21653111649902579 -0.28712771180040292 0 0.2123558614978226 -0.29827812898856709 0 0.2175137887124228 -0.30934071251792922 0 0.20249447748908611 -0.29813355613580778 0 0.2123558614978226 -0.29827812898856709 0 0.2175137887124228 -0.30934071251792922 0 0.20249447748908611 -0.29813355613580778 0 0.2175137887124228 -0.30934071251792922 0 0.20782414549410869 -0.30817847155873718 0 0.2176214393273678 -0.31177412129290383 0 0.20282381327660201 -0.31505297042611552 0 0.20249447748908611 -0.29813355613580778 0 0.20782414549410869 -0.30817847155873718 0 0.2175137887124228 -0.30934071251792922 0 0.20782414549410869 -0.30817847155873718 0 0.2175137887124228 -0.30934071251792922 0 0.2176214393273678 -0.31177412129290383 0 0.2175137887124228 -0.30934071251792922 0 0.2176214393273678 -0.31177412129290383 0 0.2175137887124228 -0.30934071251792922 0 0.2176214393273678 -0.31177412129290383 0 0.21999804566891551 -0.31122614102315033 0 0.21999804566891551 -0.31122614102315033 0 0.24423538898563429 -0.30587701823941071 0 0.2175137887124228 -0.30934071251792922 0 0.21999804566891551 -0.31122614102315033 0 0.22812963079484819 -0.29309964455197901 0 0.21999804566891551 -0.31122614102315033 0 0.22812963079484819 -0.29309964455197901 0 0.21999804566891551 -0.31122614102315033 0 0.22812963079484819 -0.29309964455197901 0 0.24423538898563429 -0.30587701823941071 0 0.2176214393273678 -0.31177412129290383 0 0.21999804566891551 -0.31122614102315033 0 0.2175137887124228 -0.30934071251792922 0 0.21999804566891551 -0.31122614102315033 0 0.23628574795648369 -0.27498419313581679 0 0.22812963079484819 -0.29309964455197901 0 0.2247339410531527 -0.27667652802353632 0 0.21653111649902579 -0.28712771180040292 0 0.22812963079484819 -0.29309964455197901 0 0.23628574795648369 -0.27498419313581679 0 0.2247339410531527 -0.27667652802353632 0 0.22812963079484819 -0.29309964455197901 0 0.21653111649902579 -0.28712771180040292 0 0.2175137887124228 -0.30934071251792922 0 0.22812963079484819 -0.29309964455197901 0 0.23628574795648369 -0.27498419313581679 0 0.22812963079484819 -0.29309964455197901 0 0.24044913557019401 -0.28723099739492908 0 0.25301376652256202 -0.2892367573709661 0 0.24044913557019401 -0.28723099739492908 0 0.24423538898563429 -0.30587701823941071 0 0.22812963079484819 -0.29309964455197901 0 0.24044913557019401 -0.28723099739492908 0 0.24423538898563429 -0.30587701823941071 0 0.25301376652256202 -0.2892367573709661 0 0.2507153324002197 -0.27704953531328702 0 0.24044913557019401 -0.28723099739492908 0 0.21999804566891551 -0.31122614102315033 0 0.24423538898563429 -0.30587701823941071 0 0.2404170410518052 -0.32643073261338312 0 0.25099839141978419 -0.34936335514031408 0 0.2316655193484673 -0.33515436960409939 0 0.25099839141978419 -0.34936335514031408 0 0.2404170410518052 -0.32643073261338312 0 0.2316655193484673 -0.33515436960409939 0 0.2404170410518052 -0.32643073261338312 0 0.2316655193484673 -0.33515436960409939 0 0.2247705650129608 -0.32491873692320528 0 0.2316655193484673 -0.33515436960409939 0 0.22208049410379579 -0.34309390150507102 0 0.22867514261462599 -0.34782526071452929 0 0.2316655193484673 -0.33515436960409939 0 0.22208049410379579 -0.34309390150507102 0 0.220555537226792 -0.33578323097752499 0 0.22208049410379579 -0.34309390150507102 0 0.220555537226792 -0.33578323097752499 0 0.21451162402718699 -0.34512658597487872 0 0.220555537226792 -0.33578323097752499 0 0.2247705650129608 -0.32491873692320528 0 0.21820242441149371 -0.32490710899175251 0 0.2316655193484673 -0.33515436960409939 0 0.220555537226792 -0.33578323097752499 0 0.2247705650129608 -0.32491873692320528 0 0.21999804566891551 -0.31122614102315033 0 0.2404170410518052 -0.32643073261338312 0 0.2247705650129608 -0.32491873692320528 0 0.21999804566891551 -0.31122614102315033 0 0.2404170410518052 -0.32643073261338312 0 0.2247705650129608 -0.32491873692320528 0 0.21780935440599439 -0.31602188338433101 0 0.21820242441149371 -0.32490710899175251 0 0.21999804566891551 -0.31122614102315033 0 0.2247705650129608 -0.32491873692320528 0 0.21780935440599439 -0.31602188338433101 0 0.21999804566891551 -0.31122614102315033 0 0.21780935440599439 -0.31602188338433101 0 0.23679608458568241 -0.3713456781615978 0 0.24534349961555019 -0.36253701182870851 0 0.24987622704845311 -0.37613765202982719 0 0.23679608458568241 -0.3713456781615978 0 0.24534349961555019 -0.36253701182870851 0 0.23133102347449649 -0.35950822589080189 0 0.25099839141978419 -0.34936335514031408 0 0.2316655193484673 -0.33515436960409939 0 0.23760271529458479 -0.35087764463569071 0 0.24534349961555019 -0.36253701182870851 0 0.23760271529458479 -0.35087764463569071 0 0.23133102347449649 -0.35950822589080189 0 0.25099839141978419 -0.34936335514031408 0 0.24534349961555019 -0.36253701182870851 0 0.23760271529458479 -0.35087764463569071 0 0.2316655193484673 -0.33515436960409939 0 0.23760271529458479 -0.35087764463569071 0 0.22867514261462599 -0.34782526071452929 0 0.22208049410379579 -0.34309390150507102 0 0.22076837523631451 -0.35267920974236072 0 0.21451162402718699 -0.34512658597487872 0 0.22208049410379579 -0.34309390150507102 0 0.22867514261462599 -0.34782526071452929 0 0.22076837523631451 -0.35267920974236072 0 0.22076837523631451 -0.35267920974236072 0 0.22341137818785181 -0.36337688942730773 0 0.21609027172906259 -0.36087537471117581 0 0.22076837523631451 -0.35267920974236072 0 0.23133102347449649 -0.35950822589080189 0 0.22341137818785181 -0.36337688942730773 0 0.22867514261462599 -0.34782526071452929 0 0.22076837523631451 -0.35267920974236072 0 0.23133102347449649 -0.35950822589080189 0 0.23760271529458479 -0.35087764463569071 0 0.22867514261462599 -0.34782526071452929 0 0.23133102347449649 -0.35950822589080189 0 0.23133102347449649 -0.35950822589080189 0 0.22341137818785181 -0.36337688942730773 0 0.22699371624108439 -0.37103399677892651 0 0.22341137818785181 -0.36337688942730773 0 0.22699371624108439 -0.37103399677892651 0 0.21663927632257499 -0.37152038636996992 0 0.22699371624108439 -0.37103399677892651 0 0.21663927632257499 -0.37152038636996992 0 0.22189277223980711 -0.38054577212349588 0 0.23679608458568241 -0.3713456781615978 0 0.22699371624108439 -0.37103399677892651 0 0.23010576568282681 -0.37607478874810818 0 0.23679608458568241 -0.3713456781615978 0 0.23133102347449649 -0.35950822589080189 0 0.22699371624108439 -0.37103399677892651 0 0.21663927632257499 -0.37152038636996992 0 0.20683644217058031 -0.36558797855932218 0 0.20576161095015591 -0.37595213443190167 0 0.22341137818785181 -0.36337688942730773 0 0.21663927632257499 -0.37152038636996992 0 0.21609027172906259 -0.36087537471117581 0 0.21609027172906259 -0.36087537471117581 0 0.20683644217058031 -0.36558797855932218 0 0.21089823393406021 -0.35324530101306001 0 0.21663927632257499 -0.37152038636996992 0 0.21609027172906259 -0.36087537471117581 0 0.20683644217058031 -0.36558797855932218 0 0.19940837682496099 -0.35689206815154528 0 0.20777431361625601 -0.33831058893907762 0 0.21089823393406021 -0.35324530101306001 0 0.19940837682496099 -0.35689206815154528 0 0.20777431361625601 -0.33831058893907762 0 0.20683644217058031 -0.36558797855932218 0 0.21089823393406021 -0.35324530101306001 0 0.19940837682496099 -0.35689206815154528 0 0.22076837523631451 -0.35267920974236072 0 0.21609027172906259 -0.36087537471117581 0 0.21089823393406021 -0.35324530101306001 0 0.21089823393406021 -0.35324530101306001 0 0.21451162402718699 -0.34512658597487872 0 0.20777431361625601 -0.33831058893907762 0 0.22076837523631451 -0.35267920974236072 0 0.21089823393406021 -0.35324530101306001 0 0.21451162402718699 -0.34512658597487872 0 0.1971616983813648 -0.34495631128618592 0 0.19940837682496099 -0.35689206815154528 0 0.20777431361625601 -0.33831058893907762 0 0.1971616983813648 -0.34495631128618592 0 0.18787137947787569 -0.35180034780069419 0 0.18864170350563411 -0.33720407153827198 0 0.1971616983813648 -0.34495631128618592 0 0.18787137947787569 -0.35180034780069419 0 0.19940837682496099 -0.35689206815154528 0 0.20683644217058031 -0.36558797855932218 0 0.20576161095015591 -0.37595213443190167 0 0.1910424400336663 -0.37547354736401328 0 0.18787137947787569 -0.35180034780069419 0 0.19940837682496099 -0.35689206815154528 0 0.1910424400336663 -0.37547354736401328 0 0.19940837682496099 -0.35689206815154528 0 0.1910424400336663 -0.37547354736401328 0 0.20683644217058031 -0.36558797855932218 0 0.19940837682496099 -0.35689206815154528 0 0.1910424400336663 -0.37547354736401328 0 0.21780935440599439 -0.31602188338433101 0 0.20777431361625601 -0.33831058893907762 0 0.21780935440599439 -0.31602188338433101 0 0.20777431361625601 -0.33831058893907762 0 0.20282381327660201 -0.31505297042611552 0 0.21780935440599439 -0.31602188338433101 0 0.21820242441149371 -0.32490710899175251 0 0.20777431361625601 -0.33831058893907762 0 0.2176214393273678 -0.31177412129290383 0 0.20282381327660201 -0.31505297042611552 0 0.2176214393273678 -0.31177412129290383 0 0.21780935440599439 -0.31602188338433101 0 0.20282381327660201 -0.31505297042611552 0 0.2176214393273678 -0.31177412129290383 0 0.21780935440599439 -0.31602188338433101 0 0.2176214393273678 -0.31177412129290383 0 0.21999804566891551 -0.31122614102315033 0 0.21780935440599439 -0.31602188338433101 0 0.21780935440599439 -0.31602188338433101 0 0.21820242441149371 -0.32490710899175251 0 0.220555537226792 -0.33578323097752499 0 0.21820242441149371 -0.32490710899175251 0 0.20777431361625601 -0.33831058893907762 0 0.220555537226792 -0.33578323097752499 0 0.21451162402718699 -0.34512658597487872 0 0.20777431361625601 -0.33831058893907762 0 0.21451162402718699 -0.34512658597487872 0 0.20777431361625601 -0.33831058893907762 0 0.1971616983813648 -0.34495631128618592 0 0.20777431361625601 -0.33831058893907762 0 0.18864170350563411 -0.33720407153827198 0 0.20777431361625601 -0.33831058893907762 0 0.18802618722583669 -0.31833181955932999 0 0.20777431361625601 -0.33831058893907762 0 0.18864170350563411 -0.33720407153827198 0 0.18802618722583669 -0.31833181955932999 0 0.20777431361625601 -0.33831058893907762 0 0.20282381327660201 -0.31505297042611552 0 0.18802618722583669 -0.31833181955932999 0 0.20282381327660201 -0.31505297042611552 0 0.18802618722583669 -0.31833181955932999 0 0.1976485991634879 -0.30796138879627621 0 0.20282381327660201 -0.31505297042611552 0 0.18802618722583669 -0.31833181955932999 0 0.18802618722583669 -0.31833181955932999 0 0.1791507244663583 -0.32983729973660558 0 0.16791254130802971 -0.3227885891963716 0 0.18802618722583669 -0.31833181955932999 0 0.17151825735526699 -0.31325416760549368 0 0.16791254130802971 -0.3227885891963716 0 0.18802618722583669 -0.31833181955932999 0 0.16791254130802971 -0.3227885891963716 0 0.18864170350563411 -0.33720407153827198 0 0.18802618722583669 -0.31833181955932999 0 0.1791507244663583 -0.32983729973660558 0 0.17202246582593331 -0.34102471865244838 0 0.1791507244663583 -0.32983729973660558 0 0.16791254130802971 -0.3227885891963716 0 0.18787137947787569 -0.35180034780069419 0 0.18864170350563411 -0.33720407153827198 0 0.17202246582593331 -0.34102471865244838 0 0.18864170350563411 -0.33720407153827198 0 0.17202246582593331 -0.34102471865244838 0 0.1791507244663583 -0.32983729973660558 0 0.17202246582593331 -0.34102471865244838 0 0.1546435437787094 -0.34381338892778002 0 0.1557586906108582 -0.32786840018592928 0 0.17202246582593331 -0.34102471865244838 0 0.16791254130802971 -0.3227885891963716 0 0.1557586906108582 -0.32786840018592928 0 0.16791254130802971 -0.3227885891963716 0 0.1557586906108582 -0.32786840018592928 0 0.1602411687519314 -0.31190927739118429 0 0.17151825735526699 -0.31325416760549368 0 0.16791254130802971 -0.3227885891963716 0 0.1602411687519314 -0.31190927739118429 0 0.18787137947787569 -0.35180034780069419 0 0.17662324672053431 -0.35795823269279659 0 0.1910424400336663 -0.37547354736401328 0 0.17662324672053431 -0.35795823269279659 0 0.17035242753357599 -0.36877211446365682 0 0.1910424400336663 -0.37547354736401328 0 0.17035242753357599 -0.36877211446365682 0 0.1910424400336663 -0.37547354736401328 0 0.1737051017910701 -0.38004230502140057 0 0.18787137947787569 -0.35180034780069419 0 0.17202246582593331 -0.34102471865244838 0 0.17662324672053431 -0.35795823269279659 0 0.17202246582593331 -0.34102471865244838 0 0.17662324672053431 -0.35795823269279659 0 0.16265844046108829 -0.35526087104265458 0 0.17202246582593331 -0.34102471865244838 0 0.16265844046108829 -0.35526087104265458 0 0.1546435437787094 -0.34381338892778002 0 0.17662324672053431 -0.35795823269279659 0 0.16265844046108829 -0.35526087104265458 0 0.17035242753357599 -0.36877211446365682 0 0.16265844046108829 -0.35526087104265458 0 0.1569593121701936 -0.36832063090657668 0 0.17035242753357599 -0.36877211446365682 0 0.1569593121701936 -0.36832063090657668 0 0.17035242753357599 -0.36877211446365682 0 0.16307541855137739 -0.37743582412871929 0 0.14536400873927011 -0.3681220756701501 0 0.1426630499740982 -0.35652090160864008 0 0.13524945632583441 -0.37311377610700652 0 0.16265844046108829 -0.35526087104265458 0 0.1569593121701936 -0.36832063090657668 0 0.1426630499740982 -0.35652090160864008 0 0.14536400873927011 -0.3681220756701501 0 0.13524945632583441 -0.37311377610700652 0 0.14973869037300869 -0.38096853745143089 0 0.1569593121701936 -0.36832063090657668 0 0.14536400873927011 -0.3681220756701501 0 0.14973869037300869 -0.38096853745143089 0 0.1569593121701936 -0.36832063090657668 0 0.14536400873927011 -0.3681220756701501 0 0.1426630499740982 -0.35652090160864008 0 0.1546435437787094 -0.34381338892778002 0 0.1426630499740982 -0.35652090160864008 0 0.1424354920479888 -0.33775294740649747 0 0.16265844046108829 -0.35526087104265458 0 0.1546435437787094 -0.34381338892778002 0 0.1426630499740982 -0.35652090160864008 0 0.13449730155472761 -0.34743155680512378 0 0.12784456261830821 -0.36308533366748658 0 0.123981461538115 -0.35128285539313481 0 0.1426630499740982 -0.35652090160864008 0 0.13449730155472761 -0.34743155680512378 0 0.1424354920479888 -0.33775294740649747 0 0.1426630499740982 -0.35652090160864008 0 0.13449730155472761 -0.34743155680512378 0 0.12784456261830821 -0.36308533366748658 0 0.13449730155472761 -0.34743155680512378 0 0.13051916655351839 -0.33696304048325831 0 0.123981461538115 -0.35128285539313481 0 0.1426630499740982 -0.35652090160864008 0 0.12784456261830821 -0.36308533366748658 0 0.13524945632583441 -0.37311377610700652 0 0.12784456261830821 -0.36308533366748658 0 0.13524945632583441 -0.37311377610700652 0 0.12609635470998201 -0.38402791619100712 0 0.14855409589738661 -0.31441038212804873 0 0.1557586906108582 -0.32786840018592928 0 0.1602411687519314 -0.31190927739118429 0 0.1445015266660287 -0.32337949759917511 0 0.14855409589738661 -0.31441038212804873 0 0.13871327718005111 -0.31332369293528212 0 0.1445015266660287 -0.32337949759917511 0 0.14855409589738661 -0.31441038212804873 0 0.1557586906108582 -0.32786840018592928 0 0.1546435437787094 -0.34381338892778002 0 0.1557586906108582 -0.32786840018592928 0 0.1424354920479888 -0.33775294740649747 0 0.1445015266660287 -0.32337949759917511 0 0.1557586906108582 -0.32786840018592928 0 0.1424354920479888 -0.33775294740649747 0 0.1445015266660287 -0.32337949759917511 0 0.1424354920479888 -0.33775294740649747 0 0.13219802669416811 -0.32498852212276208 0 0.1424354920479888 -0.33775294740649747 0 0.13051916655351839 -0.33696304048325831 0 0.13219802669416811 -0.32498852212276208 0 0.13449730155472761 -0.34743155680512378 0 0.1424354920479888 -0.33775294740649747 0 0.13051916655351839 -0.33696304048325831 0 0.13051916655351839 -0.33696304048325831 0 0.13219802669416811 -0.32498852212276208 0 0.12260601330919629 -0.33072698382653798 0 0.1445015266660287 -0.32337949759917511 0 0.13219802669416811 -0.32498852212276208 0 0.13871327718005111 -0.31332369293528212 0 0.13219802669416811 -0.32498852212276208 0 0.1265219532001009 -0.3124330460259736 0 0.1192961391526948 -0.32261879728377291 0 0.13219802669416811 -0.32498852212276208 0 0.13871327718005111 -0.31332369293528212 0 0.1265219532001009 -0.3124330460259736 0 0.1265219532001009 -0.3124330460259736 0 0.1332586495603032 -0.30031372317270688 0 0.1198701537204314 -0.30089140532399938 0 0.1332586495603032 -0.30031372317270688 0 0.1242383748246253 -0.29131174999725179 0 0.1198701537204314 -0.30089140532399938 0 0.13871327718005111 -0.31332369293528212 0 0.1265219532001009 -0.3124330460259736 0 0.1332586495603032 -0.30031372317270688 0 0.13871327718005111 -0.31332369293528212 0 0.1332586495603032 -0.30031372317270688 0 0.147245411062319 -0.30441698656302629 0 0.14855409589738661 -0.31441038212804873 0 0.13871327718005111 -0.31332369293528212 0 0.147245411062319 -0.30441698656302629 0 0.147245411062319 -0.30441698656302629 0 0.15432967412725099 -0.29846298066074151 0 0.14327492933615671 -0.29425024746867751 0 0.1332586495603032 -0.30031372317270688 0 0.147245411062319 -0.30441698656302629 0 0.14327492933615671 -0.29425024746867751 0 0.147245411062319 -0.30441698656302629 0 0.15432967412725099 -0.29846298066074151 0 0.1602411687519314 -0.31190927739118429 0 0.14855409589738661 -0.31441038212804873 0 0.147245411062319 -0.30441698656302629 0 0.1602411687519314 -0.31190927739118429 0 0.15432967412725099 -0.29846298066074151 0 0.1517600770447052 -0.28164214899084639 0 0.14327492933615671 -0.29425024746867751 0 0.1517600770447052 -0.28164214899084639 0 0.14327492933615671 -0.29425024746867751 0 0.13646338677899769 -0.28546266283427663 0 0.1332586495603032 -0.30031372317270688 0 0.14327492933615671 -0.29425024746867751 0 0.13646338677899769 -0.28546266283427663 0 0.1332586495603032 -0.30031372317270688 0 0.13646338677899769 -0.28546266283427663 0 0.1242383748246253 -0.29131174999725179 0 0.13646338677899769 -0.28546266283427663 0 0.1233023238440631 -0.28097148456094378 0 0.1242383748246253 -0.29131174999725179 0 0.1517600770447052 -0.28164214899084639 0 0.13646338677899769 -0.28546266283427663 0 0.1311170075682456 -0.27142576198599933 0 0.1517600770447052 -0.28164214899084639 0 0.1311170075682456 -0.27142576198599933 0 0.1364827709165429 -0.26618641562940759 0 0.13646338677899769 -0.28546266283427663 0 0.1311170075682456 -0.27142576198599933 0 0.1233023238440631 -0.28097148456094378 0 0.1311170075682456 -0.27142576198599933 0 0.1364827709165429 -0.26618641562940759 0 0.1212054647883809 -0.25073068226796852 0 0.1364827709165429 -0.26618641562940759 0 0.13217397618885759 -0.25462043987800831 0 0.1212054647883809 -0.25073068226796852 0 0.1364827709165429 -0.26618641562940759 0 0.1212054647883809 -0.25073068226796852 0 0.1364827709165429 -0.26618641562940759 0 0.13217397618885759 -0.25462043987800831 0 0.14275904560399111 -0.25945725309375861 0 0.13217397618885759 -0.25462043987800831 0 0.1429630926125974 -0.2502577086919005 0 0.14275904560399111 -0.25945725309375861 0 0.1429630926125974 -0.2502577086919005 0 0.16574248336044761 -0.26746108990676593 0 0.1429630926125974 -0.2502577086919005 0 0.15128247879849499 -0.26292486595599002 0 0.16574248336044761 -0.26746108990676593 0 0.1429630926125974 -0.2502577086919005 0 0.16574248336044761 -0.26746108990676593 0 0.16001236861667459 -0.2513654190734112 0 0.1429630926125974 -0.2502577086919005 0 0.14275904560399111 -0.25945725309375861 0 0.15128247879849499 -0.26292486595599002 0 0.1364827709165429 -0.26618641562940759 0 0.14275904560399111 -0.25945725309375861 0 0.15128247879849499 -0.26292486595599002 0 0.1517600770447052 -0.28164214899084639 0 0.1364827709165429 -0.26618641562940759 0 0.15128247879849499 -0.26292486595599002 0 0.1517600770447052 -0.28164214899084639 0 0.15128247879849499 -0.26292486595599002 0 0.15776774232478771 -0.26956647822523339 0 0.1517600770447052 -0.28164214899084639 0 0.1311170075682456 -0.27142576198599933 0 0.1517600770447052 -0.28164214899084639 0 0.1364827709165429 -0.26618641562940759 0 0.1517600770447052 -0.28164214899084639 0 0.16209364730358741 -0.27452888323759039 0 0.16594555478614451 -0.28284233368471318 0 0.1517600770447052 -0.28164214899084639 0 0.16209364730358741 -0.27452888323759039 0 0.15776774232478771 -0.26956647822523339 0 0.16209364730358741 -0.27452888323759039 0 0.15776774232478771 -0.26956647822523339 0 0.16574248336044761 -0.26746108990676593 0 0.15128247879849499 -0.26292486595599002 0 0.15776774232478771 -0.26956647822523339 0 0.16574248336044761 -0.26746108990676593 0 0.16209364730358741 -0.27452888323759039 0 0.16574248336044761 -0.26746108990676593 0 0.16920230535812411 -0.27329149954452342 0 0.16209364730358741 -0.27452888323759039 0 0.16920230535812411 -0.27329149954452342 0 0.16594555478614451 -0.28284233368471318 0 0.16920230535812411 -0.27329149954452342 0 0.1710222018321049 -0.28124575318360368 0 0.16594555478614451 -0.28284233368471318 0 0.16574248336044761 -0.26746108990676593 0 0.16001236861667459 -0.2513654190734112 0 0.16988601458932601 -0.2589500224365659 0 0.16574248336044761 -0.26746108990676593 0 0.16988601458932601 -0.2589500224365659 0 0.17628584543496439 -0.26683535894776161 0 0.16001236861667459 -0.2513654190734112 0 0.16988601458932601 -0.2589500224365659 0 0.16978669848249819 -0.25098739912941831 0 0.1767458594742066 -0.25730285456071711 0 0.17619278994504239 -0.24587918172992959 0 0.18399505531774341 -0.24981832115951039 0 0.16978669848249819 -0.25098739912941831 0 0.1767458594742066 -0.25730285456071711 0 0.17619278994504239 -0.24587918172992959 0 0.16988601458932601 -0.2589500224365659 0 0.16978669848249819 -0.25098739912941831 0 0.1767458594742066 -0.25730285456071711 0 0.16988601458932601 -0.2589500224365659 0 0.1767458594742066 -0.25730285456071711 0 0.17628584543496439 -0.26683535894776161 0 0.1767458594742066 -0.25730285456071711 0 0.17628584543496439 -0.26683535894776161 0 0.1845366839674035 -0.26640487959885623 0 0.1767458594742066 -0.25730285456071711 0 0.18706352147094041 -0.25756661524031438 0 0.1845366839674035 -0.26640487959885623 0 0.1767458594742066 -0.25730285456071711 0 0.18706352147094041 -0.25756661524031438 0 0.18399505531774341 -0.24981832115951039 0 0.18852187410829821 -0.28466447112163068 0 0.17628584543496439 -0.26683535894776161 0 0.1845366839674035 -0.26640487959885623 0 0.18852187410829821 -0.28466447112163068 0 0.16574248336044761 -0.26746108990676593 0 0.18852187410829821 -0.28466447112163068 0 0.16574248336044761 -0.26746108990676593 0 0.17628584543496439 -0.26683535894776161 0 0.16920230535812411 -0.27329149954452342 0 0.18747516626574931 -0.28692639975368628 0 0.17602993407772211 -0.2832030986568283 0 0.18852187410829821 -0.28466447112163068 0 0.16574248336044761 -0.26746108990676593 0 0.16920230535812411 -0.27329149954452342 0 0.16920230535812411 -0.27329149954452342 0 0.18747516626574931 -0.28692639975368628 0 0.16920230535812411 -0.27329149954452342 0 0.1710222018321049 -0.28124575318360368 0 0.17602993407772211 -0.2832030986568283 0 0.18747516626574931 -0.28692639975368628 0 0.1806905449634813 -0.28832929748571318 0 0.17602993407772211 -0.2832030986568283 0 0.18852187410829821 -0.28466447112163068 0 0.16920230535812411 -0.27329149954452342 0 0.18747516626574931 -0.28692639975368628 0 0.18747516626574931 -0.28692639975368628 0 0.1806905449634813 -0.28832929748571318 0 0.18301660310609241 -0.29114958545392738 0 0.17291101310642881 -0.28564608084835003 0 0.17864991096044419 -0.29495009963706692 0 0.16594555478614451 -0.28284233368471318 0 0.1806905449634813 -0.28832929748571318 0 0.17602993407772211 -0.2832030986568283 0 0.17673138357400531 -0.28840876668861409 0 0.17602993407772211 -0.2832030986568283 0 0.17673138357400531 -0.28840876668861409 0 0.17291101310642881 -0.28564608084835003 0 0.1710222018321049 -0.28124575318360368 0 0.17602993407772211 -0.2832030986568283 0 0.17291101310642881 -0.28564608084835003 0 0.17673138357400531 -0.28840876668861409 0 0.17291101310642881 -0.28564608084835003 0 0.17864991096044419 -0.29495009963706692 0 0.17673138357400531 -0.28840876668861409 0 0.17909088347012619 -0.29088019083727579 0 0.17864991096044419 -0.29495009963706692 0 0.1806905449634813 -0.28832929748571318 0 0.17673138357400531 -0.28840876668861409 0 0.17909088347012619 -0.29088019083727579 0 0.17909088347012619 -0.29088019083727579 0 0.17864991096044419 -0.29495009963706692 0 0.18114425154506539 -0.29221912984395187 0 0.18747516626574931 -0.28692639975368628 0 0.18734834214976739 -0.29514628785519947 0 0.1827564496500734 -0.29712351473235832 0 0.18747516626574931 -0.28692639975368628 0 0.18301660310609241 -0.29114958545392738 0 0.1827564496500734 -0.29712351473235832 0 0.18114425154506539 -0.29221912984395187 0 0.18301660310609241 -0.29114958545392738 0 0.1827564496500734 -0.29712351473235832 0 0.17864991096044419 -0.29495009963706692 0 0.18114425154506539 -0.29221912984395187 0 0.1827564496500734 -0.29712351473235832 0 0.18747516626574931 -0.28692639975368628 0 0.1827564496500734 -0.29712351473235832 0 0.1806905449634813 -0.28832929748571318 0 0.18114425154506539 -0.29221912984395187 0 0.18301660310609241 -0.29114958545392738 0 0.1806905449634813 -0.28832929748571318 0 0.17909088347012619 -0.29088019083727579 0 0.18114425154506539 -0.29221912984395187 0 0.18802618722583669 -0.31833181955932999 0 0.18221347423979239 -0.30458962683289892 0 0.1698931321352706 -0.29998698427508858 0 0.1880606218677118 -0.30022154946313712 0 0.18734834214976739 -0.29514628785519947 0 0.1827564496500734 -0.29712351473235832 0 0.19009702279388629 -0.3064242775921906 0 0.1880606218677118 -0.30022154946313712 0 0.18221347423979239 -0.30458962683289892 0 0.18802618722583669 -0.31833181955932999 0 0.17151825735526699 -0.31325416760549368 0 0.1698931321352706 -0.29998698427508858 0 0.1880606218677118 -0.30022154946313712 0 0.18221347423979239 -0.30458962683289892 0 0.1827564496500734 -0.29712351473235832 0 0.18802618722583669 -0.31833181955932999 0 0.1698931321352706 -0.29998698427508858 0 0.17864991096044419 -0.29495009963706692 0 0.1827564496500734 -0.29712351473235832 0 0.17837824174639511 -0.29916255636935318 0 0.18221347423979239 -0.30458962683289892 0 0.1827564496500734 -0.29712351473235832 0 0.17837824174639511 -0.29916255636935318 0 0.19009702279388629 -0.3064242775921906 0 0.18802618722583669 -0.31833181955932999 0 0.18221347423979239 -0.30458962683289892 0 0.18221347423979239 -0.30458962683289892 0 0.17837824174639511 -0.29916255636935318 0 0.1698931321352706 -0.29998698427508858 0 0.17864991096044419 -0.29495009963706692 0 0.17837824174639511 -0.29916255636935318 0 0.1698931321352706 -0.29998698427508858 0 0.17151825735526699 -0.31325416760549368 0 0.1698931321352706 -0.29998698427508858 0 0.1602411687519314 -0.31190927739118429 0 0.15432967412725099 -0.29846298066074151 0 0.1698931321352706 -0.29998698427508858 0 0.1602411687519314 -0.31190927739118429 0 0.1517600770447052 -0.28164214899084639 0 0.17864991096044419 -0.29495009963706692 0 0.1698931321352706 -0.29998698427508858 0 0.1517600770447052 -0.28164214899084639 0 0.1698931321352706 -0.29998698427508858 0 0.15432967412725099 -0.29846298066074151 0 0.1517600770447052 -0.28164214899084639 0 0.1698931321352706 -0.29998698427508858 0 0.1517600770447052 -0.28164214899084639 0 0.17864991096044419 -0.29495009963706692 0 0.1517600770447052 -0.28164214899084639 0 0.17864991096044419 -0.29495009963706692 0 0.16594555478614451 -0.28284233368471318 0 0.1710222018321049 -0.28124575318360368 0 0.17291101310642881 -0.28564608084835003 0 0.16594555478614451 -0.28284233368471318 0 0.21438456257476449 -0.5 0 0.2048745361024723 -0.48472171768082351 0 0.18744203257390391 -0.5 0 0.19122796324104871 -0.48466606029959602 0 0.2048745361024723 -0.48472171768082351 0 0.18744203257390391 -0.5 0 0.19122796324104871 -0.48466606029959602 0 0.20365346230900849 -0.47086657296764728 0 0.1938641377332887 -0.4633108835168005 0 0.19122796324104871 -0.48466606029959602 0 0.20365346230900849 -0.47086657296764728 0 0.2048745361024723 -0.48472171768082351 0 0.21766866328091511 -0.47157360957620892 0 0.2048745361024723 -0.48472171768082351 0 0.22288060450936709 -0.48400008360299168 0 0.20365346230900849 -0.47086657296764728 0 0.21766866328091511 -0.47157360957620892 0 0.2048745361024723 -0.48472171768082351 0 0.21438456257476449 -0.5 0 0.2048745361024723 -0.48472171768082351 0 0.22288060450936709 -0.48400008360299168 0 0.21438456257476449 -0.5 0 0.23633351028628971 -0.48712361601618398 0 0.2413270925756249 -0.5 0 0.21438456257476449 -0.5 0 0.23633351028628971 -0.48712361601618398 0 0.22288060450936709 -0.48400008360299168 0 0.25270961841775552 -0.48460016746525392 0 0.23633351028628971 -0.48712361601618398 0 0.2413270925756249 -0.5 0 0.25270961841775552 -0.48460016746525392 0 0.23633351028628971 -0.48712361601618398 0 0.23949561189523169 -0.47426551941090739 0 0.23949561189523169 -0.47426551941090739 0 0.22288060450936709 -0.48400008360299168 0 0.22545312399173489 -0.46028769725088831 0 0.21766866328091511 -0.47157360957620892 0 0.22288060450936709 -0.48400008360299168 0 0.22545312399173489 -0.46028769725088831 0 0.23633351028628971 -0.48712361601618398 0 0.23949561189523169 -0.47426551941090739 0 0.22288060450936709 -0.48400008360299168 0 0.22288060450936709 -0.48400008360299168 0 0.22545312399173489 -0.46028769725088831 0 0.21766866328091511 -0.47157360957620892 0 0.22545312399173489 -0.46028769725088831 0 0.2186728293425339 -0.44755637628226819 0 0.2588368117714554 -0.46700690363883102 0 0.23949561189523169 -0.47426551941090739 0 0.2409729068143365 -0.46262444708906358 0 0.22545312399173489 -0.46028769725088831 0 0.2409729068143365 -0.46262444708906358 0 0.24480843210435321 -0.45079661158300749 0 0.2588368117714554 -0.46700690363883102 0 0.2409729068143365 -0.46262444708906358 0 0.24480843210435321 -0.45079661158300749 0 0.23949561189523169 -0.47426551941090739 0 0.22545312399173489 -0.46028769725088831 0 0.2409729068143365 -0.46262444708906358 0 0.24480843210435321 -0.45079661158300749 0 0.22802564347410281 -0.43657531089878487 0 0.2418992233321238 -0.43333026798624508 0 0.25513396950241118 -0.43290986753561628 0 0.24480843210435321 -0.45079661158300749 0 0.2418992233321238 -0.43333026798624508 0 0.22545312399173489 -0.46028769725088831 0 0.22802564347410281 -0.43657531089878487 0 0.2186728293425339 -0.44755637628226819 0 0.21246462128442831 -0.43168381348743168 0 0.22802564347410281 -0.43657531089878487 0 0.22545312399173489 -0.46028769725088831 0 0.2186728293425339 -0.44755637628226819 0 0.22802564347410281 -0.43657531089878487 0 0.22545312399173489 -0.46028769725088831 0 0.24480843210435321 -0.45079661158300749 0 0.22802564347410281 -0.43657531089878487 0 0.20442019459899149 -0.44533796874460208 0 0.2186728293425339 -0.44755637628226819 0 0.21246462128442831 -0.43168381348743168 0 0.21766866328091511 -0.47157360957620892 0 0.20442019459899149 -0.44533796874460208 0 0.21766866328091511 -0.47157360957620892 0 0.20442019459899149 -0.44533796874460208 0 0.2186728293425339 -0.44755637628226819 0 0.20365346230900849 -0.47086657296764728 0 0.21766866328091511 -0.47157360957620892 0 0.20442019459899149 -0.44533796874460208 0 0.20365346230900849 -0.47086657296764728 0 0.20442019459899149 -0.44533796874460208 0 0.1938641377332887 -0.4633108835168005 0 0.20442019459899149 -0.44533796874460208 0 0.18484232774876749 -0.43033534366960768 0 0.18590039067086719 -0.44115637567916172 0 0.20442019459899149 -0.44533796874460208 0 0.18923595964957429 -0.45067509688328122 0 0.18590039067086719 -0.44115637567916172 0 0.20442019459899149 -0.44533796874460208 0 0.1938641377332887 -0.4633108835168005 0 0.18923595964957429 -0.45067509688328122 0 0.20442019459899149 -0.44533796874460208 0 0.1911717259170673 -0.41910232791299562 0 0.20473537155931409 -0.42802668409371708 0 0.20442019459899149 -0.44533796874460208 0 0.1911717259170673 -0.41910232791299562 0 0.20442019459899149 -0.44533796874460208 0 0.1911717259170673 -0.41910232791299562 0 0.18484232774876749 -0.43033534366960768 0 0.1911717259170673 -0.41910232791299562 0 0.21088494443676881 -0.41598262622983972 0 0.20473537155931409 -0.42802668409371708 0 0.18851111772050869 -0.41383358608972459 0 0.208966154163157 -0.40126827473642579 0 0.1911717259170673 -0.41910232791299562 0 0.21088494443676881 -0.41598262622983972 0 0.1911717259170673 -0.41910232791299562 0 0.18851111772050869 -0.41383358608972459 0 0.21088494443676881 -0.41598262622983972 0 0.18851111772050869 -0.41383358608972459 0 0.21088494443676881 -0.41598262622983972 0 0.208966154163157 -0.40126827473642579 0 0.1911717259170673 -0.41910232791299562 0 0.18851111772050869 -0.41383358608972459 0 0.21088494443676881 -0.41598262622983972 0 0.22155668588658281 -0.40529615173032069 0 0.208966154163157 -0.40126827473642579 0 0.21088494443676881 -0.41598262622983972 0 0.20473537155931409 -0.42802668409371708 0 0.21246462128442831 -0.43168381348743168 0 0.21088494443676881 -0.41598262622983972 0 0.21246462128442831 -0.43168381348743168 0 0.21959695705502991 -0.42408781639437282 0 0.20442019459899149 -0.44533796874460208 0 0.20473537155931409 -0.42802668409371708 0 0.21246462128442831 -0.43168381348743168 0 0.21246462128442831 -0.43168381348743168 0 0.21959695705502991 -0.42408781639437282 0 0.22802564347410281 -0.43657531089878487 0 0.22802564347410281 -0.43657531089878487 0 0.23614533994983331 -0.4244462479719151 0 0.23059816295646979 -0.4128629245466815 0 0.22802564347410281 -0.43657531089878487 0 0.23059816295646979 -0.4128629245466815 0 0.21959695705502991 -0.42408781639437282 0 0.22802564347410281 -0.43657531089878487 0 0.23059816295646979 -0.4128629245466815 0 0.22802564347410281 -0.43657531089878487 0 0.2418992233321238 -0.43333026798624508 0 0.23614533994983331 -0.4244462479719151 0 0.2418992233321238 -0.43333026798624508 0 0.23614533994983331 -0.4244462479719151 0 0.2453827316299185 -0.42192330194190181 0 0.25513396950241118 -0.43290986753561628 0 0.2418992233321238 -0.43333026798624508 0 0.2453827316299185 -0.42192330194190181 0 0.256136481120742 -0.41447562176841068 0 0.2453827316299185 -0.42192330194190181 0 0.24629253832767661 -0.41022035877505542 0 0.2453827316299185 -0.42192330194190181 0 0.24629253832767661 -0.41022035877505542 0 0.2366098857920339 -0.41191154353144788 0 0.23614533994983331 -0.4244462479719151 0 0.2366098857920339 -0.41191154353144788 0 0.23059816295646979 -0.4128629245466815 0 0.23614533994983331 -0.4244462479719151 0 0.2453827316299185 -0.42192330194190181 0 0.2366098857920339 -0.41191154353144788 0 0.24629253832767661 -0.41022035877505542 0 0.2366098857920339 -0.41191154353144788 0 0.2422505545635501 -0.40276464775944387 0 0.21088494443676881 -0.41598262622983972 0 0.23059816295646979 -0.4128629245466815 0 0.2366098857920339 -0.41191154353144788 0 0.23059816295646979 -0.4128629245466815 0 0.23156745731421779 -0.4039283829592023 0 0.23059816295646979 -0.4128629245466815 0 0.22155668588658281 -0.40529615173032069 0 0.23156745731421779 -0.4039283829592023 0 0.23059816295646979 -0.4128629245466815 0 0.23156745731421779 -0.4039283829592023 0 0.21088494443676881 -0.41598262622983972 0 0.23059816295646979 -0.4128629245466815 0 0.22155668588658281 -0.40529615173032069 0 0.21088494443676881 -0.41598262622983972 0 0.21959695705502991 -0.42408781639437282 0 0.23059816295646979 -0.4128629245466815 0 0.2366098857920339 -0.41191154353144788 0 0.23059816295646979 -0.4128629245466815 0 0.22155668588658281 -0.40529615173032069 0 0.22942119060580499 -0.38870296338312649 0 0.208966154163157 -0.40126827473642579 0 0.22155668588658281 -0.40529615173032069 0 0.23156745731421779 -0.4039283829592023 0 0.22942119060580499 -0.38870296338312649 0 0.22942119060580499 -0.38870296338312649 0 0.208966154163157 -0.40126827473642579 0 0.23156745731421779 -0.4039283829592023 0 0.24309899287842279 -0.39271330151873202 0 0.2422505545635501 -0.40276464775944387 0 0.2366098857920339 -0.41191154353144788 0 0.23156745731421779 -0.4039283829592023 0 0.2422505545635501 -0.40276464775944387 0 0.23156745731421779 -0.4039283829592023 0 0.24309899287842279 -0.39271330151873202 0 0.22942119060580499 -0.38870296338312649 0 0.25108303853213881 -0.40002667887407228 0 0.24629253832767661 -0.41022035877505542 0 0.2422505545635501 -0.40276464775944387 0 0.25108303853213881 -0.40002667887407228 0 0.24309899287842279 -0.39271330151873202 0 0.2422505545635501 -0.40276464775944387 0 0.24987622704845311 -0.37613765202982719 0 0.22942119060580499 -0.38870296338312649 0 0.24309899287842279 -0.39271330151873202 0 0.24987622704845311 -0.37613765202982719 0 0.22942119060580499 -0.38870296338312649 0 0.24987622704845311 -0.37613765202982719 0 0.23474048966473349 -0.38137370792841258 0 0.22942119060580499 -0.38870296338312649 0 0.25687819372407023 -0.38903915957053298 0 0.24309899287842279 -0.39271330151873202 0 0.24987622704845311 -0.37613765202982719 0 0.23679608458568241 -0.3713456781615978 0 0.24987622704845311 -0.37613765202982719 0 0.23474048966473349 -0.38137370792841258 0 0.23474048966473349 -0.38137370792841258 0 0.23010576568282681 -0.37607478874810818 0 0.22189277223980711 -0.38054577212349588 0 0.23474048966473349 -0.38137370792841258 0 0.22189277223980711 -0.38054577212349588 0 0.20961824525516401 -0.3936281247522696 0 0.23474048966473349 -0.38137370792841258 0 0.22942119060580499 -0.38870296338312649 0 0.20961824525516401 -0.3936281247522696 0 0.23679608458568241 -0.3713456781615978 0 0.23474048966473349 -0.38137370792841258 0 0.23010576568282681 -0.37607478874810818 0 0.23474048966473349 -0.38137370792841258 0 0.20961824525516401 -0.3936281247522696 0 0.22699371624108439 -0.37103399677892651 0 0.23010576568282681 -0.37607478874810818 0 0.22189277223980711 -0.38054577212349588 0 0.21663927632257499 -0.37152038636996992 0 0.22189277223980711 -0.38054577212349588 0 0.21119602619295649 -0.38157571206759561 0 0.21663927632257499 -0.37152038636996992 0 0.21119602619295649 -0.38157571206759561 0 0.20576161095015591 -0.37595213443190167 0 0.21119602619295649 -0.38157571206759561 0 0.20576161095015591 -0.37595213443190167 0 0.20229958674085519 -0.38616776423662919 0 0.21119602619295649 -0.38157571206759561 0 0.20961824525516401 -0.3936281247522696 0 0.20229958674085519 -0.38616776423662919 0 0.22189277223980711 -0.38054577212349588 0 0.21119602619295649 -0.38157571206759561 0 0.20961824525516401 -0.3936281247522696 0 0.22942119060580499 -0.38870296338312649 0 0.208966154163157 -0.40126827473642579 0 0.20961824525516401 -0.3936281247522696 0 0.20961824525516401 -0.3936281247522696 0 0.18449600084559339 -0.40588254157612419 0 0.20961824525516401 -0.3936281247522696 0 0.19262774622386039 -0.39991289132556063 0 0.20229958674085519 -0.38616776423662919 0 0.18851111772050869 -0.41383358608972459 0 0.20961824525516401 -0.3936281247522696 0 0.18449600084559339 -0.40588254157612419 0 0.19262774622386039 -0.39991289132556063 0 0.193172237845981 -0.38760648281860499 0 0.20229958674085519 -0.38616776423662919 0 0.20961824525516401 -0.3936281247522696 0 0.19262774622386039 -0.39991289132556063 0 0.18449600084559339 -0.40588254157612419 0 0.18851111772050869 -0.41383358608972459 0 0.208966154163157 -0.40126827473642579 0 0.20961824525516401 -0.3936281247522696 0 0.19262774622386039 -0.39991289132556063 0 0.18963514604776821 -0.39361523539988952 0 0.193172237845981 -0.38760648281860499 0 0.19262774622386039 -0.39991289132556063 0 0.18963514604776821 -0.39361523539988952 0 0.18221634088723479 -0.40136818287387582 0 0.18963514604776821 -0.39361523539988952 0 0.193172237845981 -0.38760648281860499 0 0.18267650324237161 -0.39405502657648112 0 0.193172237845981 -0.38760648281860499 0 0.1910424400336663 -0.37547354736401328 0 0.18267650324237161 -0.39405502657648112 0 0.20576161095015591 -0.37595213443190167 0 0.1910424400336663 -0.37547354736401328 0 0.20229958674085519 -0.38616776423662919 0 0.193172237845981 -0.38760648281860499 0 0.1910424400336663 -0.37547354736401328 0 0.20229958674085519 -0.38616776423662919 0 0.1910424400336663 -0.37547354736401328 0 0.17822948803450961 -0.38676940160015832 0 0.1737051017910701 -0.38004230502140057 0 0.1910424400336663 -0.37547354736401328 0 0.18267650324237161 -0.39405502657648112 0 0.1910424400336663 -0.37547354736401328 0 0.17822948803450961 -0.38676940160015832 0 0.18267650324237161 -0.39405502657648112 0 0.17822948803450961 -0.38676940160015832 0 0.17910183421640119 -0.39520059623836468 0 0.1646215608890387 -0.38907553280053181 0 0.17822948803450961 -0.38676940160015832 0 0.1737051017910701 -0.38004230502140057 0 0.1646215608890387 -0.38907553280053181 0 0.17822948803450961 -0.38676940160015832 0 0.18267650324237161 -0.39405502657648112 0 0.17910183421640119 -0.39520059623836468 0 0.18221634088723479 -0.40136818287387582 0 0.17910183421640119 -0.39520059623836468 0 0.15805845094365739 -0.40474493864538458 0 0.18963514604776821 -0.39361523539988952 0 0.18267650324237161 -0.39405502657648112 0 0.18221634088723479 -0.40136818287387582 0 0.18267650324237161 -0.39405502657648112 0 0.18221634088723479 -0.40136818287387582 0 0.17910183421640119 -0.39520059623836468 0 0.18221634088723479 -0.40136818287387582 0 0.17910183421640119 -0.39520059623836468 0 0.19262774622386039 -0.39991289132556063 0 0.18221634088723479 -0.40136818287387582 0 0.19262774622386039 -0.39991289132556063 0 0.18449600084559339 -0.40588254157612419 0 0.18221634088723479 -0.40136818287387582 0 0.18449600084559339 -0.40588254157612419 0 0.18221634088723479 -0.40136818287387582 0 0.17910183421640119 -0.39520059623836468 0 0.15805845094365739 -0.40474493864538458 0 0.1646215608890387 -0.38907553280053181 0 0.18221634088723479 -0.40136818287387582 0 0.15805845094365739 -0.40474493864538458 0 0.15805845094365739 -0.40474493864538458 0 0.1646215608890387 -0.38907553280053181 0 0.14706277844018539 -0.39464292458295508 0 0.1737051017910701 -0.38004230502140057 0 0.1646215608890387 -0.38907553280053181 0 0.16307541855137739 -0.37743582412871929 0 0.17035242753357599 -0.36877211446365682 0 0.1737051017910701 -0.38004230502140057 0 0.16307541855137739 -0.37743582412871929 0 0.1569593121701936 -0.36832063090657668 0 0.16307541855137739 -0.37743582412871929 0 0.14973869037300869 -0.38096853745143089 0 0.1646215608890387 -0.38907553280053181 0 0.16307541855137739 -0.37743582412871929 0 0.14973869037300869 -0.38096853745143089 0 0.1646215608890387 -0.38907553280053181 0 0.14973869037300869 -0.38096853745143089 0 0.14706277844018539 -0.39464292458295508 0 0.14973869037300869 -0.38096853745143089 0 0.1375772795987745 -0.38493757303029391 0 0.14706277844018539 -0.39464292458295508 0 0.13524945632583441 -0.37311377610700652 0 0.14973869037300869 -0.38096853745143089 0 0.1375772795987745 -0.38493757303029391 0 0.13524945632583441 -0.37311377610700652 0 0.1375772795987745 -0.38493757303029391 0 0.12609635470998201 -0.38402791619100712 0 0.1375772795987745 -0.38493757303029391 0 0.12609635470998201 -0.38402791619100712 0 0.13569313113510631 -0.39589912548093298 0 0.12645644117523869 -0.39722706905544619 0 0.13569313113510631 -0.39589912548093298 0 0.1339005610000801 -0.40812169441689322 0 0.12645644117523869 -0.39722706905544619 0 0.1339005610000801 -0.40812169441689322 0 0.1250254850364893 -0.40936224001308058 0 0.12609635470998201 -0.38402791619100712 0 0.12645644117523869 -0.39722706905544619 0 0.13569313113510631 -0.39589912548093298 0 0.1375772795987745 -0.38493757303029391 0 0.13569313113510631 -0.39589912548093298 0 0.14706277844018539 -0.39464292458295508 0 0.13569313113510631 -0.39589912548093298 0 0.14706277844018539 -0.39464292458295508 0 0.1339005610000801 -0.40812169441689322 0 0.13569313113510631 -0.39589912548093298 0 0.1339005610000801 -0.40812169441689322 0 0.15805845094365739 -0.40474493864538458 0 0.14706277844018539 -0.39464292458295508 0 0.1339005610000801 -0.40812169441689322 0 0.15805845094365739 -0.40474493864538458 0 0.1339005610000801 -0.40812169441689322 0 0.15805845094365739 -0.40474493864538458 0 0.15398562739609989 -0.414436145328195 0 0.14500783119440661 -0.41410657591589572 0 0.15805845094365739 -0.40474493864538458 0 0.14500783119440661 -0.41410657591589572 0 0.1339005610000801 -0.40812169441689322 0 0.15398562739609989 -0.414436145328195 0 0.15088002640467921 -0.42009116626417142 0 0.14500783119440661 -0.41410657591589572 0 0.15088002640467921 -0.42009116626417142 0 0.15979138776423191 -0.42406840149736191 0 0.15636365466176849 -0.41960526040447821 0 0.15398562739609989 -0.414436145328195 0 0.15088002640467921 -0.42009116626417142 0 0.15636365466176849 -0.41960526040447821 0 0.15088002640467921 -0.42009116626417142 0 0.14500783119440661 -0.41410657591589572 0 0.14354831806896931 -0.42663893719234869 0 0.14500783119440661 -0.41410657591589572 0 0.1339005610000801 -0.40812169441689322 0 0.13212255532719441 -0.42024495614079282 0 0.14500783119440661 -0.41410657591589572 0 0.13212255532719441 -0.42024495614079282 0 0.14354831806896931 -0.42663893719234869 0 0.1339005610000801 -0.40812169441689322 0 0.13212255532719441 -0.42024495614079282 0 0.13212255532719441 -0.42024495614079282 0 0.1250254850364893 -0.40936224001308058 0 0.117866085899093 -0.41583132647739651 0 0.13212255532719441 -0.42024495614079282 0 0.1250254850364893 -0.40936224001308058 0 0.1339005610000801 -0.40812169441689322 0 0.13212255532719441 -0.42024495614079282 0 0.1250254850364893 -0.40936224001308058 0 0.1339005610000801 -0.40812169441689322 0 0.1250254850364893 -0.40936224001308058 0 0.13212255532719441 -0.42024495614079282 0 0.14354831806896931 -0.42663893719234869 0 0.1460535583969573 -0.44160689079445481 0 0.13212255532719441 -0.42024495614079282 0 0.128223579302082 -0.44682997076052833 0 0.13212255532719441 -0.42024495614079282 0 0.128223579302082 -0.44682997076052833 0 0.1159996351348133 -0.43474120747525058 0 0.13212255532719441 -0.42024495614079282 0 0.1460535583969573 -0.44160689079445481 0 0.13212255532719441 -0.42024495614079282 0 0.1460535583969573 -0.44160689079445481 0 0.128223579302082 -0.44682997076052833 0 0.15088002640467921 -0.42009116626417142 0 0.14354831806896931 -0.42663893719234869 0 0.15979138776423191 -0.42406840149736191 0 0.14354831806896931 -0.42663893719234869 0 0.15979138776423191 -0.42406840149736191 0 0.14354831806896931 -0.42663893719234869 0 0.15423293294423909 -0.43386412417913311 0 0.1460535583969573 -0.44160689079445481 0 0.14354831806896931 -0.42663893719234869 0 0.15423293294423909 -0.43386412417913311 0 0.15979138776423191 -0.42406840149736191 0 0.15423293294423909 -0.43386412417913311 0 0.16088991666547389 -0.43196094602310392 0 0.16557730454712019 -0.44172028084172121 0 0.1713980071398 -0.42434598792645378 0 0.15979138776423191 -0.42406840149736191 0 0.1760344574594947 -0.42149786580237669 0 0.15423293294423909 -0.43386412417913311 0 0.16088991666547389 -0.43196094602310392 0 0.15979138776423191 -0.42406840149736191 0 0.15979138776423191 -0.42406840149736191 0 0.1760344574594947 -0.42149786580237669 0 0.16626302434537371 -0.43076979168845952 0 0.17509911994716071 -0.43336510097506958 0 0.16557730454712019 -0.44172028084172121 0 0.16088991666547389 -0.43196094602310392 0 0.16626302434537371 -0.43076979168845952 0 0.16557730454712019 -0.44172028084172121 0 0.16626302434537371 -0.43076979168845952 0 0.1713980071398 -0.42434598792645378 0 0.17509911994716071 -0.43336510097506958 0 0.16626302434537371 -0.43076979168845952 0 0.1713980071398 -0.42434598792645378 0 0.15979138776423191 -0.42406840149736191 0 0.16088991666547389 -0.43196094602310392 0 0.16626302434537371 -0.43076979168845952 0 0.15979138776423191 -0.42406840149736191 0 0.15636365466176849 -0.41960526040447821 0 0.16176651730702801 -0.41283252991975622 0 0.17042982775368151 -0.41274390099030239 0 0.18221634088723479 -0.40136818287387582 0 0.15805845094365739 -0.40474493864538458 0 0.17042982775368151 -0.41274390099030239 0 0.15979138776423191 -0.42406840149736191 0 0.15636365466176849 -0.41960526040447821 0 0.17042982775368151 -0.41274390099030239 0 0.15636365466176849 -0.41960526040447821 0 0.17042982775368151 -0.41274390099030239 0 0.15979138776423191 -0.42406840149736191 0 0.17042982775368151 -0.41274390099030239 0 0.1760344574594947 -0.42149786580237669 0 0.15398562739609989 -0.414436145328195 0 0.15636365466176849 -0.41960526040447821 0 0.16176651730702801 -0.41283252991975622 0 0.15805845094365739 -0.40474493864538458 0 0.15398562739609989 -0.414436145328195 0 0.16176651730702801 -0.41283252991975622 0 0.15805845094365739 -0.40474493864538458 0 0.16176651730702801 -0.41283252991975622 0 0.17042982775368151 -0.41274390099030239 0 0.17042982775368151 -0.41274390099030239 0 0.1760344574594947 -0.42149786580237669 0 0.17986785094481991 -0.4134894736146324 0 0.18449600084559339 -0.40588254157612419 0 0.17042982775368151 -0.41274390099030239 0 0.18449600084559339 -0.40588254157612419 0 0.18221634088723479 -0.40136818287387582 0 0.17042982775368151 -0.41274390099030239 0 0.18449600084559339 -0.40588254157612419 0 0.17042982775368151 -0.41274390099030239 0 0.17986785094481991 -0.4134894736146324 0 0.18851111772050869 -0.41383358608972459 0 0.18449600084559339 -0.40588254157612419 0 0.18851111772050869 -0.41383358608972459 0 0.18449600084559339 -0.40588254157612419 0 0.17986785094481991 -0.4134894736146324 0 0.18851111772050869 -0.41383358608972459 0 0.1760344574594947 -0.42149786580237669 0 0.1911717259170673 -0.41910232791299562 0 0.1760344574594947 -0.42149786580237669 0 0.18851111772050869 -0.41383358608972459 0 0.1760344574594947 -0.42149786580237669 0 0.17986785094481991 -0.4134894736146324 0 0.1911717259170673 -0.41910232791299562 0 0.18851111772050869 -0.41383358608972459 0 0.1760344574594947 -0.42149786580237669 0 0.1911717259170673 -0.41910232791299562 0 0.1760344574594947 -0.42149786580237669 0 0.18484232774876749 -0.43033534366960768 0 0.18484232774876749 -0.43033534366960768 0 0.17509911994716071 -0.43336510097506958 0 0.18590039067086719 -0.44115637567916172 0 0.18484232774876749 -0.43033534366960768 0 0.17509911994716071 -0.43336510097506958 0 0.17653319474121221 -0.42750765242104072 0 0.1713980071398 -0.42434598792645378 0 0.17509911994716071 -0.43336510097506958 0 0.17653319474121221 -0.42750765242104072 0 0.1760344574594947 -0.42149786580237669 0 0.18484232774876749 -0.43033534366960768 0 0.17653319474121221 -0.42750765242104072 0 0.1713980071398 -0.42434598792645378 0 0.1760344574594947 -0.42149786580237669 0 0.17653319474121221 -0.42750765242104072 0 0.1713980071398 -0.42434598792645378 0 0.1760344574594947 -0.42149786580237669 0 0.17791556380287959 -0.4455361086535346 0 0.17376504419967539 -0.46076368888843938 0 0.16557730454712019 -0.44172028084172121 0 0.17509911994716071 -0.43336510097506958 0 0.17791556380287959 -0.4455361086535346 0 0.18590039067086719 -0.44115637567916172 0 0.17509911994716071 -0.43336510097506958 0 0.17791556380287959 -0.4455361086535346 0 0.16557730454712019 -0.44172028084172121 0 0.18923595964957429 -0.45067509688328122 0 0.17791556380287959 -0.4455361086535346 0 0.18590039067086719 -0.44115637567916172 0 0.18923595964957429 -0.45067509688328122 0 0.17791556380287959 -0.4455361086535346 0 0.17376504419967539 -0.46076368888843938 0 0.1938641377332887 -0.4633108835168005 0 0.18923595964957429 -0.45067509688328122 0 0.17376504419967539 -0.46076368888843938 0 0.1938641377332887 -0.4633108835168005 0 0.17376504419967539 -0.46076368888843938 0 0.17718182015316611 -0.48165544175840053 0 0.17376504419967539 -0.46076368888843938 0 0.15550290350416551 -0.45157236434768988 0 0.1539044029471725 -0.46809795184702829 0 0.17376504419967539 -0.46076368888843938 0 0.16557730454712019 -0.44172028084172121 0 0.15550290350416551 -0.45157236434768988 0 0.15423293294423909 -0.43386412417913311 0 0.16557730454712019 -0.44172028084172121 0 0.15550290350416551 -0.45157236434768988 0 0.15423293294423909 -0.43386412417913311 0 0.15550290350416551 -0.45157236434768988 0 0.1460535583969573 -0.44160689079445481 0 0.15550290350416551 -0.45157236434768988 0 0.1460535583969573 -0.44160689079445481 0 0.14153074802588431 -0.45654190970348868 0 0.1460535583969573 -0.44160689079445481 0 0.128223579302082 -0.44682997076052833 0 0.14153074802588431 -0.45654190970348868 0 0.128223579302082 -0.44682997076052833 0 0.12432460327697011 -0.47341498538026422 0 0.128223579302082 -0.44682997076052833 0 0.14153074802588431 -0.45654190970348868 0 0.12432460327697011 -0.47341498538026422 0 0.1539044029471725 -0.46809795184702829 0 0.14153074802588431 -0.45654190970348868 0 0.12432460327697011 -0.47341498538026422 0 0.15550290350416551 -0.45157236434768988 0 0.1539044029471725 -0.46809795184702829 0 0.14153074802588431 -0.45654190970348868 0 0.1539044029471725 -0.46809795184702829 0 0.15048103374274721 -0.48484579871078243 0 0.12432460327697011 -0.47341498538026422 0 0.1404625649124509 -0.5 0 0.15048103374274721 -0.48484579871078243 0 0.12432460327697011 -0.47341498538026422 0 0.1404625649124509 -0.5 0 0.12042562725185831 -0.49999999999999989 0 0.12432460327697011 -0.47341498538026422 0 0.1404625649124509 -0.5 0 0.15048103374274721 -0.48484579871078243 0 0.16049950257304349 -0.50000000000000033 0 0.16049950257304349 -0.50000000000000033 0 0.17718182015316611 -0.48165544175840053 0 0.15048103374274721 -0.48484579871078243 0 0.16049950257304349 -0.50000000000000033 0 0.17718182015316611 -0.48165544175840053 0 0.17376504419967539 -0.46076368888843938 0 0.1539044029471725 -0.46809795184702829 0 0.17718182015316611 -0.48165544175840053 0 0.1539044029471725 -0.46809795184702829 0 0.15048103374274721 -0.48484579871078243 0 0.17718182015316611 -0.48165544175840053 0 0.1938641377332887 -0.4633108835168005 0 0.17718182015316611 -0.48165544175840053 0 0.19122796324104871 -0.48466606029959602 0 0.1938641377332887 -0.4633108835168005 0 0.17718182015316611 -0.48165544175840053 0 0.16049950257304349 -0.50000000000000033 0 0.17718182015316611 -0.48165544175840053 0 0.18744203257390391 -0.5 0 0.19122796324104871 -0.48466606029959602 0 0.17718182015316611 -0.48165544175840053 0 0.18744203257390391 -0.5 0 0.072018957471098571 -0.48629524479662273 0 0.069142552082564368 -0.5 0 0.082735946582200875 -0.4892045976485363 0 0.072018957471098571 -0.48629524479662273 0 0.079568506083734697 -0.4785915255016745 0 0.082735946582200875 -0.4892045976485363 0 0.072018957471098571 -0.48629524479662273 0 0.062670741706174135 -0.48944359682069549 0 0.064881374578912687 -0.4815757870058418 0 0.072018957471098571 -0.48629524479662273 0 0.069142552082564368 -0.5 0 0.062670741706174135 -0.48944359682069549 0 0.073180054077148754 -0.46968413697177741 0 0.079568506083734697 -0.4785915255016745 0 0.081395248040860374 -0.46160025678040811 0 0.067447632246636219 -0.45716428258124142 0 0.05849497948899289 -0.47642287528831911 0 0.061758178687080389 -0.47580514524370598 0 0.072018957471098571 -0.48629524479662273 0 0.064881374578912687 -0.4815757870058418 0 0.070673492561877091 -0.4782128222507579 0 0.064881374578912687 -0.4815757870058418 0 0.066280053791524171 -0.47680462027284459 0 0.061758178687080389 -0.47580514524370598 0 0.064881374578912687 -0.4815757870058418 0 0.066280053791524171 -0.47680462027284459 0 0.070673492561877091 -0.4782128222507579 0 0.066280053791524171 -0.47680462027284459 0 0.067807169338226503 -0.47162472659107291 0 0.061758178687080389 -0.47580514524370598 0 0.066280053791524171 -0.47680462027284459 0 0.067807169338226503 -0.47162472659107291 0 0.070673492561877091 -0.4782128222507579 0 0.067807169338226503 -0.47162472659107291 0 0.073180054077148754 -0.46968413697177741 0 0.070673492561877091 -0.4782128222507579 0 0.073180054077148754 -0.46968413697177741 0 0.070673492561877091 -0.4782128222507579 0 0.079568506083734697 -0.4785915255016745 0 0.072018957471098571 -0.48629524479662273 0 0.070673492561877091 -0.4782128222507579 0 0.079568506083734697 -0.4785915255016745 0 0.096876661376123455 -0.48080012839020431 0 0.081395248040860374 -0.46160025678040811 0 0.096876661376123455 -0.48080012839020431 0 0.095349939854524335 -0.46404107218864848 0 0.081395248040860374 -0.46160025678040811 0 0.079568506083734697 -0.4785915255016745 0 0.082735946582200875 -0.4892045976485363 0 0.096876661376123455 -0.48080012839020431 0 0.079568506083734697 -0.4785915255016745 0 0.096876661376123455 -0.48080012839020431 0 0.081395248040860374 -0.46160025678040811 0 0.090750313396975479 -0.5 0 0.082735946582200875 -0.4892045976485363 0 0.096876661376123455 -0.48080012839020431 0 0.069142552082564368 -0.5 0 0.090750313396975479 -0.5 0 0.082735946582200875 -0.4892045976485363 0 0.1123580747113867 -0.50000000000000033 0 0.1124728586670535 -0.48406595427175642 0 0.096876661376123455 -0.48080012839020431 0 0.090750313396975479 -0.5 0 0.1123580747113867 -0.50000000000000033 0 0.096876661376123455 -0.48080012839020431 0 0.1123580747113867 -0.50000000000000033 0 0.096876661376123455 -0.48080012839020431 0 0.1123580747113867 -0.50000000000000033 0 0.12042562725185831 -0.49999999999999989 0 0.1124728586670535 -0.48406595427175642 0 0.12042562725185831 -0.49999999999999989 0 0.1124728586670535 -0.48406595427175642 0 0.12432460327697011 -0.47341498538026422 0 0.12042562725185831 -0.49999999999999989 0 0.12432460327697011 -0.47341498538026422 0 0.1124728586670535 -0.48406595427175642 0 0.12432460327697011 -0.47341498538026422 0 0.1082250197838846 -0.46311527911574241 0 0.096876661376123455 -0.48080012839020431 0 0.095349939854524335 -0.46404107218864848 0 0.1082250197838846 -0.46311527911574241 0 0.1124728586670535 -0.48406595427175642 0 0.096876661376123455 -0.48080012839020431 0 0.1082250197838846 -0.46311527911574241 0 0.095349939854524335 -0.46404107218864848 0 0.1082250197838846 -0.46311527911574241 0 0.094902830217228867 -0.45064862446823939 0 0.128223579302082 -0.44682997076052833 0 0.12432460327697011 -0.47341498538026422 0 0.1082250197838846 -0.46311527911574241 0 0.128223579302082 -0.44682997076052833 0 0.1069391861142964 -0.44299064961396012 0 0.1159996351348133 -0.43474120747525058 0 0.128223579302082 -0.44682997076052833 0 0.1082250197838846 -0.46311527911574241 0 0.1069391861142964 -0.44299064961396012 0 0.1082250197838846 -0.46311527911574241 0 0.1069391861142964 -0.44299064961396012 0 0.094902830217228867 -0.45064862446823939 0 0.1069391861142964 -0.44299064961396012 0 0.091812697424993442 -0.4386357446441016 0 0.098414951810672224 -0.43233268446502993 0 0.1069391861142964 -0.44299064961396012 0 0.094902830217228867 -0.45064862446823939 0 0.091812697424993442 -0.4386357446441016 0 0.094902830217228867 -0.45064862446823939 0 0.091812697424993442 -0.4386357446441016 0 0.082434724511159588 -0.44537142502386151 0 0.094902830217228867 -0.45064862446823939 0 0.082434724511159588 -0.44537142502386151 0 0.081395248040860374 -0.46160025678040811 0 0.091812697424993442 -0.4386357446441016 0 0.082434724511159588 -0.44537142502386151 0 0.078149012167117934 -0.43357211405594609 0 0.095349939854524335 -0.46404107218864848 0 0.094902830217228867 -0.45064862446823939 0 0.081395248040860374 -0.46160025678040811 0 0.067447632246636219 -0.45716428258124142 0 0.065913834705597293 -0.44240038517061198 0 0.057068655694905858 -0.46015288389510001 0 0.067447632246636219 -0.45716428258124142 0 0.05849497948899289 -0.47642287528831911 0 0.067807169338226503 -0.47162472659107291 0 0.067447632246636219 -0.45716428258124142 0 0.061758178687080389 -0.47580514524370598 0 0.081395248040860374 -0.46160025678040811 0 0.067447632246636219 -0.45716428258124142 0 0.065913834705597293 -0.44240038517061198 0 0.073180054077148754 -0.46968413697177741 0 0.081395248040860374 -0.46160025678040811 0 0.067447632246636219 -0.45716428258124142 0 0.067807169338226503 -0.47162472659107291 0 0.073180054077148754 -0.46968413697177741 0 0.067447632246636219 -0.45716428258124142 0 0.081395248040860374 -0.46160025678040811 0 0.065913834705597293 -0.44240038517061198 0 0.082434724511159588 -0.44537142502386151 0 0.081395248040860374 -0.46160025678040811 0 0.065913834705597293 -0.44240038517061198 0 0.082434724511159588 -0.44537142502386151 0 0.065913834705597293 -0.44240038517061198 0 0.078149012167117934 -0.43357211405594609 0 0.065921365320016911 -0.4273577277455588 0 0.073982485551444349 -0.42005290588181732 0 0.078149012167117934 -0.43357211405594609 0 0.065913834705597293 -0.44240038517061198 0 0.065921365320016911 -0.4273577277455588 0 0.078149012167117934 -0.43357211405594609 0 0.073982485551444349 -0.42005290588181732 0 0.069775570718114244 -0.40426700169235308 0 0.060774245729122177 -0.41691050055794487 0 0.065921365320016911 -0.4273577277455588 0 0.073982485551444349 -0.42005290588181732 0 0.060774245729122177 -0.41691050055794487 0 0.073982485551444349 -0.42005290588181732 0 0.086447448161059384 -0.41120764722282821 0 0.069775570718114244 -0.40426700169235308 0 0.073982485551444349 -0.42005290588181732 0 0.086447448161059384 -0.41120764722282821 0 0.088692331433278357 -0.42535053834926723 0 0.086447448161059384 -0.41120764722282821 0 0.093827427438274241 -0.41775801958915132 0 0.099702730965631758 -0.41290181884877419 0 0.086447448161059384 -0.41120764722282821 0 0.088692331433278357 -0.42535053834926723 0 0.093827427438274241 -0.41775801958915132 0 0.088692331433278357 -0.42535053834926723 0 0.097645949564215143 -0.42435504664253748 0 0.093827427438274241 -0.41775801958915132 0 0.073982485551444349 -0.42005290588181732 0 0.088692331433278357 -0.42535053834926723 0 0.078149012167117934 -0.43357211405594609 0 0.091812697424993442 -0.4386357446441016 0 0.088692331433278357 -0.42535053834926723 0 0.078149012167117934 -0.43357211405594609 0 0.091812697424993442 -0.4386357446441016 0 0.088692331433278357 -0.42535053834926723 0 0.098414951810672224 -0.43233268446502993 0 0.098414951810672224 -0.43233268446502993 0 0.097645949564215143 -0.42435504664253748 0 0.1061961683754654 -0.43004895598907111 0 0.088692331433278357 -0.42535053834926723 0 0.098414951810672224 -0.43233268446502993 0 0.097645949564215143 -0.42435504664253748 0 0.1061961683754654 -0.43004895598907111 0 0.11152958735588871 -0.42539382439527612 0 0.1045809803654715 -0.42051706085107571 0 0.097645949564215143 -0.42435504664253748 0 0.1061961683754654 -0.43004895598907111 0 0.1045809803654715 -0.42051706085107571 0 0.1069391861142964 -0.44299064961396012 0 0.098414951810672224 -0.43233268446502993 0 0.1061961683754654 -0.43004895598907111 0 0.1061961683754654 -0.43004895598907111 0 0.1159996351348133 -0.43474120747525058 0 0.11152958735588871 -0.42539382439527612 0 0.13212255532719441 -0.42024495614079282 0 0.1159996351348133 -0.43474120747525058 0 0.11851153239627241 -0.42275952171654291 0 0.1069391861142964 -0.44299064961396012 0 0.1061961683754654 -0.43004895598907111 0 0.1159996351348133 -0.43474120747525058 0 0.1159996351348133 -0.43474120747525058 0 0.11152958735588871 -0.42539382439527612 0 0.11851153239627241 -0.42275952171654291 0 0.11152958735588871 -0.42539382439527612 0 0.11851153239627241 -0.42275952171654291 0 0.1123596205074209 -0.41890237594444008 0 0.1250254850364893 -0.40936224001308058 0 0.117866085899093 -0.41583132647739651 0 0.1096180349996463 -0.41151587164058129 0 0.1250254850364893 -0.40936224001308058 0 0.1096180349996463 -0.41151587164058129 0 0.13212255532719441 -0.42024495614079282 0 0.11851153239627241 -0.42275952171654291 0 0.117866085899093 -0.41583132647739651 0 0.117866085899093 -0.41583132647739651 0 0.1123596205074209 -0.41890237594444008 0 0.1096180349996463 -0.41151587164058129 0 0.11851153239627241 -0.42275952171654291 0 0.117866085899093 -0.41583132647739651 0 0.1123596205074209 -0.41890237594444008 0 0.11152958735588871 -0.42539382439527612 0 0.1123596205074209 -0.41890237594444008 0 0.1045809803654715 -0.42051706085107571 0 0.1123596205074209 -0.41890237594444008 0 0.1096180349996463 -0.41151587164058129 0 0.1065506547415149 -0.41613106226330793 0 0.1096180349996463 -0.41151587164058129 0 0.1065506547415149 -0.41613106226330793 0 0.099702730965631758 -0.41290181884877419 0 0.1096180349996463 -0.41151587164058129 0 0.099702730965631758 -0.41290181884877419 0 0.1096180349996463 -0.41151587164058129 0 0.099702730965631758 -0.41290181884877419 0 0.1041447551606165 -0.40305668800175581 0 0.1123596205074209 -0.41890237594444008 0 0.1065506547415149 -0.41613106226330793 0 0.1045809803654715 -0.42051706085107571 0 0.1065506547415149 -0.41613106226330793 0 0.1045809803654715 -0.42051706085107571 0 0.099702730965631758 -0.41290181884877419 0 0.1045809803654715 -0.42051706085107571 0 0.093827427438274241 -0.41775801958915132 0 0.099702730965631758 -0.41290181884877419 0 0.097645949564215143 -0.42435504664253748 0 0.1045809803654715 -0.42051706085107571 0 0.093827427438274241 -0.41775801958915132 0 0.086447448161059384 -0.41120764722282821 0 0.099702730965631758 -0.41290181884877419 0 0.095691580682652475 -0.39908469234235189 0 0.095691580682652475 -0.39908469234235189 0 0.1041447551606165 -0.40305668800175581 0 0.1115666739945345 -0.38872436917531578 0 0.099702730965631758 -0.41290181884877419 0 0.095691580682652475 -0.39908469234235189 0 0.1041447551606165 -0.40305668800175581 0 0.1096180349996463 -0.41151587164058129 0 0.1041447551606165 -0.40305668800175581 0 0.1115666739945345 -0.38872436917531578 0 0.1250254850364893 -0.40936224001308058 0 0.1115666739945345 -0.38872436917531578 0 0.1096180349996463 -0.41151587164058129 0 0.1115666739945345 -0.38872436917531578 0 0.1250254850364893 -0.40936224001308058 0 0.1096180349996463 -0.41151587164058129 0 0.1115666739945345 -0.38872436917531578 0 0.12645644117523869 -0.39722706905544619 0 0.1250254850364893 -0.40936224001308058 0 0.1115666739945345 -0.38872436917531578 0 0.12609635470998201 -0.38402791619100712 0 0.1115666739945345 -0.38872436917531578 0 0.113745377556003 -0.36324200547299851 0 0.1115666739945345 -0.38872436917531578 0 0.113745377556003 -0.36324200547299851 0 0.12609635470998201 -0.38402791619100712 0 0.12645644117523869 -0.39722706905544619 0 0.1115666739945345 -0.38872436917531578 0 0.1115666739945345 -0.38872436917531578 0 0.096372132326470572 -0.36542491223168638 0 0.1115666739945345 -0.38872436917531578 0 0.089853218628298884 -0.38394717958202601 0 0.096372132326470572 -0.36542491223168638 0 0.095691580682652475 -0.39908469234235189 0 0.1115666739945345 -0.38872436917531578 0 0.089853218628298884 -0.38394717958202601 0 0.089853218628298884 -0.38394717958202601 0 0.082924844884061683 -0.39714926844771359 0 0.072939106935086151 -0.38728773006234168 0 0.089853218628298884 -0.38394717958202601 0 0.072939106935086151 -0.38728773006234168 0 0.07582030708563034 -0.37256671738353597 0 0.095691580682652475 -0.39908469234235189 0 0.089853218628298884 -0.38394717958202601 0 0.082924844884061683 -0.39714926844771359 0 0.086447448161059384 -0.41120764722282821 0 0.082924844884061683 -0.39714926844771359 0 0.069775570718114244 -0.40426700169235308 0 0.086447448161059384 -0.41120764722282821 0 0.095691580682652475 -0.39908469234235189 0 0.082924844884061683 -0.39714926844771359 0 0.069775570718114244 -0.40426700169235308 0 0.072939106935086151 -0.38728773006234168 0 0.058313699768321348 -0.39007371912844929 0 0.082924844884061683 -0.39714926844771359 0 0.069775570718114244 -0.40426700169235308 0 0.072939106935086151 -0.38728773006234168 0 0.072939106935086151 -0.38728773006234168 0 0.05933500968155693 -0.37671477575793533 0 0.058313699768321348 -0.39007371912844929 0 0.072939106935086151 -0.38728773006234168 0 0.05933500968155693 -0.37671477575793533 0 0.07582030708563034 -0.37256671738353597 0 0.05933500968155693 -0.37671477575793533 0 0.043300396670470892 -0.38581293046691678 0 0.039079294002052851 -0.37065651216905859 0 0.05933500968155693 -0.37671477575793533 0 0.058313699768321348 -0.39007371912844929 0 0.043300396670470892 -0.38581293046691678 0 0.058313699768321348 -0.39007371912844929 0 0.0466875803122518 -0.39705513158652528 0 0.054373060569327003 -0.40663711634463268 0 0.069775570718114244 -0.40426700169235308 0 0.058313699768321348 -0.39007371912844929 0 0.054373060569327003 -0.40663711634463268 0 0.058313699768321348 -0.39007371912844929 0 0.054373060569327003 -0.40663711634463268 0 0.0466875803122518 -0.39705513158652528 0 0.042121557959679479 -0.40689397827368962 0 0.054373060569327003 -0.40663711634463268 0 0.058313699768321348 -0.39007371912844929 0 0.0466875803122518 -0.39705513158652528 0 0.043300396670470892 -0.38581293046691678 0 0.0466875803122518 -0.39705513158652528 0 0.032645317368698572 -0.39721328630736241 0 0.043300396670470892 -0.38581293046691678 0 0.0466875803122518 -0.39705513158652528 0 0.032645317368698572 -0.39721328630736241 0 0.042121557959679479 -0.40689397827368962 0 0.032645317368698572 -0.39721328630736241 0 0.043300396670470892 -0.38581293046691678 0 0.025542853711361019 -0.38384675294920401 0 0.043300396670470892 -0.38581293046691678 0 0.025542853711361019 -0.38384675294920401 0 0.039079294002052851 -0.37065651216905859 0 0.025542853711361019 -0.38384675294920401 0 0.009690974369139977 -0.39295199195252922 0 0.016784443680880379 -0.36713146693108112 0 -0.0064694903547723136 -0.38059021958606692 0 0.009690974369139977 -0.39295199195252922 0 0.016784443680880379 -0.36713146693108112 0 0.032645317368698572 -0.39721328630736241 0 0.009690974369139977 -0.39295199195252922 0 0.030062121183744069 -0.41560348860952728 0 0.032645317368698572 -0.39721328630736241 0 0.025542853711361019 -0.38384675294920401 0 0.009690974369139977 -0.39295199195252922 0 0.009690974369139977 -0.39295199195252922 0 0.030062121183744069 -0.41560348860952728 0 0.01224976062295041 -0.42183763890738629 0 -0.0080625817845775948 -0.40608726553411861 0 0.009690974369139977 -0.39295199195252922 0 0.01224976062295041 -0.42183763890738629 0 0.009690974369139977 -0.39295199195252922 0 0.01224976062295041 -0.42183763890738629 0 0.01224976062295041 -0.42183763890738629 0 0.01480854687676085 -0.45072328586224342 0 0.030062121183744069 -0.41560348860952728 0 0.01224976062295041 -0.42183763890738629 0 0.028535899264767479 -0.43733174884408438 0 0.01224976062295041 -0.42183763890738629 0 0.028535899264767479 -0.43733174884408438 0 0.01480854687676085 -0.45072328586224342 0 0.030062121183744069 -0.41560348860952728 0 0.028535899264767479 -0.43733174884408438 0 0.039909128579099777 -0.42893709763038412 0 0.039909128579099777 -0.42893709763038412 0 0.050432421370333713 -0.42320051356081623 0 0.04400553312424714 -0.45021417746364167 0 0.039909128579099777 -0.42893709763038412 0 0.046509667952406512 -0.41833555967385072 0 0.050432421370333713 -0.42320051356081623 0 0.032645317368698572 -0.39721328630736241 0 0.030062121183744069 -0.41560348860952728 0 0.042121557959679479 -0.40689397827368962 0 0.030062121183744069 -0.41560348860952728 0 0.039909128579099777 -0.42893709763038412 0 0.046509667952406512 -0.41833555967385072 0 0.030062121183744069 -0.41560348860952728 0 0.042121557959679479 -0.40689397827368962 0 0.046509667952406512 -0.41833555967385072 0 0.054373060569327003 -0.40663711634463268 0 0.050432421370333713 -0.42320051356081623 0 0.046509667952406512 -0.41833555967385072 0 0.054373060569327003 -0.40663711634463268 0 0.050432421370333713 -0.42320051356081623 0 0.054373060569327003 -0.40663711634463268 0 0.060774245729122177 -0.41691050055794487 0 0.050432421370333713 -0.42320051356081623 0 0.046509667952406512 -0.41833555967385072 0 0.050432421370333713 -0.42320051356081623 0 0.042121557959679479 -0.40689397827368962 0 0.046509667952406512 -0.41833555967385072 0 0.054373060569327003 -0.40663711634463268 0 0.069775570718114244 -0.40426700169235308 0 0.054373060569327003 -0.40663711634463268 0 0.060774245729122177 -0.41691050055794487 0 0.050432421370333713 -0.42320051356081623 0 0.04400553312424714 -0.45021417746364167 0 0.065913834705597293 -0.44240038517061198 0 0.050432421370333713 -0.42320051356081623 0 0.065913834705597293 -0.44240038517061198 0 0.065921365320016911 -0.4273577277455588 0 0.050432421370333713 -0.42320051356081623 0 0.065921365320016911 -0.4273577277455588 0 0.060774245729122177 -0.41691050055794487 0 0.050432421370333713 -0.42320051356081623 0 0.065913834705597293 -0.44240038517061198 0 0.050432421370333713 -0.42320051356081623 0 0.04400553312424714 -0.45021417746364167 0 0.065913834705597293 -0.44240038517061198 0 0.057068655694905858 -0.46015288389510001 0 0.04400553312424714 -0.45021417746364167 0 0.057068655694905858 -0.46015288389510001 0 0.048043393468649283 -0.46676160836513853 0 0.04400553312424714 -0.45021417746364167 0 0.067447632246636219 -0.45716428258124142 0 0.057068655694905858 -0.46015288389510001 0 0.05849497948899289 -0.47642287528831911 0 0.057068655694905858 -0.46015288389510001 0 0.048043393468649283 -0.46676160836513853 0 0.052635520687858477 -0.47072247146996382 0 0.04400553312424714 -0.45021417746364167 0 0.037578644878161642 -0.47722784136646751 0 0.048043393468649283 -0.46676160836513853 0 0.04400553312424714 -0.45021417746364167 0 0.037578644878161642 -0.47722784136646751 0 0.04400553312424714 -0.45021417746364167 0 0.030366658319331299 -0.45781827645911538 0 0.037578644878161642 -0.47722784136646751 0 0.028535899264767479 -0.43733174884408438 0 0.039909128579099777 -0.42893709763038412 0 0.04400553312424714 -0.45021417746364167 0 0.028535899264767479 -0.43733174884408438 0 0.04400553312424714 -0.45021417746364167 0 0.030366658319331299 -0.45781827645911538 0 0.028535899264767479 -0.43733174884408438 0 0.01480854687676085 -0.45072328586224342 0 0.030366658319331299 -0.45781827645911538 0 -0.008216644178786571 -0.4466179140804285 0 0.01224976062295041 -0.42183763890738629 0 0.01480854687676085 -0.45072328586224342 0 0.01480854687676085 -0.45072328586224342 0 0.017367333130571299 -0.47960893281710049 0 0.0084119176919832291 -0.471974008478943 0 -0.0021957942935651631 -0.46571035637089769 0 0.01480854687676085 -0.45072328586224342 0 0.0084119176919832291 -0.471974008478943 0 -0.008216644178786571 -0.4466179140804285 0 -0.0021957942935651631 -0.46571035637089769 0 0.01480854687676085 -0.45072328586224342 0 0.01480854687676085 -0.45072328586224342 0 0.017367333130571299 -0.47960893281710049 0 0.01480854687676085 -0.45072328586224342 0 0.030366658319331299 -0.45781827645911538 0 0.0269046674527194 -0.47359432875914009 0 0.01480854687676085 -0.45072328586224342 0 0.0269046674527194 -0.47359432875914009 0 0.017367333130571299 -0.47960893281710049 0 0.017367333130571299 -0.47960893281710049 0 0.012735562036971701 -0.48508522326900949 0 0.035615270762982369 -0.48075404927866472 0 0.012735562036971701 -0.48508522326900949 0 0.035615270762982369 -0.48075404927866472 0 0.0269046674527194 -0.47359432875914009 0 0.017367333130571299 -0.47960893281710049 0 0.035615270762982369 -0.48075404927866472 0 0.017367333130571299 -0.47960893281710049 0 0.0084119176919832291 -0.471974008478943 0 0.012735562036971701 -0.48508522326900949 0 -0.00065605929082254884 -0.47874224407546379 0 0.0084119176919832291 -0.471974008478943 0 0.012735562036971701 -0.48508522326900949 0 -0.0021957942935651631 -0.46571035637089769 0 -0.00065605929082254884 -0.47874224407546379 0 0.0084119176919832291 -0.471974008478943 0 -0.010144146689038991 -0.48941639725935437 0 -0.00065605929082254884 -0.47874224407546379 0 0.012735562036971701 -0.48508522326900949 0 -0.010144146689038991 -0.48941639725935437 0 0.012735562036971701 -0.48508522326900949 0 -0.011489863113854141 -0.5 0 0.012735562036971701 -0.48508522326900949 0 0.01802246382714956 -0.5 0 0.01802246382714956 -0.5 0 0.025329369399590369 -0.48901546815995378 0 0.047534790768153173 -0.50000000000000044 0 0.012735562036971701 -0.48508522326900949 0 0.025329369399590369 -0.48901546815995378 0 0.035615270762982369 -0.48075404927866472 0 0.012735562036971701 -0.48508522326900949 0 0.01802246382714956 -0.5 0 0.025329369399590369 -0.48901546815995378 0 0.025329369399590369 -0.48901546815995378 0 0.035615270762982369 -0.48075404927866472 0 0.047534790768153173 -0.50000000000000044 0 0.030366658319331299 -0.45781827645911538 0 0.0269046674527194 -0.47359432875914009 0 0.037578644878161642 -0.47722784136646751 0 0.0269046674527194 -0.47359432875914009 0 0.037578644878161642 -0.47722784136646751 0 0.035615270762982369 -0.48075404927866472 0 0.048043393468649283 -0.46676160836513853 0 0.037578644878161642 -0.47722784136646751 0 0.046296380844488463 -0.47463440362945558 0 0.035615270762982369 -0.48075404927866472 0 0.046296380844488463 -0.47463440362945558 0 0.049693011087844949 -0.4756354888466594 0 0.037578644878161642 -0.47722784136646751 0 0.035615270762982369 -0.48075404927866472 0 0.046296380844488463 -0.47463440362945558 0 0.057068655694905858 -0.46015288389510001 0 0.052635520687858477 -0.47072247146996382 0 0.05849497948899289 -0.47642287528831911 0 0.035615270762982369 -0.48075404927866472 0 0.049693011087844949 -0.4756354888466594 0 0.05849497948899289 -0.47642287528831911 0 0.035615270762982369 -0.48075404927866472 0 0.05849497948899289 -0.47642287528831911 0 0.048043393468649283 -0.46676160836513853 0 0.046296380844488463 -0.47463440362945558 0 0.052635520687858477 -0.47072247146996382 0 0.049693011087844949 -0.4756354888466594 0 0.052635520687858477 -0.47072247146996382 0 0.05849497948899289 -0.47642287528831911 0 0.046296380844488463 -0.47463440362945558 0 0.049693011087844949 -0.4756354888466594 0 0.052635520687858477 -0.47072247146996382 0 0.05849497948899289 -0.47642287528831911 0 0.061758178687080389 -0.47580514524370598 0 0.062670741706174135 -0.48944359682069549 0 0.064881374578912687 -0.4815757870058418 0 0.05849497948899289 -0.47642287528831911 0 0.064881374578912687 -0.4815757870058418 0 0.05849497948899289 -0.47642287528831911 0 0.061758178687080389 -0.47580514524370598 0 0.069142552082564368 -0.5 0 0.062670741706174135 -0.48944359682069549 0 0.047534790768153173 -0.50000000000000044 0 0.05849497948899289 -0.47642287528831911 0 0.047534790768153173 -0.50000000000000044 0 0.035615270762982369 -0.48075404927866472 0 0.05849497948899289 -0.47642287528831911 0 0.047534790768153173 -0.50000000000000044 0 0.062670741706174135 -0.48944359682069549 0 0.05849497948899289 -0.47642287528831911 0 0.047534790768153173 -0.50000000000000044 0 0.089727975817252392 -0.29646224842349211 0 0.069967983226982527 -0.30495776272600778 0 0.075483032258224086 -0.28815868119130272 0 0.089727975817252392 -0.29646224842349211 0 0.088503230311337153 -0.27716835087377989 0 0.101883582619993 -0.28460947857741209 0 0.089727975817252392 -0.29646224842349211 0 0.075483032258224086 -0.28815868119130272 0 0.088503230311337153 -0.27716835087377989 0 0.089727975817252392 -0.29646224842349211 0 0.086214248119208581 -0.31193359067875348 0 0.069967983226982527 -0.30495776272600778 0 0.089727975817252392 -0.29646224842349211 0 0.086214248119208581 -0.31193359067875348 0 0.10049372866807189 -0.31082656242210721 0 0.069967983226982527 -0.30495776272600778 0 0.075483032258224086 -0.28815868119130272 0 0.059449054433483903 -0.28956707473318272 0 0.075483032258224086 -0.28815868119130272 0 0.0646939085167762 -0.2722383315448984 0 0.059449054433483903 -0.28956707473318272 0 0.0646939085167762 -0.2722383315448984 0 0.077350866508299074 -0.27549126298099152 0 0.080723294946858856 -0.26439968831398508 0 0.075483032258224086 -0.28815868119130272 0 0.0646939085167762 -0.2722383315448984 0 0.077350866508299074 -0.27549126298099152 0 0.0646939085167762 -0.2722383315448984 0 0.070005134957367529 -0.25889031236374099 0 0.080723294946858856 -0.26439968831398508 0 0.070005134957367529 -0.25889031236374099 0 0.061490933840310687 -0.25382890142296882 0 0.070069103552599196 -0.24823964670048029 0 0.0646939085167762 -0.2722383315448984 0 0.070005134957367529 -0.25889031236374099 0 0.060614126731859473 -0.2624009925450973 0 0.070005134957367529 -0.25889031236374099 0 0.061490933840310687 -0.25382890142296882 0 0.060614126731859473 -0.2624009925450973 0 0.070005134957367529 -0.25889031236374099 0 0.080071368274292315 -0.25145738896057979 0 0.080723294946858856 -0.26439968831398508 0 0.070005134957367529 -0.25889031236374099 0 0.080071368274292315 -0.25145738896057979 0 0.070069103552599196 -0.24823964670048029 0 0.080071368274292315 -0.25145738896057979 0 0.080723294946858856 -0.26439968831398508 0 0.090706365013478091 -0.25245448435890872 0 0.080723294946858856 -0.26439968831398508 0 0.090706365013478091 -0.25245448435890872 0 0.095060577752172304 -0.26241188567384149 0 0.075483032258224086 -0.28815868119130272 0 0.077350866508299074 -0.27549126298099152 0 0.088503230311337153 -0.27716835087377989 0 0.077350866508299074 -0.27549126298099152 0 0.080723294946858856 -0.26439968831398508 0 0.088503230311337153 -0.27716835087377989 0 0.080723294946858856 -0.26439968831398508 0 0.088503230311337153 -0.27716835087377989 0 0.095060577752172304 -0.26241188567384149 0 0.088503230311337153 -0.27716835087377989 0 0.1016952336099234 -0.27235330725820578 0 0.101883582619993 -0.28460947857741209 0 0.088503230311337153 -0.27716835087377989 0 0.1016952336099234 -0.27235330725820578 0 0.095060577752172304 -0.26241188567384149 0 0.1016952336099234 -0.27235330725820578 0 0.1104739380917857 -0.2612093749811526 0 0.1125548392743288 -0.27636744618484282 0 0.1016952336099234 -0.27235330725820578 0 0.1125548392743288 -0.27636744618484282 0 0.101883582619993 -0.28460947857741209 0 0.090706365013478091 -0.25245448435890872 0 0.099550463170151926 -0.25262580003909579 0 0.095060577752172304 -0.26241188567384149 0 0.1016952336099234 -0.27235330725820578 0 0.095060577752172304 -0.26241188567384149 0 0.1104739380917857 -0.2612093749811526 0 0.099550463170151926 -0.25262580003909579 0 0.095060577752172304 -0.26241188567384149 0 0.1104739380917857 -0.2612093749811526 0 0.099550463170151926 -0.25262580003909579 0 0.1104739380917857 -0.2612093749811526 0 0.1078238037173969 -0.24832262031645649 0 0.1311170075682456 -0.27142576198599933 0 0.1104739380917857 -0.2612093749811526 0 0.1212054647883809 -0.25073068226796852 0 0.1104739380917857 -0.2612093749811526 0 0.1212054647883809 -0.25073068226796852 0 0.1078238037173969 -0.24832262031645649 0 0.1311170075682456 -0.27142576198599933 0 0.1104739380917857 -0.2612093749811526 0 0.1311170075682456 -0.27142576198599933 0 0.1104739380917857 -0.2612093749811526 0 0.1193620271946058 -0.27249351692823448 0 0.1104739380917857 -0.2612093749811526 0 0.1125548392743288 -0.27636744618484282 0 0.1193620271946058 -0.27249351692823448 0 0.1125548392743288 -0.27636744618484282 0 0.1193620271946058 -0.27249351692823448 0 0.1233023238440631 -0.28097148456094378 0 0.1311170075682456 -0.27142576198599933 0 0.1193620271946058 -0.27249351692823448 0 0.1233023238440631 -0.28097148456094378 0 0.1233023238440631 -0.28097148456094378 0 0.1242383748246253 -0.29131174999725179 0 0.1141297936923768 -0.28878453930630188 0 0.1242383748246253 -0.29131174999725179 0 0.1141297936923768 -0.28878453930630188 0 0.1198701537204314 -0.30089140532399938 0 0.1141297936923768 -0.28878453930630188 0 0.10622170970645189 -0.29895353846799488 0 0.1198701537204314 -0.30089140532399938 0 0.1125548392743288 -0.27636744618484282 0 0.1233023238440631 -0.28097148456094378 0 0.1141297936923768 -0.28878453930630188 0 0.1125548392743288 -0.27636744618484282 0 0.1141297936923768 -0.28878453930630188 0 0.101883582619993 -0.28460947857741209 0 0.089727975817252392 -0.29646224842349211 0 0.101883582619993 -0.28460947857741209 0 0.10622170970645189 -0.29895353846799488 0 0.1141297936923768 -0.28878453930630188 0 0.101883582619993 -0.28460947857741209 0 0.10622170970645189 -0.29895353846799488 0 0.089727975817252392 -0.29646224842349211 0 0.10049372866807189 -0.31082656242210721 0 0.10622170970645189 -0.29895353846799488 0 0.10049372866807189 -0.31082656242210721 0 0.10622170970645189 -0.29895353846799488 0 0.1134387524627216 -0.31086840579325631 0 0.10622170970645189 -0.29895353846799488 0 0.1134387524627216 -0.31086840579325631 0 0.1198701537204314 -0.30089140532399938 0 0.1265219532001009 -0.3124330460259736 0 0.1134387524627216 -0.31086840579325631 0 0.1198701537204314 -0.30089140532399938 0 0.1265219532001009 -0.3124330460259736 0 0.1134387524627216 -0.31086840579325631 0 0.1192961391526948 -0.32261879728377291 0 0.1134387524627216 -0.31086840579325631 0 0.1192961391526948 -0.32261879728377291 0 0.1082288303285789 -0.31948708523568958 0 0.1192961391526948 -0.32261879728377291 0 0.1093748658769356 -0.32997486192450581 0 0.1082288303285789 -0.31948708523568958 0 0.1192961391526948 -0.32261879728377291 0 0.1168506625355451 -0.3296807312869221 0 0.1093748658769356 -0.32997486192450581 0 0.1192961391526948 -0.32261879728377291 0 0.12260601330919629 -0.33072698382653798 0 0.1168506625355451 -0.3296807312869221 0 0.13219802669416811 -0.32498852212276208 0 0.1192961391526948 -0.32261879728377291 0 0.12260601330919629 -0.33072698382653798 0 0.13051916655351839 -0.33696304048325831 0 0.12260601330919629 -0.33072698382653798 0 0.1159240811174677 -0.33775964177068091 0 0.12260601330919629 -0.33072698382653798 0 0.1159240811174677 -0.33775964177068091 0 0.1161256318033537 -0.33540228211287182 0 0.12260601330919629 -0.33072698382653798 0 0.1168506625355451 -0.3296807312869221 0 0.1161256318033537 -0.33540228211287182 0 0.13051916655351839 -0.33696304048325831 0 0.1159240811174677 -0.33775964177068091 0 0.13051916655351839 -0.33696304048325831 0 0.1159240811174677 -0.33775964177068091 0 0.123981461538115 -0.35128285539313481 0 0.1159240811174677 -0.33775964177068091 0 0.1161256318033537 -0.33540228211287182 0 0.1168506625355451 -0.3296807312869221 0 0.1161256318033537 -0.33540228211287182 0 0.1093748658769356 -0.32997486192450581 0 0.1159240811174677 -0.33775964177068091 0 0.1161256318033537 -0.33540228211287182 0 0.1093748658769356 -0.32997486192450581 0 0.1159240811174677 -0.33775964177068091 0 0.092335912071574502 -0.33904708650077298 0 0.1159240811174677 -0.33775964177068091 0 0.1093748658769356 -0.32997486192450581 0 0.092335912071574502 -0.33904708650077298 0 0.1093748658769356 -0.32997486192450581 0 0.096347407600029022 -0.32440529872184809 0 0.092335912071574502 -0.33904708650077298 0 0.1159240811174677 -0.33775964177068091 0 0.10211321446004019 -0.35101158716873732 0 0.092335912071574502 -0.33904708650077298 0 0.086214248119208581 -0.31193359067875348 0 0.10049372866807189 -0.31082656242210721 0 0.096347407600029022 -0.32440529872184809 0 0.10049372866807189 -0.31082656242210721 0 0.1134387524627216 -0.31086840579325631 0 0.1082288303285789 -0.31948708523568958 0 0.10049372866807189 -0.31082656242210721 0 0.096347407600029022 -0.32440529872184809 0 0.1082288303285789 -0.31948708523568958 0 0.1093748658769356 -0.32997486192450581 0 0.096347407600029022 -0.32440529872184809 0 0.1082288303285789 -0.31948708523568958 0 0.12784456261830821 -0.36308533366748658 0 0.12609635470998201 -0.38402791619100712 0 0.113745377556003 -0.36324200547299851 0 0.1159240811174677 -0.33775964177068091 0 0.113745377556003 -0.36324200547299851 0 0.123981461538115 -0.35128285539313481 0 0.1159240811174677 -0.33775964177068091 0 0.113745377556003 -0.36324200547299851 0 0.1159240811174677 -0.33775964177068091 0 0.113745377556003 -0.36324200547299851 0 0.10211321446004019 -0.35101158716873732 0 0.12784456261830821 -0.36308533366748658 0 0.113745377556003 -0.36324200547299851 0 0.123981461538115 -0.35128285539313481 0 0.1115666739945345 -0.38872436917531578 0 0.113745377556003 -0.36324200547299851 0 0.096372132326470572 -0.36542491223168638 0 0.113745377556003 -0.36324200547299851 0 0.10211321446004019 -0.35101158716873732 0 0.096372132326470572 -0.36542491223168638 0 0.089853218628298884 -0.38394717958202601 0 0.096372132326470572 -0.36542491223168638 0 0.07582030708563034 -0.37256671738353597 0 0.096372132326470572 -0.36542491223168638 0 0.082110249222110576 -0.35466523699539548 0 0.07582030708563034 -0.37256671738353597 0 0.10211321446004019 -0.35101158716873732 0 0.096372132326470572 -0.36542491223168638 0 0.082110249222110576 -0.35466523699539548 0 0.082110249222110576 -0.35466523699539548 0 0.092335912071574502 -0.33904708650077298 0 0.068747743025681235 -0.34033453123086538 0 0.10211321446004019 -0.35101158716873732 0 0.082110249222110576 -0.35466523699539548 0 0.092335912071574502 -0.33904708650077298 0 0.082110249222110576 -0.35466523699539548 0 0.068747743025681235 -0.34033453123086538 0 0.057272186363266697 -0.35960658745677498 0 0.082110249222110576 -0.35466523699539548 0 0.07582030708563034 -0.37256671738353597 0 0.057272186363266697 -0.35960658745677498 0 0.05933500968155693 -0.37671477575793533 0 0.07582030708563034 -0.37256671738353597 0 0.057272186363266697 -0.35960658745677498 0 0.086214248119208581 -0.31193359067875348 0 0.096347407600029022 -0.32440529872184809 0 0.078030795921920637 -0.32434601069550512 0 0.092335912071574502 -0.33904708650077298 0 0.068747743025681235 -0.34033453123086538 0 0.078030795921920637 -0.32434601069550512 0 0.092335912071574502 -0.33904708650077298 0 0.068747743025681235 -0.34033453123086538 0 0.096347407600029022 -0.32440529872184809 0 0.092335912071574502 -0.33904708650077298 0 0.078030795921920637 -0.32434601069550512 0 0.068747743025681235 -0.34033453123086538 0 0.078030795921920637 -0.32434601069550512 0 0.053863538987460123 -0.3232816795844588 0 0.069967983226982527 -0.30495776272600778 0 0.078030795921920637 -0.32434601069550512 0 0.053863538987460123 -0.3232816795844588 0 0.086214248119208581 -0.31193359067875348 0 0.069967983226982527 -0.30495776272600778 0 0.078030795921920637 -0.32434601069550512 0 0.068747743025681235 -0.34033453123086538 0 0.045159573979787898 -0.34162197596095778 0 0.068747743025681235 -0.34033453123086538 0 0.053863538987460123 -0.3232816795844588 0 0.045159573979787898 -0.34162197596095778 0 0.053863538987460123 -0.3232816795844588 0 0.034832013842728909 -0.33032259781876938 0 0.045159573979787898 -0.34162197596095778 0 0.034832013842728909 -0.33032259781876938 0 0.045159573979787898 -0.34162197596095778 0 0.02157140493389462 -0.34290942069105018 0 0.045159573979787898 -0.34162197596095778 0 0.02157140493389462 -0.34290942069105018 0 0.053863538987460123 -0.3232816795844588 0 0.034832013842728909 -0.33032259781876938 0 0.03621734991660093 -0.31670946998547028 0 0.053863538987460123 -0.3232816795844588 0 0.03621734991660093 -0.31670946998547028 0 0.048768037075517537 -0.30442990221103089 0 0.05933500968155693 -0.37671477575793533 0 0.057272186363266697 -0.35960658745677498 0 0.039079294002052851 -0.37065651216905859 0 0.068747743025681235 -0.34033453123086538 0 0.045159573979787898 -0.34162197596095778 0 0.057272186363266697 -0.35960658745677498 0 0.045159573979787898 -0.34162197596095778 0 0.034512899630155462 -0.3545258348651717 0 0.02157140493389462 -0.34290942069105018 0 0.045159573979787898 -0.34162197596095778 0 0.057272186363266697 -0.35960658745677498 0 0.034512899630155462 -0.3545258348651717 0 0.057272186363266697 -0.35960658745677498 0 0.034512899630155462 -0.3545258348651717 0 0.039079294002052851 -0.37065651216905859 0 0.025542853711361019 -0.38384675294920401 0 0.039079294002052851 -0.37065651216905859 0 0.016784443680880379 -0.36713146693108112 0 0.034512899630155462 -0.3545258348651717 0 0.039079294002052851 -0.37065651216905859 0 0.016784443680880379 -0.36713146693108112 0 0.034512899630155462 -0.3545258348651717 0 0.016784443680880379 -0.36713146693108112 0 0.02157140493389462 -0.34290942069105018 0 -0.0043130761299947744 -0.35643483176966217 0 0.016784443680880379 -0.36713146693108112 0 0.02157140493389462 -0.34290942069105018 0 -0.0038616663111063101 -0.33241552487502413 0 -0.0043130761299947744 -0.35643483176966217 0 0.02157140493389462 -0.34290942069105018 0 -0.0043130761299947744 -0.35643483176966217 0 -0.0064694903547723136 -0.38059021958606692 0 0.016784443680880379 -0.36713146693108112 0 0.03621734991660093 -0.31670946998547028 0 0.020048637459846991 -0.32439583124448262 0 0.029165048793799431 -0.30349547286963757 0 0.034832013842728909 -0.33032259781876938 0 0.03621734991660093 -0.31670946998547028 0 0.020048637459846991 -0.32439583124448262 0 0.020048637459846991 -0.32439583124448262 0 0.0094652366165251054 -0.31053241408104548 0 0.029165048793799431 -0.30349547286963757 0 0.034832013842728909 -0.33032259781876938 0 0.020048637459846991 -0.32439583124448262 0 0.02157140493389462 -0.34290942069105018 0 -0.0038616663111063101 -0.33241552487502413 0 0.020048637459846991 -0.32439583124448262 0 0.02157140493389462 -0.34290942069105018 0 -0.0038616663111063101 -0.33241552487502413 0 0.020048637459846991 -0.32439583124448262 0 0.0094652366165251054 -0.31053241408104548 0 -0.01007927323019326 -0.3103345258507364 0 0.0094652366165251054 -0.31053241408104548 0 0.0017563221397047381 -0.2997067901486577 0 0.0094652366165251054 -0.31053241408104548 0 0.0017563221397047381 -0.2997067901486577 0 0.017453688627786131 -0.29322190620108468 0 0.0017563221397047381 -0.2997067901486577 0 0.0066437179820165657 -0.2861171845936395 0 0.017453688627786131 -0.29322190620108468 0 -0.0080748459131490501 -0.2914060437848453 0 0.0017563221397047381 -0.2997067901486577 0 0.0066437179820165657 -0.2861171845936395 0 0.0066437179820165657 -0.2861171845936395 0 0.017453688627786131 -0.29322190620108468 0 0.01908241754038794 -0.28073467218482329 0 0.017453688627786131 -0.29322190620108468 0 0.029398966714908509 -0.28692964748338379 0 0.029165048793799431 -0.30349547286963757 0 0.017453688627786131 -0.29322190620108468 0 0.029398966714908509 -0.28692964748338379 0 0.01908241754038794 -0.28073467218482329 0 0.0094652366165251054 -0.31053241408104548 0 0.017453688627786131 -0.29322190620108468 0 0.029165048793799431 -0.30349547286963757 0 0.03621734991660093 -0.31670946998547028 0 0.029165048793799431 -0.30349547286963757 0 0.048768037075517537 -0.30442990221103089 0 0.029165048793799431 -0.30349547286963757 0 0.043029943860180789 -0.28970337243015992 0 0.048768037075517537 -0.30442990221103089 0 0.029398966714908509 -0.28692964748338379 0 0.029165048793799431 -0.30349547286963757 0 0.043029943860180789 -0.28970337243015992 0 0.029398966714908509 -0.28692964748338379 0 0.043029943860180789 -0.28970337243015992 0 0.038396769586432553 -0.27977596087564799 0 0.043029943860180789 -0.28970337243015992 0 0.051749435803858171 -0.27840569125857739 0 0.038396769586432553 -0.27977596087564799 0 0.043029943860180789 -0.28970337243015992 0 0.059449054433483903 -0.28956707473318272 0 0.051749435803858171 -0.27840569125857739 0 0.043029943860180789 -0.28970337243015992 0 0.059449054433483903 -0.28956707473318272 0 0.048768037075517537 -0.30442990221103089 0 0.069967983226982527 -0.30495776272600778 0 0.059449054433483903 -0.28956707473318272 0 0.048768037075517537 -0.30442990221103089 0 0.069967983226982527 -0.30495776272600778 0 0.053863538987460123 -0.3232816795844588 0 0.048768037075517537 -0.30442990221103089 0 0.053380735395516472 -0.25867595766617779 0 0.04428054005230446 -0.26275141268032309 0 0.045372505498807933 -0.25408090721008542 0 0.053380735395516472 -0.25867595766617779 0 0.053158010572478251 -0.26777612517812432 0 0.04428054005230446 -0.26275141268032309 0 0.053380735395516472 -0.25867595766617779 0 0.045372505498807933 -0.25408090721008542 0 0.05268811686830014 -0.24901610311096159 0 0.053380735395516472 -0.25867595766617779 0 0.061490933840310687 -0.25382890142296882 0 0.05268811686830014 -0.24901610311096159 0 0.053380735395516472 -0.25867595766617779 0 0.060614126731859473 -0.2624009925450973 0 0.053158010572478251 -0.26777612517812432 0 0.053380735395516472 -0.25867595766617779 0 0.061490933840310687 -0.25382890142296882 0 0.060614126731859473 -0.2624009925450973 0 0.0646939085167762 -0.2722383315448984 0 0.060614126731859473 -0.2624009925450973 0 0.053158010572478251 -0.26777612517812432 0 0.0646939085167762 -0.2722383315448984 0 0.059449054433483903 -0.28956707473318272 0 0.051749435803858171 -0.27840569125857739 0 0.0646939085167762 -0.2722383315448984 0 0.051749435803858171 -0.27840569125857739 0 0.053158010572478251 -0.26777612517812432 0 0.053158010572478251 -0.26777612517812432 0 0.044229316934554799 -0.27218436537367241 0 0.04428054005230446 -0.26275141268032309 0 0.051749435803858171 -0.27840569125857739 0 0.053158010572478251 -0.26777612517812432 0 0.044229316934554799 -0.27218436537367241 0 0.044229316934554799 -0.27218436537367241 0 0.031885251388666561 -0.26470215361104171 0 0.04428054005230446 -0.26275141268032309 0 0.051749435803858171 -0.27840569125857739 0 0.044229316934554799 -0.27218436537367241 0 0.038396769586432553 -0.27977596087564799 0 0.044229316934554799 -0.27218436537367241 0 0.038396769586432553 -0.27977596087564799 0 0.029696712261103771 -0.27487286106778819 0 0.029398966714908509 -0.28692964748338379 0 0.038396769586432553 -0.27977596087564799 0 0.029696712261103771 -0.27487286106778819 0 0.044229316934554799 -0.27218436537367241 0 0.031885251388666561 -0.26470215361104171 0 0.029696712261103771 -0.27487286106778819 0 0.037315510146954597 -0.25849363249326118 0 0.031885251388666561 -0.26470215361104171 0 0.04428054005230446 -0.26275141268032309 0 0.037315510146954597 -0.25849363249326118 0 0.031885251388666561 -0.26470215361104171 0 0.03069464768829987 -0.25176037071845259 0 0.037315510146954597 -0.25849363249326118 0 0.04428054005230446 -0.26275141268032309 0 0.045372505498807933 -0.25408090721008542 0 0.045372505498807933 -0.25408090721008542 0 0.03069464768829987 -0.25176037071845259 0 0.042588116356466379 -0.2448823624008481 0 0.037315510146954597 -0.25849363249326118 0 0.045372505498807933 -0.25408090721008542 0 0.03069464768829987 -0.25176037071845259 0 0.031885251388666561 -0.26470215361104171 0 0.021199614426200629 -0.26114166245967918 0 0.019908913466960752 -0.27058631964059482 0 0.031885251388666561 -0.26470215361104171 0 0.03069464768829987 -0.25176037071845259 0 0.021199614426200629 -0.26114166245967918 0 0.03069464768829987 -0.25176037071845259 0 0.021199614426200629 -0.26114166245967918 0 0.016145176335298529 -0.25210595968411048 0 0.029398966714908509 -0.28692964748338379 0 0.029696712261103771 -0.27487286106778819 0 0.01908241754038794 -0.28073467218482329 0 0.031885251388666561 -0.26470215361104171 0 0.029696712261103771 -0.27487286106778819 0 0.019908913466960752 -0.27058631964059482 0 0.019908913466960752 -0.27058631964059482 0 0.01908241754038794 -0.28073467218482329 0 0.01128192931255503 -0.27464126756021451 0 0.029696712261103771 -0.27487286106778819 0 0.019908913466960752 -0.27058631964059482 0 0.01908241754038794 -0.28073467218482329 0 -0.01145854626600548 -0.26602311564559261 0 0.01128192931255503 -0.27464126756021451 0 0.0057158633005241696 -0.26337829885565528 0 0.0066437179820165657 -0.2861171845936395 0 0.01908241754038794 -0.28073467218482329 0 0.01128192931255503 -0.27464126756021451 0 0.019908913466960752 -0.27058631964059482 0 0.01128192931255503 -0.27464126756021451 0 0.0057158633005241696 -0.26337829885565528 0 -0.002848760243290064 -0.27761611820401882 0 0.0066437179820165657 -0.2861171845936395 0 0.01128192931255503 -0.27464126756021451 0 0.016145176335298529 -0.25210595968411048 0 0.0057158633005241696 -0.26337829885565528 0 0.0054759062840018038 -0.25064707341720888 0 0.021199614426200629 -0.26114166245967918 0 0.019908913466960752 -0.27058631964059482 0 0.0057158633005241696 -0.26337829885565528 0 0.021199614426200629 -0.26114166245967918 0 0.016145176335298529 -0.25210595968411048 0 0.0057158633005241696 -0.26337829885565528 0 -0.0009620894167222515 -0.25496392916579452 0 0.0057158633005241696 -0.26337829885565528 0 0.0054759062840018038 -0.25064707341720888 0 -0.0009620894167222515 -0.25496392916579452 0 -0.0029313858115674811 -0.24854412401401971 0 0.0054759062840018038 -0.25064707341720888 0 0.0054759062840018038 -0.25064707341720888 0 0.0026199421412959989 -0.2430643023623929 0 0.011589873569895199 -0.24127835128668559 0 -0.0029313858115674811 -0.24854412401401971 0 0.0054759062840018038 -0.25064707341720888 0 0.0026199421412959989 -0.2430643023623929 0 0.016145176335298529 -0.25210595968411048 0 0.0054759062840018038 -0.25064707341720888 0 0.011589873569895199 -0.24127835128668559 0 0.011589873569895199 -0.24127835128668559 0 0.010668172172219499 -0.2272828987723072 0 0.020574075722817331 -0.2351284197632682 0 0.0026199421412959989 -0.2430643023623929 0 0.011589873569895199 -0.24127835128668559 0 0.0017465435191736189 -0.23378549097037141 0 -0.00080535468136348092 -0.21995366459000901 0 0.010668172172219499 -0.2272828987723072 0 0.01016515501406726 -0.20926501301563591 0 -0.00080535468136348092 -0.21995366459000901 0 0.0017465435191736189 -0.23378549097037141 0 0.010668172172219499 -0.2272828987723072 0 0.010668172172219499 -0.2272828987723072 0 0.02170661161633574 -0.22145314359659171 0 0.01016515501406726 -0.20926501301563591 0 0.011589873569895199 -0.24127835128668559 0 0.0017465435191736189 -0.23378549097037141 0 0.010668172172219499 -0.2272828987723072 0 0.010668172172219499 -0.2272828987723072 0 0.02170661161633574 -0.22145314359659171 0 0.020574075722817331 -0.2351284197632682 0 0.02170661161633574 -0.22145314359659171 0 0.02866695829179056 -0.22960637228307629 0 0.036392787169896093 -0.22322562645731159 0 0.02170661161633574 -0.22145314359659171 0 0.02866695829179056 -0.22960637228307629 0 0.020574075722817331 -0.2351284197632682 0 0.02866695829179056 -0.22960637228307629 0 0.020574075722817331 -0.2351284197632682 0 0.032071787069821417 -0.24054619649286721 0 0.022195152742869501 -0.2444300013669817 0 0.020574075722817331 -0.2351284197632682 0 0.032071787069821417 -0.24054619649286721 0 0.03069464768829987 -0.25176037071845259 0 0.022195152742869501 -0.2444300013669817 0 0.032071787069821417 -0.24054619649286721 0 0.03069464768829987 -0.25176037071845259 0 0.016145176335298529 -0.25210595968411048 0 0.022195152742869501 -0.2444300013669817 0 0.016145176335298529 -0.25210595968411048 0 0.011589873569895199 -0.24127835128668559 0 0.022195152742869501 -0.2444300013669817 0 0.011589873569895199 -0.24127835128668559 0 0.022195152742869501 -0.2444300013669817 0 0.020574075722817331 -0.2351284197632682 0 -0.003739977245034012 -0.19168309442994089 0 0.010514116253606281 -0.1925853606064957 0 0.01016515501406726 -0.20926501301563591 0 0.010514116253606281 -0.1925853606064957 0 0.01016515501406726 -0.20926501301563591 0 0.018596641755985681 -0.20049862993462389 0 0.02170661161633574 -0.22145314359659171 0 0.01016515501406726 -0.20926501301563591 0 0.028304225500431591 -0.20785134554231141 0 0.01016515501406726 -0.20926501301563591 0 0.028304225500431591 -0.20785134554231141 0 0.018596641755985681 -0.20049862993462389 0 0.02170661161633574 -0.22145314359659171 0 0.028304225500431591 -0.20785134554231141 0 0.036392787169896093 -0.22322562645731159 0 0.028304225500431591 -0.20785134554231141 0 0.018596641755985681 -0.20049862993462389 0 0.02540307025583758 -0.19229280057405279 0 0.010514116253606281 -0.1925853606064957 0 0.018596641755985681 -0.20049862993462389 0 0.02540307025583758 -0.19229280057405279 0 0.010514116253606281 -0.1925853606064957 0 0.02540307025583758 -0.19229280057405279 0 0.015764016274472759 -0.1812646672695073 0 0.02540307025583758 -0.19229280057405279 0 0.041440672425083092 -0.19607701236864419 0 0.030421272951226121 -0.1778391783376792 0 0.028304225500431591 -0.20785134554231141 0 0.02540307025583758 -0.19229280057405279 0 0.041440672425083092 -0.19607701236864419 0 0.041440672425083092 -0.19607701236864419 0 0.042310424588804782 -0.2140630995529598 0 0.055497750511994078 -0.2086068857692274 0 0.028304225500431591 -0.20785134554231141 0 0.041440672425083092 -0.19607701236864419 0 0.042310424588804782 -0.2140630995529598 0 0.028304225500431591 -0.20785134554231141 0 0.042310424588804782 -0.2140630995529598 0 0.036392787169896093 -0.22322562645731159 0 0.042310424588804782 -0.2140630995529598 0 0.055497750511994078 -0.2086068857692274 0 0.052955454276687589 -0.2198291654371925 0 0.062338921595789062 -0.21792006704763969 0 0.055497750511994078 -0.2086068857692274 0 0.052955454276687589 -0.2198291654371925 0 0.062338921595789062 -0.21792006704763969 0 0.055497750511994078 -0.2086068857692274 0 0.067863046951983474 -0.20503048868511209 0 0.055497750511994078 -0.2086068857692274 0 0.056257937900538298 -0.19577788601322099 0 0.067863046951983474 -0.20503048868511209 0 0.041440672425083092 -0.19607701236864419 0 0.056257937900538298 -0.19577788601322099 0 0.051449240160577621 -0.1762857105508405 0 0.041440672425083092 -0.19607701236864419 0 0.055497750511994078 -0.2086068857692274 0 0.056257937900538298 -0.19577788601322099 0 0.040491861427302538 -0.2355872617630255 0 0.042588116356466379 -0.2448823624008481 0 0.052307832003780613 -0.23884346229351339 0 0.040491861427302538 -0.2355872617630255 0 0.045866106706223042 -0.22907627795895011 0 0.052307832003780613 -0.23884346229351339 0 0.03069464768829987 -0.25176037071845259 0 0.042588116356466379 -0.2448823624008481 0 0.032071787069821417 -0.24054619649286721 0 0.040491861427302538 -0.2355872617630255 0 0.042588116356466379 -0.2448823624008481 0 0.032071787069821417 -0.24054619649286721 0 0.02866695829179056 -0.22960637228307629 0 0.040491861427302538 -0.2355872617630255 0 0.032071787069821417 -0.24054619649286721 0 0.02866695829179056 -0.22960637228307629 0 0.040491861427302538 -0.2355872617630255 0 0.036392787169896093 -0.22322562645731159 0 0.042310424588804782 -0.2140630995529598 0 0.036392787169896093 -0.22322562645731159 0 0.045866106706223042 -0.22907627795895011 0 0.040491861427302538 -0.2355872617630255 0 0.036392787169896093 -0.22322562645731159 0 0.045866106706223042 -0.22907627795895011 0 0.045866106706223042 -0.22907627795895011 0 0.058764067980626958 -0.22947949685718549 0 0.052307832003780613 -0.23884346229351339 0 0.045866106706223042 -0.22907627795895011 0 0.052955454276687589 -0.2198291654371925 0 0.058764067980626958 -0.22947949685718549 0 0.042310424588804782 -0.2140630995529598 0 0.045866106706223042 -0.22907627795895011 0 0.052955454276687589 -0.2198291654371925 0 0.062338921595789062 -0.21792006704763969 0 0.058764067980626958 -0.22947949685718549 0 0.065719467571416057 -0.22489822263154319 0 0.062338921595789062 -0.21792006704763969 0 0.052955454276687589 -0.2198291654371925 0 0.058764067980626958 -0.22947949685718549 0 0.058764067980626958 -0.22947949685718549 0 0.062159259289524899 -0.2368834247622158 0 0.052307832003780613 -0.23884346229351339 0 0.062159259289524899 -0.2368834247622158 0 0.052307832003780613 -0.23884346229351339 0 0.061229972926465738 -0.2445427902389527 0 0.045372505498807933 -0.25408090721008542 0 0.042588116356466379 -0.2448823624008481 0 0.05268811686830014 -0.24901610311096159 0 0.042588116356466379 -0.2448823624008481 0 0.052307832003780613 -0.23884346229351339 0 0.05268811686830014 -0.24901610311096159 0 0.061490933840310687 -0.25382890142296882 0 0.05268811686830014 -0.24901610311096159 0 0.061229972926465738 -0.2445427902389527 0 0.052307832003780613 -0.23884346229351339 0 0.05268811686830014 -0.24901610311096159 0 0.061229972926465738 -0.2445427902389527 0 0.061490933840310687 -0.25382890142296882 0 0.061229972926465738 -0.2445427902389527 0 0.070069103552599196 -0.24823964670048029 0 0.061229972926465738 -0.2445427902389527 0 0.070069103552599196 -0.24823964670048029 0 0.069856411684105391 -0.23913895996007839 0 0.062159259289524899 -0.2368834247622158 0 0.061229972926465738 -0.2445427902389527 0 0.069856411684105391 -0.23913895996007839 0 0.062159259289524899 -0.2368834247622158 0 0.069856411684105391 -0.23913895996007839 0 0.067142239376285745 -0.23139328163069281 0 0.069856411684105391 -0.23913895996007839 0 0.077788170153509889 -0.24196191377257101 0 0.076767606518392539 -0.23187249677345001 0 0.080071368274292315 -0.25145738896057979 0 0.070069103552599196 -0.24823964670048029 0 0.077788170153509889 -0.24196191377257101 0 0.070069103552599196 -0.24823964670048029 0 0.069856411684105391 -0.23913895996007839 0 0.077788170153509889 -0.24196191377257101 0 0.080071368274292315 -0.25145738896057979 0 0.090706365013478091 -0.25245448435890872 0 0.085906732882507178 -0.24385162082211831 0 0.080071368274292315 -0.25145738896057979 0 0.077788170153509889 -0.24196191377257101 0 0.085906732882507178 -0.24385162082211831 0 0.077788170153509889 -0.24196191377257101 0 0.085906732882507178 -0.24385162082211831 0 0.083256636250354649 -0.23616880796388259 0 0.077788170153509889 -0.24196191377257101 0 0.083256636250354649 -0.23616880796388259 0 0.076767606518392539 -0.23187249677345001 0 0.085906732882507178 -0.24385162082211831 0 0.089657973372422345 -0.23730775202069579 0 0.094006026236525903 -0.2441335510050745 0 0.085906732882507178 -0.24385162082211831 0 0.083256636250354649 -0.23616880796388259 0 0.089657973372422345 -0.23730775202069579 0 0.083256636250354649 -0.23616880796388259 0 0.089657973372422345 -0.23730775202069579 0 0.089763789457938253 -0.2306791647953326 0 0.089657973372422345 -0.23730775202069579 0 0.089763789457938253 -0.2306791647953326 0 0.096012267649498176 -0.23702186761809721 0 0.089657973372422345 -0.23730775202069579 0 0.094006026236525903 -0.2441335510050745 0 0.096012267649498176 -0.23702186761809721 0 0.090706365013478091 -0.25245448435890872 0 0.085906732882507178 -0.24385162082211831 0 0.094006026236525903 -0.2441335510050745 0 0.086446736705125371 -0.22420087797706609 0 0.091303359373345411 -0.22339335178318359 0 0.089763789457938253 -0.2306791647953326 0 0.086446736705125371 -0.22420087797706609 0 0.091303359373345411 -0.22339335178318359 0 0.086853981468707001 -0.2185547472363609 0 0.091303359373345411 -0.22339335178318359 0 0.086853981468707001 -0.2185547472363609 0 0.09077468002378962 -0.21857675351640271 0 0.091303359373345411 -0.22339335178318359 0 0.09077468002378962 -0.21857675351640271 0 0.094530837428433365 -0.22086489816084981 0 0.091303359373345411 -0.22339335178318359 0 0.089763789457938253 -0.2306791647953326 0 0.098670227838192195 -0.22970514568366851 0 0.086446736705125371 -0.22420087797706609 0 0.089763789457938253 -0.2306791647953326 0 0.083020570332336119 -0.22791650227557511 0 0.083256636250354649 -0.23616880796388259 0 0.083020570332336119 -0.22791650227557511 0 0.076767606518392539 -0.23187249677345001 0 0.083256636250354649 -0.23616880796388259 0 0.089763789457938253 -0.2306791647953326 0 0.083020570332336119 -0.22791650227557511 0 0.083020570332336119 -0.22791650227557511 0 0.077930889523722374 -0.22519622511208121 0 0.076767606518392539 -0.23187249677345001 0 0.083020570332336119 -0.22791650227557511 0 0.081291982893300085 -0.22046062379487821 0 0.077930889523722374 -0.22519622511208121 0 0.086446736705125371 -0.22420087797706609 0 0.083020570332336119 -0.22791650227557511 0 0.081291982893300085 -0.22046062379487821 0 0.086446736705125371 -0.22420087797706609 0 0.081291982893300085 -0.22046062379487821 0 0.086853981468707001 -0.2185547472363609 0 0.081291982893300085 -0.22046062379487821 0 0.077930889523722374 -0.22519622511208121 0 0.073706539318973169 -0.21796036257100029 0 0.072234091795087663 -0.22574485878751241 0 0.065719467571416057 -0.22489822263154319 0 0.073706539318973169 -0.21796036257100029 0 0.077930889523722374 -0.22519622511208121 0 0.072234091795087663 -0.22574485878751241 0 0.073706539318973169 -0.21796036257100029 0 0.069856411684105391 -0.23913895996007839 0 0.076767606518392539 -0.23187249677345001 0 0.067142239376285745 -0.23139328163069281 0 0.072234091795087663 -0.22574485878751241 0 0.076767606518392539 -0.23187249677345001 0 0.067142239376285745 -0.23139328163069281 0 0.077930889523722374 -0.22519622511208121 0 0.072234091795087663 -0.22574485878751241 0 0.076767606518392539 -0.23187249677345001 0 0.058764067980626958 -0.22947949685718549 0 0.062159259289524899 -0.2368834247622158 0 0.067142239376285745 -0.23139328163069281 0 0.058764067980626958 -0.22947949685718549 0 0.067142239376285745 -0.23139328163069281 0 0.065719467571416057 -0.22489822263154319 0 0.072234091795087663 -0.22574485878751241 0 0.067142239376285745 -0.23139328163069281 0 0.065719467571416057 -0.22489822263154319 0 0.062338921595789062 -0.21792006704763969 0 0.065719467571416057 -0.22489822263154319 0 0.073706539318973169 -0.21796036257100029 0 0.062338921595789062 -0.21792006704763969 0 0.067863046951983474 -0.20503048868511209 0 0.073706539318973169 -0.21796036257100029 0 0.067863046951983474 -0.20503048868511209 0 0.073706539318973169 -0.21796036257100029 0 0.079094442607528917 -0.20913243433380641 0 0.067863046951983474 -0.20503048868511209 0 0.081482512553192915 -0.1953056794767786 0 0.079094442607528917 -0.20913243433380641 0 0.056257937900538298 -0.19577788601322099 0 0.067863046951983474 -0.20503048868511209 0 0.066040058368007956 -0.18964665730407451 0 0.067863046951983474 -0.20503048868511209 0 0.066040058368007956 -0.18964665730407451 0 0.081482512553192915 -0.1953056794767786 0 0.081482512553192915 -0.1953056794767786 0 0.095454742848087734 -0.19451486061966669 0 0.093505174579280592 -0.1731787749771625 0 0.081482512553192915 -0.1953056794767786 0 0.08833530696517819 -0.21036332105093219 0 0.095454742848087734 -0.19451486061966669 0 0.08833530696517819 -0.21036332105093219 0 0.097404311116896569 -0.21585094626217091 0 0.095454742848087734 -0.19451486061966669 0 0.081291982893300085 -0.22046062379487821 0 0.073706539318973169 -0.21796036257100029 0 0.082946926161669862 -0.2149195339015407 0 0.082946926161669862 -0.2149195339015407 0 0.079094442607528917 -0.20913243433380641 0 0.08833530696517819 -0.21036332105093219 0 0.073706539318973169 -0.21796036257100029 0 0.082946926161669862 -0.2149195339015407 0 0.079094442607528917 -0.20913243433380641 0 0.081291982893300085 -0.22046062379487821 0 0.082946926161669862 -0.2149195339015407 0 0.086853981468707001 -0.2185547472363609 0 0.081482512553192915 -0.1953056794767786 0 0.079094442607528917 -0.20913243433380641 0 0.08833530696517819 -0.21036332105093219 0 0.082946926161669862 -0.2149195339015407 0 0.08833530696517819 -0.21036332105093219 0 0.086853981468707001 -0.2185547472363609 0 0.08833530696517819 -0.21036332105093219 0 0.086853981468707001 -0.2185547472363609 0 0.09077468002378962 -0.21857675351640271 0 0.08833530696517819 -0.21036332105093219 0 0.09077468002378962 -0.21857675351640271 0 0.092213447725184278 -0.21529843562297729 0 0.08833530696517819 -0.21036332105093219 0 0.092213447725184278 -0.21529843562297729 0 0.097404311116896569 -0.21585094626217091 0 0.09077468002378962 -0.21857675351640271 0 0.094501608789943028 -0.21679829355882299 0 0.094530837428433365 -0.22086489816084981 0 0.09077468002378962 -0.21857675351640271 0 0.092213447725184278 -0.21529843562297729 0 0.094501608789943028 -0.21679829355882299 0 0.094501608789943028 -0.21679829355882299 0 0.097404311116896569 -0.21585094626217091 0 0.094530837428433365 -0.22086489816084981 0 0.092213447725184278 -0.21529843562297729 0 0.094501608789943028 -0.21679829355882299 0 0.097404311116896569 -0.21585094626217091 0 0.097404311116896569 -0.21585094626217091 0 0.095454742848087734 -0.19451486061966669 0 0.097404311116896569 -0.21585094626217091 0 0.1059898830346106 -0.20430933332548051 0 0.095454742848087734 -0.19451486061966669 0 0.097404311116896569 -0.21585094626217091 0 0.1089347031997706 -0.21297733173581901 0 0.1146171121197104 -0.21980430615730401 0 0.097404311116896569 -0.21585094626217091 0 0.1059898830346106 -0.20430933332548051 0 0.1089347031997706 -0.21297733173581901 0 0.095454742848087734 -0.19451486061966669 0 0.1128143282819509 -0.19216489626002589 0 0.10772522460311169 -0.17968171223372481 0 0.1059898830346106 -0.20430933332548051 0 0.095454742848087734 -0.19451486061966669 0 0.1128143282819509 -0.19216489626002589 0 0.1128143282819509 -0.19216489626002589 0 0.1237689835273371 -0.19605207676116951 0 0.1178461100078927 -0.20838697738218431 0 0.1059898830346106 -0.20430933332548051 0 0.1128143282819509 -0.19216489626002589 0 0.1178461100078927 -0.20838697738218431 0 0.1128143282819509 -0.19216489626002589 0 0.1237689835273371 -0.19605207676116951 0 0.1232013989280239 -0.1819146573535104 0 0.1089347031997706 -0.21297733173581901 0 0.1178461100078927 -0.20838697738218431 0 0.1146171121197104 -0.21980430615730401 0 0.1059898830346106 -0.20430933332548051 0 0.1089347031997706 -0.21297733173581901 0 0.1178461100078927 -0.20838697738218431 0 0.1178461100078927 -0.20838697738218431 0 0.1146171121197104 -0.21980430615730401 0 0.12895394136930069 -0.22163642029703709 0 0.1146171121197104 -0.21980430615730401 0 0.12018370186474731 -0.23305432747703519 0 0.12895394136930069 -0.22163642029703709 0 0.097404311116896569 -0.21585094626217091 0 0.1146171121197104 -0.21980430615730401 0 0.12018370186474731 -0.23305432747703519 0 0.1212054647883809 -0.25073068226796852 0 0.12018370186474731 -0.23305432747703519 0 0.1059281586602189 -0.23527494890652931 0 0.13217397618885759 -0.25462043987800831 0 0.1212054647883809 -0.25073068226796852 0 0.12018370186474731 -0.23305432747703519 0 0.1212054647883809 -0.25073068226796852 0 0.1059281586602189 -0.23527494890652931 0 0.1078238037173969 -0.24832262031645649 0 0.1212054647883809 -0.25073068226796852 0 0.1059281586602189 -0.23527494890652931 0 0.099550463170151926 -0.25262580003909579 0 0.1078238037173969 -0.24832262031645649 0 0.10103467245524091 -0.24298905409433241 0 0.1059281586602189 -0.23527494890652931 0 0.1078238037173969 -0.24832262031645649 0 0.10103467245524091 -0.24298905409433241 0 0.099550463170151926 -0.25262580003909579 0 0.10103467245524091 -0.24298905409433241 0 0.094006026236525903 -0.2441335510050745 0 0.090706365013478091 -0.25245448435890872 0 0.099550463170151926 -0.25262580003909579 0 0.094006026236525903 -0.2441335510050745 0 0.1059281586602189 -0.23527494890652931 0 0.10103467245524091 -0.24298905409433241 0 0.096012267649498176 -0.23702186761809721 0 0.10103467245524091 -0.24298905409433241 0 0.094006026236525903 -0.2441335510050745 0 0.096012267649498176 -0.23702186761809721 0 0.1059281586602189 -0.23527494890652931 0 0.096012267649498176 -0.23702186761809721 0 0.098670227838192195 -0.22970514568366851 0 0.089763789457938253 -0.2306791647953326 0 0.096012267649498176 -0.23702186761809721 0 0.098670227838192195 -0.22970514568366851 0 0.097404311116896569 -0.21585094626217091 0 0.12018370186474731 -0.23305432747703519 0 0.097404311116896569 -0.21585094626217091 0 0.12018370186474731 -0.23305432747703519 0 0.1059281586602189 -0.23527494890652931 0 0.097404311116896569 -0.21585094626217091 0 0.1059281586602189 -0.23527494890652931 0 0.098670227838192195 -0.22970514568366851 0 0.091303359373345411 -0.22339335178318359 0 0.098670227838192195 -0.22970514568366851 0 0.094530837428433365 -0.22086489816084981 0 0.097404311116896569 -0.21585094626217091 0 0.098670227838192195 -0.22970514568366851 0 0.094530837428433365 -0.22086489816084981 0 0.097404311116896569 -0.21585094626217091 0 0.098670227838192195 -0.22970514568366851 0 0.1071373084330472 -0.14482826815459701 0 0.1035248479174861 -0.15311019857333261 0 0.098760878024456711 -0.14050656481393209 0 0.1071373084330472 -0.14482826815459701 0 0.1035248479174861 -0.15311019857333261 0 0.1121477659277255 -0.1503271840913511 0 0.1035248479174861 -0.15311019857333261 0 0.098760878024456711 -0.14050656481393209 0 0.091560400862706559 -0.15189516094014111 0 0.098760878024456711 -0.14050656481393209 0 0.099399694252258627 -0.1328638184600745 0 0.089615627146132512 -0.13061154690311971 0 0.099399694252258627 -0.1328638184600745 0 0.099525338641528904 -0.12611341339503321 0 0.089615627146132512 -0.13061154690311971 0 0.099525338641528904 -0.12611341339503321 0 0.1096969331969164 -0.13422374872821319 0 0.1121708616464093 -0.1216807098986791 0 0.099399694252258627 -0.1328638184600745 0 0.099525338641528904 -0.12611341339503321 0 0.1096969331969164 -0.13422374872821319 0 0.098760878024456711 -0.14050656481393209 0 0.099399694252258627 -0.1328638184600745 0 0.1096969331969164 -0.13422374872821319 0 0.1071373084330472 -0.14482826815459701 0 0.098760878024456711 -0.14050656481393209 0 0.1096969331969164 -0.13422374872821319 0 0.1096969331969164 -0.13422374872821319 0 0.1155243526086871 -0.14484298486410191 0 0.12532898621889721 -0.13663811256420449 0 0.1096969331969164 -0.13422374872821319 0 0.11997683785091839 -0.1276371159963853 0 0.12532898621889721 -0.13663811256420449 0 0.1096969331969164 -0.13422374872821319 0 0.11997683785091839 -0.1276371159963853 0 0.1121708616464093 -0.1216807098986791 0 0.1217036921304827 -0.1482443959076799 0 0.1155243526086871 -0.14484298486410191 0 0.12532898621889721 -0.13663811256420449 0 0.1217036921304827 -0.1482443959076799 0 0.1155243526086871 -0.14484298486410191 0 0.1179114041550178 -0.15136128022523329 0 0.1071373084330472 -0.14482826815459701 0 0.1155243526086871 -0.14484298486410191 0 0.1121477659277255 -0.1503271840913511 0 0.1071373084330472 -0.14482826815459701 0 0.1096969331969164 -0.13422374872821319 0 0.1155243526086871 -0.14484298486410191 0 0.1035248479174861 -0.15311019857333261 0 0.1121477659277255 -0.1503271840913511 0 0.1169082366172023 -0.15609331882735419 0 0.1155243526086871 -0.14484298486410191 0 0.1121477659277255 -0.1503271840913511 0 0.1179114041550178 -0.15136128022523329 0 0.1121477659277255 -0.1503271840913511 0 0.1169082366172023 -0.15609331882735419 0 0.1179114041550178 -0.15136128022523329 0 0.1169082366172023 -0.15609331882735419 0 0.1179114041550178 -0.15136128022523329 0 0.12324902196630889 -0.15465793599018671 0 0.1217036921304827 -0.1482443959076799 0 0.1179114041550178 -0.15136128022523329 0 0.12324902196630889 -0.15465793599018671 0 0.1217036921304827 -0.1482443959076799 0 0.12324902196630889 -0.15465793599018671 0 0.12831016946945831 -0.1492440347933528 0 0.1035248479174861 -0.15311019857333261 0 0.12443417021765769 -0.1709717485187108 0 0.1227471198665283 -0.15880086614903269 0 0.12098675462827781 -0.16200852072179159 0 0.1290045142054978 -0.1612372837293575 0 0.1035248479174861 -0.15311019857333261 0 0.12443417021765769 -0.1709717485187108 0 0.12083528946942131 -0.1711597280255607 0 0.1035248479174861 -0.15311019857333261 0 0.12098675462827781 -0.16200852072179159 0 0.12443417021765769 -0.1709717485187108 0 0.1035248479174861 -0.15311019857333261 0 0.1169082366172023 -0.15609331882735419 0 0.12098675462827781 -0.16200852072179159 0 0.1169082366172023 -0.15609331882735419 0 0.1227471198665283 -0.15880086614903269 0 0.12098675462827781 -0.16200852072179159 0 0.1169082366172023 -0.15609331882735419 0 0.12324902196630889 -0.15465793599018671 0 0.1227471198665283 -0.15880086614903269 0 0.12098675462827781 -0.16200852072179159 0 0.12443417021765769 -0.1709717485187108 0 0.12715697753007521 -0.16591248018761531 0 0.1128143282819509 -0.19216489626002589 0 0.1232013989280239 -0.1819146573535104 0 0.1157139550245927 -0.18029465614444529 0 0.12083528946942131 -0.1711597280255607 0 0.1232013989280239 -0.1819146573535104 0 0.1157139550245927 -0.18029465614444529 0 0.12443417021765769 -0.1709717485187108 0 0.12083528946942131 -0.1711597280255607 0 0.1232013989280239 -0.1819146573535104 0 0.12083528946942131 -0.1711597280255607 0 0.1157139550245927 -0.18029465614444529 0 0.10772522460311169 -0.17968171223372481 0 0.1128143282819509 -0.19216489626002589 0 0.1157139550245927 -0.18029465614444529 0 0.10772522460311169 -0.17968171223372481 0 0.095454742848087734 -0.19451486061966669 0 0.10772522460311169 -0.17968171223372481 0 0.093505174579280592 -0.1731787749771625 0 0.12083528946942131 -0.1711597280255607 0 0.093505174579280592 -0.1731787749771625 0 0.095454742848087734 -0.19451486061966669 0 0.093505174579280592 -0.1731787749771625 0 0.12083528946942131 -0.1711597280255607 0 0.10772522460311169 -0.17968171223372481 0 0.093505174579280592 -0.1731787749771625 0 0.1035248479174861 -0.15311019857333261 0 0.093505174579280592 -0.1731787749771625 0 0.091560400862706559 -0.15189516094014111 0 0.1035248479174861 -0.15311019857333261 0 0.12083528946942131 -0.1711597280255607 0 0.093505174579280592 -0.1731787749771625 0 0.078133883947979807 -0.15717501910519549 0 0.093505174579280592 -0.1731787749771625 0 0.091560400862706559 -0.15189516094014111 0 0.078133883947979807 -0.15717501910519549 0 0.093505174579280592 -0.1731787749771625 0 0.072477207369929117 -0.17473224276400179 0 0.093505174579280592 -0.1731787749771625 0 0.091560400862706559 -0.15189516094014111 0 0.081482512553192915 -0.1953056794767786 0 0.093505174579280592 -0.1731787749771625 0 0.072477207369929117 -0.17473224276400179 0 0.093505174579280592 -0.1731787749771625 0 0.072477207369929117 -0.17473224276400179 0 0.066040058368007956 -0.18964665730407451 0 0.072477207369929117 -0.17473224276400179 0 0.051449240160577621 -0.1762857105508405 0 0.066040058368007956 -0.18964665730407451 0 0.081482512553192915 -0.1953056794767786 0 0.072477207369929117 -0.17473224276400179 0 0.078133883947979807 -0.15717501910519549 0 0.072477207369929117 -0.17473224276400179 0 0.063878974636528515 -0.16401540189567099 0 0.072477207369929117 -0.17473224276400179 0 0.063878974636528515 -0.16401540189567099 0 0.051449240160577621 -0.1762857105508405 0 0.078133883947979807 -0.15717501910519549 0 0.063878974636528515 -0.16401540189567099 0 0.06522271263887458 -0.15305574504012881 0 0.06522271263887458 -0.15305574504012881 0 0.069316279952888193 -0.14186668388360371 0 0.075278834721760557 -0.14616760919767161 0 0.06522271263887458 -0.15305574504012881 0 0.069316279952888193 -0.14186668388360371 0 0.05757515479497001 -0.1486962131740798 0 0.069316279952888193 -0.14186668388360371 0 0.075278834721760557 -0.14616760919767161 0 0.079765110473415279 -0.13788087003968491 0 0.078133883947979807 -0.15717501910519549 0 0.06522271263887458 -0.15305574504012881 0 0.075278834721760557 -0.14616760919767161 0 0.098760878024456711 -0.14050656481393209 0 0.091560400862706559 -0.15189516094014111 0 0.089615627146132512 -0.13061154690311971 0 0.078133883947979807 -0.15717501910519549 0 0.083611330147541921 -0.14459745320402559 0 0.091560400862706559 -0.15189516094014111 0 0.091560400862706559 -0.15189516094014111 0 0.089615627146132512 -0.13061154690311971 0 0.078133883947979807 -0.15717501910519549 0 0.075278834721760557 -0.14616760919767161 0 0.083611330147541921 -0.14459745320402559 0 0.083611330147541921 -0.14459745320402559 0 0.091560400862706559 -0.15189516094014111 0 0.089615627146132512 -0.13061154690311971 0 0.075278834721760557 -0.14616760919767161 0 0.083611330147541921 -0.14459745320402559 0 0.079765110473415279 -0.13788087003968491 0 0.099525338641528904 -0.12611341339503321 0 0.089615627146132512 -0.13061154690311971 0 0.081894058627025895 -0.12584863130967919 0 0.083611330147541921 -0.14459745320402559 0 0.089615627146132512 -0.13061154690311971 0 0.079765110473415279 -0.13788087003968491 0 0.089615627146132512 -0.13061154690311971 0 0.079765110473415279 -0.13788087003968491 0 0.081894058627025895 -0.12584863130967919 0 0.081894058627025895 -0.12584863130967919 0 0.065576399090336079 -0.13067912082877309 0 0.057907204523981459 -0.13951585418161591 0 0.081894058627025895 -0.12584863130967919 0 0.057907204523981459 -0.13951585418161591 0 0.069316279952888193 -0.14186668388360371 0 0.081894058627025895 -0.12584863130967919 0 0.057907204523981459 -0.13951585418161591 0 0.081894058627025895 -0.12584863130967919 0 0.068207364780656948 -0.12563827965844471 0 0.065576399090336079 -0.13067912082877309 0 0.069316279952888193 -0.14186668388360371 0 0.079765110473415279 -0.13788087003968491 0 0.081894058627025895 -0.12584863130967919 0 0.068207364780656948 -0.12563827965844471 0 0.065576399090336079 -0.13067912082877309 0 0.054296968429680029 -0.13171371816535249 0 0.054296968429680029 -0.13171371816535249 0 0.057907204523981459 -0.13951585418161591 0 0.034849001543539322 -0.1503583031021323 0 0.054296968429680029 -0.13171371816535249 0 0.045553716665441668 -0.12681104972785159 0 0.052448498866582129 -0.1166826243517366 0 0.065576399090336079 -0.13067912082877309 0 0.054296968429680029 -0.13171371816535249 0 0.057907204523981459 -0.13951585418161591 0 0.069316279952888193 -0.14186668388360371 0 0.057907204523981459 -0.13951585418161591 0 0.05757515479497001 -0.1486962131740798 0 0.06522271263887458 -0.15305574504012881 0 0.05757515479497001 -0.1486962131740798 0 0.052111829065281459 -0.15882829201818821 0 0.046808539919221563 -0.15014413002933799 0 0.052111829065281459 -0.15882829201818821 0 0.043031393960321331 -0.1571354857308308 0 0.05757515479497001 -0.1486962131740798 0 0.046808539919221563 -0.15014413002933799 0 0.052111829065281459 -0.15882829201818821 0 0.057907204523981459 -0.13951585418161591 0 0.05757515479497001 -0.1486962131740798 0 0.046808539919221563 -0.15014413002933799 0 0.057907204523981459 -0.13951585418161591 0 0.046808539919221563 -0.15014413002933799 0 0.033920350420936912 -0.1531830770535528 0 0.057907204523981459 -0.13951585418161591 0 0.034849001543539322 -0.1503583031021323 0 0.033920350420936912 -0.1531830770535528 0 0.054296968429680029 -0.13171371816535249 0 0.034849001543539322 -0.1503583031021323 0 0.038558521200612962 -0.14006542407622449 0 0.054296968429680029 -0.13171371816535249 0 0.034849001543539322 -0.1503583031021323 0 0.057907204523981459 -0.13951585418161591 0 0.033920350420936912 -0.1531830770535528 0 0.046808539919221563 -0.15014413002933799 0 0.040219483271594643 -0.15466785876887121 0 0.033920350420936912 -0.1531830770535528 0 0.046808539919221563 -0.15014413002933799 0 0.040219483271594643 -0.15466785876887121 0 0.043031393960321331 -0.1571354857308308 0 0.040219483271594643 -0.15466785876887121 0 0.033920350420936912 -0.1531830770535528 0 0.037117648785898759 -0.15820874226176301 0 0.034849001543539322 -0.1503583031021323 0 0.031672068294339203 -0.14528428076340441 0 0.030051573782975471 -0.15027594372919439 0 0.034849001543539322 -0.1503583031021323 0 0.033920350420936912 -0.1531830770535528 0 0.030051573782975471 -0.15027594372919439 0 0.034849001543539322 -0.1503583031021323 0 0.031672068294339203 -0.14528428076340441 0 0.038558521200612962 -0.14006542407622449 0 0.031672068294339203 -0.14528428076340441 0 0.038558521200612962 -0.14006542407622449 0 0.030566093298411881 -0.13865773310914861 0 0.054296968429680029 -0.13171371816535249 0 0.038558521200612962 -0.14006542407622449 0 0.040644455285911409 -0.1338393175667463 0 0.038558521200612962 -0.14006542407622449 0 0.040644455285911409 -0.1338393175667463 0 0.030566093298411881 -0.13865773310914861 0 0.034824944079593127 -0.12500853882757099 0 0.040644455285911409 -0.1338393175667463 0 0.030566093298411881 -0.13865773310914861 0 0.034824944079593127 -0.12500853882757099 0 0.045553716665441668 -0.12681104972785159 0 0.040644455285911409 -0.1338393175667463 0 0.054296968429680029 -0.13171371816535249 0 0.045553716665441668 -0.12681104972785159 0 0.040644455285911409 -0.1338393175667463 0 0.072477207369929117 -0.17473224276400179 0 0.051449240160577621 -0.1762857105508405 0 0.056257937900538298 -0.19577788601322099 0 0.066040058368007956 -0.18964665730407451 0 0.051449240160577621 -0.1762857105508405 0 0.063878974636528515 -0.16401540189567099 0 0.051449240160577621 -0.1762857105508405 0 0.052111829065281459 -0.15882829201818821 0 0.051449240160577621 -0.1762857105508405 0 0.052111829065281459 -0.15882829201818821 0 0.040502396519655252 -0.1663673850483231 0 0.063878974636528515 -0.16401540189567099 0 0.06522271263887458 -0.15305574504012881 0 0.052111829065281459 -0.15882829201818821 0 0.043031393960321331 -0.1571354857308308 0 0.037117648785898759 -0.15820874226176301 0 0.040502396519655252 -0.1663673850483231 0 0.052111829065281459 -0.15882829201818821 0 0.043031393960321331 -0.1571354857308308 0 0.040502396519655252 -0.1663673850483231 0 0.040219483271594643 -0.15466785876887121 0 0.043031393960321331 -0.1571354857308308 0 0.037117648785898759 -0.15820874226176301 0 0.033920350420936912 -0.1531830770535528 0 0.033509818979212957 -0.15868168045615499 0 0.027465449436243041 -0.1628752445715565 0 0.037117648785898759 -0.15820874226176301 0 0.034071859908748191 -0.1623715567021686 0 0.040502396519655252 -0.1663673850483231 0 0.033920350420936912 -0.1531830770535528 0 0.037117648785898759 -0.15820874226176301 0 0.033509818979212957 -0.15868168045615499 0 0.037117648785898759 -0.15820874226176301 0 0.033509818979212957 -0.15868168045615499 0 0.034071859908748191 -0.1623715567021686 0 0.033509818979212957 -0.15868168045615499 0 0.034071859908748191 -0.1623715567021686 0 0.027465449436243041 -0.1628752445715565 0 0.031586668938662611 -0.1691709391612749 0 0.040502396519655252 -0.1663673850483231 0 0.030421272951226121 -0.1778391783376792 0 0.034071859908748191 -0.1623715567021686 0 0.031586668938662611 -0.1691709391612749 0 0.040502396519655252 -0.1663673850483231 0 0.051449240160577621 -0.1762857105508405 0 0.040502396519655252 -0.1663673850483231 0 0.030421272951226121 -0.1778391783376792 0 0.041440672425083092 -0.19607701236864419 0 0.051449240160577621 -0.1762857105508405 0 0.030421272951226121 -0.1778391783376792 0 0.051449240160577621 -0.1762857105508405 0 0.030421272951226121 -0.1778391783376792 0 0.02540307025583758 -0.19229280057405279 0 0.015764016274472759 -0.1812646672695073 0 0.030421272951226121 -0.1778391783376792 0 0.031586668938662611 -0.1691709391612749 0 0.030421272951226121 -0.1778391783376792 0 0.021575687727073561 -0.1734893605992324 0 0.015764016274472759 -0.1812646672695073 0 0.021575687727073561 -0.1734893605992324 0 0.012676990919703311 -0.16924925594887871 0 0.015764016274472759 -0.1812646672695073 0 0.030421272951226121 -0.1778391783376792 0 0.021575687727073561 -0.1734893605992324 0 0.033920350420936912 -0.1531830770535528 0 0.009933496317892726 -0.16685029992549011 0 0.02294500892830088 -0.1542832107784407 0 0.033920350420936912 -0.1531830770535528 0 0.027465449436243041 -0.1628752445715565 0 0.009933496317892726 -0.16685029992549011 0 0.019596439448784399 -0.16744493330375371 0 0.027465449436243041 -0.1628752445715565 0 0.009933496317892726 -0.16685029992549011 0 0.033920350420936912 -0.1531830770535528 0 0.009933496317892726 -0.16685029992549011 0 0.021575687727073561 -0.1734893605992324 0 0.019596439448784399 -0.16744493330375371 0 0.012676990919703311 -0.16924925594887871 0 0.021575687727073561 -0.1734893605992324 0 0.019596439448784399 -0.16744493330375371 0 0.025540403417393751 -0.1677775419388785 0 0.031586668938662611 -0.1691709391612749 0 0.021575687727073561 -0.1734893605992324 0 0.025540403417393751 -0.1677775419388785 0 0.019596439448784399 -0.16744493330375371 0 0.025540403417393751 -0.1677775419388785 0 0.027465449436243041 -0.1628752445715565 0 0.034071859908748191 -0.1623715567021686 0 0.031586668938662611 -0.1691709391612749 0 0.027465449436243041 -0.1628752445715565 0 0.031586668938662611 -0.1691709391612749 0 0.025540403417393751 -0.1677775419388785 0 0.027465449436243041 -0.1628752445715565 0 0.009933496317892726 -0.16685029992549011 0 0.01648447247354291 -0.15404273338364399 0 0.02294500892830088 -0.1542832107784407 0 0.009933496317892726 -0.16685029992549011 0 0.01648447247354291 -0.15404273338364399 0 0.0068311679390763679 -0.1533437069849535 0 0.019596439448784399 -0.16744493330375371 0 0.009933496317892726 -0.16685029992549011 0 0.012676990919703311 -0.16924925594887871 0 0.009933496317892726 -0.16685029992549011 0 0.012676990919703311 -0.16924925594887871 0 0.0034571977838801569 -0.17702496179755631 0 0.009933496317892726 -0.16685029992549011 0 0.012676990919703311 -0.16924925594887871 0 -0.0085976242789068957 -0.177408956520272 0 0.009933496317892726 -0.16685029992549011 0 -0.0085976242789068957 -0.177408956520272 0 0.009933496317892726 -0.16685029992549011 0 0.0034571977838801569 -0.17702496179755631 0 0.015764016274472759 -0.1812646672695073 0 0.012676990919703311 -0.16924925594887871 0 0.0034571977838801569 -0.17702496179755631 0 -0.003739977245034012 -0.19168309442994089 0 0.010514116253606281 -0.1925853606064957 0 0.0034571977838801569 -0.17702496179755631 0 0.010514116253606281 -0.1925853606064957 0 0.015764016274472759 -0.1812646672695073 0 0.0034571977838801569 -0.17702496179755631 0 0.02166725362828328 -0.1398342401410575 0 0.019282665512654749 -0.1297026577714144 0 0.01241268948209219 -0.14437852502616319 0 0.034824944079593127 -0.12500853882757099 0 0.019282665512654749 -0.1297026577714144 0 0.030566093298411881 -0.13865773310914861 0 0.02166725362828328 -0.1398342401410575 0 0.019282665512654749 -0.1297026577714144 0 0.030566093298411881 -0.13865773310914861 0 0.031672068294339203 -0.14528428076340441 0 0.030566093298411881 -0.13865773310914861 0 0.024335151646156381 -0.14706399980032239 0 0.02166725362828328 -0.1398342401410575 0 0.030566093298411881 -0.13865773310914861 0 0.024335151646156381 -0.14706399980032239 0 0.031672068294339203 -0.14528428076340441 0 0.024335151646156381 -0.14706399980032239 0 0.030051573782975471 -0.15027594372919439 0 0.033920350420936912 -0.1531830770535528 0 0.030051573782975471 -0.15027594372919439 0 0.02294500892830088 -0.1542832107784407 0 0.024335151646156381 -0.14706399980032239 0 0.030051573782975471 -0.15027594372919439 0 0.02294500892830088 -0.1542832107784407 0 0.024335151646156381 -0.14706399980032239 0 0.01648447247354291 -0.15404273338364399 0 0.01241268948209219 -0.14437852502616319 0 0.024335151646156381 -0.14706399980032239 0 0.01648447247354291 -0.15404273338364399 0 0.02294500892830088 -0.1542832107784407 0 0.02166725362828328 -0.1398342401410575 0 0.024335151646156381 -0.14706399980032239 0 0.01241268948209219 -0.14437852502616319 0 -0.011505986517222349 -0.14810326960451681 0 0.01241268948209219 -0.14437852502616319 0 0.0068311679390763679 -0.1533437069849535 0 -0.011505986517222349 -0.14810326960451681 0 0.009933496317892726 -0.16685029992549011 0 0.0068311679390763679 -0.1533437069849535 0 -0.011505986517222349 -0.14810326960451681 0 0.01241268948209219 -0.14437852502616319 0 0.0027021066240326768 -0.1317064378292063 0 0.01648447247354291 -0.15404273338364399 0 0.01241268948209219 -0.14437852502616319 0 0.0068311679390763679 -0.1533437069849535 0 0.019282665512654749 -0.1297026577714144 0 0.01241268948209219 -0.14437852502616319 0 0.0027021066240326768 -0.1317064378292063 0 0.019282665512654749 -0.1297026577714144 0 0.0027021066240326768 -0.1317064378292063 0 0.005085065621477718 -0.1151057880332567 0 0.019282665512654749 -0.1297026577714144 0 0.005085065621477718 -0.1151057880332567 0 0.024129304522527751 -0.1089818526354679 0 0.034824944079593127 -0.12500853882757099 0 0.019282665512654749 -0.1297026577714144 0 0.024129304522527751 -0.1089818526354679 0 0.024129304522527751 -0.1089818526354679 0 0.01380815825635252 -0.094132232187142617 0 0.031293966725895003 -0.08518965294817829 0 -0.00044729776891663488 -0.1011528385718463 0 0.005085065621477718 -0.1151057880332567 0 0.01380815825635252 -0.094132232187142617 0 0.005085065621477718 -0.1151057880332567 0 0.024129304522527751 -0.1089818526354679 0 0.01380815825635252 -0.094132232187142617 0 0.01380815825635252 -0.094132232187142617 0 0.0042106568376920582 -0.081118225430045127 0 0.020039989671696231 -0.071989185162356889 0 -0.00044729776891663488 -0.1011528385718463 0 0.01380815825635252 -0.094132232187142617 0 0.0042106568376920582 -0.081118225430045127 0 0.0042106568376920582 -0.081118225430045127 0 0.0052181775422467033 -0.064346337314722044 0 0.020039989671696231 -0.071989185162356889 0 -0.0043762627118289626 -0.071729097412358583 0 0.0042106568376920582 -0.081118225430045127 0 0.0052181775422467033 -0.064346337314722044 0 0.0052181775422467033 -0.064346337314722044 0 0.020039989671696231 -0.071989185162356889 0 0.0052181775422467033 -0.064346337314722044 0 0.020039989671696231 -0.071989185162356889 0 0.017880224012190679 -0.058506375123621113 0 0.020039989671696231 -0.071989185162356889 0 0.017880224012190679 -0.058506375123621113 0 0.035073137211611732 -0.060365082031122411 0 0.020039989671696231 -0.071989185162356889 0 0.031293966725895003 -0.08518965294817829 0 0.035073137211611732 -0.060365082031122411 0 0.01380815825635252 -0.094132232187142617 0 0.020039989671696231 -0.071989185162356889 0 0.031293966725895003 -0.08518965294817829 0 0.031293966725895003 -0.08518965294817829 0 0.050629459546369923 -0.074776417317023003 0 0.042727201812981508 -0.099892478072297022 0 0.050629459546369923 -0.074776417317023003 0 0.042727201812981508 -0.099892478072297022 0 0.031293966725895003 -0.08518965294817829 0 0.050629459546369923 -0.074776417317023003 0 0.035073137211611732 -0.060365082031122411 0 0.050629459546369923 -0.074776417317023003 0 0.058531717279758283 -0.049660356561749108 0 0.072219385832792832 -0.066659644627356851 0 0.050629459546369923 -0.074776417317023003 0 0.042727201812981508 -0.099892478072297022 0 0.069701838591585213 -0.089386546866783212 0 0.059655618646742382 -0.10475769562984739 0 0.052448498866582129 -0.1166826243517366 0 0.042727201812981508 -0.099892478072297022 0 0.059655618646742382 -0.10475769562984739 0 0.042727201812981508 -0.099892478072297022 0 0.069701838591585213 -0.089386546866783212 0 0.054296968429680029 -0.13171371816535249 0 0.052448498866582129 -0.1166826243517366 0 0.073744935315820714 -0.1130691332285727 0 0.059655618646742382 -0.10475769562984739 0 0.052448498866582129 -0.1166826243517366 0 0.073744935315820714 -0.1130691332285727 0 0.034824944079593127 -0.12500853882757099 0 0.045553716665441668 -0.12681104972785159 0 0.052448498866582129 -0.1166826243517366 0 0.034824944079593127 -0.12500853882757099 0 0.052448498866582129 -0.1166826243517366 0 0.042727201812981508 -0.099892478072297022 0 0.034824944079593127 -0.12500853882757099 0 0.024129304522527751 -0.1089818526354679 0 0.042727201812981508 -0.099892478072297022 0 0.034824944079593127 -0.12500853882757099 0 0.042727201812981508 -0.099892478072297022 0 0.024129304522527751 -0.1089818526354679 0 0.031293966725895003 -0.08518965294817829 0 0.042727201812981508 -0.099892478072297022 0 0.034885408484197772 0.0062912350017927032 0 0.01265631079038235 -0.01012693536007268 0 0.042517259973231587 -0.011683923625132649 0 -0.00118246574067416 -0.01324232368796026 0 0.0012074066645448821 -0.00065723147797176382 0 0.01265631079038235 -0.01012693536007268 0 0.01265631079038235 -0.01012693536007268 0 0.02406773205363014 -0.026959444655171291 0 0.0015263381015913891 -0.033415212413580753 0 0.01265631079038235 -0.01012693536007268 0 0.0015263381015913891 -0.033415212413580753 0 -0.00118246574067416 -0.01324232368796026 0 0.01265631079038235 -0.01012693536007268 0 0.0015263381015913891 -0.033415212413580753 0 0.01265631079038235 -0.01012693536007268 0 0.02406773205363014 -0.026959444655171291 0 0.042517259973231587 -0.011683923625132649 0 0.02406773205363014 -0.026959444655171291 0 0.021771409900077709 -0.044354063799483319 0 0.04186734150286768 -0.035217088077587062 0 0.02406773205363014 -0.026959444655171291 0 0.021771409900077709 -0.044354063799483319 0 0.0015263381015913891 -0.033415212413580753 0 0.021771409900077709 -0.044354063799483319 0 0.0015263381015913891 -0.033415212413580753 0 0.007298405735321048 -0.051477207310420908 0 -0.0096036345872028556 -0.056703489467087059 0 0.0052181775422467033 -0.064346337314722044 0 0.007298405735321048 -0.051477207310420908 0 0.0052181775422467033 -0.064346337314722044 0 0.007298405735321048 -0.051477207310420908 0 0.017880224012190679 -0.058506375123621113 0 0.021771409900077709 -0.044354063799483319 0 0.017880224012190679 -0.058506375123621113 0 0.035073137211611732 -0.060365082031122411 0 0.021771409900077709 -0.044354063799483319 0 0.007298405735321048 -0.051477207310420908 0 0.017880224012190679 -0.058506375123621113 0 0.035073137211611732 -0.060365082031122411 0 0.058531717279758283 -0.049660356561749108 0 0.04186734150286768 -0.035217088077587062 0 0.050629459546369923 -0.074776417317023003 0 0.058531717279758283 -0.049660356561749108 0 0.050629459546369923 -0.074776417317023003 0 0.035073137211611732 -0.060365082031122411 0 0.058531717279758283 -0.049660356561749108 0 0.058531717279758283 -0.049660356561749108 0 0.066433975013146629 -0.02454429580647528 0 0.058531717279758283 -0.049660356561749108 0 0.04186734150286768 -0.035217088077587062 0 0.066433975013146629 -0.02454429580647528 0 0.021771409900077709 -0.044354063799483319 0 0.035073137211611732 -0.060365082031122411 0 0.04186734150286768 -0.035217088077587062 0 0.02406773205363014 -0.026959444655171291 0 0.04186734150286768 -0.035217088077587062 0 0.042517259973231587 -0.011683923625132649 0 0.04186734150286768 -0.035217088077587062 0 0.042517259973231587 -0.011683923625132649 0 0.066433975013146629 -0.02454429580647528 0 0.052968053050369737 0.0090809173488315582 0 0.042517259973231587 -0.011683923625132649 0 0.067492943165135169 -0.0019794682467893379 0 0.042517259973231587 -0.011683923625132649 0 0.067492943165135169 -0.0019794682467893379 0 0.066433975013146629 -0.02454429580647528 0 0.087040675587819916 -0.0096101539263870796 0 0.066433975013146629 -0.02454429580647528 0 0.098032226742104309 -0.02831505409649597 0 0.083930998993742512 0.0059737405228527038 0 0.087040675587819916 -0.0096101539263870796 0 0.067492943165135169 -0.0019794682467893379 0 0.083930998993742512 0.0059737405228527038 0 0.098495163759696414 0.0029673617968291321 0 0.087040675587819916 -0.0096101539263870796 0 0.087040675587819916 -0.0096101539263870796 0 0.067492943165135169 -0.0019794682467893379 0 0.066433975013146629 -0.02454429580647528 0 0.066433975013146629 -0.02454429580647528 0 0.080663194565618018 -0.042742664855397232 0 0.098032226742104309 -0.02831505409649597 0 0.080663194565618018 -0.042742664855397232 0 0.099119978598511321 -0.045144617550746849 0 0.098032226742104309 -0.02831505409649597 0 0.058531717279758283 -0.049660356561749108 0 0.066433975013146629 -0.02454429580647528 0 0.080663194565618018 -0.042742664855397232 0 0.058531717279758283 -0.049660356561749108 0 0.080663194565618018 -0.042742664855397232 0 0.072219385832792832 -0.066659644627356851 0 0.080663194565618018 -0.042742664855397232 0 0.091985945990252393 -0.059557823171565508 0 0.072219385832792832 -0.066659644627356851 0 0.080663194565618018 -0.042742664855397232 0 0.091985945990252393 -0.059557823171565508 0 0.099119978598511321 -0.045144617550746849 0 0.091985945990252393 -0.059557823171565508 0 0.109385226414503 -0.056941989317685793 0 0.099119978598511321 -0.045144617550746849 0 0.109385226414503 -0.056941989317685793 0 0.1174221699598199 -0.069046986946925279 0 0.12664898879935529 -0.055605769639440771 0 0.109385226414503 -0.056941989317685793 0 0.1155332992800789 -0.038165556312589707 0 0.12664898879935529 -0.055605769639440771 0 0.1155332992800789 -0.038165556312589707 0 0.12954193793015309 -0.041748568408345607 0 0.12664898879935529 -0.055605769639440771 0 0.1155332992800789 -0.038165556312589707 0 0.1294320674019063 -0.023146095115484211 0 0.12954193793015309 -0.041748568408345607 0 0.109385226414503 -0.056941989317685793 0 0.1155332992800789 -0.038165556312589707 0 0.099119978598511321 -0.045144617550746849 0 0.1155332992800789 -0.038165556312589707 0 0.099119978598511321 -0.045144617550746849 0 0.098032226742104309 -0.02831505409649597 0 0.1155332992800789 -0.038165556312589707 0 0.098032226742104309 -0.02831505409649597 0 0.1112777463759113 -0.012222875866518469 0 0.087040675587819916 -0.0096101539263870796 0 0.098032226742104309 -0.02831505409649597 0 0.1112777463759113 -0.012222875866518469 0 0.1155332992800789 -0.038165556312589707 0 0.1112777463759113 -0.012222875866518469 0 0.1294320674019063 -0.023146095115484211 0 0.1158546052028349 0.0064685721448778594 0 0.13464870039648349 0.00080453217212592717 0 0.1112777463759113 -0.012222875866518469 0 0.098495163759696414 0.0029673617968291321 0 0.087040675587819916 -0.0096101539263870796 0 0.1112777463759113 -0.012222875866518469 0 0.1158546052028349 0.0064685721448778594 0 0.098495163759696414 0.0029673617968291321 0 0.1112777463759113 -0.012222875866518469 0 0.093192902201961414 -0.094424548291792879 0 0.088899626305776192 -0.1113374325741409 0 0.073744935315820714 -0.1130691332285727 0 0.093192902201961414 -0.094424548291792879 0 0.073744935315820714 -0.1130691332285727 0 0.069701838591585213 -0.089386546866783212 0 0.093192902201961414 -0.094424548291792879 0 0.073744935315820714 -0.1130691332285727 0 0.081894058627025895 -0.12584863130967919 0 0.088899626305776192 -0.1113374325741409 0 0.09397493983509804 -0.11322330148444169 0 0.081894058627025895 -0.12584863130967919 0 0.079920122843727764 -0.11786127252462281 0 0.075141871126288284 -0.1211898929860986 0 0.081894058627025895 -0.12584863130967919 0 0.088899626305776192 -0.1113374325741409 0 0.079920122843727764 -0.11786127252462281 0 0.088899626305776192 -0.1113374325741409 0 0.079920122843727764 -0.11786127252462281 0 0.073744935315820714 -0.1130691332285727 0 0.068207364780656948 -0.12563827965844471 0 0.054296968429680029 -0.13171371816535249 0 0.073744935315820714 -0.1130691332285727 0 0.054296968429680029 -0.13171371816535249 0 0.073744935315820714 -0.1130691332285727 0 0.068207364780656948 -0.12563827965844471 0 0.073744935315820714 -0.1130691332285727 0 0.075141871126288284 -0.1211898929860986 0 0.079920122843727764 -0.11786127252462281 0 0.073744935315820714 -0.1130691332285727 0 0.075141871126288284 -0.1211898929860986 0 0.081894058627025895 -0.12584863130967919 0 0.068207364780656948 -0.12563827965844471 0 0.075141871126288284 -0.1211898929860986 0 0.059655618646742382 -0.10475769562984739 0 0.073744935315820714 -0.1130691332285727 0 0.069701838591585213 -0.089386546866783212 0 0.050629459546369923 -0.074776417317023003 0 0.069701838591585213 -0.089386546866783212 0 0.072219385832792832 -0.066659644627356851 0 0.069701838591585213 -0.089386546866783212 0 0.072219385832792832 -0.066659644627356851 0 0.089711563165187497 -0.078251462936863553 0 0.091985945990252393 -0.059557823171565508 0 0.072219385832792832 -0.066659644627356851 0 0.089711563165187497 -0.078251462936863553 0 0.093192902201961414 -0.094424548291792879 0 0.069701838591585213 -0.089386546866783212 0 0.089711563165187497 -0.078251462936863553 0 0.093192902201961414 -0.094424548291792879 0 0.089711563165187497 -0.078251462936863553 0 0.1048667032735431 -0.089595599910983495 0 0.089711563165187497 -0.078251462936863553 0 0.1048667032735431 -0.089595599910983495 0 0.1056935618466131 -0.072691272791708894 0 0.1048667032735431 -0.089595599910983495 0 0.1056935618466131 -0.072691272791708894 0 0.11564058922802831 -0.08068930143821873 0 0.091985945990252393 -0.059557823171565508 0 0.089711563165187497 -0.078251462936863553 0 0.1056935618466131 -0.072691272791708894 0 0.091985945990252393 -0.059557823171565508 0 0.109385226414503 -0.056941989317685793 0 0.1056935618466131 -0.072691272791708894 0 0.1174221699598199 -0.069046986946925279 0 0.12840026197867099 -0.078951386265116219 0 0.12664898879935529 -0.055605769639440771 0 0.109385226414503 -0.056941989317685793 0 0.1056935618466131 -0.072691272791708894 0 0.1174221699598199 -0.069046986946925279 0 0.1056935618466131 -0.072691272791708894 0 0.1174221699598199 -0.069046986946925279 0 0.11564058922802831 -0.08068930143821873 0 0.1174221699598199 -0.069046986946925279 0 0.11564058922802831 -0.08068930143821873 0 0.12840026197867099 -0.078951386265116219 0 0.1048667032735431 -0.089595599910983495 0 0.11564058922802831 -0.08068930143821873 0 0.1191358060176364 -0.092450830711447801 0 0.1191358060176364 -0.092450830711447801 0 0.12840026197867099 -0.078951386265116219 0 0.11564058922802831 -0.08068930143821873 0 0.1191358060176364 -0.092450830711447801 0 0.12840026197867099 -0.078951386265116219 0 0.1058809127300703 -0.11218140843774239 0 0.12023297736745781 -0.1110263554770618 0 0.12986776683311119 -0.098514185565799078 0 0.1058809127300703 -0.11218140843774239 0 0.12986776683311119 -0.098514185565799078 0 0.1048667032735431 -0.089595599910983495 0 0.1191358060176364 -0.092450830711447801 0 0.10987135005660249 -0.1059502751577799 0 0.10987135005660249 -0.1059502751577799 0 0.1058809127300703 -0.11218140843774239 0 0.12986776683311119 -0.098514185565799078 0 0.1191358060176364 -0.092450830711447801 0 0.10987135005660249 -0.1059502751577799 0 0.12986776683311119 -0.098514185565799078 0 0.1191358060176364 -0.092450830711447801 0 0.10987135005660249 -0.1059502751577799 0 0.093192902201961414 -0.094424548291792879 0 0.088899626305776192 -0.1113374325741409 0 0.099225161677519755 -0.1035257336162041 0 0.1048667032735431 -0.089595599910983495 0 0.10987135005660249 -0.1059502751577799 0 0.099225161677519755 -0.1035257336162041 0 0.10987135005660249 -0.1059502751577799 0 0.099225161677519755 -0.1035257336162041 0 0.1058809127300703 -0.11218140843774239 0 0.088899626305776192 -0.1113374325741409 0 0.099225161677519755 -0.1035257336162041 0 0.09397493983509804 -0.11322330148444169 0 0.093192902201961414 -0.094424548291792879 0 0.1048667032735431 -0.089595599910983495 0 0.099225161677519755 -0.1035257336162041 0 0.081894058627025895 -0.12584863130967919 0 0.1058809127300703 -0.11218140843774239 0 0.099525338641528904 -0.12611341339503321 0 0.081894058627025895 -0.12584863130967919 0 0.1058809127300703 -0.11218140843774239 0 0.081894058627025895 -0.12584863130967919 0 0.09397493983509804 -0.11322330148444169 0 0.1058809127300703 -0.11218140843774239 0 0.099225161677519755 -0.1035257336162041 0 0.09397493983509804 -0.11322330148444169 0 0.1058809127300703 -0.11218140843774239 0 0.099525338641528904 -0.12611341339503321 0 0.1058809127300703 -0.11218140843774239 0 0.1121708616464093 -0.1216807098986791 0 0.1058809127300703 -0.11218140843774239 0 0.1121708616464093 -0.1216807098986791 0 0.12023297736745781 -0.1110263554770618 0 0.11997683785091839 -0.1276371159963853 0 0.121067612134044 -0.1214532534018402 0 0.13188977167139071 -0.12546883223523481 0 0.12023297736745781 -0.1110263554770618 0 0.121067612134044 -0.1214532534018402 0 0.13188977167139071 -0.12546883223523481 0 0.11997683785091839 -0.1276371159963853 0 0.1121708616464093 -0.1216807098986791 0 0.121067612134044 -0.1214532534018402 0 0.1121708616464093 -0.1216807098986791 0 0.12023297736745781 -0.1110263554770618 0 0.121067612134044 -0.1214532534018402 0 0.12023297736745781 -0.1110263554770618 0 0.12986776683311119 -0.098514185565799078 0 0.13188977167139071 -0.12546883223523481 0 0.12986776683311119 -0.098514185565799078 0 0.13188977167139071 -0.12546883223523481 0 0.14925441928633251 -0.10969288085116551 0 0.13995942417209239 -0.1034127274713456 0 0.13188977167139071 -0.12546883223523481 0 0.14724036225017881 -0.1245170930860646 0 0.14925441928633251 -0.10969288085116551 0 0.13188977167139071 -0.12546883223523481 0 0.14925441928633251 -0.10969288085116551 0 0.15485465026004211 -0.11932571079310079 0 0.15999890680388329 -0.1096406796162286 0 0.14724036225017881 -0.1245170930860646 0 0.15485465026004211 -0.11932571079310079 0 0.15557261582888751 -0.13003178131142151 0 0.14724036225017881 -0.1245170930860646 0 0.14925441928633251 -0.10969288085116551 0 0.15485465026004211 -0.11932571079310079 0 0.14925441928633251 -0.10969288085116551 0 0.14348993397904131 -0.092765062884646393 0 0.1620153957752187 -0.097165399419701551 0 0.14348993397904131 -0.092765062884646393 0 0.1620153957752187 -0.097165399419701551 0 0.14925441928633251 -0.10969288085116551 0 0.13995942417209239 -0.1034127274713456 0 0.14348993397904131 -0.092765062884646393 0 0.13995942417209239 -0.1034127274713456 0 0.12986776683311119 -0.098514185565799078 0 0.13188977167139071 -0.12546883223523481 0 0.13995942417209239 -0.1034127274713456 0 0.12986776683311119 -0.098514185565799078 0 0.14348993397904131 -0.092765062884646393 0 0.12986776683311119 -0.098514185565799078 0 0.12840026197867099 -0.078951386265116219 0 0.1428482005174804 -0.076716741777837147 0 0.1191358060176364 -0.092450830711447801 0 0.12986776683311119 -0.098514185565799078 0 0.12840026197867099 -0.078951386265116219 0 0.12986776683311119 -0.098514185565799078 0 0.12840026197867099 -0.078951386265116219 0 0.12840026197867099 -0.078951386265116219 0 0.12664898879935529 -0.055605769639440771 0 0.12840026197867099 -0.078951386265116219 0 0.12664898879935529 -0.055605769639440771 0 0.14464694777039611 -0.055277979731059648 0 0.12840026197867099 -0.078951386265116219 0 0.1428482005174804 -0.076716741777837147 0 0.14464694777039611 -0.055277979731059648 0 0.12840026197867099 -0.078951386265116219 0 0.14464694777039611 -0.055277979731059648 0 0.1428482005174804 -0.076716741777837147 0 0.15680899227989839 -0.06637062400294011 0 0.14464694777039611 -0.055277979731059648 0 0.1428482005174804 -0.076716741777837147 0 0.15451703372532541 -0.084469533324270707 0 0.15680899227989839 -0.06637062400294011 0 0.12986776683311119 -0.098514185565799078 0 0.15451703372532541 -0.084469533324270707 0 0.12986776683311119 -0.098514185565799078 0 0.14348993397904131 -0.092765062884646393 0 0.15451703372532541 -0.084469533324270707 0 0.14348993397904131 -0.092765062884646393 0 0.15451703372532541 -0.084469533324270707 0 0.1620153957752187 -0.097165399419701551 0 0.12986776683311119 -0.098514185565799078 0 0.1428482005174804 -0.076716741777837147 0 0.15451703372532541 -0.084469533324270707 0 0.15451703372532541 -0.084469533324270707 0 0.1674193516126988 -0.088794767656503876 0 0.1620153957752187 -0.097165399419701551 0 0.15451703372532541 -0.084469533324270707 0 0.1674193516126988 -0.088794767656503876 0 0.16389165652408541 -0.076485311925560115 0 0.1674193516126988 -0.088794767656503876 0 0.16389165652408541 -0.076485311925560115 0 0.17613181446746839 -0.084287857658230353 0 0.15451703372532541 -0.084469533324270707 0 0.15680899227989839 -0.06637062400294011 0 0.16389165652408541 -0.076485311925560115 0 0.16389165652408541 -0.076485311925560115 0 0.1717227713635387 -0.067009979361705274 0 0.17613181446746839 -0.084287857658230353 0 0.15680899227989839 -0.06637062400294011 0 0.16389165652408541 -0.076485311925560115 0 0.1717227713635387 -0.067009979361705274 0 0.15680899227989839 -0.06637062400294011 0 0.1717227713635387 -0.067009979361705274 0 0.1652446184022294 -0.054500080927008407 0 0.1717227713635387 -0.067009979361705274 0 0.17613181446746839 -0.084287857658230353 0 0.1717227713635387 -0.067009979361705274 0 0.18346211879182289 -0.064955309332027283 0 0.18137547142311691 -0.085525622921553163 0 0.18346211879182289 -0.064955309332027283 0 0.18137547142311691 -0.085525622921553163 0 0.1952329782378138 -0.068464889048657496 0 0.1717227713635387 -0.067009979361705274 0 0.18137547142311691 -0.085525622921553163 0 0.1717227713635387 -0.067009979361705274 0 0.18346211879182289 -0.064955309332027283 0 0.1746283364613696 -0.057560297553190053 0 0.18137547142311691 -0.085525622921553163 0 0.17613181446746839 -0.084287857658230353 0 0.18054085757139629 -0.1015657359547559 0 0.17613181446746839 -0.084287857658230353 0 0.18054085757139629 -0.1015657359547559 0 0.1674193516126988 -0.088794767656503876 0 0.17613181446746839 -0.084287857658230353 0 0.18054085757139629 -0.1015657359547559 0 0.1717227713635387 -0.067009979361705274 0 0.18137547142311691 -0.085525622921553163 0 0.17613181446746839 -0.084287857658230353 0 0.18137547142311691 -0.085525622921553163 0 0.19100769245097829 -0.1040519139747048 0 0.18137547142311691 -0.085525622921553163 0 0.18054085757139629 -0.1015657359547559 0 0.19100769245097829 -0.1040519139747048 0 0.18054085757139629 -0.1015657359547559 0 0.1749190978293893 -0.1165979942053425 0 0.16884250162088479 -0.1080310140379921 0 0.18054085757139629 -0.1015657359547559 0 0.19100769245097829 -0.1040519139747048 0 0.18054085757139629 -0.1015657359547559 0 0.1862357176231304 -0.1238823921021804 0 0.1749190978293893 -0.1165979942053425 0 0.18054085757139629 -0.1015657359547559 0 0.1862357176231304 -0.1238823921021804 0 0.19100769245097829 -0.1040519139747048 0 0.18054085757139629 -0.1015657359547559 0 0.1862357176231304 -0.1238823921021804 0 0.1862357176231304 -0.1238823921021804 0 0.1749190978293893 -0.1165979942053425 0 0.17324983187337631 -0.13165498831909611 0 0.1749190978293893 -0.1165979942053425 0 0.16471491079178111 -0.1205264202314431 0 0.16884250162088479 -0.1080310140379921 0 0.16471491079178111 -0.1205264202314431 0 0.15999890680388329 -0.1096406796162286 0 0.16884250162088479 -0.1080310140379921 0 0.1749190978293893 -0.1165979942053425 0 0.16471491079178111 -0.1205264202314431 0 0.17324983187337631 -0.13165498831909611 0 0.15485465026004211 -0.11932571079310079 0 0.16471491079178111 -0.1205264202314431 0 0.15557261582888751 -0.13003178131142151 0 0.15485465026004211 -0.11932571079310079 0 0.16471491079178111 -0.1205264202314431 0 0.15999890680388329 -0.1096406796162286 0 0.18054085757139629 -0.1015657359547559 0 0.1620153957752187 -0.097165399419701551 0 0.1674193516126988 -0.088794767656503876 0 0.18054085757139629 -0.1015657359547559 0 0.1620153957752187 -0.097165399419701551 0 0.14925441928633251 -0.10969288085116551 0 0.15999890680388329 -0.1096406796162286 0 0.1620153957752187 -0.097165399419701551 0 0.15999890680388329 -0.1096406796162286 0 0.1620153957752187 -0.097165399419701551 0 0.16884250162088479 -0.1080310140379921 0 0.18054085757139629 -0.1015657359547559 0 0.1620153957752187 -0.097165399419701551 0 0.16884250162088479 -0.1080310140379921 0 0.13464870039648349 0.00080453217212592717 0 0.15480995508657039 -0.001084596553268768 0 0.14892696920713289 -0.018041582065753459 0 0.13464870039648349 0.00080453217212592717 0 0.1294320674019063 -0.023146095115484211 0 0.14892696920713289 -0.018041582065753459 0 0.13464870039648349 0.00080453217212592717 0 0.1112777463759113 -0.012222875866518469 0 0.1294320674019063 -0.023146095115484211 0 0.1294320674019063 -0.023146095115484211 0 0.14892696920713289 -0.018041582065753459 0 0.14270131340979469 -0.036531096068384838 0 0.14892696920713289 -0.018041582065753459 0 0.14270131340979469 -0.036531096068384838 0 0.16089363356212191 -0.031604573197003549 0 0.14270131340979469 -0.036531096068384838 0 0.14464694777039611 -0.055277979731059648 0 0.16089363356212191 -0.031604573197003549 0 0.14464694777039611 -0.055277979731059648 0 0.15561449558007559 -0.051164132387281437 0 0.16089363356212191 -0.031604573197003549 0 0.14464694777039611 -0.055277979731059648 0 0.16089363356212191 -0.031604573197003549 0 0.14270131340979469 -0.036531096068384838 0 0.12954193793015309 -0.041748568408345607 0 0.14464694777039611 -0.055277979731059648 0 0.1294320674019063 -0.023146095115484211 0 0.14270131340979469 -0.036531096068384838 0 0.12954193793015309 -0.041748568408345607 0 0.12954193793015309 -0.041748568408345607 0 0.12664898879935529 -0.055605769639440771 0 0.14464694777039611 -0.055277979731059648 0 0.15680899227989839 -0.06637062400294011 0 0.14464694777039611 -0.055277979731059648 0 0.15561449558007559 -0.051164132387281437 0 0.15680899227989839 -0.06637062400294011 0 0.15561449558007559 -0.051164132387281437 0 0.1652446184022294 -0.054500080927008407 0 0.15561449558007559 -0.051164132387281437 0 0.1652446184022294 -0.054500080927008407 0 0.1617942405007988 -0.043199732881276223 0 0.1652446184022294 -0.054500080927008407 0 0.1746283364613696 -0.057560297553190053 0 0.1617942405007988 -0.043199732881276223 0 0.1717227713635387 -0.067009979361705274 0 0.1652446184022294 -0.054500080927008407 0 0.1717227713635387 -0.067009979361705274 0 0.1652446184022294 -0.054500080927008407 0 0.1746283364613696 -0.057560297553190053 0 0.1746283364613696 -0.057560297553190053 0 0.1828119860636557 -0.050363577362968731 0 0.1617942405007988 -0.043199732881276223 0 0.18346211879182289 -0.064955309332027283 0 0.1746283364613696 -0.057560297553190053 0 0.1828119860636557 -0.050363577362968731 0 0.18346211879182289 -0.064955309332027283 0 0.1828119860636557 -0.050363577362968731 0 0.19188844298534441 -0.056659859735039647 0 0.1617942405007988 -0.043199732881276223 0 0.18853740735089011 -0.033706188378118708 0 0.1828119860636557 -0.050363577362968731 0 0.1617942405007988 -0.043199732881276223 0 0.18853740735089011 -0.033706188378118708 0 0.15561449558007559 -0.051164132387281437 0 0.16089363356212191 -0.031604573197003549 0 0.1617942405007988 -0.043199732881276223 0 0.16089363356212191 -0.031604573197003549 0 0.1617942405007988 -0.043199732881276223 0 0.18853740735089011 -0.033706188378118708 0 0.16089363356212191 -0.031604573197003549 0 0.17714031935384769 -0.0079311666629475405 0 0.14892696920713289 -0.018041582065753459 0 0.16089363356212191 -0.031604573197003549 0 0.17714031935384769 -0.0079311666629475405 0 0.16089363356212191 -0.031604573197003549 0 0.17714031935384769 -0.0079311666629475405 0 0.18853740735089011 -0.033706188378118708 0 0.1657030786406338 0.0084270166623369204 0 0.15480995508657039 -0.001084596553268768 0 0.17714031935384769 -0.0079311666629475405 0 0.15480995508657039 -0.001084596553268768 0 0.14892696920713289 -0.018041582065753459 0 0.17714031935384769 -0.0079311666629475405 0 0.21351355446813719 -0.0021103410187178909 0 0.2110126965438916 -0.012672932103663791 0 0.2228246624943325 -0.0092295053444410857 0 0.2110126965438916 -0.012672932103663791 0 0.21911622703360889 -0.015650702578479541 0 0.2228246624943325 -0.0092295053444410857 0 0.21351355446813719 -0.0021103410187178909 0 0.2110126965438916 -0.012672932103663791 0 0.19836939172364151 -0.01016904411482358 0 0.1998105265397013 0.00335350757378736 0 0.21351355446813719 -0.0021103410187178909 0 0.19836939172364151 -0.01016904411482358 0 0.1998105265397013 0.00335350757378736 0 0.17714031935384769 -0.0079311666629475405 0 0.19836939172364151 -0.01016904411482358 0 0.17714031935384769 -0.0079311666629475405 0 0.19836939172364151 -0.01016904411482358 0 0.18853740735089011 -0.033706188378118708 0 0.2110126965438916 -0.012672932103663791 0 0.19836939172364151 -0.01016904411482358 0 0.18853740735089011 -0.033706188378118708 0 0.21528057420098159 -0.024212643874961401 0 0.18853740735089011 -0.033706188378118708 0 0.2110126965438916 -0.012672932103663791 0 0.21528057420098159 -0.024212643874961401 0 0.18853740735089011 -0.033706188378118708 0 0.21528057420098159 -0.024212643874961401 0 0.20886364623554921 -0.031523512657201581 0 0.18853740735089011 -0.033706188378118708 0 0.2110126965438916 -0.012672932103663791 0 0.21528057420098159 -0.024212643874961401 0 0.21911622703360889 -0.015650702578479541 0 0.21528057420098159 -0.024212643874961401 0 0.2158000993154765 -0.027276596113623111 0 0.21360323626451261 -0.02858374534336202 0 0.21528057420098159 -0.024212643874961401 0 0.2158000993154765 -0.027276596113623111 0 0.21995729679401421 -0.029331280632926501 0 0.2158000993154765 -0.027276596113623111 0 0.21503400689837671 -0.030930810510401429 0 0.21995729679401421 -0.029331280632926501 0 0.2158000993154765 -0.027276596113623111 0 0.21503400689837671 -0.030930810510401429 0 0.21360323626451261 -0.02858374534336202 0 0.21528057420098159 -0.024212643874961401 0 0.21360323626451261 -0.02858374534336202 0 0.20886364623554921 -0.031523512657201581 0 0.21503400689837671 -0.030930810510401429 0 0.21360323626451261 -0.02858374534336202 0 0.20886364623554921 -0.031523512657201581 0 0.2128060919330283 -0.035124071741943173 0 0.2180191377477218 -0.035203133534298187 0 0.2167024847658664 -0.043974661413588162 0 0.21503400689837671 -0.030930810510401429 0 0.2128060919330283 -0.035124071741943173 0 0.20886364623554921 -0.031523512657201581 0 0.21503400689837671 -0.030930810510401429 0 0.2128060919330283 -0.035124071741943173 0 0.2180191377477218 -0.035203133534298187 0 0.21503400689837671 -0.030930810510401429 0 0.2180191377477218 -0.035203133534298187 0 0.21995729679401421 -0.029331280632926501 0 0.2167024847658664 -0.043974661413588162 0 0.20890374551960481 -0.040729144831228678 0 0.20897987019450001 -0.050060865146210963 0 0.2128060919330283 -0.035124071741943173 0 0.2167024847658664 -0.043974661413588162 0 0.20890374551960481 -0.040729144831228678 0 0.20890374551960481 -0.040729144831228678 0 0.19655169947710091 -0.043788383486002072 0 0.20897987019450001 -0.050060865146210963 0 0.2128060919330283 -0.035124071741943173 0 0.20890374551960481 -0.040729144831228678 0 0.20886364623554921 -0.031523512657201581 0 0.20890374551960481 -0.040729144831228678 0 0.20886364623554921 -0.031523512657201581 0 0.19655169947710091 -0.043788383486002072 0 0.1828119860636557 -0.050363577362968731 0 0.18853740735089011 -0.033706188378118708 0 0.19655169947710091 -0.043788383486002072 0 0.20886364623554921 -0.031523512657201581 0 0.18853740735089011 -0.033706188378118708 0 0.19655169947710091 -0.043788383486002072 0 0.19655169947710091 -0.043788383486002072 0 0.20138343235632811 -0.055727139445542639 0 0.20897987019450001 -0.050060865146210963 0 0.19655169947710091 -0.043788383486002072 0 0.19188844298534441 -0.056659859735039647 0 0.20138343235632811 -0.055727139445542639 0 0.1828119860636557 -0.050363577362968731 0 0.19655169947710091 -0.043788383486002072 0 0.19188844298534441 -0.056659859735039647 0 0.19188844298534441 -0.056659859735039647 0 0.20138343235632811 -0.055727139445542639 0 0.1952329782378138 -0.068464889048657496 0 0.20138343235632811 -0.055727139445542639 0 0.22670270369963491 -0.067064047377793826 0 0.20138343235632811 -0.055727139445542639 0 0.21577564808412511 -0.056666161138016313 0 0.22670270369963491 -0.067064047377793826 0 0.20138343235632811 -0.055727139445542639 0 0.20897987019450001 -0.050060865146210963 0 0.21577564808412511 -0.056666161138016313 0 0.2167024847658664 -0.043974661413588162 0 0.20897987019450001 -0.050060865146210963 0 0.21577564808412511 -0.056666161138016313 0 0.21577564808412511 -0.056666161138016313 0 0.23694359709532001 -0.061394592404840097 0 0.22670270369963491 -0.067064047377793826 0 0.21577564808412511 -0.056666161138016313 0 0.22648325856373289 -0.049317463857355977 0 0.23694359709532001 -0.061394592404840097 0 0.21577564808412511 -0.056666161138016313 0 0.23694359709532001 -0.061394592404840097 0 0.2167024847658664 -0.043974661413588162 0 0.21577564808412511 -0.056666161138016313 0 0.22648325856373289 -0.049317463857355977 0 0.22648325856373289 -0.049317463857355977 0 0.23694359709532001 -0.061394592404840097 0 0.23716366819637241 -0.046229271507985323 0 0.25811154610651499 -0.066123023671663908 0 0.23694359709532001 -0.061394592404840097 0 0.24870160087168189 -0.052882304334001928 0 0.23694359709532001 -0.061394592404840097 0 0.24870160087168189 -0.052882304334001928 0 0.23716366819637241 -0.046229271507985323 0 0.24870160087168189 -0.052882304334001928 0 0.23716366819637241 -0.046229271507985323 0 0.24731406762381819 -0.035960341631652723 0 0.23716366819637241 -0.046229271507985323 0 0.24731406762381819 -0.035960341631652723 0 0.23342582712955959 -0.033308149953783547 0 0.23342582712955959 -0.033308149953783547 0 0.2258308946769807 -0.038322632822349968 0 0.22548915127375299 -0.027513718828695861 0 0.22648325856373289 -0.049317463857355977 0 0.23716366819637241 -0.046229271507985323 0 0.2258308946769807 -0.038322632822349968 0 0.23716366819637241 -0.046229271507985323 0 0.23342582712955959 -0.033308149953783547 0 0.2258308946769807 -0.038322632822349968 0 0.2180191377477218 -0.035203133534298187 0 0.2167024847658664 -0.043974661413588162 0 0.2258308946769807 -0.038322632822349968 0 0.2167024847658664 -0.043974661413588162 0 0.22648325856373289 -0.049317463857355977 0 0.2258308946769807 -0.038322632822349968 0 0.2180191377477218 -0.035203133534298187 0 0.2258308946769807 -0.038322632822349968 0 0.21995729679401421 -0.029331280632926501 0 0.2258308946769807 -0.038322632822349968 0 0.22548915127375299 -0.027513718828695861 0 0.21995729679401421 -0.029331280632926501 0 0.21528057420098159 -0.024212643874961401 0 0.2313313538768734 -0.018514784978234038 0 0.22829619310998309 -0.01520182636873813 0 0.21528057420098159 -0.024212643874961401 0 0.2313313538768734 -0.018514784978234038 0 0.21528057420098159 -0.024212643874961401 0 0.22548915127375299 -0.027513718828695861 0 0.2313313538768734 -0.018514784978234038 0 0.21528057420098159 -0.024212643874961401 0 0.22548915127375299 -0.027513718828695861 0 0.21995729679401421 -0.029331280632926501 0 0.21528057420098159 -0.024212643874961401 0 0.22829619310998309 -0.01520182636873813 0 0.21528057420098159 -0.024212643874961401 0 0.21911622703360889 -0.015650702578479541 0 0.22829619310998309 -0.01520182636873813 0 0.2313313538768734 -0.018514784978234038 0 0.22829619310998309 -0.01520182636873813 0 0.23342582712955959 -0.033308149953783547 0 0.22548915127375299 -0.027513718828695861 0 0.2313313538768734 -0.018514784978234038 0 0.25508119948702751 -0.010083838205662381 0 0.2313313538768734 -0.018514784978234038 0 0.2482857443068576 -0.021714794414400052 0 0.24731406762381819 -0.035960341631652723 0 0.2313313538768734 -0.018514784978234038 0 0.2482857443068576 -0.021714794414400052 0 0.24731406762381819 -0.035960341631652723 0 0.23342582712955959 -0.033308149953783547 0 0.2313313538768734 -0.018514784978234038 0 0.24731406762381819 -0.035960341631652723 0 0.2313313538768734 -0.018514784978234038 0 0.25508119948702751 -0.010083838205662381 0 0.2313313538768734 -0.018514784978234038 0 0.24138147174972829 -0.0061427828714447699 0 0.25508119948702751 -0.010083838205662381 0 0.2313313538768734 -0.018514784978234038 0 0.24138147174972829 -0.0061427828714447699 0 0.22829619310998309 -0.01520182636873813 0 0.25446675038947358 0.0029162606258486688 0 0.2541426920980116 -0.0036136263454906951 0 0.24138147174972829 -0.0061427828714447699 0 0.25446675038947358 0.0029162606258486688 0 0.24138147174972829 -0.0061427828714447699 0 0.22999165343287109 0.0038227322559807589 0 0.24138147174972829 -0.0061427828714447699 0 0.23189167676904729 -0.0064153040848911828 0 0.22999165343287109 0.0038227322559807589 0 0.23189167676904729 -0.0064153040848911828 0 0.2228246624943325 -0.0092295053444410857 0 0.22999165343287109 0.0038227322559807589 0 0.21351355446813719 -0.0021103410187178909 0 0.2228246624943325 -0.0092295053444410857 0 0.23189167676904729 -0.0064153040848911828 0 0.22829619310998309 -0.01520182636873813 0 0.2228246624943325 -0.0092295053444410857 0 0.2313313538768734 -0.018514784978234038 0 0.24138147174972829 -0.0061427828714447699 0 0.22829619310998309 -0.01520182636873813 0 0.24138147174972829 -0.0061427828714447699 0 0.23189167676904729 -0.0064153040848911828 0 0.22829619310998309 -0.01520182636873813 0 0.21911622703360889 -0.015650702578479541 0 0.22829619310998309 -0.01520182636873813 0 0.2228246624943325 -0.0092295053444410857 0 0.22829619310998309 -0.01520182636873813 0 0.2228246624943325 -0.0092295053444410857 0 0.2084634723971549 -0.097930235578601213 0 0.21737999015654699 -0.1103161024944793 0 0.2275791846540145 -0.10054182369239011 0 0.21737999015654699 -0.1103161024944793 0 0.19100769245097829 -0.1040519139747048 0 0.2084634723971549 -0.097930235578601213 0 0.21140608144591419 -0.084503356370523836 0 0.2275791846540145 -0.10054182369239011 0 0.2084634723971549 -0.097930235578601213 0 0.21737999015654699 -0.1103161024944793 0 0.19100769245097829 -0.1040519139747048 0 0.21737999015654699 -0.1103161024944793 0 0.21277072480774051 -0.1248863227998855 0 0.20025029595199689 -0.1218288277367077 0 0.21737999015654699 -0.1103161024944793 0 0.21277072480774051 -0.1248863227998855 0 0.2239597136694004 -0.1277946194696456 0 0.1862357176231304 -0.1238823921021804 0 0.20025029595199689 -0.1218288277367077 0 0.19100769245097829 -0.1040519139747048 0 0.21737999015654699 -0.1103161024944793 0 0.20025029595199689 -0.1218288277367077 0 0.19100769245097829 -0.1040519139747048 0 0.20025029595199689 -0.1218288277367077 0 0.19100769245097829 -0.1040519139747048 0 0.2084634723971549 -0.097930235578601213 0 0.19100769245097829 -0.1040519139747048 0 0.19624682445825681 -0.08914472739044943 0 0.18137547142311691 -0.085525622921553163 0 0.19100769245097829 -0.1040519139747048 0 0.19624682445825681 -0.08914472739044943 0 0.19624682445825681 -0.08914472739044943 0 0.1952329782378138 -0.068464889048657496 0 0.21140608144591419 -0.084503356370523836 0 0.18137547142311691 -0.085525622921553163 0 0.19624682445825681 -0.08914472739044943 0 0.1952329782378138 -0.068464889048657496 0 0.20138343235632811 -0.055727139445542639 0 0.1952329782378138 -0.068464889048657496 0 0.21149591893834541 -0.070957707586151192 0 0.18346211879182289 -0.064955309332027283 0 0.19188844298534441 -0.056659859735039647 0 0.1952329782378138 -0.068464889048657496 0 0.1952329782378138 -0.068464889048657496 0 0.21140608144591419 -0.084503356370523836 0 0.20138343235632811 -0.055727139445542639 0 0.21149591893834541 -0.070957707586151192 0 0.22670270369963491 -0.067064047377793826 0 0.1952329782378138 -0.068464889048657496 0 0.21149591893834541 -0.070957707586151192 0 0.21140608144591419 -0.084503356370523836 0 0.2084634723971549 -0.097930235578601213 0 0.19624682445825681 -0.08914472739044943 0 0.21140608144591419 -0.084503356370523836 0 0.21149591893834541 -0.070957707586151192 0 0.21140608144591419 -0.084503356370523836 0 0.2227543989520358 -0.079029105688238177 0 0.21140608144591419 -0.084503356370523836 0 0.2275791846540145 -0.10054182369239011 0 0.2227543989520358 -0.079029105688238177 0 0.23449163343577681 -0.083610487294907485 0 0.2275791846540145 -0.10054182369239011 0 0.21140608144591419 -0.084503356370523836 0 0.2227543989520358 -0.079029105688238177 0 0.2275791846540145 -0.10054182369239011 0 0.2227543989520358 -0.079029105688238177 0 0.22670270369963491 -0.067064047377793826 0 0.23449163343577681 -0.083610487294907485 0 0.21149591893834541 -0.070957707586151192 0 0.2227543989520358 -0.079029105688238177 0 0.22670270369963491 -0.067064047377793826 0 0.25202197504294188 -0.078400955310045109 0 0.25811154610651499 -0.066123023671663908 0 0.23694359709532001 -0.061394592404840097 0 0.25202197504294188 -0.078400955310045109 0 0.22670270369963491 -0.067064047377793826 0 0.25202197504294188 -0.078400955310045109 0 0.22670270369963491 -0.067064047377793826 0 0.23449163343577681 -0.083610487294907485 0 0.25202197504294188 -0.078400955310045109 0 0.23694359709532001 -0.061394592404840097 0 0.22670270369963491 -0.067064047377793826 0 0.25811154610651499 -0.066123023671663908 0 0.23694359709532001 -0.061394592404840097 0 0.25202197504294188 -0.078400955310045109 0 0.23449163343577681 -0.083610487294907485 0 0.24624903761231479 -0.086847438891893419 0 0.23449163343577681 -0.083610487294907485 0 0.24292322406264641 -0.096552741650977186 0 0.2275791846540145 -0.10054182369239011 0 0.23449163343577681 -0.083610487294907485 0 0.24624903761231479 -0.086847438891893419 0 0.24292322406264641 -0.096552741650977186 0 0.25304747237378489 -0.090741332181114118 0 0.24624903761231479 -0.086847438891893419 0 0.24292322406264641 -0.096552741650977186 0 0.2275791846540145 -0.10054182369239011 0 0.24375228786211539 -0.116580291014256 0 0.24292322406264641 -0.096552741650977186 0 0.2275791846540145 -0.10054182369239011 0 0.24375228786211539 -0.116580291014256 0 0.25771864553297669 -0.099620140202181948 0 0.24292322406264641 -0.096552741650977186 0 0.24375228786211539 -0.116580291014256 0 0.21737999015654699 -0.1103161024944793 0 0.2275791846540145 -0.10054182369239011 0 0.24375228786211539 -0.116580291014256 0 0.21737999015654699 -0.1103161024944793 0 0.24375228786211539 -0.116580291014256 0 0.2239597136694004 -0.1277946194696456 0 0.21737999015654699 -0.1103161024944793 0 0.24375228786211539 -0.116580291014256 0 0.24375228786211539 -0.116580291014256 0 0.235054631712311 -0.13955626642273861 0 0.24955680073527009 -0.143898101237383 0 0.235054631712311 -0.13955626642273861 0 0.24955680073527009 -0.143898101237383 0 0.23627457688356679 -0.15840319400941011 0 0.25449645062408999 -0.16331052089379791 0 0.24955680073527009 -0.143898101237383 0 0.23627457688356679 -0.15840319400941011 0 0.235054631712311 -0.13955626642273861 0 0.22199130801810529 -0.1478171468904442 0 0.23627457688356679 -0.15840319400941011 0 0.24375228786211539 -0.116580291014256 0 0.235054631712311 -0.13955626642273861 0 0.2239597136694004 -0.1277946194696456 0 0.235054631712311 -0.13955626642273861 0 0.22199130801810529 -0.1478171468904442 0 0.2239597136694004 -0.1277946194696456 0 0.20025029595199689 -0.1218288277367077 0 0.20949289945301761 -0.1396057414987095 0 0.22199130801810529 -0.1478171468904442 0 0.2239597136694004 -0.1277946194696456 0 0.20949289945301761 -0.1396057414987095 0 0.21277072480774051 -0.1248863227998855 0 0.20025029595199689 -0.1218288277367077 0 0.20949289945301761 -0.1396057414987095 0 0.21277072480774051 -0.1248863227998855 0 0.2239597136694004 -0.1277946194696456 0 0.20949289945301761 -0.1396057414987095 0 0.22199130801810529 -0.1478171468904442 0 0.20949289945301761 -0.1396057414987095 0 0.2069794531536403 -0.1537888919124783 0 0.20949289945301761 -0.1396057414987095 0 0.2069794531536403 -0.1537888919124783 0 0.1919305776748628 -0.1461990482496055 0 0.2069794531536403 -0.1537888919124783 0 0.1919305776748628 -0.1461990482496055 0 0.19225769977326759 -0.16432491474026781 0 0.1862357176231304 -0.1238823921021804 0 0.1919305776748628 -0.1461990482496055 0 0.19714487019074359 -0.1333469628700395 0 0.20025029595199689 -0.1218288277367077 0 0.20949289945301761 -0.1396057414987095 0 0.19714487019074359 -0.1333469628700395 0 0.20949289945301761 -0.1396057414987095 0 0.1919305776748628 -0.1461990482496055 0 0.19714487019074359 -0.1333469628700395 0 0.1862357176231304 -0.1238823921021804 0 0.1919305776748628 -0.1461990482496055 0 0.1862357176231304 -0.1238823921021804 0 0.20025029595199689 -0.1218288277367077 0 0.19714487019074359 -0.1333469628700395 0 0.19629081049063871 -0.1815365299480412 0 0.19225769977326759 -0.16432491474026781 0 0.17982600751226671 -0.1762593337595659 0 0.19629081049063871 -0.1815365299480412 0 0.19225769977326759 -0.16432491474026781 0 0.22018657323669569 -0.16775416802968299 0 0.2069794531536403 -0.1537888919124783 0 0.19225769977326759 -0.16432491474026781 0 0.22018657323669569 -0.16775416802968299 0 0.22199130801810529 -0.1478171468904442 0 0.2069794531536403 -0.1537888919124783 0 0.22018657323669569 -0.16775416802968299 0 0.19629081049063871 -0.1815365299480412 0 0.22018657323669569 -0.16775416802968299 0 0.21237941264848451 -0.18810475376770611 0 0.22018657323669569 -0.16775416802968299 0 0.23934418379307471 -0.18436482883247621 0 0.22018657323669569 -0.16775416802968299 0 0.23934418379307471 -0.18436482883247621 0 0.21237941264848451 -0.18810475376770611 0 0.22018657323669569 -0.16775416802968299 0 0.23627457688356679 -0.15840319400941011 0 0.23934418379307471 -0.18436482883247621 0 0.22199130801810529 -0.1478171468904442 0 0.22018657323669569 -0.16775416802968299 0 0.23627457688356679 -0.15840319400941011 0 0.25449645062408999 -0.16331052089379791 0 0.23627457688356679 -0.15840319400941011 0 0.23934418379307471 -0.18436482883247621 0 0.25850179434945381 -0.20097548963526929 0 0.23934418379307471 -0.18436482883247621 0 0.25850179434945381 -0.20097548963526929 0 0.23934418379307471 -0.18436482883247621 0 0.23907695871134879 -0.21289681242661959 0 0.23907695871134879 -0.21289681242661959 0 0.22308479462261119 -0.20217133576560289 0 0.21722062693650279 -0.2226466586169516 0 0.23934418379307471 -0.18436482883247621 0 0.22308479462261119 -0.20217133576560289 0 0.21237941264848451 -0.18810475376770611 0 0.23934418379307471 -0.18436482883247621 0 0.23907695871134879 -0.21289681242661959 0 0.22308479462261119 -0.20217133576560289 0 0.25037283077400019 -0.2416092145933311 0 0.23239962387573149 -0.2337287944253621 0 0.2339549802858914 -0.24933471903745599 0 0.25658827463044448 -0.2222138965281123 0 0.23907695871134879 -0.21289681242661959 0 0.2446094219978813 -0.2276121794933563 0 0.25037283077400019 -0.2416092145933311 0 0.2446094219978813 -0.2276121794933563 0 0.23239962387573149 -0.2337287944253621 0 0.23907695871134879 -0.21289681242661959 0 0.2446094219978813 -0.2276121794933563 0 0.23239962387573149 -0.2337287944253621 0 0.23907695871134879 -0.21289681242661959 0 0.23239962387573149 -0.2337287944253621 0 0.21722062693650279 -0.2226466586169516 0 0.23239962387573149 -0.2337287944253621 0 0.2194561222393229 -0.23682627783696539 0 0.21722062693650279 -0.2226466586169516 0 0.23239962387573149 -0.2337287944253621 0 0.22502312889380549 -0.2426362774769398 0 0.2339549802858914 -0.24933471903745599 0 0.2194561222393229 -0.23682627783696539 0 0.22502312889380549 -0.2426362774769398 0 0.21456577207223029 -0.24270171036535029 0 0.23239962387573149 -0.2337287944253621 0 0.2194561222393229 -0.23682627783696539 0 0.22502312889380549 -0.2426362774769398 0 0.22331750647786899 -0.25281133177650322 0 0.22502312889380549 -0.2426362774769398 0 0.21456577207223029 -0.24270171036535029 0 0.22331750647786899 -0.25281133177650322 0 0.22502312889380549 -0.2426362774769398 0 0.2339549802858914 -0.24933471903745599 0 0.2084475354763706 -0.25511513831035743 0 0.2080714594183444 -0.2424179483002232 0 0.21336353465090491 -0.24693864317134839 0 0.2080714594183444 -0.2424179483002232 0 0.21336353465090491 -0.24693864317134839 0 0.2080714594183444 -0.2424179483002232 0 0.21336353465090491 -0.24693864317134839 0 0.21456577207223029 -0.24270171036535029 0 0.2194561222393229 -0.23682627783696539 0 0.2080714594183444 -0.2424179483002232 0 0.21456577207223029 -0.24270171036535029 0 0.21722062693650279 -0.2226466586169516 0 0.20244123733496699 -0.2260211367091485 0 0.19848523837712481 -0.2136299623964425 0 0.2080714594183444 -0.2424179483002232 0 0.21722062693650279 -0.2226466586169516 0 0.2194561222393229 -0.23682627783696539 0 0.2080714594183444 -0.2424179483002232 0 0.21722062693650279 -0.2226466586169516 0 0.2080714594183444 -0.2424179483002232 0 0.21722062693650279 -0.2226466586169516 0 0.20244123733496699 -0.2260211367091485 0 0.2080714594183444 -0.2424179483002232 0 0.18716213711817259 -0.22455639835484539 0 0.2080714594183444 -0.2424179483002232 0 0.20244123733496699 -0.2260211367091485 0 0.18716213711817259 -0.22455639835484539 0 0.20244123733496699 -0.2260211367091485 0 0.19848523837712481 -0.2136299623964425 0 0.18716213711817259 -0.22455639835484539 0 0.2080714594183444 -0.2424179483002232 0 0.19254414318066221 -0.24961624770678509 0 0.1866817818972302 -0.23981118877977231 0 0.2080714594183444 -0.2424179483002232 0 0.1866817818972302 -0.23981118877977231 0 0.18716213711817259 -0.22455639835484539 0 0.19254414318066221 -0.24961624770678509 0 0.18399505531774341 -0.24981832115951039 0 0.1866817818972302 -0.23981118877977231 0 0.21237941264848451 -0.18810475376770611 0 0.20793523744788639 -0.20366419955677639 0 0.19447652973028121 -0.19759128756789451 0 0.22308479462261119 -0.20217133576560289 0 0.21237941264848451 -0.18810475376770611 0 0.20793523744788639 -0.20366419955677639 0 0.22308479462261119 -0.20217133576560289 0 0.21722062693650279 -0.2226466586169516 0 0.20793523744788639 -0.20366419955677639 0 0.21722062693650279 -0.2226466586169516 0 0.20793523744788639 -0.20366419955677639 0 0.19848523837712481 -0.2136299623964425 0 0.19848523837712481 -0.2136299623964425 0 0.19447652973028121 -0.19759128756789451 0 0.1831457957419608 -0.2071674304332729 0 0.20793523744788639 -0.20366419955677639 0 0.19848523837712481 -0.2136299623964425 0 0.19447652973028121 -0.19759128756789451 0 0.19848523837712481 -0.2136299623964425 0 0.1831457957419608 -0.2071674304332729 0 0.18716213711817259 -0.22455639835484539 0 0.19629081049063871 -0.1815365299480412 0 0.19447652973028121 -0.19759128756789451 0 0.1840061663436266 -0.1900566622106199 0 0.19629081049063871 -0.1815365299480412 0 0.21237941264848451 -0.18810475376770611 0 0.19447652973028121 -0.19759128756789451 0 0.19447652973028121 -0.19759128756789451 0 0.1840061663436266 -0.1900566622106199 0 0.1831457957419608 -0.2071674304332729 0 0.1840061663436266 -0.1900566622106199 0 0.1831457957419608 -0.2071674304332729 0 0.16486725365112659 -0.18785963188663279 0 0.1831457957419608 -0.2071674304332729 0 0.16486725365112659 -0.18785963188663279 0 0.1831457957419608 -0.2071674304332729 0 0.16625281481800089 -0.2066948484094672 0 0.18716213711817259 -0.22455639835484539 0 0.16625281481800089 -0.2066948484094672 0 0.18716213711817259 -0.22455639835484539 0 0.16625281481800089 -0.2066948484094672 0 0.18716213711817259 -0.22455639835484539 0 0.16937657335138201 -0.22198425569814831 0 0.16625281481800089 -0.2066948484094672 0 0.15661990237239229 -0.21733625041789439 0 0.14909823278687431 -0.20687378182447139 0 0.16625281481800089 -0.2066948484094672 0 0.15661990237239229 -0.21733625041789439 0 0.16937657335138201 -0.22198425569814831 0 0.1831457957419608 -0.2071674304332729 0 0.16625281481800089 -0.2066948484094672 0 0.16486725365112659 -0.18785963188663279 0 0.16625281481800089 -0.2066948484094672 0 0.16486725365112659 -0.18785963188663279 0 0.14534349251782941 -0.188833298464089 0 0.17619278994504239 -0.24587918172992959 0 0.18399505531774341 -0.24981832115951039 0 0.1866817818972302 -0.23981118877977231 0 0.17619278994504239 -0.24587918172992959 0 0.17450151464944069 -0.23276490516368609 0 0.16609645978724119 -0.24143951784646769 0 0.17619278994504239 -0.24587918172992959 0 0.1866817818972302 -0.23981118877977231 0 0.17450151464944069 -0.23276490516368609 0 0.17450151464944069 -0.23276490516368609 0 0.18716213711817259 -0.22455639835484539 0 0.16937657335138201 -0.22198425569814831 0 0.1866817818972302 -0.23981118877977231 0 0.17450151464944069 -0.23276490516368609 0 0.18716213711817259 -0.22455639835484539 0 0.15661990237239229 -0.21733625041789439 0 0.1623464977989032 -0.22856887614484861 0 0.15090654410468329 -0.22688320449844629 0 0.15661990237239229 -0.21733625041789439 0 0.16937657335138201 -0.22198425569814831 0 0.1623464977989032 -0.22856887614484861 0 0.17450151464944069 -0.23276490516368609 0 0.1623464977989032 -0.22856887614484861 0 0.16609645978724119 -0.24143951784646769 0 0.17450151464944069 -0.23276490516368609 0 0.16937657335138201 -0.22198425569814831 0 0.1623464977989032 -0.22856887614484861 0 0.1623464977989032 -0.22856887614484861 0 0.16609645978724119 -0.24143951784646769 0 0.1528270009437688 -0.23836283418195289 0 0.16001236861667459 -0.2513654190734112 0 0.16609645978724119 -0.24143951784646769 0 0.1528270009437688 -0.23836283418195289 0 0.16978669848249819 -0.25098739912941831 0 0.17619278994504239 -0.24587918172992959 0 0.16609645978724119 -0.24143951784646769 0 0.16001236861667459 -0.2513654190734112 0 0.16978669848249819 -0.25098739912941831 0 0.16609645978724119 -0.24143951784646769 0 0.1429630926125974 -0.2502577086919005 0 0.16001236861667459 -0.2513654190734112 0 0.1528270009437688 -0.23836283418195289 0 0.1429630926125974 -0.2502577086919005 0 0.1528270009437688 -0.23836283418195289 0 0.13988621804673579 -0.23152362256679451 0 0.1528270009437688 -0.23836283418195289 0 0.15090654410468329 -0.22688320449844629 0 0.13988621804673579 -0.23152362256679451 0 0.1623464977989032 -0.22856887614484861 0 0.1528270009437688 -0.23836283418195289 0 0.15090654410468329 -0.22688320449844629 0 0.15661990237239229 -0.21733625041789439 0 0.15090654410468329 -0.22688320449844629 0 0.1428531013616163 -0.21862443918074129 0 0.15090654410468329 -0.22688320449844629 0 0.13988621804673579 -0.23152362256679451 0 0.1428531013616163 -0.21862443918074129 0 0.12018370186474731 -0.23305432747703519 0 0.12895394136930069 -0.22163642029703709 0 0.13988621804673579 -0.23152362256679451 0 0.12895394136930069 -0.22163642029703709 0 0.13988621804673579 -0.23152362256679451 0 0.1428531013616163 -0.21862443918074129 0 0.1429630926125974 -0.2502577086919005 0 0.12018370186474731 -0.23305432747703519 0 0.1429630926125974 -0.2502577086919005 0 0.12018370186474731 -0.23305432747703519 0 0.13988621804673579 -0.23152362256679451 0 0.13217397618885759 -0.25462043987800831 0 0.1429630926125974 -0.2502577086919005 0 0.12018370186474731 -0.23305432747703519 0 0.16625281481800089 -0.2066948484094672 0 0.14534349251782941 -0.188833298464089 0 0.16625281481800089 -0.2066948484094672 0 0.14534349251782941 -0.188833298464089 0 0.14909823278687431 -0.20687378182447139 0 0.14534349251782941 -0.188833298464089 0 0.14909823278687431 -0.20687378182447139 0 0.1346280568372662 -0.20359450925845249 0 0.15661990237239229 -0.21733625041789439 0 0.14909823278687431 -0.20687378182447139 0 0.1428531013616163 -0.21862443918074129 0 0.14909823278687431 -0.20687378182447139 0 0.1428531013616163 -0.21862443918074129 0 0.1346280568372662 -0.20359450925845249 0 0.1178461100078927 -0.20838697738218431 0 0.12895394136930069 -0.22163642029703709 0 0.1346280568372662 -0.20359450925845249 0 0.12895394136930069 -0.22163642029703709 0 0.1428531013616163 -0.21862443918074129 0 0.1346280568372662 -0.20359450925845249 0 0.14534349251782941 -0.188833298464089 0 0.1346280568372662 -0.20359450925845249 0 0.13128332926409281 -0.18787359724935929 0 0.1237689835273371 -0.19605207676116951 0 0.1178461100078927 -0.20838697738218431 0 0.1346280568372662 -0.20359450925845249 0 0.1237689835273371 -0.19605207676116951 0 0.1346280568372662 -0.20359450925845249 0 0.13128332926409281 -0.18787359724935929 0 0.1237689835273371 -0.19605207676116951 0 0.1232013989280239 -0.1819146573535104 0 0.13128332926409281 -0.18787359724935929 0 0.12443417021765769 -0.1709717485187108 0 0.14534349251782941 -0.188833298464089 0 0.12443417021765769 -0.1709717485187108 0 0.1232013989280239 -0.1819146573535104 0 0.13128332926409281 -0.18787359724935929 0 0.12443417021765769 -0.1709717485187108 0 0.14534349251782941 -0.188833298464089 0 0.13128332926409281 -0.18787359724935929 0 0.12443417021765769 -0.1709717485187108 0 0.14534349251782941 -0.188833298464089 0 0.13540865390058859 -0.1688207667960602 0 0.14534349251782941 -0.188833298464089 0 0.14658871156029241 -0.16855183333999291 0 0.13540865390058859 -0.1688207667960602 0 0.16486725365112659 -0.18785963188663279 0 0.14658871156029241 -0.16855183333999291 0 0.16486725365112659 -0.18785963188663279 0 0.14534349251782941 -0.188833298464089 0 0.14658871156029241 -0.16855183333999291 0 0.14658871156029241 -0.16855183333999291 0 0.13391177650968769 -0.15242347890466901 0 0.14971917460686079 -0.1530450482394467 0 0.14658871156029241 -0.16855183333999291 0 0.14971917460686079 -0.1530450482394467 0 0.16192904395431579 -0.15800089119817939 0 0.14658871156029241 -0.16855183333999291 0 0.13391177650968769 -0.15242347890466901 0 0.12831016946945831 -0.1492440347933528 0 0.14658871156029241 -0.16855183333999291 0 0.12831016946945831 -0.1492440347933528 0 0.14658871156029241 -0.16855183333999291 0 0.13540865390058859 -0.1688207667960602 0 0.1290045142054978 -0.1612372837293575 0 0.14658871156029241 -0.16855183333999291 0 0.1290045142054978 -0.1612372837293575 0 0.12831016946945831 -0.1492440347933528 0 0.13540865390058859 -0.1688207667960602 0 0.12715697753007521 -0.16591248018761531 0 0.1290045142054978 -0.1612372837293575 0 0.12443417021765769 -0.1709717485187108 0 0.13540865390058859 -0.1688207667960602 0 0.12715697753007521 -0.16591248018761531 0 0.12098675462827781 -0.16200852072179159 0 0.12715697753007521 -0.16591248018761531 0 0.1290045142054978 -0.1612372837293575 0 0.12324902196630889 -0.15465793599018671 0 0.1227471198665283 -0.15880086614903269 0 0.1290045142054978 -0.1612372837293575 0 0.13391177650968769 -0.15242347890466901 0 0.12831016946945831 -0.1492440347933528 0 0.12532898621889721 -0.13663811256420449 0 0.12324902196630889 -0.15465793599018671 0 0.1290045142054978 -0.1612372837293575 0 0.12831016946945831 -0.1492440347933528 0 0.1217036921304827 -0.1482443959076799 0 0.12831016946945831 -0.1492440347933528 0 0.12532898621889721 -0.13663811256420449 0 0.13391177650968769 -0.15242347890466901 0 0.13188977167139071 -0.12546883223523481 0 0.13391177650968769 -0.15242347890466901 0 0.13188977167139071 -0.12546883223523481 0 0.1446303542042412 -0.1380662602394005 0 0.13391177650968769 -0.15242347890466901 0 0.13188977167139071 -0.12546883223523481 0 0.12532898621889721 -0.13663811256420449 0 0.11997683785091839 -0.1276371159963853 0 0.13188977167139071 -0.12546883223523481 0 0.12532898621889721 -0.13663811256420449 0 0.1446303542042412 -0.1380662602394005 0 0.15557261582888751 -0.13003178131142151 0 0.1621281360659286 -0.14191921566573409 0 0.14724036225017881 -0.1245170930860646 0 0.13188977167139071 -0.12546883223523481 0 0.1446303542042412 -0.1380662602394005 0 0.14724036225017881 -0.1245170930860646 0 0.1446303542042412 -0.1380662602394005 0 0.15557261582888751 -0.13003178131142151 0 0.13391177650968769 -0.15242347890466901 0 0.1446303542042412 -0.1380662602394005 0 0.14971917460686079 -0.1530450482394467 0 0.1446303542042412 -0.1380662602394005 0 0.14971917460686079 -0.1530450482394467 0 0.1621281360659286 -0.14191921566573409 0 0.1621281360659286 -0.14191921566573409 0 0.17324983187337631 -0.13165498831909611 0 0.17651024624945799 -0.1485415537171802 0 0.14971917460686079 -0.1530450482394467 0 0.1621281360659286 -0.14191921566573409 0 0.16192904395431579 -0.15800089119817939 0 0.1621281360659286 -0.14191921566573409 0 0.17651024624945799 -0.1485415537171802 0 0.16192904395431579 -0.15800089119817939 0 0.16471491079178111 -0.1205264202314431 0 0.15557261582888751 -0.13003178131142151 0 0.1639163736399934 -0.1310331013819237 0 0.15557261582888751 -0.13003178131142151 0 0.1621281360659286 -0.14191921566573409 0 0.1639163736399934 -0.1310331013819237 0 0.1621281360659286 -0.14191921566573409 0 0.1639163736399934 -0.1310331013819237 0 0.17324983187337631 -0.13165498831909611 0 0.16471491079178111 -0.1205264202314431 0 0.1639163736399934 -0.1310331013819237 0 0.17324983187337631 -0.13165498831909611 0 0.1862357176231304 -0.1238823921021804 0 0.1919305776748628 -0.1461990482496055 0 0.17324983187337631 -0.13165498831909611 0 0.1919305776748628 -0.1461990482496055 0 0.17324983187337631 -0.13165498831909611 0 0.17651024624945799 -0.1485415537171802 0 0.1919305776748628 -0.1461990482496055 0 0.19225769977326759 -0.16432491474026781 0 0.17651024624945799 -0.1485415537171802 0 0.19225769977326759 -0.16432491474026781 0 0.17526083145963689 -0.16308053239281189 0 0.17982600751226671 -0.1762593337595659 0 0.19225769977326759 -0.16432491474026781 0 0.17651024624945799 -0.1485415537171802 0 0.17526083145963689 -0.16308053239281189 0 0.17526083145963689 -0.16308053239281189 0 0.17982600751226671 -0.1762593337595659 0 0.16627328335530381 -0.17069773137902189 0 0.1840061663436266 -0.1900566622106199 0 0.16486725365112659 -0.18785963188663279 0 0.17982600751226671 -0.1762593337595659 0 0.19629081049063871 -0.1815365299480412 0 0.1840061663436266 -0.1900566622106199 0 0.17982600751226671 -0.1762593337595659 0 0.16486725365112659 -0.18785963188663279 0 0.14658871156029241 -0.16855183333999291 0 0.16627328335530381 -0.17069773137902189 0 0.16486725365112659 -0.18785963188663279 0 0.17982600751226671 -0.1762593337595659 0 0.16627328335530381 -0.17069773137902189 0 0.14658871156029241 -0.16855183333999291 0 0.16192904395431579 -0.15800089119817939 0 0.16627328335530381 -0.17069773137902189 0 0.17526083145963689 -0.16308053239281189 0 0.16192904395431579 -0.15800089119817939 0 0.16627328335530381 -0.17069773137902189 0 0.17651024624945799 -0.1485415537171802 0 0.17526083145963689 -0.16308053239281189 0 0.16192904395431579 -0.15800089119817939 0 
</DataArray>
</Points>
<Cells>
<DataArray type="UInt32" Name="connectivity" format="ascii">
0 1 2 3 4 5 6 7 8 9 10 11 12 13 14 15 16 17 18 19 20 21 22 23 24 25 26 27 28 29 30 31 32 33 34 35 36 37 38 39 40 41 42 43 44 45 46 47 48 49 50 51 52 53 54 55 56 57 58 59 60 61 62 63 64 65 66 67 68 69 70 71 72 73 74 75 76 77 78 79 80 81 82 83 84 85 86 87 88 89 90 91 92 93 94 95 96 97 98 99 100 101 102 103 104 105 106 107 108 109 110 111 112 113 114 115 116 117 118 119 120 121 122 123 124 125 126 127 128 129 130 131 132 133 134 135 136 137 138 139 140 141 142 143 144 145 146 147 148 149 150 151 152 153 154 155 156 157 158 159 160 161 162 163 164 165 166 167 168 169 170 171 172 173 174 175 176 177 178 179 180 181 182 183 184 185 186 187 188 189 190 191 192 193 194 195 196 197 198 199 200 201 202 203 204 205 206 207 208 209 210 211 212 213 214 215 216 217 218 219 220 221 222 223 224 225 226 227 228 229 230 231 232 233 234 235 236 237 238 239 240 241 242 243 244 245 246 247 248 249 250 251 252 253 254 255 256 257 258 259 260 261 262 263 264 265 266 267 268 269 270 271 272 273 274 275 276 277 278 279 280 281 282 283 284 285 286 287 288 289 290 291 292 293 294 295 296 297 298 299 300 301 302 303 304 305 306 307 308 309 310 311 312 313 314 315 316 317 318 319 320 321 322 323 324 325 326 327 328 329 330 331 332 333 334 335 336 337 338 339 340 341 342 343 344 345 346 347 348 349 350 351 352 353 354 355 356 357 358 359 360 361 362 363 364 365 366 367 368 369 370 371 372 373 374 375 376 377 378 379 380 381 382 383 384 385 386 387 388 389 390 391 392 393 394 395 396 397 398 399 400 401 402 403 404 405 406 407 408 409 410 411 412 413 414 415 416 417 418 419 420 421 422 423 424 425 426 427 428 429 430 431 432 433 434 435 436 437 438 439 440 441 442 443 444 445 446 447 448 449 450 451 452 453 454 455 456 457 458 459 460 461 462 463 464 465 466 467 468 469 470 471 472 473 474 475 476 477 478 479 480 481 482 483 484 485 486 487 488 489 490 491 492 493 494 495 496 497 498 499 500 501 502 503 504 505 506 507 508 509 510 511 512 513 514 515 516 517 518 519 520 521 522 523 524 525 526 527 528 529 530 531 532 533 534 535 536 537 538 539 540 541 542 543 544 545 546 547 548 549 550 551 552 553 554 555 556 557 558 559 560 561 562 563 564 565 566 567 568 569 570 571 572 573 574 575 576 577 578 579 580 581 582 583 584 585 586 587 588 589 590 591 592 593 594 595 596 597 598 599 600 601 602 603 604 605 606 607 608 609 610 611 612 613 614 615 616 617 618 619 620 621 622 623 624 625 626 627 628 629 630 631 632 633 634 635 636 637 638 639 640 641 642 643 644 645 646 647 648 649 650 651 652 653 654 655 656 657 658 659 660 661 662 663 664 665 666 667 668 669 670 671 672 673 674 675 676 677 678 679 680 681 682 683 684 685 686 687 688 689 690 691 692 693 694 695 696 697 698 699 700 701 702 703 704 705 706 707 708 709 710 711 712 713 714 715 716 717 718 719 720 721 722 723 724 725 726 727 728 729 730 731 732 733 734 735 736 737 738 739 740 741 742 743 744 745 746 747 748 749 750 751 752 753 754 755 756 757 758 759 760 761 762 763 764 765 766 767 768 769 770 771 772 773 774 775 776 777 778 779 780 781 782 783 784 785 786 787 788 789 790 791 792 793 794 795 796 797 798 799 800 801 802 803 804 805 806 807 808 809 810 811 812 813 814 815 816 817 818 819 820 821 822 823 824 825 826 827 828 829 830 831 832 833 834 835 836 837 838 839 840 841 842 843 844 845 846 847 848 849 850 851 852 853 854 855 856 857 858 859 860 861 862 863 864 865 866 867 868 869 870 871 872 873 874 875 876 877 878 879 880 881 882 883 884 885 886 887 888 889 890 891 892 893 894 895 896 897 898 899 900 901 902 903 904 905 906 907 908 909 910 911 912 913 914 915 916 917 918 919 920 921 922 923 924 925 926 927 928 929 930 931 932 933 934 935 936 937 938 939 940 941 942 943 944 945 946 947 948 949 950 951 952 953 954 955 956 957 958 959 960 961 962 963 964 965 966 967 968 969 970 971 972 973 974 975 976 977 978 979 980 981 982 983 984 985 986 987 988 989 990 991 992 993 994 995 996 997 998 999 1000 1001 1002 1003 1004 1005 1006 1007 1008 1009 1010 1011 1012 1013 1014 1015 1016 1017 1018 1019 1020 1021 1022 1023 1024 1025 1026 1027 1028 1029 1030 1031 1032 1033 1034 1035 1036 1037 1038 1039 1040 1041 1042 1043 1044 1045 1046 1047 1048 1049 1050 1051 1052 1053 1054 1055 1056 1057 1058 1059 1060 1061 1062 1063 1064 1065 1066 1067 1068 1069 1070 1071 1072 1073 1074 1075 1076 1077 1078 1079 1080 1081 1082 1083 1084 1085 1086 1087 1088 1089 1090 1091 1092 1093 1094 1095 1096 1097 1098 1099 1100 1101 1102 1103 1104 1105 1106 1107 1108 1109 1110 1111 1112 1113 1114 1115 1116 1117 1118 1119 1120 1121 1122 1123 1124 1125 1126 1127 1128 1129 1130 1131 1132 1133 1134 1135 1136 1137 1138 1139 1140 1141 1142 1143 1144 1145 1146 1147 1148 1149 1150 1151 1152 1153 1154 1155 1156 1157 1158 1159 1160 1161 1162 1163 1164 1165 1166 1167 1168 1169 1170 1171 1172 1173 1174 1175 1176 1177 1178 1179 1180 1181 1182 1183 1184 1185 1186 1187 1188 1189 1190 1191 1192 1193 1194 1195 1196 1197 1198 1199 1200 1201 1202 1203 1204 1205 1206 1207 1208 1209 1210 1211 1212 1213 1214 1215 1216 1217 1218 1219 1220 1221 1222 1223 1224 1225 1226 1227 1228 1229 1230 1231 1232 1233 1234 1235 1236 1237 1238 1239 1240 1241 1242 1243 1244 1245 1246 1247 1248 1249 1250 1251 1252 1253 1254 1255 1256 1257 1258 1259 1260 1261 1262 1263 1264 1265 1266 1267 1268 1269 1270 1271 1272 1273 1274 1275 1276 1277 1278 1279 1280 1281 1282 1283 1284 1285 1286 1287 1288 1289 1290 1291 1292 1293 1294 1295 1296 1297 1298 1299 1300 1301 1302 1303 1304 1305 1306 1307 1308 1309 1310 1311 1312 1313 1314 1315 1316 1317 1318 1319 1320 1321 1322 1323 1324 1325 1326 1327 1328 1329 1330 1331 1332 1333 1334 1335 1336 1337 1338 1339 1340 1341 1342 1343 1344 1345 1346 1347 1348 1349 1350 1351 1352 1353 1354 1355 1356 1357 1358 1359 1360 1361 1362 1363 1364 1365 1366 1367 1368 1369 1370 1371 1372 1373 1374 1375 1376 1377 1378 1379 1380 1381 1382 1383 1384 1385 1386 1387 1388 1389 1390 1391 1392 1393 1394 1395 1396 1397 1398 1399 1400 1401 1402 1403 1404 1405 1406 1407 1408 1409 1410 1411 1412 1413 1414 1415 1416 1417 1418 1419 1420 1421 1422 1423 1424 1425 1426 1427 1428 1429 1430 1431 1432 1433 1434 1435 1436 1437 1438 1439 1440 1441 1442 1443 1444 1445 1446 1447 1448 1449 1450 1451 1452 1453 1454 1455 1456 1457 1458 1459 1460 1461 1462 1463 1464 1465 1466 1467 1468 1469 1470 1471 1472 1473 1474 1475 1476 1477 1478 1479 1480 1481 1482 1483 1484 1485 1486 1487 1488 1489 1490 1491 1492 1493 1494 1495 1496 1497 1498 1499 1500 1501 1502 1503 1504 1505 1506 1507 1508 1509 1510 1511 1512 1513 1514 1515 1516 1517 1518 1519 1520 1521 1522 1523 1524 1525 1526 1527 1528 1529 1530 1531 1532 1533 1534 1535 1536 1537 1538 1539 1540 1541 1542 1543 1544 1545 1546 1547 1548 1549 1550 1551 1552 1553 1554 1555 1556 1557 1558 1559 1560 1561 1562 1563 1564 1565 1566 1567 1568 1569 1570 1571 1572 1573 1574 1575 1576 1577 1578 1579 1580 1581 1582 1583 1584 1585 1586 1587 1588 1589 1590 1591 1592 1593 1594 1595 1596 1597 1598 1599 1600 1601 1602 1603 1604 1605 1606 1607 1608 1609 1610 1611 1612 1613 1614 1615 1616 1617 1618 1619 1620 1621 1622 1623 1624 1625 1626 1627 1628 1629 1630 1631 1632 1633 1634 1635 1636 1637 1638 1639 1640 1641 1642 1643 1644 1645 1646 1647 1648 1649 1650 1651 1652 1653 1654 1655 1656 1657 1658 1659 1660 1661 1662 1663 1664 1665 1666 1667 1668 1669 1670 1671 1672 1673 1674 1675 1676 1677 1678 1679 1680 1681 1682 1683 1684 1685 1686 1687 1688 1689 1690 1691 1692 1693 1694 1695 1696 1697 1698 1699 1700 1701 1702 1703 1704 1705 1706 1707 1708 1709 1710 1711 1712 1713 1714 1715 1716 1717 1718 1719 1720 1721 1722 1723 1724 1725 1726 1727 1728 1729 1730 1731 1732 1733 1734 1735 1736 1737 1738 1739 1740 1741 1742 1743 1744 1745 1746 1747 1748 1749 1750 1751 1752 1753 1754 1755 1756 1757 1758 1759 1760 1761 1762 1763 1764 1765 1766 1767 1768 1769 1770 1771 1772 1773 1774 1775 1776 1777 1778 1779 1780 1781 1782 1783 1784 1785 1786 1787 1788 1789 1790 1791 1792 1793 1794 1795 1796 1797 1798 1799 1800 1801 1802 1803 1804 1805 1806 1807 1808 1809 1810 1811 1812 1813 1814 1815 1816 1817 1818 1819 1820 1821 1822 1823 1824 1825 1826 1827 1828 1829 1830 1831 1832 1833 1834 1835 1836 1837 1838 1839 1840 1841 1842 1843 1844 1845 1846 1847 1848 1849 1850 1851 1852 1853 1854 1855 1856 1857 1858 1859 1860 1861 1862 1863 1864 1865 1866 1867 1868 1869 1870 1871 1872 1873 1874 1875 1876 1877 1878 1879 1880 1881 1882 1883 1884 1885 1886 1887 1888 1889 1890 1891 1892 1893 1894 1895 1896 1897 1898 1899 1900 1901 1902 1903 1904 1905 1906 1907 1908 1909 1910 1911 1912 1913 1914 1915 1916 1917 1918 1919 1920 1921 1922 1923 1924 1925 1926 1927 1928 1929 1930 1931 1932 1933 1934 1935 1936 1937 1938 1939 1940 1941 1942 1943 1944 1945 1946 1947 1948 1949 1950 1951 1952 1953 1954 1955 1956 1957 1958 1959 1960 1961 1962 1963 1964 1965 1966 1967 1968 1969 1970 1971 1972 1973 1974 1975 1976 1977 1978 1979 1980 1981 1982 1983 1984 1985 1986 1987 1988 1989 1990 1991 1992 1993 1994 1995 1996 1997 1998 1999 2000 2001 2002 2003 2004 2005 2006 2007 2008 2009 2010 2011 2012 2013 2014 2015 2016 2017 2018 2019 2020 2021 2022 2023 2024 2025 2026 2027 2028 2029 2030 2031 2032 2033 2034 2035 2036 2037 2038 2039 2040 2041 2042 2043 2044 2045 2046 2047 2048 2049 2050 2051 2052 2053 2054 2055 2056 2057 2058 2059 2060 2061 2062 2063 2064 2065 2066 2067 2068 2069 2070 2071 2072 2073 2074 2075 2076 2077 2078 2079 2080 2081 2082 2083 2084 2085 2086 2087 2088 2089 2090 2091 2092 2093 2094 2095 2096 2097 2098 2099 2100 2101 2102 2103 2104 2105 2106 2107 2108 2109 2110 2111 2112 2113 2114 2115 2116 2117 2118 2119 2120 2121 2122 2123 2124 2125 2126 2127 2128 2129 2130 2131 2132 2133 2134 2135 2136 2137 2138 2139 2140 2141 2142 2143 2144 2145 2146 2147 2148 2149 2150 2151 2152 2153 2154 2155 2156 2157 2158 2159 2160 2161 2162 2163 2164 2165 2166 2167 2168 2169 2170 2171 2172 2173 2174 2175 2176 2177 2178 2179 2180 2181 2182 2183 2184 2185 2186 2187 2188 2189 2190 2191 2192 2193 2194 2195 2196 2197 2198 2199 2200 2201 2202 2203 2204 2205 2206 2207 2208 2209 2210 2211 2212 2213 2214 2215 2216 2217 2218 2219 2220 2221 2222 2223 2224 2225 2226 2227 2228 2229 2230 2231 2232 2233 2234 2235 2236 2237 2238 2239 2240 2241 2242 2243 2244 2245 2246 2247 2248 2249 2250 2251 2252 2253 2254 2255 2256 2257 2258 2259 2260 2261 2262 2263 2264 2265 2266 2267 2268 2269 2270 2271 2272 2273 2274 2275 2276 2277 2278 2279 2280 2281 2282 2283 2284 2285 2286 2287 2288 2289 2290 2291 2292 2293 2294 2295 2296 2297 2298 2299 2300 2301 2302 2303 2304 2305 2306 2307 2308 2309 2310 2311 2312 2313 2314 2315 2316 2317 2318 2319 2320 2321 2322 2323 2324 2325 2326 2327 2328 2329 2330 2331 2332 2333 2334 2335 2336 2337 2338 2339 2340 2341 2342 2343 2344 2345 2346 2347 2348 2349 2350 2351 2352 2353 2354 2355 2356 2357 2358 2359 2360 2361 2362 2363 2364 2365 2366 2367 2368 2369 2370 2371 2372 2373 2374 2375 2376 2377 2378 2379 2380 2381 2382 2383 2384 2385 2386 2387 2388 2389 2390 2391 2392 2393 2394 2395 2396 2397 2398 2399 2400 2401 2402 2403 2404 2405 2406 2407 2408 2409 2410 2411 2412 2413 2414 2415 2416 2417 2418 2419 2420 2421 2422 2423 2424 2425 2426 2427 2428 2429 2430 2431 2432 2433 2434 2435 2436 2437 2438 2439 2440 2441 2442 2443 2444 2445 2446 2447 2448 2449 2450 2451 2452 2453 2454 2455 2456 2457 2458 2459 2460 2461 2462 2463 2464 2465 2466 2467 2468 2469 2470 2471 2472 2473 2474 2475 2476 2477 2478 2479 2480 2481 2482 2483 2484 2485 2486 2487 2488 2489 2490 2491 2492 2493 2494 2495 2496 2497 2498 2499 2500 2501 2502 2503 2504 2505 2506 2507 2508 2509 2510 2511 2512 2513 2514 2515 2516 2517 2518 2519 2520 2521 2522 2523 2524 2525 2526 2527 2528 2529 2530 2531 2532 2533 2534 2535 2536 2537 2538 2539 2540 2541 2542 2543 2544 2545 2546 2547 2548 2549 2550 2551 2552 2553 2554 2555 2556 2557 2558 2559 2560 2561 2562 2563 2564 2565 2566 2567 2568 2569 2570 2571 2572 2573 2574 2575 2576 2577 2578 2579 2580 2581 2582 2583 2584 2585 2586 2587 2588 2589 2590 2591 2592 2593 2594 2595 2596 2597 2598 2599 2600 2601 2602 2603 2604 2605 2606 2607 2608 2609 2610 2611 2612 2613 2614 2615 2616 2617 2618 2619 2620 2621 2622 2623 2624 2625 2626 2627 2628 2629 2630 2631 2632 2633 2634 2635 2636 2637 2638 2639 2640 2641 2642 2643 2644 2645 2646 2647 2648 2649 2650 2651 2652 2653 2654 2655 2656 2657 2658 2659 2660 2661 2662 2663 2664 2665 2666 2667 2668 2669 2670 2671 2672 2673 2674 2675 2676 2677 2678 2679 2680 2681 2682 2683 2684 2685 2686 2687 2688 2689 2690 2691 2692 2693 2694 2695 2696 2697 2698 2699 2700 2701 2702 2703 2704 2705 2706 2707 2708 2709 2710 2711 2712 2713 2714 2715 2716 2717 2718 2719 2720 2721 2722 2723 2724 2725 2726 2727 2728 2729 2730 2731 2732 2733 2734 2735 2736 2737 2738 2739 2740 2741 2742 2743 2744 2745 2746 2747 2748 2749 2750 2751 2752 2753 2754 2755 2756 2757 2758 2759 2760 2761 2762 2763 2764 2765 2766 2767 2768 2769 2770 2771 2772 2773 2774 2775 2776 2777 2778 2779 2780 2781 2782 2783 2784 2785 2786 2787 2788 2789 2790 2791 2792 2793 2794 2795 2796 2797 2798 2799 2800 2801 2802 2803 2804 2805 2806 2807 2808 2809 2810 2811 2812 2813 2814 2815 2816 2817 2818 2819 2820 2821 2822 2823 2824 2825 2826 2827 2828 2829 2830 2831 2832 2833 2834 2835 2836 2837 2838 2839 2840 2841 2842 2843 2844 2845 2846 2847 2848 2849 2850 2851 2852 2853 2854 2855 2856 2857 2858 2859 2860 2861 2862 2863 2864 2865 2866 2867 2868 2869 2870 2871 2872 2873 2874 2875 2876 2877 2878 2879 2880 2881 2882 2883 2884 2885 2886 2887 2888 2889 2890 2891 2892 2893 2894 2895 2896 2897 2898 2899 2900 2901 2902 2903 2904 2905 2906 2907 2908 2909 2910 2911 2912 2913 2914 2915 2916 2917 2918 2919 2920 2921 2922 2923 2924 2925 2926 2927 2928 2929 2930 2931 2932 2933 2934 2935 2936 2937 2938 2939 2940 2941 2942 2943 2944 2945 2946 2947 2948 2949 2950 2951 2952 2953 2954 2955 2956 2957 2958 2959 2960 2961 2962 2963 2964 2965 2966 2967 2968 2969 2970 2971 2972 2973 2974 2975 2976 2977 2978 2979 2980 2981 2982 2983 2984 2985 2986 2987 2988 2989 2990 2991 2992 2993 2994 2995 2996 2997 2998 2999 3000 3001 3002 3003 3004 3005 3006 3007 3008 3009 3010 3011 3012 3013 3014 3015 3016 3017 3018 3019 3020 3021 3022 3023 3024 3025 3026 3027 3028 3029 3030 3031 3032 3033 3034 3035 3036 3037 3038 3039 3040 3041 3042 3043 3044 3045 3046 3047 3048 3049 3050 3051 3052 3053 3054 3055 3056 3057 3058 3059 3060 3061 3062 3063 3064 3065 3066 3067 3068 3069 3070 3071 3072 3073 3074 3075 3076 3077 3078 3079 3080 3081 3082 3083 3084 3085 3086 3087 3088 3089 3090 3091 3092 3093 3094 3095 3096 3097 3098 3099 3100 3101 3102 3103 3104 3105 3106 3107 3108 3109 3110 3111 3112 3113 3114 3115 3116 3117 3118 3119 3120 3121 3122 3123 3124 3125 3126 3127 3128 3129 3130 3131 3132 3133 3134 3135 3136 3137 3138 3139 3140 3141 3142 3143 3144 3145 3146 3147 3148 3149 3150 3151 3152 3153 3154 3155 3156 3157 3158 3159 3160 3161 3162 3163 3164 3165 3166 3167 3168 3169 3170 3171 3172 3173 3174 3175 3176 3177 3178 3179 3180 3181 3182 3183 3184 3185 3186 3187 3188 3189 3190 3191 3192 3193 3194 3195 3196 3197 3198 3199 3200 3201 3202 3203 3204 3205 3206 3207 3208 3209 3210 3211 3212 3213 3214 3215 3216 3217 3218 3219 3220 3221 3222 3223 3224 3225 3226 3227 3228 3229 3230 3231 3232 3233 3234 3235 3236 3237 3238 3239 3240 3241 3242 3243 3244 3245 3246 3247 3248 3249 3250 3251 3252 3253 3254 3255 3256 3257 3258 3259 3260 3261 3262 3263 3264 3265 3266 3267 3268 3269 3270 3271 3272 3273 3274 3275 3276 3277 3278 3279 3280 3281 3282 3283 3284 3285 3286 3287 3288 3289 3290 3291 3292 3293 3294 3295 3296 3297 3298 3299 3300 3301 3302 3303 3304 3305 3306 3307 3308 3309 3310 3311 3312 3313 3314 3315 3316 3317 3318 3319 3320 3321 3322 3323 3324 3325 3326 3327 3328 3329 3330 3331 3332 3333 3334 3335 3336 3337 3338 3339 3340 3341 3342 3343 3344 3345 3346 3347 3348 3349 3350 3351 3352 3353 3354 3355 3356 3357 3358 3359 3360 3361 3362 3363 3364 3365 3366 3367 3368 3369 3370 3371 3372 3373 3374 3375 3376 3377 3378 3379 3380 3381 3382 3383 3384 3385 3386 3387 3388 3389 3390 3391 3392 3393 3394 3395 3396 3397 3398 3399 3400 3401 3402 3403 3404 3405 3406 3407 3408 3409 3410 3411 3412 3413 3414 3415 3416 3417 3418 3419 3420 3421 3422 3423 3424 3425 3426 3427 3428 3429 3430 3431 3432 3433 3434 3435 3436 3437 3438 3439 3440 3441 3442 3443 3444 3445 3446 3447 3448 3449 3450 3451 3452 3453 3454 3455 3456 3457 3458 3459 3460 3461 3462 3463 3464 3465 3466 3467 3468 3469 3470 3471 3472 3473 3474 3475 3476 3477 3478 3479 3480 3481 3482 3483 3484 3485 3486 3487 3488 3489 3490 3491 3492 3493 3494 3495 3496 3497 3498 3499 3500 3501 3502 3503 3504 3505 3506 3507 3508 3509 3510 3511 3512 3513 3514 3515 3516 3517 3518 3519 3520 3521 3522 3523 3524 3525 3526 3527 3528 3529 3530 3531 3532 3533 3534 3535 3536 3537 3538 3539 3540 3541 3542 3543 3544 3545 3546 3547 3548 3549 3550 3551 3552 3553 3554 3555 3556 3557 3558 3559 3560 3561 3562 3563 3564 3565 3566 3567 3568 3569 3570 3571 3572 3573 3574 3575 3576 3577 3578 3579 3580 3581 3582 3583 3584 3585 3586 3587 3588 3589 3590 3591 3592 3593 3594 3595 3596 3597 3598 3599 3600 3601 3602 3603 3604 3605 3606 3607 3608 3609 3610 3611 3612 3613 3614 3615 3616 3617 3618 3619 3620 3621 3622 3623 3624 3625 3626 3627 3628 3629 3630 3631 3632 3633 3634 3635 3636 3637 3638 3639 3640 3641 3642 3643 3644 3645 3646 3647 3648 3649 3650 3651 3652 3653 3654 3655 3656 3657 3658 3659 3660 3661 3662 3663 3664 3665 3666 3667 3668 3669 3670 3671 3672 3673 3674 3675 3676 3677 3678 3679 3680 3681 3682 3683 3684 3685 3686 3687 3688 3689 3690 3691 3692 3693 3694 3695 3696 3697 3698 3699 3700 3701 3702 3703 3704 3705 3706 3707 3708 3709 3710 3711 3712 3713 3714 3715 3716 3717 3718 3719 3720 3721 3722 3723 3724 3725 3726 3727 3728 3729 3730 3731 3732 3733 3734 3735 3736 3737 3738 3739 3740 3741 3742 3743 3744 3745 3746 3747 3748 3749 3750 3751 3752 3753 3754 3755 3756 3757 3758 3759 3760 3761 3762 3763 3764 3765 3766 3767 3768 3769 3770 3771 3772 3773 3774 3775 3776 3777 3778 3779 3780 3781 3782 3783 3784 3785 3786 3787 3788 3789 3790 3791 3792 3793 3794 3795 3796 3797 3798 3799 3800 3801 3802 3803 3804 3805 3806 3807 3808 3809 3810 3811 3812 3813 3814 3815 3816 3817 3818 3819 3820 3821 3822 3823 3824 3825 3826 3827 3828 3829 3830 3831 3832 3833 3834 3835 3836 3837 3838 3839 3840 3841 3842 3843 3844 3845 3846 3847 3848 3849 3850 3851 3852 3853 3854 3855 3856 3857 3858 3859 3860 3861 3862 3863 3864 3865 3866 3867 3868 3869 3870 3871 3872 3873 3874 3875 3876 3877 3878 3879 3880 3881 3882 3883 3884 3885 3886 3887 3888 3889 3890 3891 3892 3893 3894 3895 3896 3897 3898 3899 3900 3901 3902 3903 3904 3905 3906 3907 3908 3909 3910 3911 3912 3913 3914 3915 3916 3917 3918 3919 3920 3921 3922 3923 3924 3925 3926 3927 3928 3929 3930 3931 3932 3933 3934 3935 3936 3937 3938 3939 3940 3941 3942 3943 3944 3945 3946 3947 3948 3949 3950 3951 3952 3953 3954 3955 3956 3957 3958 3959 3960 3961 3962 3963 3964 3965 3966 3967 3968 3969 3970 3971 3972 3973 3974 3975 3976 3977 3978 3979 3980 3981 3982 3983 3984 3985 3986 3987 3988 3989 3990 3991 3992 3993 3994 3995 3996 3997 3998 3999 4000 4001 4002 4003 4004 4005 4006 4007 4008 4009 4010 4011 4012 4013 4014 4015 4016 4017 4018 4019 4020 4021 4022 4023 4024 4025 4026 4027 4028 4029 4030 4031 4032 4033 4034 4035 4036 4037 4038 4039 4040 4041 4042 4043 4044 4045 4046 4047 4048 4049 4050 4051 4052 4053 4054 4055 4056 4057 4058 4059 4060 4061 4062 4063 4064 4065 4066 4067 4068 4069 4070 4071 4072 4073 4074 4075 4076 4077 4078 4079 4080 4081 4082 4083 4084 4085 4086 4087 4088 4089 4090 4091 4092 4093 4094 4095 4096 4097 4098 4099 4100 4101 4102 4103 4104 4105 4106 4107 4108 4109 4110 4111 4112 4113 4114 4115 4116 4117 4118 4119 4120 4121 4122 4123 4124 4125 4126 4127 4128 4129 4130 4131 4132 4133 4134 4135 4136 4137 4138 4139 4140 4141 4142 4143 4144 4145 4146 4147 4148 4149 4150 4151 4152 4153 4154 4155 4156 4157 4158 4159 4160 4161 4162 4163 4164 4165 4166 4167 4168 4169 4170 4171 4172 4173 4174 4175 4176 4177 4178 4179 4180 4181 4182 4183 4184 4185 4186 4187 4188 4189 4190 4191 4192 4193 4194 4195 4196 4197 4198 4199 4200 4201 4202 4203 4204 4205 4206 4207 4208 4209 4210 4211 4212 4213 4214 4215 4216 4217 4218 4219 4220 4221 4222 4223 4224 4225 4226 4227 4228 4229 4230 4231 4232 4233 4234 4235 4236 4237 4238 4239 4240 4241 4242 4243 4244 4245 4246 4247 4248 4249 4250 4251 4252 4253 4254 4255 4256 4257 4258 4259 4260 4261 4262 4263 4264 4265 4266 4267 4268 4269 4270 4271 4272 4273 4274 4275 4276 4277 4278 4279 4280 4281 4282 4283 4284 4285 4286 4287 4288 4289 4290 4291 4292 4293 4294 4295 4296 4297 4298 4299 4300 4301 4302 4303 4304 4305 4306 4307 4308 4309 4310 4311 4312 4313 4314 4315 4316 4317 4318 4319 4320 4321 4322 4323 4324 4325 4326 4327 4328 4329 4330 4331 4332 4333 4334 4335 4336 4337 4338 4339 4340 4341 4342 4343 4344 4345 4346 4347 4348 4349 4350 4351 4352 4353 4354 4355 4356 4357 4358 4359 4360 4361 4362 4363 4364 4365 4366 4367 4368 4369 4370 4371 4372 4373 4374 4375 4376 4377 4378 4379 4380 4381 4382 4383 4384 4385 4386 4387 4388 4389 4390 4391 4392 4393 4394 4395 4396 4397 4398 4399 4400 4401 4402 4403 4404 4405 4406 4407 4408 4409 4410 4411 4412 4413 4414 4415 4416 4417 4418 4419 4420 4421 4422 4423 4424 4425 4426 4427 4428 4429 4430 4431 4432 4433 4434 4435 4436 4437 4438 4439 4440 4441 4442 4443 4444 4445 4446 4447 4448 4449 4450 4451 4452 4453 4454 4455 4456 4457 4458 4459 4460 4461 4462 4463 4464 4465 4466 4467 4468 4469 4470 4471 4472 4473 4474 4475 4476 4477 4478 4479 4480 4481 4482 4483 4484 4485 4486 4487 4488 4489 4490 4491 4492 4493 4494 4495 4496 4497 4498 4499 4500 4501 4502 4503 4504 4505 4506 4507 4508 4509 4510 4511 4512 4513 4514 4515 4516 4517 4518 4519 4520 4521 4522 4523 4524 4525 4526 4527 4528 4529 4530 4531 4532 4533 4534 4535 4536 4537 4538 4539 4540 4541 4542 4543 4544 4545 4546 4547 4548 4549 4550 4551 4552 4553 4554 4555 4556 4557 4558 4559 4560 4561 4562 4563 4564 4565 4566 4567 4568 4569 4570 4571 4572 4573 4574 4575 4576 4577 4578 4579 4580 4581 4582 4583 4584 4585 4586 4587 4588 4589 4590 4591 4592 4593 4594 4595 4596 4597 4598 4599 4600 4601 4602 4603 4604 4605 4606 4607 4608 4609 4610 4611 4612 4613 4614 4615 4616 4617 4618 4619 4620 4621 4622 4623 4624 4625 4626 4627 4628 4629 4630 4631 4632 4633 4634 4635 4636 4637 4638 4639 4640 4641 4642 4643 4644 4645 4646 4647 4648 4649 4650 4651 4652 4653 4654 4655 4656 4657 4658 4659 4660 4661 4662 4663 4664 4665 4666 4667 4668 4669 4670 4671 4672 4673 4674 4675 4676 4677 4678 4679 4680 4681 4682 4683 4684 4685 4686 4687 4688 4689 4690 4691 4692 4693 4694 4695 4696 4697 4698 4699 4700 4701 4702 4703 4704 4705 4706 4707 4708 4709 4710 4711 4712 4713 4714 4715 4716 4717 4718 4719 4720 4721 4722 4723 4724 4725 4726 4727 4728 4729 4730 4731 4732 4733 4734 4735 4736 4737 4738 4739 4740 4741 4742 4743 4744 4745 4746 4747 4748 4749 4750 4751 4752 4753 4754 4755 4756 4757 4758 4759 4760 4761 4762 4763 4764 4765 4766 4767 4768 4769 4770 4771 4772 4773 4774 4775 4776 4777 4778 4779 4780 4781 4782 4783 4784 4785 4786 4787 4788 4789 4790 4791 4792 4793 4794 4795 4796 4797 4798 4799 4800 4801 4802 4803 4804 4805 4806 4807 4808 4809 4810 4811 4812 4813 4814 4815 4816 4817 4818 4819 4820 4821 4822 4823 4824 4825 4826 4827 4828 4829 4830 4831 4832 4833 4834 4835 4836 4837 4838 4839 4840 4841 4842 4843 4844 4845 4846 4847 4848 4849 4850 4851 4852 4853 4854 4855 4856 4857 4858 4859 4860 4861 4862 4863 4864 4865 4866 4867 4868 4869 4870 4871 4872 4873 4874 4875 4876 4877 4878 4879 4880 4881 4882 4883 4884 4885 4886 4887 4888 4889 4890 4891 4892 4893 4894 4895 4896 4897 4898 4899 4900 4901 4902 4903 4904 4905 4906 4907 4908 4909 4910 4911 4912 4913 4914 4915 4916 4917 4918 4919 4920 4921 4922 4923 4924 4925 4926 4927 4928 4929 4930 4931 4932 4933 4934 4935 4936 4937 4938 4939 4940 4941 4942 4943 4944 4945 4946 4947 4948 4949 4950 4951 4952 4953 4954 4955 4956 4957 4958 4959 4960 4961 4962 4963 4964 4965 4966 4967 4968 4969 4970 4971 4972 4973 4974 4975 4976 4977 4978 4979 4980 4981 4982 4983 4984 4985 4986 4987 4988 4989 4990 4991 4992 4993 4994 4995 4996 4997 4998 4999 5000 5001 5002 5003 5004 5005 5006 5007 5008 5009 5010 5011 5012 5013 5014 5015 5016 5017 5018 5019 5020 5021 5022 5023 5024 5025 5026 5027 5028 5029 5030 5031 5032 5033 5034 5035 5036 5037 5038 5039 5040 5041 5042 5043 5044 5045 5046 5047 5048 5049 5050 5051 5052 5053 5054 5055 5056 5057 5058 5059 5060 5061 5062 5063 5064 5065 5066 5067 5068 5069 5070 5071 5072 5073 5074 5075 5076 5077 5078 5079 5080 5081 5082 5083 5084 5085 5086 5087 5088 5089 5090 5091 5092 5093 5094 5095 5096 5097 5098 5099 5100 5101 5102 5103 5104 5105 5106 5107 5108 5109 5110 5111 5112 5113 5114 5115 5116 5117 5118 5119 5120 5121 5122 5123 5124 5125 5126 5127 5128 5129 5130 5131 5132 5133 5134 5135 5136 5137 5138 5139 5140 5141 5142 5143 5144 5145 5146 5147 5148 5149 5150 5151 5152 5153 5154 5155 5156 5157 5158 5159 5160 5161 5162 5163 5164 5165 5166 5167 5168 5169 5170 5171 5172 5173 5174 5175 5176 5177 5178 5179 5180 5181 5182 5183 5184 5185 5186 5187 5188 5189 5190 5191 5192 5193 5194 5195 5196 5197 5198 5199 5200 5201 5202 5203 5204 5205 5206 5207 5208 5209 5210 5211 5212 5213 5214 5215 5216 5217 5218 5219 5220 5221 5222 5223 5224 5225 5226 5227 5228 5229 5230 5231 5232 5233 5234 5235 5236 5237 5238 5239 5240 5241 5242 5243 5244 5245 5246 5247 5248 5249 5250 5251 5252 5253 5254 5255 5256 5257 5258 5259 5260 5261 5262 5263 5264 5265 5266 5267 5268 5269 5270 5271 5272 5273 5274 5275 5276 5277 5278 5279 5280 5281 5282 5283 5284 5285 5286 5287 5288 5289 5290 5291 5292 5293 5294 5295 5296 5297 5298 5299 5300 5301 5302 5303 5304 5305 5306 5307 5308 5309 5310 5311 5312 5313 5314 5315 5316 5317 5318 5319 5320 5321 5322 5323 5324 5325 5326 5327 5328 5329 5330 5331 5332 5333 5334 5335 5336 5337 5338 5339 5340 5341 5342 5343 5344 5345 5346 5347 5348 5349 5350 5351 5352 5353 5354 5355 5356 5357 5358 5359 5360 5361 5362 5363 5364 5365 5366 5367 5368 5369 5370 5371 5372 5373 5374 5375 5376 5377 5378 5379 5380 5381 5382 5383 5384 5385 5386 5387 5388 5389 5390 5391 5392 5393 5394 5395 5396 5397 5398 5399 5400 5401 5402 5403 5404 5405 5406 5407 5408 5409 5410 5411 5412 5413 5414 5415 5416 5417 5418 5419 5420 5421 5422 5423 5424 5425 5426 5427 5428 5429 5430 5431 5432 5433 5434 5435 5436 5437 5438 5439 5440 5441 5442 5443 5444 5445 5446 5447 5448 5449 5450 5451 5452 5453 5454 5455 5456 5457 5458 5459 5460 5461 5462 5463 5464 5465 5466 5467 5468 5469 5470 5471 5472 5473 5474 5475 5476 5477 5478 5479 5480 5481 5482 5483 5484 5485 5486 5487 5488 5489 5490 5491 5492 5493 5494 5495 5496 5497 5498 5499 5500 5501 5502 5503 5504 5505 5506 5507 5508 5509 5510 5511 5512 5513 5514 5515 5516 5517 5518 5519 5520 5521 5522 5523 5524 5525 5526 5527 5528 5529 5530 5531 5532 5533 5534 5535 5536 5537 5538 5539 5540 5541 5542 5543 5544 5545 5546 5547 5548 5549 5550 5551 5552 5553 5554 5555 5556 5557 5558 5559 5560 5561 5562 5563 5564 5565 5566 5567 5568 5569 5570 5571 5572 5573 5574 5575 5576 5577 5578 5579 5580 5581 5582 5583 5584 5585 5586 5587 5588 5589 5590 5591 5592 5593 5594 5595 5596 5597 5598 5599 5600 5601 5602 5603 5604 5605 5606 5607 5608 5609 5610 5611 5612 5613 5614 5615 5616 5617 5618 5619 5620 5621 5622 5623 5624 5625 5626 5627 5628 5629 5630 5631 5632 5633 5634 5635 5636 5637 5638 5639 5640 5641 5642 5643 5644 5645 5646 5647 5648 5649 5650 5651 5652 5653 5654 5655 5656 5657 5658 5659 5660 5661 5662 5663 5664 5665 5666 5667 5668 5669 5670 5671 5672 5673 5674 5675 5676 5677 5678 5679 5680 5681 5682 5683 5684 5685 5686 5687 5688 5689 5690 5691 5692 5693 5694 5695 5696 5697 5698 5699 5700 5701 5702 5703 5704 5705 5706 5707 5708 5709 5710 5711 5712 5713 5714 5715 5716 5717 5718 5719 5720 5721 5722 5723 5724 5725 5726 5727 5728 5729 5730 5731 5732 5733 5734 5735 5736 5737 5738 5739 5740 5741 5742 5743 5744 5745 5746 5747 5748 5749 5750 5751 5752 5753 5754 5755 5756 5757 5758 5759 5760 5761 5762 5763 5764 5765 5766 5767 5768 5769 5770 5771 5772 5773 5774 5775 5776 5777 5778 5779 5780 5781 5782 5783 5784 5785 5786 5787 5788 5789 5790 5791 5792 5793 5794 5795 5796 5797 5798 5799 5800 5801 5802 5803 5804 5805 5806 5807 5808 5809 5810 5811 5812 5813 5814 5815 5816 5817 5818 5819 5820 5821 5822 5823 5824 5825 5826 5827 5828 5829 5830 5831 5832 5833 5834 5835 5836 5837 5838 5839 5840 5841 5842 5843 5844 5845 5846 5847 5848 5849 5850 5851 5852 5853 5854 5855 5856 5857 5858 5859 5860 5861 5862 5863 5864 5865 5866 5867 5868 5869 5870 5871 5872 5873 5874 5875 5876 5877 5878 5879 5880 5881 5882 5883 5884 5885 5886 5887 5888 5889 5890 5891 5892 5893 5894 5895 5896 5897 5898 5899 5900 5901 5902 5903 5904 5905 5906 5907 5908 5909 5910 5911 5912 5913 5914 5915 5916 5917 5918 5919 5920 5921 5922 5923 5924 5925 5926 5927 5928 5929 5930 5931 5932 5933 5934 5935 5936 5937 5938 5939 5940 5941 5942 5943 5944 5945 5946 5947 5948 5949 5950 5951 5952 5953 5954 5955 5956 5957 5958 5959 5960 5961 5962 5963 5964 5965 5966 5967 5968 5969 5970 5971 5972 5973 5974 5975 5976 5977 5978 5979 5980 5981 5982 5983 5984 5985 5986 5987 5988 5989 5990 5991 5992 5993 5994 5995 5996 5997 5998 5999 6000 6001 6002 6003 6004 6005 6006 6007 6008 6009 6010 6011 6012 6013 6014 6015 6016 6017 6018 6019 6020 6021 6022 6023 6024 6025 6026 6027 6028 6029 6030 6031 6032 6033 6034 6035 6036 6037 6038 6039 6040 6041 6042 6043 6044 6045 6046 6047 6048 6049 6050 6051 6052 6053 6054 6055 6056 6057 6058 6059 6060 6061 6062 6063 6064 6065 6066 6067 6068 6069 6070 6071 6072 6073 6074 6075 6076 6077 6078 6079 6080 6081 6082 6083 6084 6085 6086 6087 6088 6089 6090 6091 6092 6093 6094 6095 6096 6097 6098 6099 6100 6101 6102 6103 6104 6105 6106 6107 6108 6109 6110 6111 6112 6113 6114 6115 6116 6117 6118 6119 6120 6121 6122 6123 6124 6125 6126 6127 6128 6129 6130 6131 6132 6133 6134 6135 6136 6137 6138 6139 6140 6141 6142 6143 6144 6145 6146 6147 6148 6149 6150 6151 6152 6153 6154 6155 6156 6157 6158 6159 6160 6161 6162 6163 6164 6165 6166 6167 6168 6169 6170 6171 6172 6173 6174 6175 6176 6177 6178 6179 6180 6181 6182 6183 6184 6185 6186 6187 6188 6189 6190 6191 6192 6193 6194 6195 6196 6197 6198 6199 6200 6201 6202 6203 6204 6205 6206 6207 6208 6209 6210 6211 6212 6213 6214 6215 6216 6217 6218 6219 6220 6221 6222 6223 6224 6225 6226 6227 6228 6229 6230 6231 6232 6233 6234 6235 6236 6237 6238 6239 6240 6241 6242 6243 6244 6245 6246 6247 6248 6249 6250 6251 6252 6253 6254 6255 6256 6257 6258 6259 6260 6261 6262 6263 6264 6265 6266 6267 6268 6269 6270 6271 6272 6273 6274 6275 6276 6277 6278 6279 6280 6281 6282 6283 6284 6285 6286 6287 6288 6289 6290 6291 6292 6293 6294 6295 6296 6297 6298 6299 6300 6301 6302 6303 6304 6305 6306 6307 6308 6309 6310 6311 6312 6313 6314 6315 6316 6317 6318 6319 6320 6321 6322 6323 6324 6325 6326 6327 6328 6329 6330 6331 6332 6333 6334 6335 6336 6337 6338 6339 6340 6341 6342 6343 6344 6345 6346 6347 6348 6349 6350 6351 6352 6353 6354 6355 6356 6357 6358 6359 6360 6361 6362 6363 6364 6365 6366 6367 6368 6369 6370 6371 6372 6373 6374 6375 6376 6377 6378 6379 6380 6381 6382 6383 6384 6385 6386 6387 6388 6389 6390 6391 6392 6393 6394 6395 6396 6397 6398 6399 6400 6401 6402 6403 6404 6405 6406 6407 6408 6409 6410 6411 6412 6413 6414 6415 6416 6417 6418 6419 6420 6421 6422 6423 6424 6425 6426 6427 6428 6429 6430 6431 6432 6433 6434 6435 6436 6437 6438 6439 6440 6441 6442 6443 6444 6445 6446 6447 6448 6449 6450 6451 6452 6453 6454 6455 6456 6457 6458 6459 6460 6461 6462 6463 6464 6465 6466 6467 6468 6469 6470 6471 6472 6473 6474 6475 6476 6477 6478 6479 6480 6481 6482 6483 6484 6485 6486 6487 6488 6489 6490 6491 6492 6493 6494 6495 6496 6497 6498 6499 6500 6501 6502 6503 6504 6505 6506 6507 6508 6509 6510 6511 6512 6513 6514 6515 6516 6517 6518 6519 6520 6521 6522 6523 6524 6525 6526 6527 6528 6529 6530 6531 6532 6533 6534 6535 6536 6537 6538 6539 6540 6541 6542 6543 6544 6545 6546 6547 6548 6549 6550 6551 6552 6553 6554 6555 6556 6557 6558 6559 6560 6561 6562 6563 6564 6565 6566 6567 6568 6569 6570 6571 6572 6573 6574 6575 6576 6577 6578 6579 6580 6581 6582 6583 6584 6585 6586 6587 6588 6589 6590 6591 6592 6593 6594 6595 6596 6597 6598 6599 6600 6601 6602 6603 6604 6605 6606 6607 6608 6609 6610 6611 6612 6613 6614 6615 6616 6617 6618 6619 6620 6621 6622 6623 6624 6625 6626 6627 6628 6629 6630 6631 6632 6633 6634 6635 6636 6637 6638 6639 6640 6641 6642 6643 6644 6645 6646 6647 6648 6649 6650 6651 6652 6653 6654 6655 6656 6657 6658 6659 6660 6661 6662 6663 6664 6665 6666 6667 6668 6669 6670 6671 6672 6673 6674 6675 6676 6677 6678 6679 6680 6681 6682 6683 6684 6685 6686 6687 6688 6689 6690 6691 6692 6693 6694 6695 6696 6697 6698 6699 6700 6701 6702 6703 6704 6705 6706 6707 6708 6709 6710 6711 6712 6713 6714 6715 6716 6717 6718 6719 6720 6721 6722 6723 6724 6725 6726 6727 6728 6729 6730 6731 6732 6733 6734 6735 6736 6737 6738 6739 6740 6741 6742 6743 6744 6745 6746 6747 6748 6749 6750 6751 6752 6753 6754 6755 6756 6757 6758 6759 6760 6761 6762 6763 6764 6765 6766 6767 6768 6769 6770 6771 6772 6773 6774 6775 6776 6777 6778 6779 6780 6781 6782 6783 6784 6785 6786 6787 6788 6789 6790 6791 6792 6793 6794 6795 6796 6797 6798 6799 6800 6801 6802 6803 6804 6805 6806 6807 6808 6809 6810 6811 6812 6813 6814 6815 6816 6817 6818 6819 6820 6821 6822 6823 6824 6825 6826 6827 6828 6829 6830 6831 6832 6833 6834 6835 6836 6837 6838 6839 6840 6841 6842 6843 6844 6845 6846 6847 6848 6849 6850 6851 6852 6853 6854 6855 6856 6857 6858 6859 6860 6861 6862 6863 6864 6865 6866 6867 6868 6869 6870 6871 6872 6873 6874 6875 6876 6877 6878 6879 6880 6881 6882 6883 6884 6885 6886 6887 6888 6889 6890 6891 6892 6893 6894 6895 6896 6897 6898 6899 6900 6901 6902 6903 6904 6905 6906 6907 6908 6909 6910 6911 6912 6913 6914 6915 6916 6917 6918 6919 6920 6921 6922 6923 6924 6925 6926 6927 6928 6929 6930 6931 6932 6933 6934 6935 6936 6937 6938 6939 6940 6941 6942 6943 6944 6945 6946 6947 6948 6949 6950 6951 6952 6953 6954 6955 6956 6957 6958 6959 6960 6961 6962 6963 6964 6965 6966 6967 6968 6969 6970 6971 6972 6973 6974 6975 6976 6977 6978 6979 6980 6981 6982 6983 6984 6985 6986 6987 6988 6989 6990 6991 6992 6993 6994 6995 6996 6997 6998 6999 7000 7001 7002 7003 7004 7005 7006 7007 7008 7009 7010 7011 7012 7013 7014 7015 7016 7017 7018 7019 7020 7021 7022 7023 7024 7025 7026 7027 7028 7029 7030 7031 7032 7033 7034 7035 7036 7037 7038 7039 7040 7041 7042 7043 7044 7045 7046 7047 7048 7049 7050 7051 7052 7053 7054 7055 7056 7057 7058 7059 7060 7061 7062 7063 7064 7065 7066 7067 7068 7069 7070 7071 7072 7073 7074 7075 7076 7077 7078 7079 7080 7081 7082 7083 7084 7085 7086 7087 7088 7089 7090 7091 7092 7093 7094 7095 7096 7097 7098 7099 7100 7101 7102 7103 7104 7105 7106 7107 7108 7109 7110 7111 7112 7113 7114 7115 7116 7117 7118 7119 7120 7121 7122 7123 7124 7125 7126 7127 7128 7129 7130 7131 7132 7133 7134 7135 7136 7137 7138 7139 7140 7141 7142 7143 7144 7145 7146 7147 7148 7149 7150 7151 7152 7153 7154 7155 7156 7157 7158 7159 7160 7161 7162 7163 7164 7165 7166 7167 7168 7169 7170 7171 7172 7173 7174 7175 7176 7177 7178 7179 7180 7181 7182 7183 7184 7185 7186 7187 7188 7189 7190 7191 7192 7193 7194 7195 7196 7197 7198 7199 7200 7201 7202 7203 7204 7205 7206 7207 7208 7209 7210 7211 7212 7213 7214 7215 7216 7217 7218 7219 7220 7221 7222 7223 7224 7225 7226 7227 7228 7229 7230 7231 7232 7233 7234 7235 7236 7237 7238 7239 7240 7241 7242 7243 7244 7245 7246 7247 7248 7249 7250 7251 7252 7253 7254 7255 7256 7257 7258 7259 7260 7261 7262 7263 7264 7265 7266 7267 7268 7269 7270 7271 7272 7273 7274 7275 7276 7277 7278 7279 7280 7281 7282 7283 7284 7285 7286 7287 7288 7289 7290 7291 7292 7293 7294 7295 7296 7297 7298 7299 7300 7301 7302 7303 7304 7305 7306 7307 7308 7309 7310 7311 7312 7313 7314 7315 7316 7317 7318 7319 7320 7321 7322 7323 7324 7325 7326 7327 7328 7329 7330 7331 7332 7333 7334 7335 7336 7337 7338 7339 7340 7341 7342 7343 7344 7345 7346 7347 7348 7349 7350 7351 7352 7353 7354 7355 7356 7357 7358 7359 7360 7361 7362 7363 7364 7365 7366 7367 7368 7369 7370 7371 7372 7373 7374 7375 7376 7377 7378 7379 7380 7381 7382 7383 7384 7385 7386 7387 7388 7389 7390 7391 7392 7393 7394 7395 7396 7397 7398 7399 7400 7401 7402 7403 7404 7405 7406 7407 7408 7409 7410 7411 7412 7413 7414 7415 7416 7417 7418 7419 7420 7421 7422 7423 7424 7425 7426 7427 7428 7429 7430 7431 7432 7433 7434 7435 7436 7437 7438 7439 7440 7441 7442 7443 7444 7445 7446 7447 7448 7449 7450 7451 7452 7453 7454 7455 7456 7457 7458 7459 7460 7461 7462 7463 7464 7465 7466 7467 7468 7469 7470 7471 7472 7473 7474 7475 7476 7477 7478 7479 7480 7481 7482 7483 7484 7485 7486 7487 7488 7489 7490 7491 7492 7493 7494 7495 7496 7497 7498 7499 7500 7501 7502 7503 7504 7505 7506 7507 7508 7509 7510 7511 7512 7513 7514 7515 7516 7517 7518 7519 7520 7521 7522 7523 7524 7525 7526 7527 7528 7529 7530 7531 7532 7533 7534 7535 7536 7537 7538 7539 7540 7541 7542 7543 7544 7545 7546 7547 7548 7549 7550 7551 7552 7553 7554 7555 7556 7557 7558 7559 7560 7561 7562 7563 7564 7565 7566 7567 7568 7569 7570 7571 7572 7573 7574 7575 7576 7577 7578 7579 7580 7581 7582 7583 7584 7585 7586 7587 7588 7589 7590 7591 7592 7593 7594 7595 7596 7597 7598 7599 7600 7601 7602 7603 7604 7605 7606 7607 7608 7609 7610 7611 7612 7613 7614 7615 7616 7617 7618 7619 7620 7621 7622 7623 7624 7625 7626 7627 7628 7629 7630 7631 7632 7633 7634 7635 7636 7637 7638 7639 7640 7641 7642 7643 7644 7645 7646 7647 7648 7649 7650 7651 7652 7653 7654 7655 7656 7657 7658 7659 7660 7661 7662 7663 7664 7665 7666 7667 7668 7669 7670 7671 7672 7673 7674 7675 7676 7677 7678 7679 7680 7681 7682 7683 7684 7685 7686 7687 7688 7689 7690 7691 7692 7693 7694 7695 7696 7697 7698 7699 7700 7701 7702 7703 7704 7705 7706 7707 7708 7709 7710 7711 7712 7713 7714 7715 7716 7717 7718 7719 7720 7721 7722 7723 7724 7725 7726 7727 7728 7729 7730 7731 7732 7733 7734 7735 7736 7737 7738 7739 7740 7741 7742 7743 7744 7745 7746 7747 7748 7749 7750 7751 7752 7753 7754 7755 7756 7757 7758 7759 7760 7761 7762 7763 7764 7765 7766 7767 7768 7769 7770 7771 7772 7773 7774 7775 7776 7777 7778 7779 7780 7781 7782 7783 7784 7785 7786 7787 7788 7789 7790 7791 7792 7793 7794 7795 7796 7797 7798 7799 7800 7801 7802 7803 7804 7805 7806 7807 7808 7809 7810 7811 7812 7813 7814 7815 7816 7817 7818 7819 7820 7821 7822 7823 7824 7825 7826 7827 7828 7829 7830 7831 7832 7833 7834 7835 7836 7837 7838 7839 7840 7841 7842 7843 7844 7845 7846 7847 7848 7849 7850 7851 7852 7853 7854 7855 7856 7857 7858 7859 7860 7861 7862 7863 7864 7865 7866 7867 7868 7869 7870 7871 7872 7873 7874 7875 7876 7877 7878 7879 7880 7881 7882 7883 7884 7885 7886 7887 7888 7889 7890 7891 7892 7893 7894 7895 7896 7897 7898 7899 7900 7901 7902 7903 7904 7905 7906 7907 7908 7909 7910 7911 7912 7913 7914 7915 7916 7917 7918 7919 7920 7921 7922 7923 7924 7925 7926 7927 7928 7929 7930 7931 7932 7933 7934 7935 7936 7937 7938 7939 7940 7941 7942 7943 7944 7945 7946 7947 7948 7949 7950 7951 7952 7953 7954 7955 7956 7957 7958 7959 7960 7961 7962 7963 7964 7965 7966 7967 7968 7969 7970 7971 7972 7973 7974 7975 7976 7977 7978 7979 7980 7981 7982 7983 7984 7985 7986 7987 7988 7989 7990 7991 7992 7993 7994 7995 7996 7997 7998 7999 8000 8001 8002 8003 8004 8005 8006 8007 8008 8009 8010 8011 8012 8013 8014 8015 8016 8017 8018 8019 8020 8021 8022 8023 8024 8025 8026 8027 8028 8029 8030 8031 8032 8033 8034 8035 8036 8037 8038 8039 8040 8041 8042 8043 8044 8045 8046 8047 8048 8049 8050 8051 8052 8053 8054 8055 8056 8057 8058 8059 8060 8061 8062 8063 8064 8065 8066 8067 8068 8069 8070 8071 8072 8073 8074 8075 8076 8077 8078 8079 8080 8081 8082 8083 8084 8085 8086 8087 8088 8089 8090 8091 8092 8093 8094 8095 8096 8097 8098 8099 8100 8101 8102 8103 8104 8105 8106 8107 8108 8109 8110 8111 8112 8113 8114 8115 8116 8117 8118 8119 8120 8121 8122 8123 8124 8125 8126 8127 8128 8129 8130 8131 8132 8133 8134 8135 8136 8137 8138 8139 8140 8141 8142 8143 8144 8145 8146 8147 8148 8149 8150 8151 8152 8153 8154 8155 8156 8157 8158 8159 8160 8161 8162 8163 8164 8165 8166 8167 8168 8169 8170 8171 8172 8173 8174 8175 8176 8177 8178 8179 8180 8181 8182 8183 8184 8185 8186 8187 8188 8189 8190 8191 8192 8193 8194 8195 8196 8197 8198 8199 8200 8201 8202 8203 8204 8205 8206 8207 8208 8209 8210 8211 8212 8213 8214 8215 8216 8217 8218 8219 8220 8221 8222 8223 8224 8225 8226 8227 8228 8229 8230 8231 8232 8233 8234 8235 8236 8237 8238 8239 8240 8241 8242 8243 8244 8245 8246 8247 8248 8249 8250 8251 8252 8253 8254 8255 8256 8257 8258 8259 8260 8261 8262 8263 8264 8265 8266 8267 8268 8269 8270 8271 8272 8273 8274 8275 8276 8277 8278 8279 8280 8281 8282 8283 8284 8285 8286 8287 8288 8289 8290 8291 8292 8293 8294 8295 8296 8297 8298 8299 8300 8301 8302 8303 8304 8305 8306 8307 8308 8309 8310 8311 8312 8313 8314 8315 8316 8317 8318 8319 8320 8321 8322 8323 8324 8325 8326 8327 8328 8329 8330 8331 8332 8333 8334 8335 8336 8337 8338 8339 8340 8341 8342 8343 8344 8345 8346 8347 8348 8349 8350 8351 8352 8353 8354 8355 8356 8357 8358 8359 8360 8361 8362 8363 8364 8365 8366 8367 8368 8369 8370 8371 8372 8373 8374 8375 8376 8377 8378 8379 8380 8381 8382 8383 8384 8385 8386 8387 8388 8389 8390 8391 8392 8393 8394 8395 8396 8397 8398 8399 8400 8401 8402 8403 8404 8405 8406 8407 8408 8409 8410 8411 8412 8413 8414 8415 8416 8417 8418 8419 8420 8421 8422 8423 8424 8425 8426 8427 8428 8429 8430 8431 8432 8433 8434 8435 8436 8437 8438 8439 8440 8441 8442 8443 8444 8445 8446 8447 8448 8449 8450 8451 8452 8453 8454 8455 8456 8457 8458 8459 8460 8461 8462 8463 8464 8465 8466 8467 8468 8469 8470 8471 8472 8473 8474 8475 8476 8477 8478 8479 8480 8481 8482 8483 8484 8485 8486 8487 8488 8489 8490 8491 8492 8493 8494 8495 8496 8497 8498 8499 8500 8501 8502 8503 8504 8505 8506 8507 8508 8509 8510 8511 8512 8513 8514 8515 8516 8517 8518 8519 8520 8521 8522 8523 8524 8525 8526 8527 8528 8529 8530 8531 8532 8533 8534 8535 8536 8537 8538 8539 8540 8541 8542 8543 8544 8545 8546 8547 8548 8549 8550 8551 8552 8553 8554 8555 8556 8557 8558 8559 8560 8561 8562 8563 8564 8565 8566 8567 8568 8569 8570 8571 8572 8573 8574 8575 8576 8577 8578 8579 8580 8581 8582 8583 8584 8585 8586 8587 8588 8589 8590 8591 8592 8593 8594 8595 8596 8597 8598 8599 8600 8601 8602 8603 8604 8605 8606 8607 8608 8609 8610 8611 8612 8613 8614 8615 8616 8617 8618 8619 8620 8621 8622 8623 8624 8625 8626 8627 8628 8629 8630 8631 8632 8633 8634 8635 8636 8637 8638 8639 8640 8641 8642 8643 8644 8645 8646 8647 8648 8649 8650 8651 8652 8653 8654 8655 8656 8657 8658 8659 8660 8661 8662 8663 8664 8665 8666 8667 8668 8669 8670 8671 8672 8673 8674 8675 8676 8677 8678 8679 8680 8681 8682 8683 8684 8685 8686 8687 8688 8689 8690 8691 8692 8693 8694 8695 8696 8697 8698 8699 8700 8701 8702 8703 8704 8705 8706 8707 8708 8709 8710 8711 8712 8713 8714 8715 8716 8717 8718 8719 8720 8721 8722 8723 8724 8725 8726 8727 8728 8729 8730 8731 8732 8733 8734 8735 8736 8737 8738 8739 8740 8741 8742 8743 8744 8745 8746 8747 8748 8749 8750 8751 8752 8753 8754 8755 8756 8757 8758 8759 8760 8761 8762 8763 8764 8765 8766 8767 8768 8769 8770 8771 8772 8773 8774 8775 8776 8777 8778 8779 8780 8781 8782 8783 8784 8785 8786 8787 8788 8789 8790 8791 8792 8793 8794 8795 8796 8797 8798 8799 8800 8801 8802 8803 8804 8805 8806 8807 8808 8809 8810 8811 8812 8813 8814 8815 8816 8817 8818 8819 8820 8821 8822 8823 8824 8825 8826 8827 8828 8829 8830 8831 8832 8833 8834 8835 8836 8837 8838 8839 8840 8841 8842 8843 8844 8845 8846 8847 8848 8849 8850 8851 8852 8853 8854 8855 8856 8857 8858 8859 8860 8861 8862 8863 8864 8865 8866 8867 8868 8869 8870 8871 8872 8873 8874 8875 8876 8877 8878 8879 8880 8881 8882 8883 8884 8885 8886 8887 8888 8889 8890 8891 8892 8893 8894 8895 8896 8897 8898 8899 8900 8901 8902 8903 8904 8905 8906 8907 8908 8909 8910 8911 8912 8913 8914 8915 8916 8917 8918 8919 8920 8921 8922 8923 8924 8925 8926 8927 8928 8929 8930 8931 8932 8933 8934 8935 8936 8937 8938 8939 8940 8941 8942 8943 8944 8945 8946 8947 8948 8949 8950 8951 8952 8953 8954 8955 8956 8957 8958 8959 8960 8961 8962 8963 8964 8965 8966 8967 8968 8969 8970 8971 8972 8973 8974 8975 8976 8977 8978 8979 8980 8981 8982 8983 8984 8985 8986 8987 8988 8989 8990 8991 8992 8993 8994 8995 8996 8997 8998 8999 9000 9001 9002 9003 9004 9005 9006 9007 9008 9009 9010 9011 9012 9013 9014 9015 9016 9017 9018 9019 9020 9021 9022 9023 9024 9025 9026 9027 9028 9029 9030 9031 9032 9033 9034 9035 9036 9037 9038 9039 9040 9041 9042 9043 9044 9045 9046 9047 9048 9049 9050 9051 9052 9053 9054 9055 9056 9057 9058 9059 9060 9061 9062 9063 9064 9065 9066 9067 9068 9069 9070 9071 9072 9073 9074 9075 9076 9077 9078 9079 9080 9081 9082 9083 9084 9085 9086 9087 9088 9089 9090 9091 9092 9093 9094 9095 9096 9097 9098 9099 9100 9101 9102 9103 9104 9105 9106 9107 9108 9109 9110 9111 9112 9113 9114 9115 9116 9117 9118 9119 9120 9121 9122 9123 9124 9125 9126 9127 9128 9129 9130 9131 9132 9133 9134 9135 9136 9137 9138 9139 9140 9141 9142 9143 9144 9145 9146 9147 9148 9149 9150 9151 9152 9153 9154 9155 9156 9157 9158 9159 9160 9161 9162 9163 9164 9165 9166 9167 9168 9169 9170 9171 9172 9173 9174 9175 9176 9177 9178 9179 9180 9181 9182 9183 9184 9185 9186 9187 9188 9189 9190 9191 9192 9193 9194 9195 9196 9197 9198 9199 9200 9201 9202 9203 9204 9205 9206 9207 9208 9209 9210 9211 9212 9213 9214 9215 9216 9217 9218 9219 9220 9221 9222 9223 9224 9225 9226 9227 9228 9229 9230 9231 9232 9233 9234 9235 9236 9237 9238 9239 9240 9241 9242 9243 9244 9245 9246 9247 9248 9249 9250 9251 9252 9253 9254 9255 9256 9257 9258 9259 9260 9261 9262 9263 9264 9265 9266 9267 9268 9269 9270 9271 9272 9273 9274 9275 9276 9277 9278 9279 9280 9281 9282 9283 9284 9285 9286 9287 9288 9289 9290 9291 9292 9293 9294 9295 9296 9297 9298 9299 9300 9301 9302 9303 9304 9305 9306 9307 9308 9309 9310 9311 9312 9313 9314 9315 9316 9317 9318 9319 9320 9321 9322 9323 9324 9325 9326 9327 9328 9329 9330 9331 9332 9333 9334 9335 9336 9337 9338 9339 9340 9341 9342 9343 9344 9345 9346 9347 9348 9349 9350 9351 9352 9353 9354 9355 9356 9357 9358 9359 9360 9361 9362 9363 9364 9365 9366 9367 9368 9369 9370 9371 9372 9373 9374 9375 9376 9377 9378 9379 9380 9381 9382 9383 9384 9385 9386 9387 9388 9389 9390 9391 9392 9393 9394 9395 9396 9397 9398 9399 9400 9401 9402 9403 9404 9405 9406 9407 9408 9409 9410 9411 9412 9413 9414 9415 9416 9417 9418 9419 9420 9421 9422 9423 9424 9425 9426 9427 9428 9429 9430 9431 9432 9433 9434 9435 9436 9437 9438 9439 9440 9441 9442 9443 9444 9445 9446 9447 9448 9449 9450 9451 9452 9453 9454 9455 9456 9457 9458 9459 9460 9461 9462 9463 9464 9465 9466 9467 9468 9469 9470 9471 9472 9473 9474 9475 9476 9477 9478 9479 9480 9481 9482 9483 9484 9485 9486 9487 9488 9489 9490 9491 9492 9493 9494 9495 9496 9497 9498 9499 9500 9501 9502 9503 9504 9505 9506 9507 9508 9509 9510 9511 9512 9513 9514 9515 9516 9517 9518 9519 9520 9521 9522 9523 9524 9525 9526 9527 9528 9529 9530 9531 9532 9533 9534 9535 9536 9537 9538 9539 9540 9541 9542 9543 9544 9545 9546 9547 9548 9549 9550 9551 9552 9553 9554 9555 9556 9557 9558 9559 9560 9561 9562 9563 9564 9565 9566 9567 9568 9569 9570 9571 9572 9573 9574 9575 9576 9577 9578 9579 9580 9581 9582 9583 9584 9585 9586 9587 9588 9589 9590 9591 9592 9593 9594 9595 9596 9597 9598 9599 9600 9601 9602 9603 9604 9605 9606 9607 9608 9609 9610 9611 9612 9613 9614 9615 9616 9617 9618 9619 9620 9621 9622 9623 9624 9625 9626 9627 9628 9629 9630 9631 9632 9633 9634 9635 9636 9637 9638 9639 9640 9641 9642 9643 9644 9645 9646 9647 9648 9649 9650 9651 9652 9653 9654 9655 9656 9657 9658 9659 9660 9661 9662 9663 9664 9665 9666 9667 9668 9669 9670 9671 9672 9673 9674 9675 9676 9677 9678 9679 9680 9681 9682 9683 9684 9685 9686 9687 9688 9689 9690 9691 9692 9693 9694 9695 9696 9697 9698 9699 9700 9701 9702 9703 9704 9705 9706 9707 9708 9709 9710 9711 9712 9713 9714 9715 9716 9717 9718 9719 9720 9721 9722 9723 9724 9725 9726 9727 9728 9729 9730 9731 9732 9733 9734 9735 9736 9737 9738 9739 9740 9741 9742 9743 9744 9745 9746 9747 9748 9749 9750 9751 9752 9753 9754 9755 9756 9757 9758 9759 9760 9761 9762 9763 9764 9765 9766 9767 9768 9769 9770 9771 9772 9773 9774 9775 9776 9777 9778 9779 9780 9781 9782 9783 9784 9785 9786 9787 9788 9789 9790 9791 9792 9793 9794 9795 9796 9797 9798 9799 9800 9801 9802 9803 9804 9805 9806 9807 9808 9809 9810 9811 9812 9813 9814 9815 9816 9817 9818 9819 9820 9821 9822 9823 9824 9825 9826 9827 9828 9829 9830 9831 9832 9833 9834 9835 9836 9837 9838 9839 9840 9841 9842 9843 9844 9845 9846 9847 9848 9849 9850 9851 9852 9853 9854 9855 9856 9857 9858 9859 9860 9861 9862 9863 9864 9865 9866 9867 9868 9869 9870 9871 9872 9873 9874 9875 9876 9877 9878 9879 9880 9881 9882 9883 9884 9885 9886 9887 9888 9889 9890 9891 9892 9893 9894 9895 9896 9897 9898 9899 9900 9901 9902 9903 9904 9905 9906 9907 9908 9909 9910 9911 9912 9913 9914 9915 9916 9917 9918 9919 9920 9921 9922 9923 9924 9925 9926 9927 9928 9929 9930 9931 9932 9933 9934 9935 9936 9937 9938 9939 9940 9941 9942 9943 9944 9945 9946 9947 9948 9949 9950 9951 9952 9953 9954 9955 9956 9957 9958 9959 9960 9961 9962 9963 9964 9965 9966 9967 9968 9969 9970 9971 9972 9973 9974 9975 9976 9977 9978 9979 9980 9981 9982 9983 9984 9985 9986 9987 9988 9989 9990 9991 9992 9993 9994 9995 9996 9997 9998 9999 10000 10001 10002 10003 10004 10005 10006 10007 10008 10009 10010 10011 10012 10013 10014 10015 10016 10017 10018 10019 10020 10021 10022 10023 10024 10025 10026 10027 10028 10029 10030 10031 10032 10033 10034 10035 10036 10037 10038 10039 10040 10041 10042 10043 10044 10045 10046 10047 10048 10049 10050 10051 10052 10053 10054 10055 10056 10057 10058 10059 10060 10061 10062 10063 10064 10065 10066 10067 10068 10069 10070 10071 10072 10073 10074 10075 10076 10077 10078 10079 10080 10081 10082 10083 10084 10085 10086 10087 10088 10089 10090 10091 10092 10093 10094 10095 10096 10097 10098 10099 10100 10101 10102 10103 10104 10105 10106 10107 10108 10109 10110 10111 10112 10113 10114 10115 10116 10117 10118 10119 10120 10121 10122 10123 10124 10125 10126 10127 10128 10129 10130 10131 10132 10133 10134 10135 10136 10137 10138 10139 10140 10141 10142 10143 10144 10145 10146 10147 10148 10149 10150 10151 10152 10153 10154 10155 10156 10157 10158 10159 10160 10161 10162 10163 10164 10165 10166 10167 10168 10169 10170 10171 10172 10173 10174 10175 10176 10177 10178 10179 10180 10181 10182 10183 10184 10185 10186 10187 10188 10189 10190 10191 10192 10193 10194 10195 10196 10197 10198 10199 10200 10201 10202 10203 10204 10205 10206 10207 10208 10209 10210 10211 10212 10213 10214 10215 10216 10217 10218 10219 10220 10221 10222 10223 10224 10225 10226 10227 10228 10229 10230 10231 10232 10233 10234 10235 10236 10237 10238 10239 10240 10241 10242 10243 10244 10245 10246 10247 10248 10249 10250 10251 10252 10253 10254 10255 10256 10257 10258 10259 10260 10261 10262 10263 10264 10265 10266 10267 10268 10269 10270 10271 10272 10273 10274 10275 10276 10277 10278 10279 10280 10281 10282 10283 10284 10285 10286 10287 10288 10289 10290 10291 10292 10293 10294 10295 10296 10297 10298 10299 10300 10301 10302 10303 10304 10305 10306 10307 10308 10309 10310 10311 10312 10313 10314 10315 10316 10317 10318 10319 10320 10321 10322 10323 10324 10325 10326 10327 10328 10329 10330 10331 10332 10333 10334 10335 10336 10337 10338 10339 10340 10341 10342 10343 10344 10345 10346 10347 10348 10349 10350 10351 10352 10353 10354 10355 10356 10357 10358 10359 10360 10361 10362 10363 10364 10365 10366 10367 10368 10369 10370 10371 10372 10373 10374 10375 10376 10377 10378 10379 10380 10381 10382 10383 10384 10385 10386 10387 10388 10389 10390 10391 10392 10393 10394 10395 10396 10397 10398 10399 10400 10401 10402 10403 10404 10405 10406 10407 10408 10409 10410 10411 10412 10413 10414 10415 10416 10417 10418 10419 10420 10421 10422 10423 10424 10425 10426 10427 10428 10429 10430 10431 10432 10433 10434 10435 10436 10437 10438 10439 10440 10441 10442 10443 10444 10445 10446 10447 10448 10449 10450 10451 10452 10453 10454 10455 10456 10457 10458 10459 10460 10461 10462 10463 10464 10465 10466 10467 10468 10469 10470 10471 10472 10473 10474 10475 10476 10477 10478 10479 10480 10481 10482 10483 10484 10485 10486 10487 10488 10489 10490 10491 10492 10493 10494 10495 10496 10497 10498 10499 10500 10501 10502 10503 10504 10505 10506 10507 10508 10509 10510 10511 10512 10513 10514 10515 10516 10517 10518 10519 10520 10521 10522 10523 10524 10525 10526 10527 10528 10529 10530 10531 10532 10533 10534 10535 10536 10537 10538 10539 10540 10541 10542 10543 10544 10545 10546 10547 10548 10549 10550 10551 10552 10553 10554 10555 10556 10557 10558 10559 10560 10561 10562 10563 10564 10565 10566 10567 10568 10569 10570 10571 10572 10573 10574 10575 10576 10577 10578 10579 10580 10581 10582 10583 10584 10585 10586 10587 10588 10589 10590 10591 10592 10593 10594 10595 10596 10597 10598 10599 10600 10601 10602 10603 10604 10605 10606 10607 10608 10609 10610 10611 10612 10613 10614 10615 10616 10617 10618 10619 10620 10621 10622 10623 10624 10625 10626 10627 10628 10629 10630 10631 10632 10633 10634 10635 10636 10637 10638 10639 10640 10641 10642 10643 10644 10645 10646 10647 10648 10649 10650 10651 10652 10653 10654 10655 10656 10657 10658 10659 10660 10661 10662 10663 10664 10665 10666 10667 10668 10669 10670 10671 10672 10673 10674 10675 10676 10677 10678 10679 10680 10681 10682 10683 10684 10685 10686 10687 10688 10689 10690 10691 10692 10693 10694 10695 10696 10697 10698 10699 10700 10701 10702 10703 10704 10705 10706 10707 10708 10709 10710 10711 10712 10713 10714 10715 10716 10717 10718 10719 10720 10721 10722 10723 10724 10725 10726 10727 10728 10729 10730 10731 10732 10733 10734 10735 10736 10737 10738 10739 10740 10741 10742 10743 10744 10745 10746 10747 10748 10749 10750 10751 10752 10753 10754 10755 10756 10757 10758 10759 10760 10761 10762 10763 10764 10765 10766 10767 10768 10769 10770 10771 10772 10773 10774 10775 10776 10777 10778 10779 10780 10781 10782 10783 10784 10785 10786 10787 10788 10789 10790 10791 10792 10793 10794 10795 10796 10797 10798 10799 10800 10801 10802 10803 10804 10805 10806 10807 10808 10809 10810 10811 10812 10813 10814 10815 10816 10817 10818 10819 10820 10821 10822 10823 10824 10825 10826 10827 10828 10829 10830 10831 10832 10833 10834 10835 10836 10837 10838 10839 10840 10841 10842 10843 10844 10845 10846 10847 10848 10849 10850 10851 10852 10853 10854 10855 10856 10857 10858 10859 10860 10861 10862 10863 10864 10865 10866 10867 10868 10869 10870 10871 10872 10873 10874 10875 10876 10877 10878 10879 10880 10881 10882 10883 10884 10885 10886 10887 10888 10889 10890 10891 10892 10893 10894 10895 10896 10897 10898 10899 10900 10901 10902 10903 10904 10905 10906 10907 10908 10909 10910 10911 10912 10913 10914 10915 10916 10917 10918 10919 10920 10921 10922 10923 10924 10925 10926 10927 10928 10929 10930 10931 10932 10933 10934 10935 10936 10937 10938 10939 10940 10941 10942 10943 10944 10945 10946 10947 10948 10949 10950 10951 10952 10953 10954 10955 10956 10957 10958 10959 10960 10961 10962 10963 10964 10965 10966 10967 10968 10969 10970 10971 10972 10973 10974 10975 10976 10977 10978 10979 10980 10981 10982 10983 10984 10985 10986 10987 10988 10989 10990 10991 10992 10993 10994 10995 10996 10997 10998 10999 11000 11001 11002 11003 11004 11005 11006 11007 11008 11009 11010 11011 11012 11013 11014 11015 11016 11017 11018 11019 11020 11021 11022 11023 11024 11025 11026 11027 11028 11029 11030 11031 11032 11033 11034 11035 11036 11037 11038 11039 11040 11041 11042 11043 11044 11045 11046 11047 11048 11049 11050 11051 11052 11053 11054 11055 11056 11057 11058 11059 11060 11061 11062 11063 11064 11065 11066 11067 11068 11069 11070 11071 11072 11073 11074 11075 11076 11077 11078 11079 11080 11081 11082 11083 11084 11085 11086 11087 11088 11089 11090 11091 11092 11093 11094 11095 11096 11097 11098 11099 11100 11101 11102 11103 11104 11105 11106 11107 11108 11109 11110 11111 11112 11113 11114 11115 11116 11117 11118 11119 11120 11121 11122 11123 11124 11125 11126 11127 11128 11129 11130 11131 11132 11133 11134 11135 11136 11137 11138 11139 11140 11141 11142 11143 11144 11145 11146 11147 11148 11149 11150 11151 11152 11153 11154 11155 11156 11157 11158 11159 11160 11161 11162 11163 11164 11165 11166 11167 11168 11169 11170 11171 11172 11173 11174 11175 11176 11177 11178 11179 11180 11181 11182 11183 11184 11185 11186 11187 11188 11189 11190 11191 11192 11193 11194 11195 11196 11197 11198 11199 11200 11201 11202 11203 11204 11205 11206 11207 11208 11209 11210 11211 11212 11213 11214 11215 11216 11217 11218 11219 11220 11221 11222 11223 11224 11225 11226 11227 11228 11229 11230 11231 11232 11233 11234 11235 11236 11237 11238 11239 11240 11241 11242 11243 11244 11245 11246 11247 11248 11249 11250 11251 11252 11253 11254 11255 11256 11257 11258 11259 11260 11261 11262 11263 11264 11265 11266 11267 11268 11269 11270 11271 11272 11273 11274 11275 11276 11277 11278 11279 11280 11281 11282 11283 11284 11285 11286 11287 11288 11289 11290 11291 11292 11293 11294 11295 11296 11297 11298 11299 11300 11301 11302 11303 11304 11305 11306 11307 11308 11309 11310 11311 11312 11313 11314 11315 11316 11317 11318 11319 11320 11321 11322 11323 11324 11325 11326 11327 11328 11329 11330 11331 11332 11333 11334 11335 11336 11337 11338 11339 11340 11341 11342 11343 11344 11345 11346 11347 11348 11349 11350 11351 11352 11353 11354 11355 11356 11357 11358 11359 11360 11361 11362 11363 11364 11365 11366 11367 11368 11369 11370 11371 11372 11373 11374 11375 11376 11377 11378 11379 11380 11381 11382 11383 11384 11385 11386 11387 11388 11389 11390 11391 11392 11393 11394 11395 11396 11397 11398 11399 11400 11401 11402 11403 11404 11405 11406 11407 11408 11409 11410 11411 11412 11413 11414 11415 11416 11417 11418 11419 11420 11421 11422 11423 11424 11425 11426 11427 11428 11429 11430 11431 11432 11433 11434 11435 11436 11437 11438 11439 11440 11441 11442 11443 11444 11445 11446 11447 11448 11449 11450 11451 11452 11453 11454 11455 11456 11457 11458 11459 11460 11461 11462 11463 11464 11465 11466 11467 11468 11469 11470 11471 11472 11473 11474 11475 11476 11477 11478 11479 11480 11481 11482 11483 11484 11485 11486 11487 11488 11489 11490 11491 11492 11493 11494 11495 11496 11497 11498 11499 11500 11501 11502 11503 11504 11505 11506 11507 11508 11509 11510 11511 11512 11513 11514 11515 11516 11517 11518 11519 11520 11521 11522 11523 11524 11525 11526 11527 11528 11529 11530 11531 11532 11533 11534 11535 11536 11537 11538 11539 11540 11541 11542 11543 11544 11545 11546 11547 11548 11549 11550 11551 11552 11553 11554 11555 11556 11557 11558 11559 11560 11561 11562 11563 11564 11565 11566 11567 11568 11569 11570 11571 11572 11573 11574 11575 11576 11577 11578 11579 11580 11581 11582 11583 11584 11585 11586 11587 11588 11589 11590 11591 11592 11593 11594 11595 11596 11597 11598 11599 11600 11601 11602 11603 11604 11605 11606 11607 11608 11609 11610 11611 11612 11613 11614 11615 11616 11617 11618 11619 11620 11621 11622 11623 11624 11625 11626 11627 11628 11629 11630 11631 11632 11633 11634 11635 11636 11637 11638 11639 11640 11641 11642 11643 11644 11645 11646 11647 11648 11649 11650 11651 11652 11653 11654 11655 11656 11657 11658 11659 11660 11661 11662 11663 11664 11665 11666 11667 11668 11669 11670 11671 11672 11673 11674 11675 11676 11677 11678 11679 11680 11681 11682 11683 11684 11685 11686 11687 11688 11689 11690 11691 11692 11693 11694 11695 11696 11697 11698 11699 11700 11701 11702 11703 11704 11705 11706 11707 11708 11709 11710 11711 11712 11713 11714 11715 11716 11717 11718 11719 11720 11721 11722 11723 11724 11725 11726 11727 11728 11729 11730 11731 11732 11733 11734 11735 11736 11737 11738 11739 11740 11741 11742 11743 11744 11745 11746 11747 11748 11749 11750 11751 11752 11753 11754 11755 11756 11757 11758 11759 11760 11761 11762 11763 11764 11765 11766 11767 11768 11769 11770 11771 11772 11773 11774 11775 11776 11777 11778 11779 11780 11781 11782 11783 11784 11785 11786 11787 11788 11789 11790 11791 11792 11793 11794 11795 11796 11797 11798 11799 11800 11801 11802 11803 11804 11805 11806 11807 11808 11809 11810 11811 11812 11813 11814 11815 11816 11817 11818 11819 11820 11821 11822 11823 11824 11825 11826 11827 11828 11829 11830 11831 11832 11833 11834 11835 11836 11837 11838 11839 11840 11841 11842 11843 11844 11845 11846 11847 11848 11849 11850 11851 11852 11853 11854 11855 11856 11857 11858 11859 11860 11861 11862 11863 11864 11865 11866 11867 11868 11869 11870 11871 11872 11873 11874 11875 11876 11877 11878 11879 11880 11881 11882 11883 11884 11885 11886 11887 11888 11889 11890 11891 11892 11893 11894 11895 11896 11897 11898 11899 11900 11901 11902 11903 11904 11905 11906 11907 11908 11909 11910 11911 11912 11913 11914 11915 11916 11917 11918 11919 11920 11921 11922 11923 11924 11925 11926 11927 11928 11929 11930 11931 11932 11933 11934 11935 11936 11937 11938 11939 11940 11941 11942 11943 11944 11945 11946 11947 11948 11949 11950 11951 11952 11953 11954 11955 11956 11957 11958 11959 11960 11961 11962 11963 11964 11965 11966 11967 11968 11969 11970 11971 11972 11973 11974 11975 11976 11977 11978 11979 11980 11981 11982 11983 11984 11985 11986 11987 11988 11989 11990 11991 11992 11993 11994 11995 11996 11997 11998 11999 12000 12001 12002 12003 12004 12005 12006 12007 12008 12009 12010 12011 12012 12013 12014 12015 12016 12017 12018 12019 12020 12021 12022 12023 12024 12025 12026 12027 12028 12029 12030 12031 12032 12033 12034 12035 12036 12037 12038 12039 12040 12041 12042 12043 12044 12045 12046 12047 12048 12049 12050 12051 12052 12053 12054 12055 12056 12057 12058 12059 12060 12061 12062 12063 12064 12065 12066 12067 12068 12069 12070 12071 12072 12073 12074 12075 12076 12077 12078 12079 12080 12081 12082 12083 12084 12085 12086 12087 12088 12089 12090 12091 12092 12093 12094 12095 12096 12097 12098 12099 12100 12101 12102 12103 12104 12105 12106 12107 12108 12109 12110 12111 12112 12113 12114 12115 12116 12117 12118 12119 12120 12121 12122 12123 12124 12125 12126 12127 12128 12129 12130 12131 12132 12133 12134 12135 12136 12137 12138 12139 12140 12141 12142 12143 12144 12145 12146 12147 12148 12149 12150 12151 12152 12153 12154 12155 12156 12157 12158 12159 12160 12161 12162 12163 12164 12165 12166 12167 12168 12169 12170 12171 12172 12173 12174 12175 12176 12177 12178 12179 12180 12181 12182 12183 12184 12185 12186 12187 12188 12189 12190 12191 12192 12193 12194 12195 12196 12197 12198 12199 12200 12201 12202 12203 12204 12205 12206 12207 12208 12209 12210 12211 12212 12213 12214 12215 12216 12217 12218 12219 12220 12221 12222 12223 12224 12225 12226 12227 12228 12229 12230 12231 12232 12233 12234 12235 12236 12237 12238 12239 12240 12241 12242 12243 12244 12245 12246 12247 12248 12249 12250 12251 12252 12253 12254 12255 12256 12257 12258 12259 12260 12261 12262 12263 12264 12265 12266 12267 12268 12269 12270 12271 12272 12273 12274 12275 12276 12277 12278 12279 12280 12281 12282 12283 12284 12285 12286 12287 12288 12289 12290 12291 12292 12293 12294 12295 12296 12297 12298 12299 12300 12301 12302 12303 12304 12305 12306 12307 12308 12309 12310 12311 12312 12313 12314 12315 12316 12317 12318 12319 12320 12321 12322 12323 12324 12325 12326 12327 12328 12329 12330 12331 12332 12333 12334 12335 12336 12337 12338 12339 12340 12341 12342 12343 12344 12345 12346 12347 12348 12349 12350 12351 12352 12353 12354 12355 12356 12357 12358 12359 12360 12361 12362 12363 12364 12365 12366 12367 12368 12369 12370 12371 12372 12373 12374 12375 12376 12377 12378 12379 12380 12381 12382 12383 12384 12385 12386 12387 12388 12389 12390 12391 12392 12393 12394 12395 12396 12397 12398 12399 12400 12401 12402 12403 12404 12405 12406 12407 12408 12409 12410 12411 12412 12413 12414 12415 12416 12417 12418 12419 12420 12421 12422 12423 12424 12425 12426 12427 12428 12429 12430 12431 12432 12433 12434 12435 12436 12437 12438 12439 12440 12441 12442 12443 12444 12445 12446 12447 12448 12449 12450 12451 12452 12453 12454 12455 12456 12457 12458 12459 12460 12461 12462 12463 12464 12465 12466 12467 12468 12469 12470 12471 12472 12473 12474 12475 12476 12477 12478 12479 12480 12481 12482 12483 12484 12485 12486 12487 12488 12489 12490 12491 12492 12493 12494 12495 12496 12497 12498 12499 12500 12501 12502 12503 12504 12505 12506 12507 12508 12509 12510 12511 12512 12513 12514 12515 12516 12517 12518 12519 12520 12521 12522 12523 12524 12525 12526 12527 12528 12529 12530 12531 12532 12533 12534 12535 12536 12537 12538 12539 12540 12541 12542 12543 12544 12545 12546 12547 12548 12549 12550 12551 12552 12553 12554 12555 12556 12557 12558 12559 12560 12561 12562 12563 12564 12565 12566 12567 12568 12569 12570 12571 12572 12573 12574 12575 12576 12577 12578 12579 12580 12581 12582 12583 12584 12585 12586 12587 12588 12589 12590 12591 12592 12593 12594 12595 12596 12597 12598 12599 12600 12601 12602 12603 12604 12605 12606 12607 12608 12609 12610 12611 12612 12613 12614 12615 12616 12617 12618 12619 12620 12621 12622 12623 12624 12625 12626 12627 12628 12629 12630 12631 12632 12633 12634 12635 12636 12637 12638 12639 12640 12641 12642 12643 12644 12645 12646 12647 12648 12649 12650 12651 12652 12653 12654 12655 12656 12657 12658 12659 12660 12661 12662 12663 12664 12665 12666 12667 12668 12669 12670 12671 12672 12673 12674 12675 12676 12677 12678 12679 12680 12681 12682 12683 12684 12685 12686 12687 12688 12689 12690 12691 12692 12693 12694 12695 12696 12697 12698 12699 12700 12701 12702 12703 12704 12705 12706 12707 12708 12709 12710 12711 12712 12713 12714 12715 12716 12717 12718 12719 12720 12721 12722 12723 12724 12725 12726 12727 12728 12729 12730 12731 12732 12733 12734 12735 12736 12737 12738 12739 12740 12741 12742 12743 12744 12745 12746 12747 12748 12749 12750 12751 12752 12753 12754 12755 12756 12757 12758 12759 12760 12761 12762 12763 12764 12765 12766 12767 12768 12769 12770 12771 12772 12773 12774 12775 12776 12777 12778 12779 12780 12781 12782 12783 12784 12785 12786 12787 12788 12789 12790 12791 12792 12793 12794 12795 12796 12797 12798 12799 12800 12801 12802 12803 12804 12805 12806 12807 12808 12809 12810 12811 12812 12813 12814 12815 12816 12817 12818 12819 12820 12821 12822 12823 12824 12825 12826 12827 12828 12829 12830 12831 12832 12833 12834 12835 12836 12837 12838 12839 12840 12841 12842 12843 12844 12845 12846 12847 12848 12849 12850 12851 12852 12853 12854 12855 12856 12857 12858 12859 12860 12861 12862 12863 12864 12865 12866 12867 12868 12869 12870 12871 12872 12873 12874 12875 12876 12877 12878 12879 12880 12881 12882 12883 12884 12885 12886 12887 12888 12889 12890 12891 12892 12893 12894 12895 12896 12897 12898 12899 12900 12901 12902 12903 12904 12905 12906 12907 12908 12909 12910 12911 12912 12913 12914 12915 12916 12917 12918 12919 12920 12921 12922 12923 12924 12925 12926 12927 12928 12929 12930 12931 12932 12933 12934 12935 12936 12937 12938 12939 12940 12941 12942 12943 12944 12945 12946 12947 12948 12949 12950 12951 12952 12953 12954 12955 12956 12957 12958 12959 12960 12961 12962 12963 12964 12965 12966 12967 12968 12969 12970 12971 12972 12973 12974 12975 12976 12977 12978 12979 12980 12981 12982 12983 12984 12985 12986 12987 12988 12989 12990 12991 12992 12993 12994 12995 12996 12997 12998 12999 13000 13001 13002 13003 13004 13005 13006 13007 13008 13009 13010 13011 13012 13013 13014 13015 13016 13017 13018 13019 13020 13021 13022 13023 13024 13025 13026 13027 13028 13029 13030 13031 13032 13033 13034 13035 13036 13037 13038 13039 13040 13041 13042 13043 13044 13045 13046 13047 13048 13049 13050 13051 13052 13053 13054 13055 13056 13057 13058 13059 13060 13061 13062 13063 13064 13065 13066 13067 13068 13069 13070 13071 13072 13073 13074 13075 13076 13077 13078 13079 13080 13081 13082 13083 13084 13085 13086 13087 13088 13089 13090 13091 13092 13093 13094 13095 13096 13097 13098 13099 13100 13101 13102 13103 13104 13105 13106 13107 13108 13109 13110 13111 13112 13113 13114 13115 13116 13117 13118 13119 13120 13121 13122 13123 13124 13125 13126 13127 13128 13129 13130 13131 13132 13133 13134 13135 13136 13137 13138 13139 13140 13141 13142 13143 13144 13145 13146 13147 13148 13149 13150 13151 13152 13153 13154 13155 13156 13157 13158 13159 13160 13161 13162 13163 13164 13165 13166 13167 13168 13169 13170 13171 13172 13173 13174 13175 13176 13177 13178 13179 13180 13181 13182 13183 13184 13185 13186 13187 13188 13189 13190 13191 13192 13193 13194 13195 13196 13197 13198 13199 13200 13201 13202 13203 13204 13205 13206 13207 13208 13209 13210 13211 13212 13213 13214 13215 13216 13217 13218 13219 13220 13221 13222 13223 13224 13225 13226 13227 13228 13229 13230 13231 13232 13233 13234 13235 13236 13237 13238 13239 13240 13241 13242 13243 13244 13245 13246 13247 13248 13249 13250 13251 13252 13253 13254 13255 13256 13257 13258 13259 13260 13261 13262 13263 13264 13265 13266 13267 13268 13269 13270 13271 13272 13273 13274 13275 13276 13277 13278 13279 13280 13281 13282 13283 13284 13285 13286 13287 13288 13289 13290 13291 13292 13293 13294 13295 13296 13297 13298 13299 13300 13301 13302 13303 13304 13305 13306 13307 13308 13309 13310 13311 13312 13313 13314 13315 13316 13317 13318 13319 13320 13321 13322 13323 13324 13325 13326 13327 13328 13329 13330 13331 13332 13333 13334 13335 13336 13337 13338 13339 13340 13341 13342 13343 13344 13345 13346 13347 13348 13349 13350 13351 13352 13353 13354 13355 13356 13357 13358 13359 13360 13361 13362 13363 13364 13365 13366 13367 13368 13369 13370 13371 13372 13373 13374 13375 13376 13377 13378 13379 13380 13381 13382 13383 13384 13385 13386 13387 13388 13389 13390 13391 13392 13393 13394 13395 13396 13397 13398 13399 13400 13401 13402 13403 13404 13405 13406 13407 13408 13409 13410 13411 13412 13413 13414 13415 13416 13417 13418 13419 13420 13421 13422 13423 13424 13425 13426 13427 13428 13429 13430 13431 13432 13433 13434 13435 13436 13437 13438 13439 13440 13441 13442 13443 13444 13445 13446 13447 13448 13449 13450 13451 13452 13453 13454 13455 13456 13457 13458 13459 13460 13461 13462 13463 13464 13465 13466 13467 13468 13469 13470 13471 13472 13473 13474 13475 13476 13477 13478 13479 13480 13481 13482 13483 13484 13485 13486 13487 13488 13489 13490 13491 13492 13493 13494 13495 13496 13497 13498 13499 13500 13501 13502 13503 13504 13505 13506 13507 13508 13509 13510 13511 13512 13513 13514 13515 13516 13517 13518 13519 13520 13521 13522 13523 13524 13525 13526 13527 13528 13529 13530 13531 13532 13533 13534 13535 13536 13537 13538 13539 13540 13541 13542 13543 13544 13545 13546 13547 13548 13549 13550 13551 13552 13553 13554 13555 13556 13557 13558 13559 13560 13561 13562 13563 13564 13565 13566 13567 13568 13569 13570 13571 13572 13573 13574 13575 13576 13577 13578 13579 13580 13581 13582 13583 13584 13585 13586 13587 13588 13589 13590 13591 13592 13593 13594 13595 13596 13597 13598 13599 13600 13601 13602 13603 13604 13605 13606 13607 13608 13609 13610 13611 13612 13613 13614 13615 13616 13617 13618 13619 13620 13621 13622 13623 13624 13625 13626 13627 13628 13629 13630 13631 13632 13633 13634 13635 13636 13637 13638 13639 13640 13641 13642 13643 13644 13645 13646 13647 13648 13649 13650 13651 13652 13653 13654 13655 13656 13657 13658 13659 13660 13661 13662 13663 13664 13665 13666 13667 13668 13669 13670 13671 13672 13673 13674 13675 13676 13677 13678 13679 13680 13681 13682 13683 13684 13685 13686 13687 13688 13689 13690 13691 13692 13693 13694 13695 13696 13697 13698 13699 13700 13701 13702 13703 13704 13705 13706 13707 13708 13709 13710 13711 13712 13713 13714 13715 13716 13717 13718 13719 13720 13721 13722 13723 13724 13725 13726 13727 13728 13729 13730 13731 13732 13733 13734 13735 13736 13737 13738 13739 13740 13741 13742 13743 13744 13745 13746 13747 13748 13749 13750 13751 13752 13753 13754 13755 13756 13757 13758 13759 13760 13761 13762 13763 13764 13765 13766 13767 13768 13769 13770 13771 13772 13773 13774 13775 13776 13777 13778 13779 13780 13781 13782 13783 13784 13785 13786 13787 13788 13789 13790 13791 13792 13793 13794 13795 13796 13797 13798 13799 13800 13801 13802 13803 13804 13805 13806 13807 13808 13809 13810 13811 13812 13813 13814 13815 13816 13817 13818 13819 13820 13821 13822 13823 13824 13825 13826 13827 13828 13829 13830 13831 13832 13833 13834 13835 13836 13837 13838 13839 13840 13841 13842 13843 13844 13845 13846 13847 13848 13849 13850 13851 13852 13853 13854 13855 13856 13857 13858 13859 13860 13861 13862 13863 13864 13865 13866 13867 13868 13869 13870 13871 13872 13873 13874 13875 13876 13877 13878 13879 13880 13881 13882 13883 13884 13885 13886 13887 13888 13889 13890 13891 13892 13893 13894 13895 13896 13897 13898 13899 13900 13901 13902 13903 13904 13905 13906 13907 13908 13909 13910 13911 13912 13913 13914 13915 13916 13917 13918 13919 13920 13921 13922 13923 13924 13925 13926 13927 13928 13929 13930 13931 13932 13933 13934 13935 13936 13937 13938 13939 13940 13941 13942 13943 13944 13945 13946 13947 13948 13949 13950 13951 13952 13953 13954 13955 13956 13957 13958 13959 13960 13961 13962 13963 13964 13965 13966 13967 13968 13969 13970 13971 13972 13973 13974 13975 13976 13977 13978 13979 13980 13981 13982 13983 13984 13985 13986 13987 13988 13989 13990 13991 13992 13993 13994 13995 13996 13997 13998 13999 14000 14001 14002 14003 14004 14005 14006 14007 14008 14009 14010 14011 14012 14013 14014 14015 14016 14017 14018 14019 14020 14021 14022 14023 14024 14025 14026 14027 14028 14029 14030 14031 14032 14033 14034 14035 14036 14037 14038 14039 14040 14041 14042 14043 14044 14045 14046 14047 14048 14049 14050 14051 14052 14053 14054 14055 14056 14057 14058 14059 14060 14061 14062 14063 14064 14065 14066 14067 14068 14069 14070 14071 14072 14073 14074 14075 14076 14077 14078 14079 14080 14081 14082 14083 14084 14085 14086 14087 14088 14089 14090 14091 14092 14093 14094 14095 14096 14097 14098 14099 14100 14101 14102 14103 14104 14105 14106 14107 14108 14109 14110 14111 14112 14113 14114 14115 14116 14117 14118 14119 14120 14121 14122 14123 14124 14125 14126 14127 14128 14129 14130 14131 14132 14133 14134 14135 14136 14137 14138 14139 14140 14141 14142 14143 14144 14145 14146 14147 14148 14149 14150 14151 14152 14153 14154 14155 14156 14157 14158 14159 14160 14161 14162 14163 14164 14165 14166 14167 14168 14169 14170 14171 14172 14173 14174 14175 14176 14177 14178 14179 14180 14181 14182 14183 14184 14185 14186 14187 14188 14189 14190 14191 14192 14193 14194 14195 14196 14197 14198 14199 14200 14201 14202 14203 14204 14205 14206 14207 14208 14209 14210 14211 14212 14213 14214 14215 14216 14217 14218 14219 14220 14221 14222 14223 14224 14225 14226 14227 14228 14229 14230 14231 14232 14233 14234 14235 14236 14237 14238 14239 14240 14241 14242 14243 14244 14245 14246 14247 14248 14249 14250 14251 14252 14253 14254 14255 14256 14257 14258 14259 14260 14261 14262 14263 14264 14265 14266 14267 14268 14269 14270 14271 14272 14273 14274 14275 14276 14277 14278 14279 14280 14281 14282 14283 14284 14285 14286 14287 14288 14289 14290 14291 14292 14293 14294 14295 14296 14297 14298 14299 14300 14301 14302 14303 14304 14305 14306 14307 14308 14309 14310 14311 14312 14313 14314 14315 14316 14317 14318 14319 14320 14321 14322 14323 14324 14325 14326 14327 14328 14329 14330 14331 14332 14333 14334 14335 14336 14337 14338 14339 14340 14341 14342 14343 14344 14345 14346 14347 14348 14349 14350 14351 14352 14353 14354 14355 14356 14357 14358 14359 14360 14361 14362 14363 14364 14365 14366 14367 14368 14369 14370 14371 14372 14373 14374 14375 14376 14377 14378 14379 14380 14381 14382 14383 14384 14385 14386 14387 14388 14389 14390 14391 14392 14393 14394 14395 14396 14397 14398 14399 14400 14401 14402 14403 14404 14405 14406 14407 14408 14409 14410 14411 14412 14413 14414 14415 14416 14417 14418 14419 14420 14421 14422 14423 14424 14425 14426 14427 14428 14429 14430 14431 14432 14433 14434 14435 14436 14437 14438 14439 14440 14441 14442 14443 14444 14445 14446 14447 14448 14449 14450 14451 14452 14453 14454 14455 14456 14457 14458 14459 14460 14461 14462 14463 14464 14465 14466 14467 14468 14469 14470 14471 14472 14473 14474 14475 14476 14477 14478 14479 14480 14481 14482 14483 14484 14485 14486 14487 14488 14489 14490 14491 14492 14493 14494 14495 14496 14497 14498 14499 14500 14501 14502 14503 14504 14505 14506 14507 14508 14509 14510 14511 14512 14513 14514 14515 14516 14517 14518 14519 14520 14521 14522 14523 14524 14525 14526 14527 14528 14529 14530 14531 14532 14533 14534 14535 14536 14537 14538 14539 14540 14541 14542 14543 14544 14545 14546 14547 14548 14549 14550 14551 14552 14553 14554 14555 14556 14557 14558 14559 14560 14561 14562 14563 14564 14565 14566 14567 14568 14569 14570 14571 14572 14573 14574 14575 14576 14577 14578 14579 14580 14581 14582 14583 14584 14585 14586 14587 14588 14589 14590 14591 14592 14593 14594 14595 14596 14597 14598 14599 14600 14601 14602 14603 14604 14605 14606 14607 14608 14609 14610 14611 14612 14613 14614 14615 14616 14617 14618 14619 14620 14621 14622 14623 14624 14625 14626 14627 14628 14629 14630 14631 14632 14633 14634 14635 14636 14637 14638 14639 14640 14641 14642 14643 14644 14645 14646 14647 14648 14649 14650 14651 14652 14653 14654 14655 14656 14657 14658 14659 14660 14661 14662 14663 14664 14665 14666 14667 14668 14669 14670 14671 14672 14673 14674 14675 14676 14677 14678 14679 14680 14681 14682 14683 14684 14685 14686 14687 14688 14689 14690 14691 14692 14693 14694 14695 14696 14697 14698 14699 14700 14701 14702 14703 14704 14705 14706 14707 14708 14709 14710 14711 14712 14713 14714 14715 14716 14717 14718 14719 14720 14721 14722 14723 14724 14725 14726 14727 14728 14729 14730 14731 14732 14733 14734 14735 14736 14737 14738 14739 14740 14741 14742 14743 14744 14745 14746 14747 14748 14749 14750 14751 14752 14753 14754 14755 14756 14757 14758 14759 14760 14761 14762 14763 14764 14765 14766 14767 14768 14769 14770 14771 14772 14773 14774 14775 14776 14777 14778 14779 14780 14781 14782 14783 14784 14785 14786 14787 14788 14789 14790 14791 14792 14793 14794 14795 14796 14797 14798 14799 14800 14801 14802 14803 14804 14805 14806 14807 14808 14809 14810 14811 14812 14813 14814 14815 14816 14817 14818 14819 14820 14821 14822 14823 14824 14825 14826 14827 14828 14829 14830 14831 14832 14833 14834 14835 14836 14837 14838 14839 14840 14841 14842 14843 14844 14845 14846 14847 14848 14849 14850 14851 14852 14853 14854 14855 14856 14857 14858 14859 14860 14861 14862 14863 14864 14865 14866 14867 14868 14869 14870 14871 14872 14873 14874 14875 14876 14877 14878 14879 14880 14881 14882 14883 14884 14885 14886 14887 14888 14889 14890 14891 14892 14893 14894 14895 14896 14897 14898 14899 14900 14901 14902 14903 14904 14905 14906 14907 14908 14909 14910 14911 14912 14913 14914 14915 14916 14917 14918 14919 14920 14921 14922 14923 14924 14925 14926 14927 14928 14929 14930 14931 14932 14933 14934 14935 14936 14937 14938 14939 14940 14941 14942 14943 14944 14945 14946 14947 14948 14949 14950 14951 14952 14953 14954 14955 14956 14957 14958 14959 14960 14961 14962 14963 14964 14965 14966 14967 14968 14969 14970 14971 14972 14973 14974 14975 14976 14977 14978 14979 14980 14981 14982 14983 14984 14985 14986 14987 14988 14989 14990 14991 14992 14993 14994 14995 14996 14997 14998 14999 15000 15001 15002 15003 15004 15005 15006 15007 15008 15009 15010 15011 15012 15013 15014 15015 15016 15017 15018 15019 15020 15021 15022 15023 15024 15025 15026 15027 15028 15029 15030 15031 15032 15033 15034 15035 15036 15037 15038 15039 15040 15041 15042 15043 15044 15045 15046 15047 15048 15049 15050 15051 15052 15053 15054 15055 15056 15057 15058 15059 15060 15061 15062 15063 15064 15065 15066 15067 15068 15069 15070 15071 15072 15073 15074 15075 15076 15077 15078 15079 15080 15081 15082 15083 15084 15085 15086 15087 15088 15089 15090 15091 15092 15093 15094 15095 15096 15097 15098 15099 15100 15101 15102 15103 15104 15105 15106 15107 15108 15109 15110 15111 15112 15113 15114 15115 15116 15117 15118 15119 15120 15121 15122 15123 15124 15125 15126 15127 15128 15129 15130 15131 15132 15133 15134 15135 15136 15137 15138 15139 15140 15141 15142 15143 15144 15145 15146 15147 15148 15149 15150 15151 15152 15153 15154 15155 15156 15157 15158 15159 15160 15161 15162 15163 15164 15165 15166 15167 15168 15169 15170 15171 15172 15173 15174 15175 15176 15177 15178 15179 15180 15181 15182 15183 15184 15185 15186 15187 15188 15189 15190 15191 15192 15193 15194 15195 15196 15197 15198 15199 15200 15201 15202 15203 15204 15205 15206 15207 15208 15209 15210 15211 15212 15213 15214 15215 15216 15217 15218 15219 15220 15221 15222 15223 15224 15225 15226 15227 15228 15229 15230 15231 15232 15233 15234 15235 15236 15237 15238 15239 15240 15241 15242 15243 15244 15245 15246 15247 15248 15249 15250 15251 15252 15253 15254 15255 15256 15257 15258 15259 15260 15261 15262 15263 15264 15265 15266 15267 15268 15269 15270 15271 15272 15273 15274 15275 15276 15277 15278 15279 15280 15281 15282 15283 15284 15285 15286 15287 15288 15289 15290 15291 15292 15293 15294 15295 15296 15297 15298 15299 15300 15301 15302 15303 15304 15305 15306 15307 15308 15309 15310 15311 15312 15313 15314 15315 15316 15317 15318 15319 15320 15321 15322 15323 15324 15325 15326 15327 15328 15329 15330 15331 15332 15333 15334 15335 15336 15337 15338 15339 15340 15341 15342 15343 15344 15345 15346 15347 15348 15349 15350 15351 15352 15353 15354 15355 15356 15357 15358 15359 15360 15361 15362 15363 15364 15365 15366 15367 15368 15369 15370 15371 15372 15373 15374 15375 15376 15377 15378 15379 15380 15381 15382 15383 15384 15385 15386 15387 15388 15389 15390 15391 15392 15393 15394 15395 15396 15397 15398 15399 15400 15401 15402 15403 15404 15405 15406 15407 15408 15409 15410 15411 15412 15413 15414 15415 15416 15417 15418 15419 15420 15421 15422 15423 15424 15425 15426 15427 15428 15429 15430 15431 15432 15433 15434 15435 15436 15437 15438 15439 15440 15441 15442 15443 15444 15445 15446 15447 15448 15449 15450 15451 15452 15453 15454 15455 15456 15457 15458 15459 15460 15461 15462 15463 15464 15465 15466 15467 15468 15469 15470 15471 15472 15473 15474 15475 15476 15477 15478 15479 15480 15481 15482 15483 15484 15485 15486 15487 15488 15489 15490 15491 15492 15493 15494 15495 15496 15497 15498 15499 15500 15501 15502 15503 15504 15505 15506 15507 15508 15509 15510 15511 15512 15513 15514 15515 15516 15517 15518 15519 15520 15521 15522 15523 15524 15525 15526 15527 15528 15529 15530 15531 15532 15533 15534 15535 15536 15537 15538 15539 15540 15541 15542 15543 15544 15545 15546 15547 15548 15549 15550 15551 15552 15553 15554 15555 15556 15557 15558 15559 15560 15561 15562 15563 15564 15565 15566 15567 15568 15569 15570 15571 15572 15573 15574 15575 15576 15577 15578 15579 15580 15581 15582 15583 15584 15585 15586 15587 15588 15589 15590 15591 15592 15593 15594 15595 15596 15597 15598 15599 15600 15601 15602 15603 15604 15605 15606 15607 15608 15609 15610 15611 15612 15613 15614 15615 15616 15617 15618 15619 15620 15621 15622 15623 15624 15625 15626 15627 15628 15629 15630 15631 15632 15633 15634 15635 15636 15637 15638 15639 15640 15641 15642 15643 15644 15645 15646 15647 15648 15649 15650 15651 15652 15653 15654 15655 15656 15657 15658 15659 15660 15661 15662 15663 15664 15665 15666 15667 15668 15669 15670 15671 15672 15673 15674 15675 15676 15677 15678 15679 15680 15681 15682 15683 15684 15685 15686 15687 15688 15689 15690 15691 15692 15693 15694 15695 15696 15697 15698 15699 15700 15701 15702 15703 15704 15705 15706 15707 15708 15709 15710 15711 15712 15713 15714 15715 15716 15717 15718 15719 15720 15721 15722 15723 15724 15725 15726 15727 15728 15729 15730 15731 15732 15733 15734 15735 15736 15737 15738 15739 15740 15741 15742 15743 15744 15745 15746 15747 15748 15749 15750 15751 15752 15753 15754 15755 15756 15757 15758 15759 15760 15761 15762 15763 15764 15765 15766 15767 15768 15769 15770 15771 15772 15773 15774 15775 15776 15777 15778 15779 15780 15781 15782 15783 15784 15785 15786 15787 15788 15789 15790 15791 15792 15793 15794 15795 15796 15797 15798 15799 15800 15801 15802 15803 15804 15805 15806 15807 15808 15809 15810 15811 15812 15813 15814 15815 15816 15817 15818 15819 15820 15821 15822 15823 15824 15825 15826 15827 15828 15829 15830 15831 15832 15833 15834 15835 15836 15837 15838 15839 15840 15841 15842 15843 15844 15845 15846 15847 15848 15849 15850 15851 15852 15853 15854 15855 15856 15857 15858 15859 15860 15861 15862 15863 15864 15865 15866 15867 15868 15869 15870 15871 15872 15873 15874 15875 15876 15877 15878 15879 15880 15881 15882 15883 15884 15885 15886 15887 15888 15889 15890 15891 15892 15893 15894 15895 15896 15897 15898 15899 15900 15901 15902 15903 15904 15905 15906 15907 15908 15909 15910 15911 15912 15913 15914 15915 15916 15917 15918 15919 15920 15921 15922 15923 15924 15925 15926 15927 15928 15929 15930 15931 15932 15933 15934 15935 15936 15937 15938 15939 15940 15941 15942 15943 15944 15945 15946 15947 15948 15949 15950 15951 15952 15953 15954 15955 15956 15957 15958 15959 15960 15961 15962 15963 15964 15965 15966 15967 15968 15969 15970 15971 15972 15973 15974 15975 15976 15977 15978 15979 15980 15981 15982 15983 15984 15985 15986 15987 15988 15989 15990 15991 15992 15993 15994 15995 15996 15997 15998 15999 16000 16001 16002 16003 16004 16005 16006 16007 16008 16009 16010 16011 16012 16013 16014 16015 16016 16017 16018 16019 16020 16021 16022 16023 16024 16025 16026 16027 16028 16029 16030 16031 16032 16033 16034 16035 16036 16037 16038 16039 16040 16041 16042 16043 16044 16045 16046 16047 16048 16049 16050 16051 16052 16053 16054 16055 16056 16057 16058 16059 16060 16061 16062 16063 16064 16065 16066 16067 16068 16069 16070 16071 16072 16073 16074 16075 16076 16077 16078 16079 16080 16081 16082 16083 16084 16085 16086 16087 16088 16089 16090 16091 16092 16093 16094 16095 16096 16097 16098 16099 16100 16101 16102 16103 16104 16105 16106 16107 16108 16109 16110 16111 16112 16113 16114 16115 16116 16117 16118 16119 16120 16121 16122 16123 16124 16125 16126 16127 16128 16129 16130 16131 16132 16133 16134 16135 16136 16137 16138 16139 16140 16141 16142 16143 16144 16145 16146 16147 16148 16149 16150 16151 16152 16153 16154 16155 16156 16157 16158 16159 16160 16161 16162 16163 16164 16165 16166 16167 16168 16169 16170 16171 16172 16173 16174 16175 16176 16177 16178 16179 16180 16181 16182 16183 16184 16185 16186 16187 16188 16189 16190 16191 16192 16193 16194 16195 16196 16197 16198 16199 16200 16201 16202 16203 16204 16205 16206 16207 16208 16209 16210 16211 16212 16213 16214 16215 16216 16217 16218 16219 16220 16221 16222 16223 16224 16225 16226 16227 16228 16229 16230 16231 16232 16233 16234 16235 16236 16237 16238 16239 16240 16241 16242 16243 16244 16245 16246 16247 16248 16249 16250 16251 16252 16253 16254 16255 16256 16257 16258 16259 16260 16261 16262 16263 16264 16265 16266 16267 16268 16269 16270 16271 16272 16273 16274 16275 16276 16277 16278 16279 16280 16281 16282 16283 16284 16285 16286 16287 16288 16289 16290 16291 16292 16293 16294 16295 16296 16297 16298 16299 16300 16301 16302 16303 16304 16305 16306 16307 16308 16309 16310 16311 16312 16313 16314 16315 16316 16317 16318 16319 16320 16321 16322 16323 16324 16325 16326 16327 16328 16329 16330 16331 16332 16333 16334 16335 16336 16337 16338 16339 16340 16341 16342 16343 16344 16345 16346 16347 16348 16349 16350 16351 16352 16353 16354 16355 16356 16357 16358 16359 16360 16361 16362 16363 16364 16365 16366 16367 16368 16369 16370 16371 16372 16373 16374 16375 16376 16377 16378 16379 16380 16381 16382 16383 16384 16385 16386 16387 16388 16389 16390 16391 16392 16393 16394 16395 16396 16397 16398 16399 16400 16401 16402 16403 16404 16405 16406 16407 16408 16409 16410 16411 16412 16413 16414 16415 16416 16417 16418 16419 16420 16421 16422 16423 16424 16425 16426 16427 16428 16429 16430 16431 16432 16433 16434 16435 16436 16437 16438 16439 16440 16441 16442 16443 16444 16445 16446 16447 16448 16449 16450 16451 16452 16453 16454 16455 16456 16457 16458 16459 16460 16461 16462 16463 16464 16465 16466 16467 16468 16469 16470 16471 16472 16473 16474 16475 16476 16477 16478 16479 16480 16481 16482 16483 16484 16485 16486 16487 16488 16489 16490 16491 16492 16493 16494 16495 16496 16497 16498 16499 16500 16501 16502 16503 16504 16505 16506 16507 16508 16509 16510 16511 16512 16513 16514 16515 16516 16517 16518 16519 16520 16521 16522 16523 16524 16525 16526 16527 16528 16529 16530 16531 16532 16533 16534 16535 16536 16537 16538 16539 16540 16541 16542 16543 16544 16545 16546 16547 16548 16549 16550 16551 16552 16553 16554 16555 16556 16557 16558 16559 16560 16561 16562 16563 16564 16565 16566 16567 16568 16569 16570 16571 16572 16573 16574 16575 16576 16577 16578 16579 16580 16581 16582 16583 16584 16585 16586 16587 16588 16589 16590 16591 16592 16593 16594 16595 16596 16597 16598 16599 16600 16601 16602 16603 16604 16605 16606 16607 16608 16609 16610 16611 16612 16613 16614 16615 16616 16617 16618 16619 16620 16621 16622 16623 16624 16625 16626 16627 16628 16629 16630 16631 16632 16633 16634 16635 16636 16637 16638 16639 16640 16641 16642 16643 16644 16645 16646 16647 16648 16649 16650 16651 16652 16653 16654 16655 16656 16657 16658 16659 16660 16661 16662 16663 16664 16665 16666 16667 16668 16669 16670 16671 16672 16673 16674 16675 16676 16677 16678 16679 16680 16681 16682 16683 16684 16685 16686 16687 16688 16689 16690 16691 16692 16693 16694 16695 16696 16697 16698 16699 16700 16701 16702 16703 16704 16705 16706 16707 16708 16709 16710 16711 16712 16713 16714 16715 16716 16717 16718 16719 16720 16721 16722 16723 16724 16725 16726 16727 16728 16729 16730 16731 16732 16733 16734 16735 16736 16737 16738 16739 16740 16741 16742 16743 16744 16745 16746 16747 16748 16749 16750 16751 16752 16753 16754 16755 16756 16757 16758 16759 16760 16761 16762 16763 16764 16765 16766 16767 16768 16769 16770 16771 16772 16773 16774 16775 16776 16777 16778 16779 16780 16781 16782 16783 16784 16785 16786 16787 16788 16789 16790 16791 16792 16793 16794 16795 16796 16797 16798 16799 16800 16801 16802 16803 16804 16805 16806 16807 16808 16809 16810 16811 16812 16813 16814 16815 16816 16817 16818 16819 16820 16821 16822 16823 16824 16825 16826 16827 16828 16829 16830 16831 16832 16833 16834 16835 16836 16837 16838 16839 16840 16841 16842 16843 16844 16845 16846 16847 16848 16849 16850 16851 16852 16853 16854 16855 16856 16857 16858 16859 16860 16861 16862 16863 16864 16865 16866 16867 16868 16869 16870 16871 16872 16873 16874 16875 16876 16877 16878 16879 16880 16881 16882 16883 16884 16885 16886 16887 16888 16889 16890 16891 16892 16893 16894 16895 16896 16897 16898 16899 16900 16901 16902 16903 16904 16905 16906 16907 16908 16909 16910 16911 16912 16913 16914 16915 16916 16917 16918 16919 16920 16921 16922 16923 16924 16925 16926 16927 16928 16929 16930 16931 16932 16933 16934 16935 16936 16937 16938 16939 16940 16941 16942 16943 16944 16945 16946 16947 16948 16949 16950 16951 16952 16953 16954 16955 16956 16957 16958 16959 16960 16961 16962 16963 16964 16965 16966 16967 16968 16969 16970 16971 16972 16973 16974 16975 16976 16977 16978 16979 16980 16981 16982 16983 16984 16985 16986 16987 16988 16989 16990 16991 16992 16993 16994 16995 16996 16997 16998 16999 17000 17001 17002 17003 17004 17005 17006 17007 17008 17009 17010 17011 17012 17013 17014 17015 17016 17017 17018 17019 17020 17021 17022 17023 17024 17025 17026 17027 17028 17029 17030 17031 17032 17033 17034 17035 17036 17037 17038 17039 17040 17041 17042 17043 17044 17045 17046 17047 17048 17049 17050 17051 17052 17053 17054 17055 17056 17057 17058 17059 17060 17061 17062 17063 17064 17065 17066 17067 17068 17069 17070 17071 17072 17073 17074 17075 17076 17077 17078 17079 17080 17081 17082 17083 17084 17085 17086 17087 17088 17089 17090 17091 17092 17093 17094 17095 17096 17097 17098 17099 17100 17101 17102 17103 17104 17105 17106 17107 17108 17109 17110 17111 17112 17113 17114 17115 17116 17117 17118 17119 17120 17121 17122 17123 17124 17125 17126 17127 17128 17129 17130 17131 17132 17133 17134 17135 17136 17137 17138 17139 17140 17141 17142 17143 17144 17145 17146 17147 17148 17149 17150 17151 17152 17153 17154 17155 17156 17157 17158 17159 17160 17161 17162 17163 17164 17165 17166 17167 17168 17169 17170 17171 17172 17173 17174 17175 17176 17177 17178 17179 17180 17181 17182 17183 17184 17185 17186 17187 17188 17189 17190 17191 17192 17193 17194 17195 17196 17197 17198 17199 17200 17201 17202 17203 17204 17205 17206 17207 17208 17209 17210 17211 17212 17213 17214 17215 17216 17217 17218 17219 17220 17221 17222 17223 17224 17225 17226 17227 17228 17229 17230 17231 17232 17233 17234 17235 17236 17237 17238 17239 17240 17241 17242 17243 17244 17245 17246 17247 17248 17249 17250 17251 17252 17253 17254 17255 17256 17257 17258 17259 17260 17261 17262 17263 17264 17265 17266 17267 17268 17269 17270 17271 17272 17273 17274 17275 17276 17277 17278 17279 17280 17281 17282 17283 17284 17285 17286 17287 17288 17289 17290 17291 17292 17293 17294 17295 17296 17297 17298 17299 17300 17301 17302 17303 17304 17305 17306 17307 17308 17309 17310 17311 17312 17313 17314 17315 17316 17317 17318 17319 17320 17321 17322 17323 17324 17325 17326 17327 17328 17329 17330 17331 17332 17333 17334 17335 17336 17337 17338 17339 17340 17341 17342 17343 17344 17345 17346 17347 17348 17349 17350 17351 17352 17353 17354 17355 17356 17357 17358 17359 17360 17361 17362 17363 17364 17365 17366 17367 17368 17369 17370 17371 17372 17373 17374 17375 17376 17377 17378 17379 17380 17381 17382 17383 17384 17385 17386 17387 17388 17389 17390 17391 17392 17393 17394 17395 17396 17397 17398 17399 17400 17401 17402 17403 17404 17405 17406 17407 17408 17409 17410 17411 17412 17413 17414 17415 17416 17417 17418 17419 17420 17421 17422 17423 17424 17425 17426 17427 17428 17429 17430 17431 17432 17433 17434 17435 17436 17437 17438 17439 17440 17441 17442 17443 17444 17445 17446 17447 17448 17449 17450 17451 17452 17453 17454 17455 17456 17457 17458 17459 17460 17461 17462 17463 17464 17465 17466 17467 17468 17469 17470 17471 17472 17473 17474 17475 17476 17477 17478 17479 17480 17481 17482 17483 17484 17485 17486 17487 17488 17489 17490 17491 17492 17493 17494 17495 17496 17497 17498 17499 17500 17501 17502 17503 17504 17505 17506 17507 17508 17509 17510 17511 17512 17513 17514 17515 17516 17517 17518 17519 17520 17521 17522 17523 17524 17525 17526 17527 17528 17529 17530 17531 17532 17533 17534 17535 17536 17537 17538 17539 17540 17541 17542 17543 17544 17545 17546 17547 17548 17549 17550 17551 17552 17553 17554 17555 17556 17557 17558 17559 17560 17561 17562 17563 17564 17565 17566 17567 17568 17569 17570 17571 17572 17573 17574 17575 17576 17577 17578 17579 17580 17581 17582 17583 17584 17585 17586 17587 17588 17589 17590 17591 17592 17593 17594 17595 17596 17597 17598 17599 17600 17601 17602 17603 17604 17605 17606 17607 17608 17609 17610 17611 17612 17613 17614 17615 17616 17617 17618 17619 17620 17621 17622 17623 17624 17625 17626 17627 17628 17629 17630 17631 17632 17633 17634 17635 17636 17637 17638 17639 17640 17641 17642 17643 17644 17645 17646 17647 17648 17649 17650 17651 17652 17653 17654 17655 17656 17657 17658 17659 17660 17661 17662 17663 17664 17665 17666 17667 17668 17669 17670 17671 17672 17673 17674 17675 17676 17677 17678 17679 17680 17681 17682 17683 17684 17685 17686 17687 17688 17689 17690 17691 17692 17693 17694 17695 17696 17697 17698 17699 17700 17701 17702 17703 17704 17705 17706 17707 17708 17709 17710 17711 17712 17713 17714 17715 17716 17717 17718 17719 17720 17721 17722 17723 17724 17725 17726 17727 17728 17729 17730 17731 17732 17733 17734 17735 17736 17737 17738 17739 17740 17741 17742 17743 17744 17745 17746 17747 17748 17749 17750 17751 17752 17753 17754 17755 17756 17757 17758 17759 17760 17761 17762 17763 17764 17765 17766 17767 17768 17769 17770 17771 17772 17773 17774 17775 17776 17777 17778 17779 17780 17781 17782 17783 17784 17785 17786 17787 17788 17789 17790 17791 17792 17793 17794 17795 17796 17797 17798 17799 17800 17801 17802 17803 17804 17805 17806 17807 17808 17809 17810 17811 17812 17813 17814 17815 17816 17817 17818 17819 17820 17821 17822 17823 17824 17825 17826 17827 17828 17829 17830 17831 17832 17833 17834 17835 17836 17837 17838 17839 17840 17841 17842 17843 17844 17845 17846 17847 17848 17849 17850 17851 17852 17853 17854 17855 17856 17857 17858 17859 17860 17861 17862 17863 17864 17865 17866 17867 17868 17869 17870 17871 17872 17873 17874 17875 17876 17877 17878 17879 17880 17881 17882 17883 17884 17885 17886 17887 17888 17889 17890 17891 17892 17893 17894 17895 17896 17897 17898 17899 17900 17901 17902 17903 17904 17905 17906 17907 17908 17909 17910 17911 17912 17913 17914 17915 17916 17917 17918 17919 17920 17921 17922 17923 17924 17925 17926 17927 17928 17929 17930 17931 17932 17933 17934 17935 17936 17937 17938 17939 17940 17941 17942 17943 17944 17945 17946 17947 17948 17949 17950 17951 17952 17953 17954 17955 17956 17957 17958 17959 17960 17961 17962 17963 17964 17965 17966 17967 17968 17969 17970 17971 17972 17973 17974 17975 17976 17977 17978 17979 17980 17981 17982 17983 17984 17985 17986 17987 17988 17989 17990 17991 17992 17993 17994 17995 17996 17997 17998 17999 18000 18001 18002 18003 18004 18005 18006 18007 18008 18009 18010 18011 18012 18013 18014 18015 18016 18017 18018 18019 18020 18021 18022 18023 18024 18025 18026 18027 18028 18029 18030 18031 18032 18033 18034 18035 18036 18037 18038 18039 18040 18041 18042 18043 18044 18045 18046 18047 18048 18049 18050 18051 18052 18053 18054 18055 18056 18057 18058 18059 18060 18061 18062 18063 18064 18065 18066 18067 18068 18069 18070 18071 18072 18073 18074 18075 18076 18077 18078 18079 18080 18081 18082 18083 18084 18085 18086 18087 18088 18089 18090 18091 18092 18093 18094 18095 18096 18097 18098 18099 18100 18101 18102 18103 18104 18105 18106 18107 18108 18109 18110 18111 18112 18113 18114 18115 18116 18117 18118 18119 18120 18121 18122 18123 18124 18125 18126 18127 18128 18129 18130 18131 18132 18133 18134 18135 18136 18137 18138 18139 18140 18141 18142 18143 18144 18145 18146 18147 18148 18149 18150 18151 18152 18153 18154 18155 18156 18157 18158 18159 18160 18161 18162 18163 18164 18165 18166 18167 18168 18169 18170 18171 18172 18173 18174 18175 18176 18177 18178 18179 18180 18181 18182 18183 18184 18185 18186 18187 18188 18189 18190 18191 18192 18193 18194 18195 18196 18197 18198 18199 18200 18201 18202 18203 18204 18205 18206 18207 18208 18209 18210 18211 18212 18213 18214 18215 18216 18217 18218 18219 18220 18221 18222 18223 18224 18225 18226 18227 18228 18229 18230 18231 18232 18233 18234 18235 18236 18237 18238 18239 18240 18241 18242 18243 18244 18245 18246 18247 18248 18249 18250 18251 18252 18253 18254 18255 18256 18257 18258 18259 18260 18261 18262 18263 18264 18265 18266 18267 18268 18269 18270 18271 18272 18273 18274 18275 18276 18277 18278 18279 18280 18281 18282 18283 18284 18285 18286 18287 18288 18289 18290 18291 18292 18293 18294 18295 18296 18297 18298 18299 18300 18301 18302 18303 18304 18305 18306 18307 18308 18309 18310 18311 18312 18313 18314 18315 18316 18317 18318 18319 18320 18321 18322 18323 18324 18325 18326 18327 18328 18329 18330 18331 18332 18333 18334 18335 18336 18337 18338 18339 18340 18341 18342 18343 18344 18345 18346 18347 18348 18349 18350 18351 18352 18353 18354 18355 18356 18357 18358 18359 18360 18361 18362 18363 18364 18365 18366 18367 18368 18369 18370 18371 18372 18373 18374 18375 18376 18377 18378 18379 18380 18381 18382 18383 18384 18385 18386 18387 18388 18389 18390 18391 18392 18393 18394 18395 18396 18397 18398 18399 18400 18401 18402 18403 18404 18405 18406 18407 18408 18409 18410 18411 18412 18413 18414 18415 18416 18417 18418 18419 18420 18421 18422 18423 18424 18425 18426 18427 18428 18429 18430 18431 18432 18433 18434 18435 18436 18437 18438 18439 18440 18441 18442 18443 18444 18445 18446 18447 18448 18449 18450 18451 18452 18453 18454 18455 18456 18457 18458 18459 18460 18461 18462 18463 18464 18465 18466 18467 18468 18469 18470 18471 18472 18473 18474 18475 18476 18477 18478 18479 18480 18481 18482 18483 18484 18485 18486 18487 18488 18489 18490 18491 18492 18493 18494 18495 18496 18497 18498 18499 18500 18501 18502 18503 18504 18505 18506 18507 18508 18509 18510 18511 18512 18513 18514 18515 18516 18517 18518 18519 18520 18521 18522 18523 18524 18525 18526 18527 18528 18529 18530 18531 18532 18533 18534 18535 18536 18537 18538 18539 18540 18541 18542 18543 18544 18545 18546 18547 18548 18549 18550 18551 18552 18553 18554 18555 18556 18557 18558 18559 18560 18561 18562 18563 18564 18565 18566 18567 18568 18569 18570 18571 18572 18573 18574 18575 18576 18577 18578 18579 18580 18581 18582 18583 18584 18585 18586 18587 18588 18589 18590 18591 18592 18593 18594 18595 18596 18597 18598 18599 18600 18601 18602 18603 18604 18605 18606 18607 18608 18609 18610 18611 18612 18613 18614 18615 18616 18617 18618 18619 18620 18621 18622 18623 18624 18625 18626 18627 18628 18629 18630 18631 18632 18633 18634 18635 18636 18637 18638 18639 18640 18641 18642 18643 18644 18645 18646 18647 18648 18649 18650 18651 18652 18653 18654 18655 18656 18657 18658 18659 18660 18661 18662 18663 18664 18665 18666 18667 18668 18669 18670 18671 18672 18673 18674 18675 18676 18677 18678 18679 18680 18681 18682 18683 18684 18685 18686 18687 18688 18689 18690 18691 18692 18693 18694 18695 18696 18697 18698 18699 18700 18701 18702 18703 18704 18705 18706 18707 18708 18709 18710 18711 18712 18713 18714 18715 18716 18717 18718 18719 18720 18721 18722 18723 18724 18725 18726 18727 18728 18729 18730 18731 18732 18733 18734 18735 18736 18737 18738 18739 18740 18741 18742 18743 18744 18745 18746 18747 18748 18749 18750 18751 18752 18753 18754 18755 18756 18757 18758 18759 18760 18761 18762 18763 18764 18765 18766 18767 18768 18769 18770 18771 18772 18773 18774 18775 18776 18777 18778 18779 18780 18781 18782 18783 18784 18785 18786 18787 18788 18789 18790 18791 18792 18793 18794 18795 18796 18797 18798 18799 18800 18801 18802 18803 18804 18805 18806 18807 18808 18809 18810 18811 18812 18813 18814 18815 18816 18817 18818 18819 18820 18821 18822 18823 18824 18825 18826 18827 18828 18829 18830 18831 18832 18833 18834 18835 18836 18837 18838 18839 18840 18841 18842 18843 18844 18845 18846 18847 18848 18849 18850 18851 18852 18853 18854 18855 18856 18857 18858 18859 18860 18861 18862 18863 18864 18865 18866 18867 18868 18869 18870 18871 18872 18873 18874 18875 18876 18877 18878 18879 18880 18881 18882 18883 18884 18885 18886 18887 18888 18889 18890 18891 18892 18893 18894 18895 18896 18897 18898 18899 18900 18901 18902 18903 18904 18905 18906 18907 18908 18909 18910 18911 18912 18913 18914 18915 18916 18917 18918 18919 18920 18921 18922 18923 18924 18925 18926 18927 18928 18929 18930 18931 18932 18933 18934 18935 18936 18937 18938 18939 18940 18941 18942 18943 18944 18945 18946 18947 18948 18949 18950 18951 18952 18953 18954 18955 18956 18957 18958 18959 18960 18961 18962 18963 18964 18965 18966 18967 18968 18969 18970 18971 18972 18973 18974 18975 18976 18977 18978 18979 18980 18981 18982 18983 18984 18985 18986 18987 18988 18989 18990 18991 18992 18993 18994 18995 18996 18997 18998 18999 19000 19001 19002 19003 19004 19005 19006 19007 19008 19009 19010 19011 19012 19013 19014 19015 19016 19017 19018 19019 19020 19021 19022 19023 19024 19025 19026 19027 19028 19029 19030 19031 19032 19033 19034 19035 19036 19037 19038 19039 19040 19041 19042 19043 19044 19045 19046 19047 19048 19049 19050 19051 19052 19053 19054 19055 19056 19057 19058 19059 19060 19061 19062 19063 19064 19065 19066 19067 19068 19069 19070 19071 19072 19073 19074 19075 19076 19077 19078 19079 19080 19081 19082 19083 19084 19085 19086 19087 19088 19089 19090 19091 19092 19093 19094 19095 19096 19097 19098 19099 19100 19101 19102 19103 19104 19105 19106 19107 19108 19109 19110 19111 19112 19113 19114 19115 19116 19117 19118 19119 19120 19121 19122 19123 19124 19125 19126 19127 19128 19129 19130 19131 19132 19133 19134 19135 19136 19137 19138 19139 19140 19141 19142 19143 19144 19145 19146 19147 19148 19149 19150 19151 19152 19153 19154 19155 19156 19157 19158 19159 19160 19161 19162 19163 19164 19165 19166 19167 19168 19169 19170 19171 19172 19173 19174 19175 19176 19177 19178 19179 19180 19181 19182 19183 19184 19185 19186 19187 19188 19189 19190 19191 19192 19193 19194 19195 19196 19197 19198 19199 19200 19201 19202 19203 19204 19205 19206 19207 19208 19209 19210 19211 19212 19213 19214 19215 19216 19217 19218 19219 19220 19221 19222 19223 19224 19225 19226 19227 19228 19229 19230 19231 19232 19233 19234 19235 19236 19237 19238 19239 19240 19241 19242 19243 19244 19245 19246 19247 19248 19249 19250 19251 19252 19253 19254 19255 19256 19257 19258 19259 19260 19261 19262 19263 19264 19265 19266 19267 19268 19269 19270 19271 19272 19273 19274 19275 19276 19277 19278 19279 19280 19281 19282 19283 19284 19285 19286 19287 19288 19289 19290 19291 19292 19293 19294 19295 19296 19297 19298 19299 19300 19301 19302 19303 19304 19305 19306 19307 19308 19309 19310 19311 19312 19313 19314 19315 19316 19317 19318 19319 19320 19321 19322 19323 19324 19325 19326 19327 19328 19329 19330 19331 19332 19333 19334 19335 19336 19337 19338 19339 19340 19341 19342 19343 19344 19345 19346 19347 19348 19349 19350 19351 19352 19353 19354 19355 19356 19357 19358 19359 19360 19361 19362 19363 19364 19365 19366 19367 19368 19369 19370 19371 19372 19373 19374 19375 19376 19377 19378 19379 19380 19381 19382 19383 19384 19385 19386 19387 19388 19389 19390 19391 19392 19393 19394 19395 19396 19397 19398 19399 19400 19401 19402 19403 19404 19405 19406 19407 19408 19409 19410 19411 19412 19413 19414 19415 19416 19417 19418 19419 19420 19421 19422 19423 19424 19425 19426 19427 19428 19429 19430 19431 19432 19433 19434 19435 19436 19437 19438 19439 19440 19441 19442 19443 19444 19445 19446 19447 19448 19449 19450 19451 19452 19453 19454 19455 19456 19457 19458 19459 19460 19461 19462 19463 19464 19465 19466 19467 19468 19469 19470 19471 19472 19473 19474 19475 19476 19477 19478 19479 19480 19481 19482 19483 19484 19485 19486 19487 19488 19489 19490 19491 19492 19493 19494 19495 19496 19497 19498 19499 19500 19501 19502 19503 19504 19505 19506 19507 19508 19509 19510 19511 19512 19513 19514 19515 19516 19517 19518 19519 19520 19521 19522 19523 19524 19525 19526 19527 19528 19529 19530 19531 19532 19533 19534 19535 19536 19537 19538 19539 19540 19541 19542 19543 19544 19545 19546 19547 19548 19549 19550 19551 19552 19553 19554 19555 19556 19557 19558 19559 19560 19561 19562 19563 19564 19565 19566 19567 19568 19569 19570 19571 19572 19573 19574 19575 19576 19577 19578 19579 19580 19581 19582 19583 19584 19585 19586 19587 19588 19589 19590 19591 19592 19593 19594 19595 19596 19597 19598 19599 19600 19601 19602 19603 19604 19605 19606 19607 19608 19609 19610 19611 19612 19613 19614 19615 19616 19617 19618 19619 19620 19621 19622 19623 19624 19625 19626 19627 19628 19629 19630 19631 19632 19633 19634 19635 19636 19637 19638 19639 19640 19641 19642 19643 19644 19645 19646 19647 19648 19649 19650 19651 19652 19653 19654 19655 19656 19657 19658 19659 19660 19661 19662 19663 19664 19665 19666 19667 19668 19669 19670 19671 19672 19673 19674 19675 19676 19677 19678 19679 19680 19681 19682 19683 19684 19685 19686 19687 19688 19689 19690 19691 19692 19693 19694 19695 19696 19697 19698 19699 19700 19701 19702 19703 19704 19705 19706 19707 19708 19709 19710 19711 19712 19713 19714 19715 19716 19717 19718 19719 19720 19721 19722 19723 19724 19725 19726 19727 19728 19729 19730 19731 19732 19733 19734 19735 19736 19737 19738 19739 19740 19741 19742 19743 19744 19745 19746 19747 19748 19749 19750 19751 19752 19753 19754 19755 19756 19757 19758 19759 19760 19761 19762 19763 19764 19765 19766 19767 19768 19769 19770 19771 19772 19773 19774 19775 19776 19777 19778 19779 19780 19781 19782 19783 19784 19785 19786 19787 19788 19789 19790 19791 19792 19793 19794 19795 19796 19797 19798 19799 19800 19801 19802 19803 19804 19805 19806 19807 19808 19809 19810 19811 19812 19813 19814 19815 19816 19817 19818 19819 19820 19821 19822 19823 19824 19825 19826 19827 19828 19829 19830 19831 19832 19833 19834 19835 19836 19837 19838 19839 19840 19841 19842 19843 19844 19845 19846 19847 19848 19849 19850 19851 19852 19853 19854 19855 19856 19857 19858 19859 19860 19861 19862 19863 19864 19865 19866 19867 19868 19869 19870 19871 19872 19873 19874 19875 19876 19877 19878 19879 19880 19881 19882 19883 19884 19885 19886 19887 19888 19889 19890 19891 19892 19893 19894 19895 19896 19897 19898 19899 19900 19901 19902 19903 19904 19905 19906 19907 19908 19909 19910 19911 19912 19913 19914 19915 19916 19917 19918 19919 19920 19921 19922 19923 19924 19925 19926 19927 19928 19929 19930 19931 19932 19933 19934 19935 19936 19937 19938 19939 19940 19941 19942 19943 19944 19945 19946 19947 19948 19949 19950 19951 19952 19953 19954 19955 19956 19957 19958 19959 19960 19961 19962 19963 19964 19965 19966 19967 19968 19969 19970 19971 19972 19973 19974 19975 19976 19977 19978 19979 19980 19981 19982 19983 19984 19985 19986 19987 19988 19989 19990 19991 19992 19993 19994 19995 19996 19997 19998 19999 20000 20001 20002 20003 20004 20005 20006 20007 20008 20009 20010 20011 20012 20013 20014 20015 20016 20017 20018 20019 20020 20021 20022 20023 20024 20025 20026 20027 20028 20029 20030 20031 20032 20033 20034 20035 20036 20037 20038 20039 20040 20041 20042 20043 20044 20045 20046 20047 20048 20049 20050 20051 20052 20053 20054 20055 20056 20057 20058 20059 20060 20061 20062 20063 20064 20065 20066 20067 20068 20069 20070 20071 20072 20073 20074 20075 20076 20077 20078 20079 20080 20081 20082 20083 20084 20085 20086 20087 20088 20089 20090 20091 20092 20093 20094 20095 20096 20097 20098 20099 20100 20101 20102 20103 20104 20105 20106 20107 20108 20109 20110 20111 20112 20113 20114 20115 20116 20117 20118 20119 20120 20121 20122 20123 20124 20125 20126 20127 20128 20129 20130 20131 20132 20133 20134 20135 20136 20137 20138 20139 20140 20141 20142 20143 20144 20145 20146 20147 20148 20149 20150 20151 20152 20153 20154 20155 20156 20157 20158 20159 20160 20161 20162 20163 20164 20165 20166 20167 20168 20169 20170 20171 20172 20173 20174 20175 20176 20177 20178 20179 20180 20181 20182 20183 20184 20185 20186 20187 20188 20189 20190 20191 20192 20193 20194 20195 20196 20197 20198 20199 20200 20201 20202 20203 20204 20205 20206 20207 20208 20209 20210 20211 20212 20213 20214 20215 20216 20217 20218 20219 20220 20221 20222 20223 20224 20225 20226 20227 20228 20229 20230 20231 20232 20233 20234 20235 20236 20237 20238 20239 20240 20241 20242 20243 20244 20245 20246 20247 20248 20249 20250 20251 20252 20253 20254 20255 20256 20257 20258 20259 20260 20261 20262 20263 20264 20265 20266 20267 20268 20269 20270 20271 20272 20273 20274 20275 20276 20277 20278 20279 20280 20281 20282 20283 20284 20285 20286 20287 20288 20289 20290 20291 20292 20293 20294 20295 20296 20297 20298 20299 20300 20301 20302 20303 20304 20305 20306 20307 20308 20309 20310 20311 20312 20313 20314 20315 20316 20317 20318 20319 20320 20321 20322 20323 20324 20325 20326 20327 20328 20329 20330 20331 20332 20333 20334 20335 20336 20337 20338 20339 20340 20341 20342 20343 20344 20345 20346 20347 20348 20349 20350 20351 20352 20353 20354 20355 20356 20357 20358 20359 20360 20361 20362 20363 20364 20365 20366 20367 20368 20369 20370 20371 20372 20373 20374 20375 20376 20377 20378 20379 20380 20381 20382 20383 20384 20385 20386 20387 20388 20389 20390 20391 20392 20393 20394 20395 20396 20397 20398 20399 20400 20401 20402 20403 20404 20405 20406 20407 20408 20409 20410 20411 20412 20413 20414 20415 20416 20417 20418 20419 20420 20421 20422 20423 20424 20425 20426 20427 20428 20429 20430 20431 20432 20433 20434 20435 20436 20437 20438 20439 20440 20441 20442 20443 20444 20445 20446 20447 20448 20449 20450 20451 20452 20453 20454 20455 20456 20457 20458 20459 20460 20461 20462 20463 20464 20465 20466 20467 20468 20469 20470 20471 20472 20473 20474 20475 20476 20477 20478 20479 20480 20481 20482 20483 20484 20485 20486 20487 20488 20489 20490 20491 20492 20493 20494 20495 20496 20497 20498 20499 20500 20501 20502 20503 20504 20505 20506 20507 20508 20509 20510 20511 20512 20513 20514 20515 20516 20517 20518 20519 20520 20521 20522 20523 20524 20525 20526 20527 20528 20529 20530 20531 20532 20533 20534 20535 20536 20537 20538 20539 20540 20541 20542 20543 20544 20545 20546 20547 20548 20549 20550 20551 20552 20553 20554 20555 20556 20557 20558 20559 20560 20561 20562 20563 20564 20565 20566 20567 20568 20569 20570 20571 20572 20573 20574 20575 20576 20577 20578 20579 20580 20581 20582 20583 20584 20585 20586 20587 20588 20589 20590 20591 20592 20593 20594 20595 20596 20597 20598 20599 20600 20601 20602 20603 20604 20605 20606 20607 20608 20609 20610 20611 20612 20613 20614 20615 20616 20617 20618 20619 20620 20621 20622 20623 20624 20625 20626 20627 20628 20629 20630 20631 20632 20633 20634 20635 20636 20637 20638 20639 20640 20641 20642 20643 20644 20645 20646 20647 20648 20649 20650 20651 20652 20653 20654 20655 20656 20657 20658 20659 20660 20661 20662 20663 20664 20665 20666 20667 20668 20669 20670 20671 20672 20673 20674 20675 20676 20677 20678 20679 20680 20681 20682 20683 20684 20685 20686 20687 20688 20689 20690 20691 20692 20693 20694 20695 20696 20697 20698 20699 20700 20701 20702 20703 20704 20705 20706 20707 20708 20709 20710 20711 20712 20713 20714 20715 20716 20717 20718 20719 20720 20721 20722 20723 20724 20725 20726 20727 20728 20729 20730 20731 20732 20733 20734 20735 20736 20737 20738 20739 20740 20741 20742 20743 20744 20745 20746 20747 20748 20749 20750 20751 20752 20753 20754 20755 20756 20757 20758 20759 20760 20761 20762 20763 20764 20765 20766 20767 20768 20769 20770 20771 20772 20773 20774 20775 20776 20777 20778 20779 20780 20781 20782 20783 20784 20785 20786 20787 20788 20789 20790 20791 20792 20793 20794 20795 20796 20797 20798 20799 20800 20801 20802 20803 20804 20805 20806 20807 20808 20809 20810 20811 20812 20813 20814 20815 20816 20817 20818 20819 20820 20821 20822 20823 20824 20825 20826 20827 20828 20829 20830 20831 20832 20833 20834 20835 20836 20837 20838 20839 20840 20841 20842 20843 20844 20845 20846 20847 20848 20849 20850 20851 20852 20853 20854 20855 20856 20857 20858 20859 20860 20861 20862 20863 20864 20865 20866 20867 20868 20869 20870 20871 20872 20873 20874 20875 20876 20877 20878 20879 20880 20881 20882 20883 20884 20885 20886 20887 20888 20889 20890 20891 20892 20893 20894 20895 20896 20897 20898 20899 20900 20901 20902 20903 20904 20905 20906 20907 20908 20909 20910 20911 20912 20913 20914 20915 20916 20917 20918 20919 20920 20921 20922 20923 20924 20925 20926 20927 20928 20929 20930 20931 20932 20933 20934 20935 20936 20937 20938 20939 20940 20941 20942 20943 20944 20945 20946 20947 20948 20949 20950 20951 20952 20953 20954 20955 20956 20957 20958 20959 20960 20961 20962 20963 20964 20965 20966 20967 20968 20969 20970 20971 20972 20973 20974 20975 20976 20977 20978 20979 20980 20981 20982 20983 20984 20985 20986 20987 20988 20989 20990 20991 20992 20993 20994 20995 20996 20997 20998 20999 21000 21001 21002 21003 21004 21005 21006 21007 21008 21009 21010 21011 21012 21013 21014 21015 21016 21017 21018 21019 21020 21021 21022 21023 21024 21025 21026 21027 21028 21029 21030 21031 21032 21033 21034 21035 21036 21037 21038 21039 21040 21041 21042 21043 21044 21045 21046 21047 21048 21049 21050 21051 21052 21053 21054 21055 21056 21057 21058 21059 21060 21061 21062 21063 21064 21065 21066 21067 21068 21069 21070 21071 21072 21073 21074 21075 21076 21077 21078 21079 21080 21081 21082 21083 21084 21085 21086 21087 21088 21089 21090 21091 21092 21093 21094 21095 21096 21097 21098 21099 21100 21101 21102 21103 21104 21105 21106 21107 21108 21109 21110 21111 21112 21113 21114 21115 21116 21117 21118 21119 21120 21121 21122 21123 21124 21125 21126 21127 21128 21129 21130 21131 21132 21133 21134 21135 21136 21137 21138 21139 21140 21141 21142 21143 21144 21145 21146 21147 21148 21149 21150 21151 21152 21153 21154 21155 21156 21157 21158 21159 21160 21161 21162 21163 21164 21165 21166 21167 21168 21169 21170 21171 21172 21173 21174 21175 21176 21177 21178 21179 21180 21181 21182 21183 21184 21185 21186 21187 21188 21189 21190 21191 21192 21193 21194 21195 21196 21197 21198 21199 21200 21201 21202 21203 21204 21205 21206 21207 21208 21209 21210 21211 21212 21213 21214 21215 21216 21217 21218 21219 21220 21221 21222 21223 21224 21225 21226 21227 21228 21229 21230 21231 21232 21233 21234 21235 21236 21237 21238 21239 21240 21241 21242 21243 21244 21245 21246 21247 21248 21249 21250 21251 21252 21253 21254 21255 21256 21257 21258 21259 21260 21261 21262 21263 21264 21265 21266 21267 21268 21269 21270 21271 21272 21273 21274 21275 21276 21277 21278 21279 21280 21281 21282 21283 21284 21285 21286 21287 21288 21289 21290 21291 21292 21293 21294 21295 21296 21297 21298 21299 21300 21301 21302 21303 21304 21305 21306 21307 21308 21309 21310 21311 21312 21313 21314 21315 21316 21317 21318 21319 21320 21321 21322 21323 21324 21325 21326 21327 21328 21329 21330 21331 21332 21333 21334 21335 21336 21337 21338 21339 21340 21341 21342 21343 21344 21345 21346 21347 21348 21349 21350 21351 21352 21353 21354 21355 21356 21357 21358 21359 21360 21361 21362 21363 21364 21365 21366 21367 21368 21369 21370 21371 21372 21373 21374 21375 21376 21377 21378 21379 21380 21381 21382 21383 21384 21385 21386 21387 21388 21389 21390 21391 21392 21393 21394 21395 21396 21397 21398 21399 21400 21401 21402 21403 21404 21405 21406 21407 21408 21409 21410 21411 21412 21413 21414 21415 21416 21417 21418 21419 21420 21421 21422 21423 21424 21425 21426 21427 21428 21429 21430 21431 21432 21433 21434 21435 21436 21437 21438 21439 21440 21441 21442 21443 21444 21445 21446 21447 21448 21449 21450 21451 21452 21453 21454 21455 21456 21457 21458 21459 21460 21461 21462 21463 21464 21465 21466 21467 21468 21469 21470 21471 21472 21473 21474 21475 21476 21477 21478 21479 21480 21481 21482 21483 21484 21485 21486 21487 21488 21489 21490 21491 21492 21493 21494 21495 21496 21497 21498 21499 21500 21501 21502 21503 21504 21505 21506 21507 21508 21509 21510 21511 21512 21513 21514 21515 21516 21517 21518 21519 21520 21521 21522 21523 21524 21525 21526 21527 21528 21529 21530 21531 21532 21533 21534 21535 21536 21537 21538 21539 21540 21541 21542 21543 21544 21545 21546 21547 21548 21549 21550 21551 21552 21553 21554 21555 21556 21557 21558 21559 21560 21561 21562 21563 21564 21565 21566 21567 21568 21569 21570 21571 21572 21573 21574 21575 21576 21577 21578 21579 21580 21581 21582 21583 21584 21585 21586 21587 21588 21589 21590 21591 21592 21593 21594 21595 21596 21597 21598 21599 21600 21601 21602 21603 21604 21605 21606 21607 21608 21609 21610 21611 21612 21613 21614 21615 21616 21617 21618 21619 21620 21621 21622 21623 21624 21625 21626 21627 21628 21629 21630 21631 21632 21633 21634 21635 21636 21637 21638 21639 21640 21641 21642 21643 21644 21645 21646 21647 21648 21649 21650 21651 21652 21653 21654 21655 21656 21657 21658 21659 21660 21661 21662 21663 21664 21665 21666 21667 21668 21669 21670 21671 21672 21673 21674 21675 21676 21677 21678 21679 21680 21681 21682 21683 21684 21685 21686 21687 21688 21689 21690 21691 21692 21693 21694 21695 21696 21697 21698 21699 21700 21701 21702 21703 21704 21705 21706 21707 21708 21709 21710 21711 21712 21713 21714 21715 21716 21717 21718 21719 21720 21721 21722 21723 21724 21725 21726 21727 21728 21729 21730 21731 21732 21733 21734 21735 21736 21737 21738 21739 21740 21741 21742 21743 21744 21745 21746 21747 21748 21749 21750 21751 21752 21753 21754 21755 21756 21757 21758 21759 21760 21761 21762 21763 21764 21765 21766 21767 21768 21769 21770 21771 21772 21773 21774 21775 21776 21777 21778 21779 21780 21781 21782 21783 21784 21785 21786 21787 21788 21789 21790 21791 21792 21793 21794 21795 21796 21797 21798 21799 21800 21801 21802 21803 21804 21805 21806 21807 21808 21809 21810 21811 21812 21813 21814 21815 21816 21817 21818 21819 21820 21821 21822 21823 21824 21825 21826 21827 21828 21829 21830 21831 21832 21833 21834 21835 21836 21837 21838 21839 21840 21841 21842 21843 21844 21845 21846 21847 21848 21849 21850 21851 21852 21853 21854 21855 21856 21857 21858 21859 21860 21861 21862 21863 21864 21865 21866 21867 21868 21869 21870 21871 21872 21873 21874 21875 21876 21877 21878 21879 21880 21881 21882 21883 21884 21885 21886 21887 21888 21889 21890 21891 21892 21893 21894 21895 21896 21897 21898 21899 21900 21901 21902 21903 21904 21905 21906 21907 21908 21909 21910 21911 21912 21913 21914 21915 21916 21917 21918 21919 21920 21921 21922 21923 21924 21925 21926 21927 21928 21929 21930 21931 21932 21933 21934 21935 21936 21937 21938 21939 21940 21941 21942 21943 21944 21945 21946 21947 21948 21949 21950 21951 21952 21953 21954 21955 21956 21957 21958 21959 21960 21961 21962 21963 21964 21965 21966 21967 21968 21969 21970 21971 21972 21973 21974 21975 21976 21977 21978 21979 21980 21981 21982 21983 21984 21985 21986 21987 21988 21989 21990 21991 21992 21993 21994 21995 21996 21997 21998 21999 22000 22001 22002 22003 22004 22005 22006 22007 22008 22009 22010 22011 22012 22013 22014 22015 22016 22017 22018 22019 22020 22021 22022 22023 22024 22025 22026 22027 22028 22029 22030 22031 22032 22033 22034 22035 22036 22037 22038 22039 22040 22041 22042 22043 22044 22045 22046 22047 22048 22049 22050 22051 22052 22053 22054 22055 22056 22057 22058 22059 22060 22061 22062 22063 22064 22065 22066 22067 22068 22069 22070 22071 22072 22073 22074 22075 22076 22077 22078 22079 22080 22081 22082 22083 22084 22085 22086 22087 22088 22089 22090 22091 22092 22093 22094 22095 22096 22097 22098 22099 22100 22101 22102 22103 22104 22105 22106 22107 22108 22109 22110 22111 22112 22113 22114 22115 22116 22117 22118 22119 22120 22121 22122 22123 22124 22125 22126 22127 22128 22129 22130 22131 22132 22133 22134 22135 22136 22137 22138 22139 22140 22141 22142 22143 22144 22145 22146 22147 22148 22149 22150 22151 22152 22153 22154 22155 22156 22157 22158 22159 22160 22161 22162 22163 22164 22165 22166 22167 22168 22169 22170 22171 22172 22173 22174 22175 22176 22177 22178 22179 22180 22181 22182 22183 22184 22185 22186 22187 22188 22189 22190 22191 22192 22193 22194 22195 22196 22197 22198 22199 22200 22201 22202 22203 22204 22205 22206 22207 22208 22209 22210 22211 22212 22213 22214 22215 22216 22217 22218 22219 22220 22221 22222 22223 22224 22225 22226 22227 22228 22229 22230 22231 22232 22233 22234 22235 22236 22237 22238 22239 22240 22241 22242 22243 22244 22245 22246 22247 22248 22249 22250 22251 22252 22253 22254 22255 22256 22257 22258 22259 22260 22261 22262 22263 22264 22265 22266 22267 22268 22269 22270 22271 22272 22273 22274 22275 22276 22277 22278 22279 22280 22281 22282 22283 22284 22285 22286 22287 22288 22289 22290 22291 22292 22293 22294 22295 22296 22297 22298 22299 22300 22301 22302 22303 22304 22305 22306 22307 22308 22309 22310 22311 22312 22313 22314 22315 22316 22317 22318 22319 22320 22321 22322 22323 22324 22325 22326 22327 22328 22329 22330 22331 22332 22333 22334 22335 22336 22337 22338 22339 22340 22341 22342 22343 22344 22345 22346 22347 22348 22349 22350 22351 22352 22353 22354 22355 22356 22357 22358 22359 22360 22361 22362 22363 22364 22365 22366 22367 22368 22369 22370 22371 22372 22373 22374 22375 22376 22377 22378 22379 22380 22381 22382 22383 22384 22385 22386 22387 22388 22389 22390 22391 22392 22393 22394 22395 22396 22397 22398 22399 22400 22401 22402 22403 22404 22405 22406 22407 22408 22409 22410 22411 22412 22413 22414 22415 22416 22417 22418 22419 22420 22421 22422 22423 22424 22425 22426 22427 22428 22429 22430 22431 22432 22433 22434 22435 22436 22437 22438 22439 22440 22441 22442 22443 22444 22445 22446 22447 22448 22449 22450 22451 22452 22453 22454 22455 22456 22457 22458 22459 22460 22461 22462 22463 22464 22465 22466 22467 22468 22469 22470 22471 22472 22473 22474 22475 22476 22477 22478 22479 22480 22481 22482 22483 22484 22485 22486 22487 22488 22489 22490 22491 22492 22493 22494 22495 22496 22497 22498 22499 22500 22501 22502 22503 22504 22505 22506 22507 22508 22509 22510 22511 22512 22513 22514 22515 22516 22517 22518 22519 22520 22521 22522 22523 22524 22525 22526 22527 22528 22529 22530 22531 22532 22533 22534 22535 22536 22537 22538 22539 22540 22541 22542 22543 22544 22545 22546 22547 22548 22549 22550 22551 22552 22553 22554 22555 22556 22557 22558 22559 22560 22561 22562 22563 22564 22565 22566 22567 22568 22569 22570 22571 22572 22573 22574 22575 22576 22577 22578 22579 22580 22581 22582 22583 22584 22585 22586 22587 22588 22589 22590 22591 22592 22593 22594 22595 22596 22597 22598 22599 22600 22601 22602 22603 22604 22605 22606 22607 22608 22609 22610 22611 22612 22613 22614 22615 22616 22617 22618 22619 22620 22621 22622 22623 22624 22625 22626 22627 22628 22629 22630 22631 22632 22633 22634 22635 22636 22637 22638 22639 22640 22641 22642 22643 22644 22645 22646 22647 22648 22649 22650 22651 22652 22653 22654 22655 22656 22657 22658 22659 22660 22661 22662 22663 22664 22665 22666 22667 22668 22669 22670 22671 22672 22673 22674 22675 22676 22677 22678 22679 22680 22681 22682 22683 22684 22685 22686 22687 22688 22689 22690 22691 22692 22693 22694 22695 22696 22697 22698 22699 22700 22701 22702 22703 22704 22705 22706 22707 22708 22709 22710 22711 22712 22713 22714 22715 22716 22717 22718 22719 22720 22721 22722 22723 22724 22725 22726 22727 22728 22729 22730 22731 22732 22733 22734 22735 22736 22737 22738 22739 22740 22741 22742 22743 22744 22745 22746 22747 22748 22749 22750 22751 22752 22753 22754 22755 22756 22757 22758 22759 22760 22761 22762 22763 22764 22765 22766 22767 22768 22769 22770 22771 22772 22773 22774 22775 22776 22777 22778 22779 22780 22781 22782 22783 22784 22785 22786 22787 22788 22789 22790 22791 22792 22793 22794 22795 22796 22797 22798 22799 22800 22801 22802 22803 22804 22805 22806 22807 22808 22809 22810 22811 22812 22813 22814 22815 22816 22817 22818 22819 22820 22821 22822 22823 22824 22825 22826 22827 22828 22829 22830 22831 22832 22833 22834 22835 22836 22837 22838 22839 22840 22841 22842 22843 22844 22845 22846 22847 22848 22849 22850 22851 22852 22853 22854 22855 22856 22857 22858 22859 22860 22861 22862 22863 22864 22865 22866 22867 22868 22869 22870 22871 22872 22873 22874 22875 22876 22877 22878 22879 22880 22881 22882 22883 22884 22885 22886 22887 22888 22889 22890 22891 22892 22893 22894 22895 22896 22897 22898 22899 22900 22901 22902 22903 22904 22905 22906 22907 22908 22909 22910 22911 22912 22913 22914 22915 22916 22917 22918 22919 22920 22921 22922 22923 22924 22925 22926 22927 22928 22929 22930 22931 22932 22933 22934 22935 22936 22937 22938 22939 22940 22941 22942 22943 22944 22945 22946 22947 22948 22949 22950 22951 22952 22953 22954 22955 22956 22957 22958 22959 22960 22961 22962 22963 22964 22965 22966 22967 22968 22969 22970 22971 22972 22973 22974 22975 22976 22977 22978 22979 22980 22981 22982 22983 22984 22985 22986 22987 22988 22989 22990 22991 22992 22993 22994 22995 22996 22997 22998 22999 23000 23001 23002 23003 23004 23005 23006 23007 23008 23009 23010 23011 23012 23013 23014 23015 23016 23017 23018 23019 23020 23021 23022 23023 23024 23025 23026 23027 23028 23029 23030 23031 23032 23033 23034 23035 23036 23037 23038 23039 23040 23041 23042 23043 23044 23045 23046 23047 23048 23049 23050 23051 23052 23053 23054 23055 23056 23057 23058 23059 23060 23061 23062 23063 23064 23065 23066 23067 23068 23069 23070 23071 23072 23073 23074 23075 23076 23077 23078 23079 23080 23081 23082 23083 23084 23085 23086 23087 23088 23089 23090 23091 23092 23093 23094 23095 23096 23097 23098 23099 23100 23101 23102 23103 23104 23105 23106 23107 23108 23109 23110 23111 23112 23113 23114 23115 23116 23117 23118 23119 23120 23121 23122 23123 23124 23125 23126 23127 23128 23129 23130 23131 23132 23133 23134 23135 23136 23137 23138 23139 23140 23141 23142 23143 23144 23145 23146 23147 23148 23149 23150 23151 23152 23153 23154 23155 23156 23157 23158 23159 23160 23161 23162 23163 23164 23165 23166 23167 23168 23169 23170 23171 23172 23173 23174 23175 23176 23177 23178 23179 23180 23181 23182 23183 23184 23185 23186 23187 23188 23189 23190 23191 23192 23193 23194 23195 23196 23197 23198 23199 23200 23201 23202 23203 23204 23205 23206 23207 23208 23209 23210 23211 23212 23213 23214 23215 23216 23217 23218 23219 23220 23221 23222 23223 23224 23225 23226 23227 23228 23229 23230 23231 23232 23233 23234 23235 23236 23237 23238 23239 23240 23241 23242 23243 23244 23245 23246 23247 23248 23249 23250 23251 23252 23253 23254 23255 23256 23257 23258 23259 23260 23261 23262 23263 23264 23265 23266 23267 23268 23269 23270 23271 23272 23273 23274 23275 23276 23277 23278 23279 23280 23281 23282 23283 23284 23285 23286 23287 23288 23289 23290 23291 23292 23293 23294 23295 23296 23297 23298 23299 23300 23301 23302 23303 23304 23305 23306 23307 23308 23309 23310 23311 23312 23313 23314 23315 23316 23317 23318 23319 23320 23321 23322 23323 23324 23325 23326 23327 23328 23329 23330 23331 23332 23333 23334 23335 23336 23337 23338 23339 23340 23341 23342 23343 23344 23345 23346 23347 23348 23349 23350 23351 23352 23353 23354 23355 23356 23357 23358 23359 23360 23361 23362 23363 23364 23365 23366 23367 23368 23369 23370 23371 23372 23373 23374 23375 23376 23377 23378 23379 23380 23381 23382 23383 23384 23385 23386 23387 23388 23389 23390 23391 23392 23393 23394 23395 23396 23397 23398 23399 23400 23401 23402 23403 23404 23405 23406 23407 23408 23409 23410 23411 23412 23413 23414 23415 23416 23417 23418 23419 23420 23421 23422 23423 23424 23425 23426 23427 23428 23429 23430 23431 23432 23433 23434 23435 23436 23437 23438 23439 23440 23441 23442 23443 23444 23445 23446 23447 23448 23449 23450 23451 23452 23453 23454 23455 23456 23457 23458 23459 23460 23461 23462 23463 23464 23465 23466 23467 23468 23469 23470 23471 23472 23473 23474 23475 23476 23477 23478 23479 23480 23481 23482 23483 23484 23485 23486 23487 23488 23489 23490 23491 23492 23493 23494 23495 23496 23497 23498 23499 23500 23501 23502 23503 23504 23505 23506 23507 23508 23509 23510 23511 23512 23513 23514 23515 23516 23517 23518 23519 23520 23521 23522 23523 23524 23525 23526 23527 23528 23529 23530 23531 23532 23533 23534 23535 23536 23537 23538 23539 23540 23541 23542 23543 23544 23545 23546 23547 23548 23549 23550 23551 23552 23553 23554 23555 23556 23557 23558 23559 23560 23561 23562 23563 23564 23565 23566 23567 23568 23569 23570 23571 23572 23573 23574 23575 23576 23577 23578 23579 23580 23581 23582 23583 23584 23585 23586 23587 23588 23589 23590 23591 23592 23593 23594 23595 23596 23597 23598 23599 23600 23601 23602 23603 23604 23605 23606 23607 23608 23609 23610 23611 23612 23613 23614 23615 23616 23617 23618 23619 23620 23621 23622 23623 23624 23625 23626 23627 23628 23629 23630 23631 23632 23633 23634 23635 23636 23637 23638 23639 23640 23641 23642 23643 23644 23645 23646 23647 23648 23649 23650 23651 23652 23653 23654 23655 23656 23657 23658 23659 23660 23661 23662 23663 23664 23665 23666 23667 23668 23669 23670 23671 23672 23673 23674 23675 23676 23677 23678 23679 23680 23681 23682 23683 23684 23685 23686 23687 23688 23689 23690 23691 23692 23693 23694 23695 23696 23697 23698 23699 23700 23701 23702 23703 23704 23705 23706 23707 23708 23709 23710 23711 23712 23713 23714 23715 23716 23717 23718 23719 23720 23721 23722 23723 23724 23725 23726 23727 23728 23729 23730 23731 23732 23733 23734 23735 23736 23737 23738 23739 23740 23741 23742 23743 23744 23745 23746 23747 23748 23749 23750 23751 23752 23753 23754 23755 23756 23757 23758 23759 23760 23761 23762 23763 23764 23765 23766 23767 23768 23769 23770 23771 23772 23773 23774 23775 23776 23777 23778 23779 23780 23781 23782 23783 23784 23785 23786 23787 23788 23789 23790 23791 23792 23793 23794 23795 23796 23797 23798 23799 23800 23801 23802 23803 23804 23805 23806 23807 23808 23809 23810 23811 23812 23813 23814 23815 23816 23817 23818 23819 23820 23821 23822 23823 23824 23825 23826 23827 23828 23829 23830 23831 23832 23833 23834 23835 23836 23837 23838 23839 23840 23841 23842 23843 23844 23845 23846 23847 23848 23849 23850 23851 23852 23853 23854 23855 23856 23857 23858 23859 23860 23861 23862 23863 23864 23865 23866 23867 23868 23869 23870 23871 23872 23873 23874 23875 23876 23877 23878 23879 23880 23881 23882 23883 23884 23885 23886 23887 23888 23889 23890 23891 23892 23893 23894 23895 23896 23897 23898 23899 23900 23901 23902 23903 23904 23905 23906 23907 23908 23909 23910 23911 23912 23913 23914 23915 23916 23917 23918 23919 23920 23921 23922 23923 23924 23925 23926 23927 23928 23929 23930 23931 23932 23933 23934 23935 23936 23937 23938 23939 23940 23941 23942 23943 23944 23945 23946 23947 23948 23949 23950 23951 23952 23953 23954 23955 23956 23957 23958 23959 23960 23961 23962 23963 23964 23965 23966 23967 23968 23969 23970 23971 23972 23973 23974 23975 23976 23977 23978 23979 23980 23981 23982 23983 23984 23985 23986 23987 23988 23989 23990 23991 23992 23993 23994 23995 23996 23997 23998 23999 24000 24001 24002 24003 24004 24005 24006 24007 24008 24009 24010 24011 24012 24013 24014 24015 24016 24017 24018 24019 24020 24021 24022 24023 24024 24025 24026 24027 24028 24029 24030 24031 24032 24033 24034 24035 24036 24037 24038 24039 24040 24041 24042 24043 24044 24045 24046 24047 24048 24049 24050 24051 24052 24053 24054 24055 24056 24057 24058 24059 24060 24061 24062 24063 24064 24065 24066 24067 24068 24069 24070 24071 24072 24073 24074 24075 24076 24077 24078 24079 24080 24081 24082 24083 24084 24085 24086 24087 24088 24089 24090 24091 24092 24093 24094 24095 24096 24097 24098 24099 24100 24101 24102 24103 24104 24105 24106 24107 24108 24109 24110 24111 24112 24113 24114 24115 24116 24117 24118 24119 24120 24121 24122 24123 24124 24125 24126 24127 24128 24129 24130 24131 24132 24133 24134 24135 24136 24137 24138 24139 24140 24141 24142 24143 24144 24145 24146 24147 24148 24149 24150 24151 24152 24153 24154 24155 24156 24157 24158 24159 24160 24161 24162 24163 24164 24165 24166 24167 24168 24169 24170 24171 24172 24173 24174 24175 24176 24177 24178 24179 24180 24181 24182 24183 24184 24185 24186 24187 24188 24189 24190 24191 24192 24193 24194 24195 24196 24197 24198 24199 24200 24201 24202 24203 24204 24205 24206 24207 24208 24209 24210 24211 24212 24213 24214 24215 24216 24217 24218 24219 24220 24221 24222 24223 24224 24225 24226 24227 24228 24229 24230 24231 24232 24233 24234 24235 24236 24237 24238 24239 24240 24241 24242 24243 24244 24245 24246 24247 24248 24249 24250 24251 24252 24253 24254 24255 24256 24257 24258 24259 24260 24261 24262 24263 24264 24265 24266 24267 24268 24269 24270 24271 24272 24273 24274 24275 24276 24277 24278 24279 24280 24281 24282 24283 24284 24285 24286 24287 24288 24289 24290 24291 24292 24293 24294 24295 24296 24297 24298 24299 24300 24301 24302 24303 24304 24305 24306 24307 24308 24309 24310 24311 24312 24313 24314 24315 24316 24317 24318 24319 24320 24321 24322 24323 24324 24325 24326 24327 24328 24329 24330 24331 24332 24333 24334 24335 24336 24337 24338 24339 24340 24341 24342 24343 24344 24345 24346 24347 24348 24349 24350 24351 24352 24353 24354 24355 24356 24357 24358 24359 24360 24361 24362 24363 24364 24365 24366 24367 24368 24369 24370 24371 24372 24373 24374 24375 24376 24377 24378 24379 24380 24381 24382 24383 24384 24385 24386 24387 24388 24389 24390 24391 24392 24393 24394 24395 24396 24397 24398 24399 24400 24401 24402 24403 24404 24405 24406 24407 24408 24409 24410 24411 24412 24413 24414 24415 24416 24417 24418 24419 24420 24421 24422 24423 24424 24425 24426 24427 24428 24429 24430 24431 24432 24433 24434 24435 24436 24437 24438 24439 24440 24441 24442 24443 24444 24445 24446 24447 24448 24449 24450 24451 24452 24453 24454 24455 24456 24457 24458 24459 24460 24461 24462 24463 24464 24465 24466 24467 24468 24469 24470 24471 24472 24473 24474 24475 24476 24477 24478 24479 24480 24481 24482 24483 24484 24485 24486 24487 24488 24489 24490 24491 24492 24493 24494 24495 24496 24497 24498 24499 24500 24501 24502 24503 24504 24505 24506 24507 24508 24509 24510 24511 24512 24513 24514 24515 24516 24517 24518 24519 24520 24521 24522 24523 24524 24525 24526 24527 24528 24529 24530 24531 24532 24533 24534 24535 24536 24537 24538 24539 24540 24541 24542 24543 24544 24545 24546 24547 24548 24549 24550 24551 24552 24553 24554 24555 24556 24557 24558 24559 24560 24561 24562 24563 24564 24565 24566 24567 24568 24569 24570 24571 24572 24573 24574 24575 24576 24577 24578 24579 24580 24581 24582 24583 24584 24585 24586 24587 24588 24589 24590 24591 24592 24593 24594 24595 24596 24597 24598 24599 24600 24601 24602 24603 24604 24605 24606 24607 24608 24609 24610 24611 24612 24613 24614 24615 24616 24617 24618 24619 24620 24621 24622 24623 24624 24625 24626 24627 24628 24629 24630 24631 24632 24633 24634 24635 24636 24637 24638 24639 24640 24641 24642 24643 24644 24645 24646 24647 24648 24649 24650 24651 24652 24653 24654 24655 24656 24657 24658 24659 24660 24661 24662 24663 24664 24665 24666 24667 24668 24669 24670 24671 24672 24673 24674 24675 24676 24677 24678 24679 24680 24681 24682 24683 24684 24685 24686 24687 24688 24689 24690 24691 24692 24693 24694 24695 24696 24697 24698 24699 24700 24701 24702 24703 24704 24705 24706 24707 24708 24709 24710 24711 24712 24713 24714 24715 24716 24717 24718 24719 24720 24721 24722 24723 24724 24725 24726 24727 24728 24729 24730 24731 24732 24733 24734 24735 24736 24737 24738 24739 24740 24741 24742 24743 24744 24745 24746 24747 24748 24749 24750 24751 24752 24753 24754 24755 24756 24757 24758 24759 24760 24761 24762 24763 24764 24765 24766 24767 24768 24769 24770 24771 24772 24773 24774 24775 24776 24777 24778 24779 24780 24781 24782 24783 24784 24785 24786 24787 24788 24789 24790 24791 24792 24793 24794 24795 24796 24797 24798 24799 24800 24801 24802 24803 24804 24805 24806 24807 24808 24809 24810 24811 24812 24813 24814 24815 24816 24817 24818 24819 24820 24821 24822 24823 24824 24825 24826 24827 24828 24829 24830 24831 24832 24833 24834 24835 24836 24837 24838 24839 24840 24841 24842 24843 24844 24845 24846 24847 24848 24849 24850 24851 24852 24853 24854 24855 24856 24857 24858 24859 24860 24861 24862 24863 24864 24865 24866 24867 24868 24869 24870 24871 24872 24873 24874 24875 24876 24877 24878 24879 24880 24881 24882 24883 24884 24885 24886 24887 24888 24889 24890 24891 24892 24893 24894 24895 24896 24897 24898 24899 24900 24901 24902 24903 24904 24905 24906 24907 24908 24909 24910 24911 24912 24913 24914 24915 24916 24917 24918 24919 24920 24921 24922 24923 24924 24925 24926 24927 24928 24929 24930 24931 24932 24933 24934 24935 24936 24937 24938 24939 24940 24941 24942 24943 24944 24945 24946 24947 24948 24949 24950 24951 24952 24953 24954 24955 24956 24957 24958 24959 24960 24961 24962 24963 24964 24965 24966 24967 24968 24969 24970 24971 24972 24973 24974 24975 24976 24977 24978 24979 24980 24981 24982 24983 24984 24985 24986 24987 24988 24989 24990 24991 24992 24993 24994 24995 24996 24997 24998 24999 25000 25001 25002 25003 25004 25005 25006 25007 25008 25009 25010 25011 25012 25013 25014 25015 25016 25017 25018 25019 25020 25021 25022 25023 25024 25025 25026 25027 25028 25029 25030 25031 25032 25033 25034 25035 25036 25037 25038 25039 25040 25041 25042 25043 25044 25045 25046 25047 25048 25049 25050 25051 25052 25053 25054 25055 25056 25057 25058 25059 25060 25061 25062 25063 25064 25065 25066 25067 25068 25069 25070 25071 25072 25073 25074 25075 25076 25077 25078 25079 25080 25081 25082 25083 25084 25085 25086 25087 25088 25089 25090 25091 25092 25093 25094 25095 25096 25097 25098 25099 25100 25101 25102 25103 25104 25105 25106 25107 25108 25109 25110 25111 25112 25113 25114 25115 25116 25117 25118 25119 25120 25121 25122 25123 25124 25125 25126 25127 25128 25129 25130 25131 25132 25133 25134 25135 25136 25137 25138 25139 25140 25141 25142 25143 25144 25145 25146 25147 25148 25149 25150 25151 25152 25153 25154 25155 25156 25157 25158 25159 25160 25161 25162 25163 25164 25165 25166 25167 25168 25169 25170 25171 25172 25173 25174 25175 25176 25177 25178 25179 25180 25181 25182 25183 25184 25185 25186 25187 25188 25189 25190 25191 25192 25193 25194 25195 25196 25197 25198 25199 25200 25201 25202 25203 25204 25205 25206 25207 25208 25209 25210 25211 25212 25213 25214 25215 25216 25217 25218 25219 25220 25221 25222 25223 25224 25225 25226 25227 25228 25229 25230 25231 25232 25233 25234 25235 25236 25237 25238 25239 25240 25241 25242 25243 25244 25245 25246 25247 25248 25249 25250 25251 25252 25253 25254 25255 25256 25257 25258 25259 25260 25261 25262 25263 25264 25265 25266 25267 25268 25269 25270 25271 25272 25273 25274 25275 25276 25277 25278 25279 25280 25281 25282 25283 25284 25285 25286 25287 25288 25289 25290 25291 25292 25293 25294 25295 25296 25297 25298 25299 25300 25301 25302 25303 25304 25305 25306 25307 25308 25309 25310 25311 25312 25313 25314 25315 25316 25317 25318 25319 25320 25321 25322 25323 25324 25325 25326 25327 25328 25329 25330 25331 25332 25333 25334 25335 25336 25337 25338 25339 25340 25341 25342 25343 25344 25345 25346 25347 25348 25349 25350 25351 25352 25353 25354 25355 25356 25357 25358 25359 25360 25361 25362 25363 25364 25365 25366 25367 25368 25369 25370 25371 25372 25373 25374 25375 25376 25377 25378 25379 25380 25381 25382 25383 25384 25385 25386 25387 25388 25389 25390 25391 25392 25393 25394 25395 25396 25397 25398 25399 25400 25401 25402 25403 25404 25405 25406 25407 25408 25409 25410 25411 25412 25413 25414 25415 25416 25417 25418 25419 25420 25421 25422 25423 25424 25425 25426 25427 25428 25429 25430 25431 25432 25433 25434 25435 25436 25437 25438 25439 25440 25441 25442 25443 25444 25445 25446 25447 25448 25449 25450 25451 25452 25453 25454 25455 25456 25457 25458 25459 25460 25461 25462 25463 25464 25465 25466 25467 25468 25469 25470 25471 25472 25473 25474 25475 25476 25477 25478 25479 25480 25481 25482 25483 25484 25485 25486 25487 25488 25489 25490 25491 25492 25493 25494 25495 25496 25497 25498 25499 25500 25501 25502 25503 25504 25505 25506 25507 25508 25509 25510 25511 25512 25513 25514 25515 25516 25517 25518 25519 25520 25521 25522 25523 25524 25525 25526 25527 25528 25529 25530 25531 25532 25533 25534 25535 25536 25537 25538 25539 25540 25541 25542 25543 25544 25545 25546 25547 25548 25549 25550 25551 25552 25553 25554 25555 25556 25557 25558 25559 25560 25561 25562 25563 25564 25565 25566 25567 25568 25569 25570 25571 25572 25573 25574 25575 25576 25577 25578 25579 25580 25581 25582 25583 25584 25585 25586 25587 25588 25589 25590 25591 25592 25593 25594 25595 25596 25597 25598 25599 25600 25601 25602 25603 25604 25605 25606 25607 25608 25609 25610 25611 25612 25613 25614 25615 25616 25617 25618 25619 25620 25621 25622 25623 25624 25625 25626 25627 25628 25629 25630 25631 25632 25633 25634 25635 25636 25637 25638 25639 25640 25641 25642 25643 25644 25645 25646 25647 25648 25649 25650 25651 25652 25653 25654 25655 25656 25657 25658 25659 25660 25661 25662 25663 25664 25665 25666 25667 25668 25669 25670 25671 25672 25673 25674 25675 25676 25677 25678 25679 25680 25681 25682 25683 25684 25685 25686 25687 25688 25689 25690 25691 25692 25693 25694 25695 25696 25697 25698 25699 25700 25701 25702 25703 25704 25705 25706 25707 25708 25709 25710 25711 25712 25713 25714 25715 25716 25717 25718 25719 25720 25721 25722 25723 25724 25725 25726 25727 25728 25729 25730 25731 25732 25733 25734 25735 25736 25737 25738 25739 25740 25741 25742 25743 25744 25745 25746 25747 25748 25749 25750 25751 25752 25753 25754 25755 25756 25757 25758 25759 25760 25761 25762 25763 25764 25765 25766 25767 25768 25769 25770 25771 25772 25773 25774 25775 25776 25777 25778 25779 25780 25781 25782 25783 25784 25785 25786 25787 25788 25789 25790 25791 25792 25793 25794 25795 25796 25797 25798 25799 25800 25801 25802 25803 25804 25805 25806 25807 25808 25809 25810 25811 25812 25813 25814 25815 25816 25817 25818 25819 25820 25821 25822 25823 25824 25825 25826 25827 25828 25829 25830 25831 25832 25833 25834 25835 25836 25837 25838 25839 25840 25841 25842 25843 25844 25845 25846 25847 25848 25849 25850 25851 25852 25853 25854 25855 25856 25857 25858 25859 25860 25861 25862 25863 25864 25865 25866 25867 25868 25869 25870 25871 25872 25873 25874 25875 25876 25877 25878 25879 25880 25881 25882 25883 25884 25885 25886 25887 25888 25889 25890 25891 25892 25893 25894 25895 25896 25897 25898 25899 25900 25901 25902 25903 25904 25905 25906 25907 25908 25909 25910 25911 25912 25913 25914 25915 25916 25917 25918 25919 25920 25921 25922 25923 25924 25925 25926 25927 25928 25929 25930 25931 25932 25933 25934 25935 25936 25937 25938 25939 25940 25941 25942 25943 25944 25945 25946 25947 25948 25949 25950 25951 25952 25953 25954 25955 25956 25957 25958 25959 25960 25961 25962 25963 25964 25965 25966 25967 25968 25969 25970 25971 25972 25973 25974 25975 25976 25977 25978 25979 25980 25981 25982 25983 25984 25985 25986 25987 25988 25989 25990 25991 25992 25993 25994 25995 25996 25997 25998 25999 26000 26001 26002 26003 26004 26005 26006 26007 26008 26009 26010 26011 26012 26013 26014 26015 26016 26017 26018 26019 26020 26021 26022 26023 26024 26025 26026 26027 26028 26029 26030 26031 26032 26033 26034 26035 26036 26037 26038 26039 26040 26041 26042 26043 26044 26045 26046 26047 26048 26049 26050 26051 26052 26053 26054 26055 26056 26057 26058 26059 26060 26061 26062 26063 26064 26065 26066 26067 26068 26069 26070 26071 26072 26073 26074 26075 26076 26077 26078 26079 26080 26081 26082 26083 26084 26085 26086 26087 26088 26089 26090 26091 26092 26093 26094 26095 26096 26097 26098 26099 26100 26101 26102 26103 26104 26105 26106 26107 26108 26109 26110 26111 26112 26113 26114 26115 26116 26117 26118 26119 26120 26121 26122 26123 26124 26125 26126 26127 26128 26129 26130 26131 26132 26133 26134 26135 26136 26137 26138 26139 26140 26141 26142 26143 26144 26145 26146 26147 26148 26149 26150 26151 26152 26153 26154 26155 26156 26157 26158 26159 26160 26161 26162 26163 26164 26165 26166 26167 26168 26169 26170 26171 26172 26173 26174 26175 26176 26177 26178 26179 26180 26181 26182 26183 26184 26185 26186 26187 26188 26189 26190 26191 26192 26193 26194 26195 26196 26197 26198 26199 26200 26201 26202 26203 26204 26205 26206 26207 26208 26209 26210 26211 26212 26213 26214 26215 26216 26217 26218 26219 26220 26221 26222 26223 26224 26225 26226 26227 26228 26229 26230 26231 26232 26233 26234 26235 26236 26237 26238 26239 26240 26241 26242 26243 26244 26245 26246 26247 26248 26249 26250 26251 26252 26253 26254 26255 26256 26257 26258 26259 26260 26261 26262 26263 26264 26265 26266 26267 26268 26269 26270 26271 26272 26273 26274 26275 26276 26277 26278 26279 26280 26281 26282 26283 26284 26285 26286 26287 26288 26289 26290 26291 26292 26293 26294 26295 26296 26297 26298 26299 26300 26301 26302 26303 26304 26305 26306 26307 26308 26309 26310 26311 26312 26313 26314 26315 26316 26317 26318 26319 26320 26321 26322 26323 26324 26325 26326 26327 26328 26329 26330 26331 26332 26333 26334 26335 26336 26337 26338 26339 26340 26341 26342 26343 26344 26345 26346 26347 26348 26349 26350 26351 26352 26353 26354 26355 26356 26357 26358 26359 26360 26361 26362 26363 26364 26365 26366 26367 26368 26369 26370 26371 26372 26373 26374 26375 26376 26377 26378 26379 26380 26381 26382 26383 26384 26385 26386 26387 26388 26389 26390 26391 26392 26393 26394 26395 26396 26397 26398 26399 26400 26401 26402 26403 26404 26405 26406 26407 26408 26409 26410 26411 26412 26413 26414 26415 26416 26417 26418 26419 26420 26421 26422 26423 26424 26425 26426 26427 26428 26429 26430 26431 26432 26433 26434 26435 26436 26437 26438 26439 26440 26441 26442 26443 26444 26445 26446 26447 26448 26449 26450 26451 26452 26453 26454 26455 26456 26457 26458 26459 26460 26461 26462 26463 26464 26465 26466 26467 26468 26469 26470 26471 26472 26473 26474 26475 26476 26477 26478 26479 26480 26481 26482 26483 26484 26485 26486 26487 26488 26489 26490 26491 26492 26493 26494 26495 26496 26497 26498 26499 26500 26501 26502 26503 26504 26505 26506 26507 26508 26509 26510 26511 26512 26513 26514 26515 26516 26517 26518 26519 26520 26521 26522 26523 26524 26525 26526 26527 26528 26529 26530 26531 26532 26533 26534 26535 26536 26537 26538 26539 26540 26541 26542 26543 26544 26545 26546 26547 26548 26549 26550 26551 26552 26553 26554 26555 26556 26557 26558 26559 26560 26561 26562 26563 26564 26565 26566 26567 26568 26569 26570 26571 26572 26573 26574 26575 26576 26577 26578 26579 26580 26581 26582 26583 26584 26585 26586 26587 26588 26589 26590 26591 26592 26593 26594 26595 26596 26597 26598 26599 26600 26601 26602 26603 26604 26605 26606 26607 26608 26609 26610 26611 26612 26613 26614 26615 26616 26617 26618 26619 26620 26621 26622 26623 26624 26625 26626 26627 26628 26629 26630 26631 26632 26633 26634 26635 26636 26637 26638 26639 26640 26641 26642 26643 26644 26645 26646 26647 26648 26649 26650 26651 26652 26653 26654 26655 26656 26657 26658 26659 26660 26661 26662 26663 26664 26665 26666 26667 26668 26669 26670 26671 26672 26673 26674 26675 26676 26677 26678 26679 26680 26681 26682 26683 26684 26685 26686 26687 26688 26689 26690 26691 26692 26693 26694 26695 26696 26697 26698 26699 26700 26701 26702 26703 26704 26705 26706 26707 26708 26709 26710 26711 26712 26713 26714 26715 26716 26717 26718 26719 26720 26721 26722 26723 26724 26725 26726 26727 26728 26729 26730 26731 26732 26733 26734 26735 26736 26737 26738 26739 26740 26741 26742 26743 26744 26745 26746 26747 26748 26749 26750 26751 26752 26753 26754 26755 26756 26757 26758 26759 26760 26761 26762 26763 26764 26765 26766 26767 26768 26769 26770 26771 26772 26773 26774 26775 26776 26777 26778 26779 26780 26781 26782 26783 26784 26785 26786 26787 26788 26789 26790 26791 26792 26793 26794 26795 26796 26797 26798 26799 26800 26801 26802 26803 26804 26805 26806 26807 26808 26809 26810 26811 26812 26813 26814 26815 26816 26817 26818 26819 26820 26821 26822 26823 26824 26825 26826 26827 26828 26829 26830 26831 26832 26833 26834 26835 26836 26837 26838 26839 26840 26841 26842 26843 26844 26845 26846 26847 26848 26849 26850 26851 26852 26853 26854 26855 26856 26857 26858 26859 26860 26861 26862 26863 26864 26865 26866 26867 26868 26869 26870 26871 26872 26873 26874 26875 26876 26877 26878 26879 26880 26881 26882 26883 26884 26885 26886 26887 26888 26889 26890 26891 26892 26893 26894 26895 26896 26897 26898 26899 26900 26901 26902 26903 26904 26905 26906 26907 26908 26909 26910 26911 26912 26913 26914 26915 26916 26917 26918 26919 26920 26921 26922 26923 26924 26925 26926 26927 26928 26929 26930 26931 26932 26933 26934 26935 26936 26937 26938 26939 26940 26941 26942 26943 26944 26945 26946 26947 26948 26949 26950 26951 26952 26953 26954 26955 26956 26957 26958 26959 26960 26961 26962 26963 26964 26965 26966 26967 26968 26969 26970 26971 26972 26973 26974 26975 26976 26977 26978 26979 26980 26981 26982 26983 26984 26985 26986 26987 26988 26989 26990 26991 26992 26993 26994 26995 26996 26997 26998 26999 27000 27001 27002 27003 27004 27005 27006 27007 27008 27009 27010 27011 27012 27013 27014 27015 27016 27017 27018 27019 27020 27021 27022 27023 27024 27025 27026 27027 27028 27029 27030 27031 27032 27033 27034 27035 27036 27037 27038 27039 27040 27041 27042 27043 27044 27045 27046 27047 27048 27049 27050 27051 27052 27053 27054 27055 27056 27057 27058 27059 27060 27061 27062 27063 27064 27065 27066 27067 27068 27069 27070 27071 27072 27073 27074 27075 27076 27077 27078 27079 27080 27081 27082 27083 27084 27085 27086 27087 27088 27089 27090 27091 27092 27093 27094 27095 27096 27097 27098 27099 27100 27101 27102 27103 27104 27105 27106 27107 27108 27109 27110 27111 27112 27113 27114 27115 27116 27117 27118 27119 27120 27121 27122 27123 27124 27125 27126 27127 27128 27129 27130 27131 27132 27133 27134 27135 27136 27137 27138 27139 27140 27141 27142 27143 27144 27145 27146 27147 27148 27149 27150 27151 27152 27153 27154 27155 27156 27157 27158 27159 27160 27161 27162 27163 27164 27165 27166 27167 27168 27169 27170 27171 27172 27173 27174 27175 27176 27177 27178 27179 27180 27181 27182 27183 27184 27185 27186 27187 27188 27189 27190 27191 27192 27193 27194 27195 27196 27197 27198 27199 27200 27201 27202 27203 27204 27205 27206 27207 27208 27209 27210 27211 27212 27213 27214 27215 27216 27217 27218 27219 27220 27221 27222 27223 27224 27225 27226 27227 27228 27229 27230 27231 27232 27233 27234 27235 27236 27237 27238 27239 27240 27241 27242 27243 27244 27245 27246 27247 27248 27249 27250 27251 27252 27253 27254 27255 27256 27257 27258 27259 27260 27261 27262 27263 27264 27265 27266 27267 27268 27269 27270 27271 27272 27273 27274 27275 27276 27277 27278 27279 27280 27281 27282 27283 27284 27285 27286 27287 27288 27289 27290 27291 27292 27293 27294 27295 27296 27297 27298 27299 27300 27301 27302 27303 27304 27305 27306 27307 27308 27309 27310 27311 27312 27313 27314 27315 27316 27317 27318 27319 27320 27321 27322 27323 27324 27325 27326 27327 27328 27329 27330 27331 27332 27333 27334 27335 27336 27337 27338 27339 27340 27341 27342 27343 27344 27345 27346 27347 27348 27349 27350 27351 27352 27353 27354 27355 27356 27357 27358 27359 27360 27361 27362 27363 27364 27365 27366 27367 27368 27369 27370 27371 27372 27373 27374 27375 27376 27377 27378 27379 27380 27381 27382 27383 27384 27385 27386 27387 27388 27389 27390 27391 27392 27393 27394 27395 27396 27397 27398 27399 27400 27401 27402 27403 27404 27405 27406 27407 27408 27409 27410 27411 27412 27413 27414 27415 27416 27417 27418 27419 27420 27421 27422 27423 27424 27425 27426 27427 27428 27429 27430 27431 27432 27433 27434 27435 27436 27437 27438 27439 27440 27441 27442 27443 27444 27445 27446 27447 27448 27449 27450 27451 27452 27453 27454 27455 27456 27457 27458 27459 27460 27461 27462 27463 27464 27465 27466 27467 27468 27469 27470 27471 27472 27473 27474 27475 27476 27477 27478 27479 27480 27481 27482 27483 27484 27485 27486 27487 27488 27489 27490 27491 27492 27493 27494 27495 27496 27497 27498 27499 27500 27501 27502 27503 27504 27505 27506 27507 27508 27509 27510 27511 27512 27513 27514 27515 27516 27517 27518 27519 27520 27521 27522 27523 27524 27525 27526 27527 27528 27529 27530 27531 27532 27533 27534 27535 27536 27537 27538 27539 27540 27541 27542 27543 27544 27545 27546 27547 27548 27549 27550 27551 27552 27553 27554 27555 27556 27557 27558 27559 27560 27561 27562 27563 27564 27565 27566 27567 27568 27569 27570 27571 27572 27573 27574 27575 27576 27577 27578 27579 27580 27581 27582 27583 27584 27585 27586 27587 27588 27589 27590 27591 27592 27593 27594 27595 27596 27597 27598 27599 27600 27601 27602 27603 27604 27605 27606 27607 27608 27609 27610 27611 27612 27613 27614 27615 27616 27617 27618 27619 27620 27621 27622 27623 27624 27625 27626 27627 27628 27629 27630 27631 27632 27633 27634 27635 27636 27637 27638 27639 27640 27641 27642 27643 27644 27645 27646 27647 27648 27649 27650 27651 27652 27653 27654 27655 27656 27657 27658 27659 27660 27661 27662 27663 27664 27665 27666 27667 27668 27669 27670 27671 27672 27673 27674 27675 27676 27677 27678 27679 27680 27681 27682 27683 27684 27685 27686 27687 27688 27689 27690 27691 27692 27693 27694 27695 27696 27697 27698 27699 27700 27701 27702 27703 27704 27705 27706 27707 27708 27709 27710 27711 27712 27713 27714 27715 27716 27717 27718 27719 27720 27721 27722 27723 27724 27725 27726 27727 27728 27729 27730 27731 27732 27733 27734 27735 27736 27737 27738 27739 27740 27741 27742 27743 27744 27745 27746 27747 27748 27749 27750 27751 27752 27753 27754 27755 27756 27757 27758 27759 27760 27761 27762 27763 27764 27765 27766 27767 27768 27769 27770 27771 27772 27773 27774 27775 27776 27777 27778 27779 27780 27781 27782 27783 27784 27785 27786 27787 27788 27789 27790 27791 27792 27793 27794 27795 27796 27797 27798 27799 27800 27801 27802 27803 27804 27805 27806 27807 27808 27809 27810 27811 27812 27813 27814 27815 27816 27817 27818 27819 27820 27821 27822 27823 27824 27825 27826 27827 27828 27829 27830 27831 27832 27833 27834 27835 27836 27837 27838 27839 27840 27841 27842 27843 27844 27845 27846 27847 27848 27849 27850 27851 27852 27853 27854 27855 27856 27857 27858 27859 27860 27861 27862 27863 27864 27865 27866 27867 27868 27869 27870 27871 27872 27873 27874 27875 27876 27877 27878 27879 27880 27881 27882 27883 27884 27885 27886 27887 27888 27889 27890 27891 27892 27893 27894 27895 27896 27897 27898 27899 27900 27901 27902 27903 27904 27905 27906 27907 27908 27909 27910 27911 27912 27913 27914 27915 27916 27917 27918 27919 27920 27921 27922 27923 27924 27925 27926 27927 27928 27929 27930 27931 27932 27933 27934 27935 27936 27937 27938 27939 27940 27941 27942 27943 27944 27945 27946 27947 27948 27949 27950 27951 27952 27953 27954 27955 27956 27957 27958 27959 27960 27961 27962 27963 27964 27965 27966 27967 27968 27969 27970 27971 27972 27973 27974 27975 27976 27977 27978 27979 27980 27981 27982 27983 27984 27985 27986 27987 27988 27989 27990 27991 27992 27993 27994 27995 27996 27997 27998 27999 28000 28001 28002 28003 28004 28005 28006 28007 28008 28009 28010 28011 28012 28013 28014 28015 28016 28017 28018 28019 28020 28021 28022 28023 28024 28025 28026 28027 28028 28029 28030 28031 28032 28033 28034 28035 28036 28037 28038 28039 28040 28041 28042 28043 28044 28045 28046 28047 28048 28049 28050 28051 28052 28053 28054 28055 28056 28057 28058 28059 28060 28061 28062 28063 28064 28065 28066 28067 28068 28069 28070 28071 28072 28073 28074 28075 28076 28077 28078 28079 28080 28081 28082 28083 28084 28085 28086 28087 28088 28089 28090 28091 28092 28093 28094 28095 28096 28097 28098 28099 28100 28101 28102 28103 28104 28105 28106 28107 28108 28109 28110 28111 28112 28113 28114 28115 28116 28117 28118 28119 28120 28121 28122 28123 28124 28125 28126 28127 28128 28129 28130 28131 28132 28133 28134 28135 28136 28137 28138 28139 28140 28141 28142 28143 28144 28145 28146 28147 28148 28149 28150 28151 28152 28153 28154 28155 28156 28157 28158 28159 28160 28161 28162 28163 28164 28165 28166 28167 28168 28169 28170 28171 28172 28173 28174 28175 28176 28177 28178 28179 28180 28181 28182 28183 28184 28185 28186 28187 28188 28189 28190 28191 28192 28193 28194 28195 28196 28197 28198 28199 28200 28201 28202 28203 28204 28205 28206 28207 28208 28209 28210 28211 28212 28213 28214 28215 28216 28217 28218 28219 28220 28221 28222 28223 28224 28225 28226 28227 28228 28229 28230 28231 28232 28233 28234 28235 28236 28237 28238 28239 28240 28241 28242 28243 28244 28245 28246 28247 28248 28249 28250 28251 28252 28253 28254 28255 28256 28257 28258 28259 28260 28261 28262 28263 28264 28265 28266 28267 28268 28269 28270 28271 28272 28273 28274 28275 28276 28277 28278 28279 28280 28281 28282 28283 28284 28285 28286 28287 28288 28289 28290 28291 28292 28293 28294 28295 28296 28297 28298 28299 28300 28301 28302 28303 28304 28305 28306 28307 28308 28309 28310 28311 28312 28313 28314 28315 28316 28317 28318 28319 28320 28321 28322 28323 28324 28325 28326 28327 28328 28329 28330 28331 28332 28333 28334 28335 28336 28337 28338 28339 28340 28341 28342 28343 28344 28345 28346 28347 28348 28349 28350 28351 28352 28353 28354 28355 28356 28357 28358 28359 28360 28361 28362 28363 28364 28365 28366 28367 28368 28369 28370 28371 28372 28373 28374 28375 28376 28377 28378 28379 28380 28381 28382 28383 28384 28385 28386 28387 28388 28389 28390 28391 28392 28393 28394 28395 28396 28397 28398 28399 28400 28401 28402 28403 28404 28405 28406 28407 28408 28409 28410 28411 28412 28413 28414 28415 28416 28417 28418 28419 28420 28421 28422 28423 28424 28425 28426 28427 28428 28429 28430 28431 28432 28433 28434 28435 28436 28437 28438 28439 28440 28441 28442 28443 28444 28445 28446 28447 28448 28449 28450 28451 28452 28453 28454 28455 28456 28457 28458 28459 28460 28461 28462 28463 28464 28465 28466 28467 28468 28469 28470 28471 28472 28473 28474 28475 28476 28477 28478 28479 28480 28481 28482 28483 28484 28485 28486 28487 28488 28489 28490 28491 28492 28493 28494 28495 28496 28497 28498 28499 28500 28501 28502 28503 28504 28505 28506 28507 28508 28509 28510 28511 28512 28513 28514 28515 28516 28517 28518 28519 28520 28521 28522 28523 28524 28525 28526 28527 28528 28529 28530 28531 28532 28533 28534 28535 28536 28537 28538 28539 28540 28541 28542 28543 28544 28545 28546 28547 28548 28549 28550 28551 28552 28553 28554 28555 28556 28557 28558 28559 28560 28561 28562 28563 28564 28565 28566 28567 28568 28569 28570 28571 28572 28573 28574 28575 28576 28577 28578 28579 28580 28581 28582 28583 28584 28585 28586 28587 28588 28589 28590 28591 28592 28593 28594 28595 28596 28597 28598 28599 28600 28601 28602 28603 28604 28605 28606 28607 28608 28609 28610 28611 28612 28613 28614 28615 28616 28617 28618 28619 28620 28621 28622 28623 28624 28625 28626 28627 28628 28629 28630 28631 28632 28633 28634 28635 28636 28637 28638 28639 28640 28641 28642 28643 28644 28645 28646 28647 28648 28649 28650 28651 28652 28653 28654 28655 28656 28657 28658 28659 28660 28661 28662 28663 28664 28665 28666 28667 28668 28669 28670 28671 28672 28673 28674 28675 28676 28677 28678 28679 28680 28681 28682 28683 28684 28685 28686 28687 28688 28689 28690 28691 28692 28693 28694 28695 28696 28697 28698 28699 28700 28701 28702 28703 28704 28705 28706 28707 28708 28709 28710 28711 28712 28713 28714 28715 28716 28717 28718 28719 28720 28721 28722 28723 28724 28725 28726 28727 28728 28729 28730 28731 28732 28733 28734 28735 28736 28737 28738 28739 28740 28741 28742 28743 28744 28745 28746 28747 28748 28749 28750 28751 28752 28753 28754 28755 28756 28757 28758 28759 28760 28761 28762 28763 28764 28765 28766 28767 28768 28769 28770 28771 28772 28773 28774 28775 28776 28777 28778 28779 28780 28781 28782 28783 28784 28785 28786 28787 28788 28789 28790 28791 28792 28793 28794 28795 28796 28797 28798 28799 28800 28801 28802 28803 28804 28805 28806 28807 28808 28809 28810 28811 28812 28813 28814 28815 28816 28817 28818 28819 28820 28821 28822 28823 28824 28825 28826 28827 28828 28829 28830 28831 28832 28833 28834 28835 28836 28837 28838 28839 28840 28841 28842 28843 28844 28845 28846 28847 28848 28849 28850 28851 28852 28853 28854 28855 28856 28857 28858 28859 28860 28861 28862 28863 28864 28865 28866 28867 28868 28869 28870 28871 28872 28873 28874 28875 28876 28877 28878 28879 28880 28881 28882 28883 28884 28885 28886 28887 28888 28889 28890 28891 28892 28893 28894 28895 28896 28897 28898 28899 28900 28901 28902 28903 28904 28905 28906 28907 28908 28909 28910 28911 28912 28913 28914 28915 28916 28917 28918 28919 28920 28921 28922 28923 28924 28925 28926 28927 28928 28929 28930 28931 28932 28933 28934 28935 28936 28937 28938 28939 28940 28941 28942 28943 28944 28945 28946 28947 28948 28949 28950 28951 28952 28953 28954 28955 28956 28957 28958 28959 28960 28961 28962 28963 28964 28965 28966 28967 28968 28969 28970 28971 28972 28973 28974 28975 28976 28977 28978 28979 28980 28981 28982 28983 28984 28985 28986 28987 28988 28989 28990 28991 28992 28993 28994 28995 28996 28997 28998 28999 29000 29001 29002 29003 29004 29005 29006 29007 29008 29009 29010 29011 29012 29013 29014 29015 29016 29017 29018 29019 29020 29021 29022 29023 29024 29025 29026 29027 29028 29029 29030 29031 29032 29033 29034 29035 29036 29037 29038 29039 29040 29041 29042 29043 29044 29045 29046 29047 29048 29049 29050 29051 29052 29053 29054 29055 29056 29057 29058 29059 29060 29061 29062 29063 29064 29065 29066 29067 29068 29069 29070 29071 29072 29073 29074 29075 29076 29077 29078 29079 29080 29081 29082 29083 29084 29085 29086 29087 29088 29089 29090 29091 29092 29093 29094 29095 29096 29097 29098 29099 29100 29101 29102 29103 29104 29105 29106 29107 29108 29109 29110 29111 29112 29113 29114 29115 29116 29117 29118 29119 29120 29121 29122 29123 29124 29125 29126 29127 29128 29129 29130 29131 29132 29133 29134 29135 29136 29137 29138 29139 29140 29141 29142 29143 29144 29145 29146 29147 29148 29149 29150 29151 29152 29153 29154 29155 29156 29157 29158 29159 29160 29161 29162 29163 29164 29165 29166 29167 29168 29169 29170 29171 29172 29173 29174 29175 29176 29177 29178 29179 29180 29181 29182 29183 29184 29185 29186 29187 29188 29189 29190 29191 29192 29193 29194 29195 29196 29197 29198 29199 29200 29201 29202 29203 29204 29205 29206 29207 29208 29209 29210 29211 29212 29213 29214 29215 29216 29217 29218 29219 29220 29221 29222 29223 29224 29225 29226 29227 29228 29229 29230 29231 29232 29233 29234 29235 29236 29237 29238 29239 29240 29241 29242 29243 29244 29245 29246 29247 29248 29249 29250 29251 29252 29253 29254 29255 29256 29257 29258 29259 29260 29261 29262 29263 29264 29265 29266 29267 29268 29269 29270 29271 29272 29273 29274 29275 29276 29277 29278 29279 29280 29281 29282 29283 29284 29285 29286 29287 29288 29289 29290 29291 29292 29293 29294 29295 29296 29297 29298 29299 29300 29301 29302 29303 29304 29305 29306 29307 29308 29309 29310 29311 29312 29313 29314 29315 29316 29317 29318 29319 29320 29321 29322 29323 29324 29325 29326 29327 29328 29329 29330 29331 29332 29333 29334 29335 29336 29337 29338 29339 29340 29341 29342 29343 29344 29345 29346 29347 29348 29349 29350 29351 29352 29353 29354 29355 29356 29357 29358 29359 29360 29361 29362 29363 29364 29365 29366 29367 29368 29369 29370 29371 29372 29373 29374 29375 29376 29377 29378 29379 29380 29381 29382 29383 29384 29385 29386 29387 29388 29389 29390 29391 29392 29393 29394 29395 29396 29397 29398 29399 29400 29401 29402 29403 29404 29405 29406 29407 29408 29409 29410 29411 29412 29413 29414 29415 29416 29417 29418 29419 29420 29421 29422 29423 29424 29425 29426 29427 29428 29429 29430 29431 29432 29433 29434 29435 29436 29437 29438 29439 29440 29441 29442 29443 29444 29445 29446 29447 29448 29449 29450 29451 29452 29453 29454 29455 29456 29457 29458 29459 29460 29461 29462 29463 29464 29465 29466 29467 29468 29469 29470 29471 29472 29473 29474 29475 29476 29477 29478 29479 29480 29481 29482 29483 29484 29485 29486 29487 29488 29489 29490 29491 29492 29493 29494 29495 29496 29497 29498 29499 29500 29501 29502 29503 29504 29505 29506 29507 29508 29509 29510 29511 29512 29513 29514 29515 29516 29517 29518 29519 29520 29521 29522 29523 29524 29525 29526 29527 29528 29529 29530 29531 29532 29533 29534 29535 29536 29537 29538 29539 29540 29541 29542 29543 29544 29545 29546 29547 29548 29549 29550 29551 29552 29553 29554 29555 29556 29557 29558 29559 29560 29561 29562 29563 29564 29565 29566 29567 29568 29569 29570 29571 29572 29573 29574 29575 29576 29577 29578 29579 29580 29581 29582 29583 29584 29585 29586 29587 29588 29589 29590 29591 29592 29593 29594 29595 29596 29597 29598 29599 29600 29601 29602 29603 29604 29605 29606 29607 29608 29609 29610 29611 29612 29613 29614 29615 29616 29617 29618 29619 29620 29621 29622 29623 29624 29625 29626 29627 29628 29629 29630 29631 29632 29633 29634 29635 29636 29637 29638 29639 29640 29641 29642 29643 29644 29645 29646 29647 29648 29649 29650 29651 29652 29653 29654 29655 29656 29657 29658 29659 29660 29661 29662 29663 29664 29665 29666 29667 29668 29669 29670 29671 29672 29673 29674 29675 29676 29677 29678 29679 29680 29681 29682 29683 29684 29685 29686 29687 29688 29689 29690 29691 29692 29693 29694 29695 29696 29697 29698 29699 29700 29701 29702 29703 29704 29705 29706 29707 29708 29709 29710 29711 29712 29713 29714 29715 29716 29717 29718 29719 29720 29721 29722 29723 29724 29725 29726 29727 29728 29729 29730 29731 29732 29733 29734 29735 29736 29737 29738 29739 29740 29741 29742 29743 29744 29745 29746 29747 29748 29749 29750 29751 29752 29753 29754 29755 29756 29757 29758 29759 29760 29761 29762 29763 29764 29765 29766 29767 29768 29769 29770 29771 29772 29773 29774 29775 29776 29777 29778 29779 29780 29781 29782 29783 29784 29785 29786 29787 29788 29789 29790 29791 29792 29793 29794 29795 29796 29797 29798 29799 29800 29801 29802 29803 29804 29805 29806 29807 29808 29809 29810 29811 29812 29813 29814 29815 29816 29817 29818 29819 29820 29821 29822 29823 29824 29825 29826 29827 29828 29829 29830 29831 29832 29833 29834 29835 29836 29837 29838 29839 29840 29841 29842 29843 29844 29845 29846 29847 29848 29849 29850 29851 29852 29853 29854 29855 29856 29857 29858 29859 29860 29861 29862 29863 29864 29865 29866 29867 29868 29869 29870 29871 29872 29873 29874 29875 29876 29877 29878 29879 29880 29881 29882 29883 29884 29885 29886 29887 29888 29889 29890 29891 29892 29893 29894 29895 29896 29897 29898 29899 29900 29901 29902 29903 29904 29905 29906 29907 29908 29909 29910 29911 29912 29913 29914 29915 29916 29917 29918 29919 29920 29921 29922 29923 29924 29925 29926 29927 29928 29929 29930 29931 29932 29933 29934 29935 29936 29937 29938 29939 29940 29941 29942 29943 29944 29945 29946 29947 29948 29949 29950 29951 29952 29953 29954 29955 29956 29957 29958 29959 29960 29961 29962 29963 29964 29965 29966 29967 29968 29969 29970 29971 29972 29973 29974 29975 29976 29977 29978 29979 29980 29981 29982 29983 29984 29985 29986 29987 29988 29989 29990 29991 29992 29993 29994 29995 29996 29997 29998 29999 30000 30001 30002 30003 30004 30005 30006 30007 30008 30009 30010 30011 30012 30013 30014 30015 30016 30017 30018 30019 30020 30021 30022 30023 30024 30025 30026 30027 30028 30029 30030 30031 30032 30033 30034 30035 30036 30037 30038 30039 30040 30041 30042 30043 30044 30045 30046 30047 30048 30049 30050 30051 30052 30053 30054 30055 30056 30057 30058 30059 30060 30061 30062 30063 30064 30065 30066 30067 30068 30069 30070 30071 30072 30073 30074 30075 30076 30077 30078 30079 30080 30081 30082 30083 30084 30085 30086 30087 30088 30089 30090 30091 30092 30093 30094 30095 30096 30097 30098 30099 30100 30101 30102 30103 30104 30105 30106 30107 30108 30109 30110 30111 30112 30113 30114 30115 30116 30117 30118 30119 30120 30121 30122 30123 30124 30125 30126 30127 30128 30129 30130 30131 30132 30133 30134 30135 30136 30137 30138 30139 30140 30141 30142 30143 30144 30145 30146 30147 30148 30149 30150 30151 30152 30153 30154 30155 30156 30157 30158 30159 30160 30161 30162 30163 30164 30165 30166 30167 30168 30169 30170 30171 30172 30173 30174 30175 30176 30177 30178 30179 30180 30181 30182 30183 30184 30185 30186 30187 30188 30189 30190 30191 30192 30193 30194 30195 30196 30197 30198 30199 30200 30201 30202 30203 30204 30205 30206 30207 30208 30209 30210 30211 30212 30213 30214 30215 30216 30217 30218 30219 30220 30221 30222 30223 30224 30225 30226 30227 30228 30229 30230 30231 30232 30233 30234 30235 30236 30237 30238 30239 30240 30241 30242 30243 30244 30245 30246 30247 30248 30249 30250 30251 30252 30253 30254 30255 30256 30257 30258 30259 30260 30261 30262 30263 30264 30265 30266 30267 30268 30269 30270 30271 30272 30273 30274 30275 30276 30277 30278 30279 30280 30281 30282 30283 30284 30285 30286 30287 30288 30289 30290 30291 30292 30293 30294 30295 30296 30297 30298 30299 30300 30301 30302 30303 30304 30305 30306 30307 30308 30309 30310 30311 30312 30313 30314 30315 30316 30317 30318 30319 30320 30321 30322 30323 30324 30325 30326 30327 30328 30329 30330 30331 30332 30333 30334 30335 30336 30337 30338 30339 30340 30341 30342 30343 30344 30345 30346 30347 30348 30349 30350 30351 30352 30353 30354 30355 30356 30357 30358 30359 30360 30361 30362 30363 30364 30365 30366 30367 30368 30369 30370 30371 30372 30373 30374 30375 30376 30377 30378 30379 30380 30381 30382 30383 30384 30385 30386 30387 30388 30389 30390 30391 30392 30393 30394 30395 30396 30397 30398 30399 30400 30401 30402 30403 30404 30405 30406 30407 30408 30409 30410 30411 30412 30413 30414 30415 30416 30417 30418 30419 30420 30421 30422 30423 30424 30425 30426 30427 30428 30429 30430 30431 30432 30433 30434 30435 30436 30437 30438 30439 30440 30441 30442 30443 30444 30445 30446 30447 30448 30449 30450 30451 30452 30453 30454 30455 30456 30457 30458 30459 30460 30461 30462 30463 30464 30465 30466 30467 30468 30469 30470 30471 30472 30473 30474 30475 30476 30477 30478 30479 30480 30481 30482 30483 30484 30485 30486 30487 30488 30489 30490 30491 30492 30493 30494 30495 30496 30497 30498 30499 30500 30501 30502 30503 30504 30505 30506 30507 30508 30509 30510 30511 30512 30513 30514 30515 30516 30517 30518 30519 30520 30521 30522 30523 30524 30525 30526 30527 30528 30529 30530 30531 30532 30533 30534 30535 30536 30537 30538 30539 30540 30541 30542 30543 30544 30545 30546 30547 30548 30549 30550 30551 30552 30553 30554 30555 30556 30557 30558 30559 30560 30561 30562 30563 30564 30565 30566 30567 30568 30569 30570 30571 30572 30573 30574 30575 30576 30577 30578 30579 30580 30581 30582 30583 30584 30585 30586 30587 30588 30589 30590 30591 30592 30593 30594 30595 30596 30597 30598 30599 30600 30601 30602 30603 30604 30605 30606 30607 30608 30609 30610 30611 30612 30613 30614 30615 30616 30617 30618 30619 30620 30621 30622 30623 30624 30625 30626 30627 30628 30629 30630 30631 30632 30633 30634 30635 30636 30637 30638 30639 30640 30641 30642 30643 30644 30645 30646 30647 30648 30649 30650 30651 30652 30653 30654 30655 30656 30657 30658 30659 30660 30661 30662 30663 30664 30665 30666 30667 30668 30669 30670 30671 30672 30673 30674 30675 30676 30677 30678 30679 30680 30681 30682 30683 30684 30685 30686 30687 30688 30689 30690 30691 30692 30693 30694 30695 30696 30697 30698 30699 30700 30701 30702 30703 30704 30705 30706 30707 30708 30709 30710 30711 30712 30713 30714 30715 30716 30717 30718 30719 30720 30721 30722 30723 30724 30725 30726 30727 30728 30729 30730 30731 30732 30733 30734 30735 30736 30737 30738 30739 30740 30741 30742 30743 30744 30745 30746 30747 30748 30749 30750 30751 30752 30753 30754 30755 30756 30757 30758 30759 30760 30761 30762 30763 30764 30765 30766 30767 30768 30769 30770 30771 30772 30773 30774 30775 30776 30777 30778 30779 30780 30781 30782 30783 30784 30785 30786 30787 30788 30789 30790 30791 30792 30793 30794 30795 30796 30797 30798 30799 30800 30801 30802 30803 30804 30805 30806 30807 30808 30809 30810 30811 30812 30813 30814 30815 30816 30817 30818 30819 30820 30821 30822 30823 30824 30825 30826 30827 30828 30829 30830 30831 30832 30833 30834 30835 30836 30837 30838 30839 30840 30841 30842 30843 30844 30845 30846 30847 30848 30849 30850 30851 30852 30853 30854 30855 30856 30857 30858 30859 30860 30861 30862 30863 30864 30865 30866 30867 30868 30869 30870 30871 30872 30873 30874 30875 30876 30877 30878 30879 30880 30881 30882 30883 30884 30885 30886 30887 30888 30889 30890 30891 30892 30893 30894 30895 30896 30897 30898 30899 30900 30901 30902 30903 30904 30905 30906 30907 30908 30909 30910 30911 30912 30913 30914 30915 30916 30917 30918 30919 30920 30921 30922 30923 30924 30925 30926 30927 30928 30929 30930 30931 30932 30933 30934 30935 30936 30937 30938 30939 30940 30941 30942 30943 30944 30945 30946 30947 30948 30949 30950 30951 30952 30953 30954 30955 30956 30957 30958 30959 30960 30961 30962 30963 30964 30965 30966 30967 30968 30969 30970 30971 30972 30973 30974 30975 30976 30977 30978 30979 30980 30981 30982 30983 30984 30985 30986 30987 30988 30989 30990 30991 30992 30993 30994 30995 30996 30997 30998 30999 31000 31001 31002 31003 31004 31005 31006 31007 31008 31009 31010 31011 31012 31013 31014 31015 31016 31017 31018 31019 31020 31021 31022 31023 31024 31025 31026 31027 31028 31029 31030 31031 31032 31033 31034 31035 31036 31037 31038 31039 31040 31041 31042 31043 31044 31045 31046 31047 31048 31049 31050 31051 31052 31053 31054 31055 31056 31057 31058 31059 31060 31061 31062 31063 31064 31065 31066 31067 31068 31069 31070 31071 31072 31073 31074 31075 31076 31077 31078 31079 31080 31081 31082 31083 31084 31085 31086 31087 31088 31089 31090 31091 31092 31093 31094 31095 31096 31097 31098 31099 31100 31101 31102 31103 31104 31105 31106 31107 31108 31109 31110 31111 31112 31113 31114 31115 31116 31117 31118 31119 31120 31121 31122 31123 31124 31125 31126 31127 31128 31129 31130 31131 31132 31133 31134 31135 31136 31137 31138 31139 31140 31141 31142 31143 31144 31145 31146 31147 31148 31149 31150 31151 31152 31153 31154 31155 31156 31157 31158 31159 31160 31161 31162 31163 31164 31165 31166 31167 31168 31169 31170 31171 31172 31173 31174 31175 31176 31177 31178 31179 31180 31181 31182 31183 31184 31185 31186 31187 31188 31189 31190 31191 31192 31193 31194 31195 31196 31197 31198 31199 31200 31201 31202 31203 31204 31205 31206 31207 31208 31209 31210 31211 31212 31213 31214 31215 31216 31217 31218 31219 31220 31221 31222 31223 31224 31225 31226 31227 31228 31229 31230 31231 31232 31233 31234 31235 31236 31237 31238 31239 31240 31241 31242 31243 31244 31245 31246 31247 31248 31249 31250 31251 31252 31253 31254 31255 31256 31257 31258 31259 31260 31261 31262 31263 31264 31265 31266 31267 31268 31269 31270 31271 31272 31273 31274 31275 31276 31277 31278 31279 31280 31281 31282 31283 31284 31285 31286 31287 31288 31289 31290 31291 31292 31293 31294 31295 31296 31297 31298 31299 31300 31301 31302 31303 31304 31305 31306 31307 31308 31309 31310 31311 31312 31313 31314 31315 31316 31317 31318 31319 31320 31321 31322 31323 31324 31325 31326 31327 31328 31329 31330 31331 31332 31333 31334 31335 31336 31337 31338 31339 31340 31341 31342 31343 31344 31345 31346 31347 31348 31349 31350 31351 31352 31353 31354 31355 31356 31357 31358 31359 31360 31361 31362 31363 31364 31365 31366 31367 31368 31369 31370 31371 31372 31373 31374 31375 31376 31377 31378 31379 31380 31381 31382 31383 31384 31385 31386 31387 31388 31389 31390 31391 31392 31393 31394 31395 31396 31397 31398 31399 31400 31401 31402 31403 31404 31405 31406 31407 31408 31409 31410 31411 31412 31413 31414 31415 31416 31417 31418 31419 31420 31421 31422 31423 31424 31425 31426 31427 31428 31429 31430 31431 31432 31433 31434 31435 31436 31437 31438 31439 31440 31441 31442 31443 31444 31445 31446 31447 31448 31449 31450 31451 31452 31453 31454 31455 31456 31457 31458 31459 31460 31461 31462 31463 31464 31465 31466 31467 31468 31469 31470 31471 31472 31473 31474 31475 31476 31477 31478 31479 31480 31481 31482 31483 31484 31485 31486 31487 31488 31489 31490 31491 31492 31493 31494 31495 31496 31497 31498 31499 31500 31501 31502 31503 31504 31505 31506 31507 31508 31509 31510 31511 31512 31513 31514 31515 31516 31517 31518 31519 31520 31521 31522 31523 31524 31525 31526 31527 31528 31529 31530 31531 31532 31533 31534 31535 31536 31537 31538 31539 31540 31541 31542 31543 31544 31545 31546 31547 31548 31549 31550 31551 31552 31553 31554 31555 31556 31557 31558 31559 31560 31561 31562 31563 31564 31565 31566 31567 31568 31569 31570 31571 31572 31573 31574 31575 31576 31577 31578 31579 31580 31581 31582 31583 31584 31585 31586 31587 31588 31589 31590 31591 31592 31593 31594 31595 31596 31597 31598 31599 31600 31601 31602 31603 31604 31605 31606 31607 31608 31609 31610 31611 31612 31613 31614 31615 31616 31617 31618 31619 31620 31621 31622 31623 31624 31625 31626 31627 31628 31629 31630 31631 31632 31633 31634 31635 31636 31637 31638 31639 31640 31641 31642 31643 31644 31645 31646 31647 31648 31649 31650 31651 31652 31653 31654 31655 31656 31657 31658 31659 31660 31661 31662 31663 31664 31665 31666 31667 31668 31669 31670 31671 31672 31673 31674 31675 31676 31677 31678 31679 31680 31681 31682 31683 31684 31685 31686 31687 31688 31689 31690 31691 31692 31693 31694 31695 31696 31697 31698 31699 31700 31701 31702 31703 31704 31705 31706 31707 31708 31709 31710 31711 31712 31713 31714 31715 31716 31717 31718 31719 31720 31721 31722 31723 31724 31725 31726 31727 31728 31729 31730 31731 31732 31733 31734 31735 31736 31737 31738 31739 31740 31741 31742 31743 31744 31745 31746 31747 31748 31749 31750 31751 31752 31753 31754 31755 31756 31757 31758 31759 31760 31761 31762 31763 31764 31765 31766 31767 31768 31769 31770 31771 31772 31773 31774 31775 31776 31777 31778 31779 31780 31781 31782 31783 31784 31785 31786 31787 31788 31789 31790 31791 31792 31793 31794 31795 31796 31797 31798 31799 31800 31801 31802 31803 31804 31805 31806 31807 31808 31809 31810 31811 31812 31813 31814 31815 31816 31817 31818 31819 31820 31821 31822 31823 31824 31825 31826 31827 31828 31829 31830 31831 31832 31833 31834 31835 31836 31837 31838 31839 31840 31841 31842 31843 31844 31845 31846 31847 31848 31849 31850 31851 31852 31853 31854 31855 31856 31857 31858 31859 31860 31861 31862 31863 31864 31865 31866 31867 31868 31869 31870 31871 31872 31873 31874 31875 31876 31877 31878 31879 31880 31881 31882 31883 31884 31885 31886 31887 31888 31889 31890 31891 31892 31893 31894 31895 31896 31897 
</DataArray>
<DataArray type="UInt32" Name="offsets" format="ascii">
3 6 9 12 15 17 20 23 26 29 32 35 38 40 43 46 49 52 54 57 60 62 65 68 71 74 76 79 82 85 88 90 93 96 99 102 105 108 111 114 117 120 123 126 129 131 134 137 139 142 145 148 151 154 156 159 162 165 168 171 174 177 179 182 185 188 191 193 196 199 202 205 208 211 214 217 220 222 225 228 230 233 236 238 241 244 247 250 252 255 258 261 264 267 270 273 275 277 279 282 285 287 290 293 296 299 302 304 307 310 313 316 319 322 325 328 331 334 337 340 343 345 348 351 354 356 359 362 365 368 371 374 376 379 382 385 388 391 394 397 400 403 406 409 412 415 418 421 424 427 430 433 436 439 442 445 448 451 453 456 459 462 464 467 470 472 475 478 481 484 487 490 493 496 499 502 505 507 510 513 516 519 522 525 528 531 533 536 539 542 545 548 551 554 557 559 562 565 568 571 574 577 580 583 586 588 591 594 597 600 603 606 609 612 615 618 621 624 627 630 633 636 639 642 645 648 651 654 657 659 662 665 668 670 673 675 678 680 683 686 688 691 694 697 699 702 704 707 709 712 714 716 719 721 724 727 729 732 734 737 740 743 745 748 750 752 755 758 760 763 766 769 771 774 776 778 780 783 785 788 791 794 796 799 801 803 805 808 811 813 815 818 821 824 827 829 832 834 837 840 842 845 848 851 853 856 858 860 862 865 868 871 873 876 878 880 882 884 887 890 893 895 897 900 903 905 907 909 912 914 917 920 923 926 928 931 934 937 940 943 946 949 951 954 957 960 963 966 969 971 973 976 979 982 984 987 990 993 995 998 1000 1003 1005 1007 1010 1013 1016 1019 1021 1024 1027 1029 1032 1035 1038 1041 1043 1046 1048 1051 1054 1057 1060 1063 1065 1067 1070 1073 1076 1079 1082 1085 1088 1091 1093 1096 1099 1102 1104 1107 1110 1112 1115 1117 1120 1123 1126 1129 1132 1135 1138 1141 1144 1147 1150 1152 1155 1157 1160 1162 1165 1168 1171 1173 1176 1178 1181 1183 1186 1189 1192 1195 1198 1201 1203 1206 1208 1211 1214 1217 1219 1222 1225 1228 1230 1233 1235 1237 1240 1243 1246 1249 1251 1254 1257 1260 1263 1265 1267 1270 1273 1275 1278 1280 1283 1285 1287 1290 1293 1296 1298 1301 1304 1307 1310 1312 1315 1318 1321 1324 1327 1330 1333 1336 1339 1342 1345 1347 1350 1353 1356 1359 1361 1364 1367 1370 1372 1375 1377 1379 1381 1384 1387 1390 1392 1394 1397 1399 1402 1405 1407 1410 1413 1416 1419 1421 1424 1427 1430 1433 1436 1439 1442 1445 1448 1451 1454 1456 1458 1461 1464 1466 1469 1472 1475 1477 1480 1483 1486 1489 1492 1495 1497 1500 1503 1506 1508 1511 1514 1517 1519 1522 1525 1528 1531 1534 1537 1540 1543 1546 1549 1552 1554 1557 1560 1563 1565 1568 1571 1574 1577 1580 1583 1586 1588 1591 1594 1597 1600 1603 1605 1608 1611 1614 1617 1620 1623 1626 1629 1632 1635 1638 1641 1644 1647 1650 1653 1656 1659 1662 1664 1667 1670 1673 1676 1678 1681 1684 1686 1689 1692 1695 1698 1701 1704 1707 1709 1712 1715 1718 1721 1724 1727 1730 1733 1735 1738 1740 1743 1746 1748 1751 1754 1757 1759 1762 1765 1767 1770 1773 1776 1778 1781 1783 1786 1789 1791 1794 1796 1799 1802 1805 1808 1811 1814 1817 1820 1823 1826 1829 1832 1835 1838 1841 1844 1847 1850 1853 1856 1859 1862 1864 1867 1869 1872 1874 1877 1880 1883 1886 1889 1892 1895 1898 1901 1904 1907 1910 1913 1916 1919 1921 1924 1927 1930 1933 1936 1939 1942 1945 1948 1950 1953 1956 1959 1962 1965 1968 1971 1974 1977 1980 1983 1986 1989 1992 1995 1998 2001 2004 2007 2010 2013 2016 2019 2022 2025 2028 2031 2034 2037 2039 2042 2045 2047 2050 2053 2056 2058 2060 2063 2065 2068 2071 2074 2077 2080 2082 2085 2088 2091 2094 2097 2099 2102 2105 2108 2111 2114 2117 2120 2123 2126 2129 2132 2135 2138 2141 2144 2147 2150 2153 2156 2159 2162 2165 2168 2171 2174 2177 2180 2183 2186 2189 2192 2195 2198 2201 2204 2207 2210 2213 2216 2219 2222 2225 2228 2231 2234 2237 2240 2243 2246 2248 2251 2254 2257 2260 2263 2266 2269 2272 2275 2278 2281 2284 2287 2290 2293 2295 2298 2301 2304 2307 2309 2312 2315 2318 2321 2324 2327 2330 2333 2336 2339 2342 2345 2348 2351 2354 2357 2360 2363 2366 2369 2372 2375 2378 2381 2384 2387 2390 2392 2395 2398 2400 2403 2405 2407 2409 2411 2414 2417 2419 2422 2425 2428 2431 2434 2437 2440 2443 2446 2449 2452 2455 2458 2461 2464 2467 2470 2472 2475 2478 2480 2483 2485 2488 2491 2494 2497 2499 2502 2504 2507 2510 2513 2516 2518 2521 2524 2527 2529 2532 2535 2538 2541 2544 2546 2549 2551 2554 2557 2559 2561 2564 2566 2569 2572 2575 2578 2581 2584 2587 2590 2593 2596 2599 2601 2604 2607 2610 2612 2615 2618 2621 2623 2626 2629 2631 2633 2635 2638 2641 2644 2647 2650 2653 2656 2659 2662 2665 2668 2670 2673 2676 2679 2682 2685 2688 2691 2694 2696 2698 2700 2703 2706 2709 2712 2715 2718 2721 2724 2726 2728 2731 2734 2737 2739 2742 2745 2747 2750 2753 2756 2759 2762 2765 2768 2771 2774 2777 2780 2782 2785 2788 2791 2794 2797 2800 2803 2806 2808 2811 2814 2817 2820 2823 2826 2829 2832 2835 2838 2840 2843 2845 2847 2849 2852 2855 2858 2861 2864 2867 2870 2872 2874 2877 2879 2882 2885 2888 2891 2894 2896 2899 2901 2903 2906 2909 2912 2914 2917 2919 2922 2925 2928 2931 2933 2936 2939 2942 2945 2948 2951 2954 2957 2960 2963 2966 2969 2972 2975 2978 2981 2984 2986 2989 2992 2995 2997 3000 3003 3006 3009 3012 3014 3017 3020 3023 3026 3029 3032 3034 3037 3039 3042 3045 3048 3051 3054 3057 3060 3063 3065 3068 3071 3074 3076 3079 3082 3085 3088 3091 3094 3097 3100 3103 3106 3109 3112 3115 3118 3121 3124 3127 3130 3133 3136 3139 3142 3145 3148 3151 3153 3155 3157 3160 3163 3166 3169 3171 3174 3177 3180 3183 3185 3188 3191 3194 3197 3200 3203 3206 3208 3211 3214 3217 3220 3223 3226 3229 3232 3234 3237 3240 3243 3246 3249 3252 3255 3258 3261 3264 3267 3270 3272 3275 3278 3281 3284 3287 3290 3292 3295 3298 3301 3304 3307 3310 3313 3316 3318 3321 3324 3327 3329 3332 3335 3338 3341 3344 3347 3350 3353 3356 3359 3362 3365 3367 3370 3373 3376 3379 3382 3385 3388 3391 3394 3397 3400 3403 3406 3409 3412 3415 3418 3421 3424 3427 3430 3433 3436 3439 3442 3445 3448 3451 3454 3457 3460 3463 3466 3469 3472 3475 3478 3481 3484 3487 3490 3493 3496 3499 3502 3505 3508 3510 3513 3516 3519 3522 3525 3528 3531 3534 3537 3540 3543 3546 3549 3552 3555 3558 3561 3564 3567 3570 3573 3576 3579 3582 3584 3587 3590 3593 3596 3599 3602 3605 3608 3611 3614 3616 3619 3622 3624 3627 3630 3633 3636 3639 3642 3645 3648 3651 3653 3656 3658 3661 3664 3667 3670 3672 3675 3678 3680 3683 3685 3688 3691 3694 3697 3700 3702 3705 3708 3711 3714 3717 3720 3723 3726 3728 3731 3734 3737 3740 3743 3746 3749 3752 3755 3758 3761 3764 3767 3770 3772 3775 3777 3779 3782 3785 3788 3791 3794 3796 3799 3802 3805 3808 3811 3814 3817 3820 3823 3826 3829 3832 3835 3838 3841 3843 3846 3849 3852 3855 3858 3861 3864 3867 3870 3873 3876 3879 3882 3885 3888 3891 3893 3896 3899 3902 3905 3908 3910 3912 3915 3918 3920 3923 3926 3929 3932 3935 3938 3941 3944 3947 3950 3952 3955 3958 3961 3964 3967 3970 3973 3976 3979 3981 3984 3986 3989 3992 3995 3998 4001 4003 4006 4009 4012 4015 4017 4020 4023 4026 4028 4031 4034 4037 4039 4042 4045 4047 4050 4053 4056 4059 4062 4065 4068 4071 4074 4077 4080 4083 4086 4089 4092 4095 4097 4100 4103 4106 4109 4112 4115 4118 4120 4123 4126 4129 4132 4135 4138 4141 4144 4147 4150 4153 4156 4159 4162 4165 4168 4171 4174 4177 4180 4183 4186 4189 4192 4195 4198 4201 4203 4206 4209 4212 4215 4217 4220 4223 4226 4228 4231 4234 4237 4240 4243 4246 4249 4252 4255 4257 4260 4262 4265 4268 4271 4274 4277 4280 4283 4286 4289 4292 4295 4298 4301 4304 4307 4310 4313 4316 4318 4320 4323 4326 4329 4331 4334 4337 4339 4342 4345 4347 4350 4353 4356 4358 4361 4364 4366 4369 4372 4375 4378 4381 4384 4387 4390 4393 4396 4399 4402 4405 4408 4411 4414 4417 4420 4423 4426 4428 4431 4433 4436 4439 4442 4445 4448 4451 4454 4457 4460 4463 4466 4468 4471 4473 4476 4479 4482 4484 4487 4490 4493 4496 4499 4501 4504 4507 4510 4513 4516 4519 4521 4524 4527 4530 4533 4536 4539 4542 4545 4548 4551 4554 4556 4559 4562 4565 4568 4571 4574 4577 4580 4582 4585 4588 4591 4593 4596 4599 4601 4604 4607 4610 4613 4616 4618 4621 4624 4627 4630 4633 4636 4639 4642 4645 4647 4650 4653 4655 4658 4660 4663 4665 4667 4669 4672 4674 4677 4680 4683 4686 4689 4692 4694 4697 4700 4703 4706 4709 4712 4714 4717 4720 4723 4726 4729 4732 4735 4737 4740 4743 4746 4749 4751 4754 4757 4760 4763 4766 4768 4771 4773 4776 4779 4782 4785 4788 4791 4794 4797 4800 4803 4805 4808 4811 4814 4817 4820 4823 4826 4828 4831 4834 4837 4840 4843 4846 4849 4851 4854 4856 4859 4862 4865 4868 4871 4874 4877 4880 4882 4885 4888 4891 4893 4895 4898 4901 4904 4907 4910 4912 4914 4917 4919 4922 4925 4927 4930 4933 4935 4938 4941 4944 4947 4950 4953 4956 4959 4961 4964 4967 4970 4973 4976 4978 4981 4984 4987 4990 4992 4995 4998 5000 5003 5006 5009 5012 5015 5018 5021 5024 5027 5030 5033 5036 5039 5042 5045 5048 5051 5054 5057 5060 5063 5066 5069 5072 5075 5078 5081 5084 5087 5090 5093 5096 5099 5102 5105 5108 5111 5114 5117 5120 5123 5125 5128 5131 5133 5136 5139 5142 5145 5148 5150 5153 5156 5159 5162 5164 5167 5170 5173 5176 5179 5182 5185 5188 5191 5194 5197 5200 5203 5206 5209 5212 5215 5218 5221 5224 5227 5230 5233 5236 5238 5241 5244 5247 5249 5252 5255 5258 5261 5264 5267 5269 5272 5275 5278 5281 5284 5287 5290 5293 5296 5299 5302 5304 5307 5309 5311 5314 5317 5319 5322 5325 5328 5331 5334 5337 5340 5343 5346 5349 5352 5354 5357 5360 5362 5365 5368 5371 5374 5377 5380 5383 5386 5389 5392 5395 5398 5401 5404 5407 5409 5412 5415 5418 5421 5424 5427 5430 5432 5435 5437 5440 5443 5446 5449 5451 5454 5456 5459 5462 5465 5468 5471 5474 5477 5480 5483 5485 5488 5491 5494 5497 5500 5503 5506 5509 5512 5515 5518 5521 5524 5527 5530 5533 5536 5538 5541 5544 5547 5550 5553 5556 5559 5562 5565 5568 5571 5574 5577 5580 5583 5586 5589 5592 5595 5598 5601 5604 5607 5610 5613 5615 5617 5620 5623 5626 5629 5632 5635 5638 5641 5644 5647 5650 5652 5655 5658 5661 5664 5666 5669 5672 5675 5678 5680 5683 5686 5689 5692 5695 5698 5701 5704 5706 5709 5712 5715 5718 5721 5724 5727 5730 5733 5735 5738 5741 5744 5747 5750 5753 5756 5759 5762 5765 5768 5771 5774 5777 5780 5783 5786 5789 5792 5795 5797 5800 5803 5806 5809 5812 5815 5818 5821 5824 5827 5830 5833 5836 5839 5841 5844 5846 5849 5852 5855 5858 5861 5864 5867 5870 5872 5875 5878 5880 5883 5886 5889 5892 5895 5898 5901 5904 5907 5910 5913 5916 5919 5922 5925 5928 5931 5934 5937 5940 5943 5946 5949 5952 5955 5958 5961 5964 5967 5970 5973 5976 5979 5982 5985 5988 5990 5993 5996 5998 6001 6004 6007 6010 6012 6015 6017 6020 6023 6025 6028 6030 6033 6036 6039 6042 6045 6047 6050 6053 6056 6059 6062 6065 6068 6071 6074 6077 6080 6083 6085 6088 6091 6094 6096 6099 6102 6105 6108 6111 6114 6117 6120 6123 6125 6128 6131 6134 6137 6139 6141 6144 6147 6150 6153 6156 6159 6162 6165 6167 6170 6173 6176 6179 6182 6184 6187 6190 6193 6195 6198 6201 6204 6206 6209 6212 6215 6218 6220 6223 6226 6229 6232 6235 6238 6241 6244 6247 6250 6253 6256 6259 6262 6264 6267 6270 6273 6276 6279 6282 6284 6287 6289 6291 6294 6296 6299 6301 6304 6307 6310 6313 6315 6318 6321 6324 6327 6329 6332 6335 6338 6341 6344 6347 6350 6353 6356 6358 6361 6364 6367 6370 6373 6376 6379 6382 6385 6388 6391 6394 6397 6400 6402 6405 6408 6411 6413 6416 6419 6422 6424 6427 6429 6432 6435 6438 6441 6444 6447 6450 6453 6456 6459 6462 6465 6468 6471 6474 6477 6479 6482 6485 6488 6491 6494 6497 6499 6502 6505 6508 6511 6514 6517 6520 6523 6526 6529 6532 6535 6538 6541 6544 6547 6550 6553 6555 6558 6561 6564 6567 6570 6573 6576 6579 6582 6585 6588 6591 6594 6597 6600 6603 6606 6609 6612 6615 6618 6621 6624 6627 6630 6633 6636 6639 6642 6645 6648 6651 6654 6657 6659 6662 6665 6668 6671 6673 6676 6679 6682 6685 6688 6691 6694 6696 6699 6702 6705 6708 6711 6714 6717 6720 6723 6725 6728 6731 6733 6736 6739 6742 6745 6748 6750 6753 6756 6759 6761 6764 6767 6769 6772 6775 6778 6781 6784 6787 6790 6793 6796 6799 6802 6805 6808 6811 6814 6817 6820 6823 6826 6829 6831 6834 6837 6840 6843 6846 6849 6852 6855 6858 6861 6863 6865 6868 6870 6873 6876 6879 6882 6885 6887 6890 6893 6896 6899 6901 6904 6907 6910 6913 6916 6918 6921 6923 6926 6929 6931 6934 6937 6940 6943 6946 6949 6952 6955 6957 6960 6963 6966 6969 6972 6975 6977 6980 6983 6986 6989 6992 6995 6997 7000 7003 7006 7009 7011 7014 7017 7019 7022 7024 7027 7030 7032 7035 7038 7041 7044 7047 7050 7052 7055 7058 7061 7064 7066 7069 7072 7075 7078 7081 7084 7087 7090 7092 7094 7097 7100 7103 7106 7109 7112 7115 7118 7120 7123 7126 7129 7132 7135 7138 7140 7143 7146 7149 7152 7155 7158 7161 7163 7166 7169 7172 7174 7177 7180 7183 7186 7189 7192 7195 7198 7201 7204 7207 7210 7212 7215 7218 7221 7224 7226 7229 7232 7234 7237 7240 7243 7246 7248 7251 7254 7257 7259 7261 7264 7267 7270 7272 7275 7278 7281 7283 7286 7289 7292 7295 7298 7301 7304 7307 7310 7312 7315 7318 7321 7323 7326 7329 7332 7335 7338 7341 7344 7347 7350 7353 7356 7359 7361 7364 7366 7369 7372 7374 7377 7380 7382 7385 7388 7391 7394 7397 7400 7403 7405 7408 7411 7414 7417 7420 7422 7425 7427 7430 7433 7436 7438 7440 7443 7445 7447 7450 7452 7455 7458 7461 7464 7467 7470 7472 7475 7477 7480 7483 7486 7489 7492 7495 7498 7501 7504 7507 7510 7513 7516 7518 7521 7524 7526 7529 7531 7534 7537 7539 7542 7545 7548 7550 7552 7555 7558 7560 7563 7566 7569 7572 7575 7578 7581 7584 7587 7590 7593 7596 7599 7602 7605 7608 7611 7614 7617 7620 7623 7626 7629 7631 7633 7636 7638 7641 7643 7646 7649 7651 7653 7656 7659 7661 7664 7667 7669 7672 7675 7677 7680 7682 7685 7688 7691 7694 7696 7699 7702 7705 7708 7710 7713 7715 7717 7720 7722 7725 7728 7730 7732 7735 7738 7741 7743 7746 7749 7752 7755 7757 7759 7762 7765 7768 7771 7774 7776 7779 7782 7785 7788 7791 7794 7797 7800 7803 7806 7809 7811 7814 7816 7819 7821 7824 7827 7829 7832 7834 7837 7840 7843 7846 7849 7852 7855 7858 7860 7863 7866 7868 7871 7874 7877 7880 7882 7885 7888 7891 7894 7897 7900 7903 7906 7909 7912 7915 7918 7920 7923 7926 7929 7932 7935 7938 7941 7944 7947 7950 7953 7955 7958 7961 7964 7967 7970 7973 7975 7978 7980 7983 7986 7988 7991 7994 7997 8000 8003 8006 8009 8012 8015 8018 8021 8024 8027 8030 8033 8036 8039 8041 8043 8046 8049 8052 8054 8057 8060 8062 8065 8068 8071 8074 8077 8080 8083 8086 8089 8092 8095 8098 8101 8104 8107 8110 8113 8116 8119 8122 8125 8128 8131 8134 8137 8139 8141 8144 8147 8150 8153 8156 8159 8162 8165 8168 8171 8174 8176 8179 8182 8185 8188 8191 8194 8197 8200 8203 8206 8209 8212 8215 8218 8221 8224 8227 8230 8233 8236 8239 8242 8245 8248 8251 8254 8257 8260 8263 8266 8269 8272 8275 8277 8280 8283 8286 8289 8292 8294 8297 8300 8302 8305 8308 8310 8312 8315 8318 8321 8324 8327 8330 8333 8336 8339 8342 8345 8348 8351 8353 8356 8359 8361 8364 8367 8370 8373 8376 8379 8381 8384 8387 8389 8392 8395 8398 8401 8404 8407 8410 8413 8416 8419 8422 8425 8428 8430 8433 8436 8439 8442 8445 8448 8451 8453 8456 8459 8462 8465 8468 8471 8474 8477 8480 8483 8486 8489 8491 8494 8497 8499 8502 8505 8508 8511 8514 8517 8520 8523 8526 8529 8532 8535 8538 8541 8544 8547 8550 8553 8556 8559 8561 8564 8567 8569 8572 8574 8577 8580 8583 8585 8588 8591 8593 8596 8598 8601 8604 8607 8609 8612 8615 8618 8621 8623 8626 8629 8632 8635 8638 8641 8644 8646 8649 8652 8655 8657 8660 8663 8666 8669 8672 8675 8678 8681 8684 8687 8690 8693 8695 8698 8701 8704 8707 8710 8713 8716 8719 8721 8724 8727 8730 8733 8736 8739 8742 8745 8748 8751 8754 8756 8759 8762 8765 8768 8771 8774 8777 8780 8783 8786 8789 8792 8795 8798 8801 8804 8807 8810 8813 8815 8817 8820 8823 8826 8828 8831 8834 8837 8840 8843 8846 8849 8852 8855 8858 8861 8864 8866 8869 8872 8875 8878 8881 8884 8887 8890 8893 8895 8898 8901 8904 8907 8910 8913 8916 8919 8922 8925 8928 8931 8934 8937 8940 8943 8945 8948 8950 8953 8956 8959 8962 8965 8967 8970 8973 8976 8979 8981 8984 8987 8990 8992 8995 8998 9001 9003 9006 9009 9012 9015 9018 9021 9024 9027 9030 9032 9035 9038 9041 9043 9046 9049 9051 9054 9057 9060 9063 9066 9069 9071 9074 9077 9080 9083 9086 9089 9092 9095 9097 9100 9103 9106 9108 9111 9114 9117 9120 9123 9126 9129 9132 9135 9138 9141 9144 9147 9150 9153 9156 9159 9162 9165 9168 9171 9174 9177 9180 9183 9186 9189 9191 9194 9197 9200 9203 9206 9209 9212 9214 9217 9220 9223 9226 9229 9232 9235 9238 9241 9244 9247 9250 9253 9256 9259 9262 9265 9268 9271 9274 9277 9280 9283 9286 9289 9291 9294 9296 9299 9302 9305 9308 9311 9314 9316 9319 9322 9325 9327 9330 9333 9335 9338 9341 9344 9347 9350 9353 9356 9359 9362 9365 9368 9371 9373 9376 9379 9382 9385 9388 9390 9393 9396 9399 9402 9405 9408 9411 9414 9417 9420 9423 9426 9429 9431 9434 9437 9440 9442 9445 9448 9451 9454 9457 9460 9463 9466 9469 9472 9475 9478 9480 9482 9485 9488 9491 9494 9496 9499 9502 9505 9508 9511 9514 9517 9520 9523 9525 9527 9530 9533 9536 9539 9542 9544 9547 9550 9553 9556 9559 9561 9564 9567 9570 9573 9576 9578 9581 9583 9586 9589 9592 9595 9597 9600 9602 9605 9607 9609 9612 9615 9618 9621 9624 9627 9630 9632 9634 9637 9640 9643 9646 9649 9652 9654 9656 9658 9661 9663 9665 9668 9671 9674 9676 9679 9682 9685 9688 9691 9693 9695 9697 9700 9702 9705 9708 9711 9713 9716 9718 9720 9723 9726 9729 9732 9735 9738 9741 9743 9745 9748 9751 9753 9755 9757 9760 9763 9766 9769 9772 9775 9778 9781 9784 9787 9790 9793 9796 9799 9802 9805 9808 9811 9814 9817 9820 9823 9826 9829 9832 9835 9838 9841 9844 9847 9850 9853 9856 9859 9862 9865 9868 9871 9874 9877 9879 9882 9885 9888 9891 9894 9897 9900 9903 9906 9909 9911 9914 9917 9920 9923 9926 9929 9931 9934 9937 9939 9942 9945 9948 9951 9954 9957 9960 9963 9966 9969 9972 9975 9978 9980 9983 9985 9988 9991 9994 9997 9999 10002 10005 10008 10010 10013 10016 10018 10021 10024 10027 10029 10032 10035 10037 10040 10043 10046 10049 10052 10054 10057 10060 10063 10066 10069 10072 10075 10077 10080 10083 10086 10089 10092 10095 10098 10100 10103 10106 10108 10111 10114 10117 10120 10122 10125 10127 10130 10133 10136 10139 10142 10144 10147 10150 10153 10156 10158 10161 10164 10167 10170 10173 10176 10178 10180 10183 10186 10189 10192 10195 10197 10200 10203 10205 10208 10211 10214 10217 10220 10223 10226 10229 10232 10235 10237 10240 10243 10246 10249 10252 10255 10258 10261 10264 10267 10270 10273 10276 10279 10282 10285 10288 10291 10293 10296 10299 10302 10305 10308 10311 10313 10316 10319 10322 10325 10328 10331 10334 10336 10338 10341 10344 10347 10350 10352 10355 10358 10361 10364 10367 10370 10373 10375 10378 10381 10383 10386 10388 10390 10392 10395 10398 10401 10404 10407 10410 10412 10415 10418 10421 10424 10427 10429 10432 10435 10438 10441 10443 10446 10449 10452 10454 10457 10460 10463 10465 10468 10471 10474 10477 10480 10483 10486 10489 10492 10495 10498 10501 10504 10507 10510 10513 10516 10519 10522 10525 10528 10531 10534 10537 10540 10542 10545 10548 10551 10554 10557 10560 10563 10565 10568 10570 10573 10576 10579 10582 10585 10588 10590 10593 10596 10598 10601 10604 10607 10609 10612 10615 10617 10620 10623 10626 10629 10632 10634 10637 10640 10643 10645 10647 10650 10653 10656 10659 10662 10665 10668 10671 10674 10677 10680 10683 10685 10688 10691 10694 10697 10700 10703 10706 10709 10712 10714 10717 10720 10723 10726 10729 10731 10733 10736 10739 10742 10745 10748 10751 10754 10757 10760 10762 10765 10768 10771 10774 10777 10780 10783 10786 10788 10791 10794 10797 10800 10803 10806 10809 10812 10815 10818 10821 10824 10827 10830 10833 10836 10839 10842 10844 10847 10850 10853 10856 10858 10861 10863 10866 10868 10871 10874 10877 10880 10883 10886 10889 10892 10895 10898 10901 10904 10907 10910 10913 10916 10919 10921 10924 10927 10930 10933 10936 10938 10941 10944 10947 10949 10951 10954 10957 10960 10963 10966 10968 10971 10974 10977 10980 10982 10985 10988 10991 10994 10997 11000 11003 11006 11008 11011 11014 11017 11020 11023 11026 11029 11031 11034 11037 11040 11043 11046 11049 11052 11055 11058 11060 11063 11066 11069 11072 11075 11078 11081 11084 11087 11090 11093 11096 11099 11102 11105 11108 11111 11114 11116 11119 11122 11125 11128 11131 11134 11137 11140 11143 11146 11149 11152 11155 11157 11160 11163 11166 11169 11172 11175 11177 11180 11183 11185 11188 11191 11193 11196 11199 11202 11205 11208 11211 11214 11217 11220 11223 11226 11229 11232 11235 11238 11241 11244 11247 11250 11253 11256 11259 11262 11265 11268 11271 11273 11276 11278 11281 11283 11285 11288 11291 11294 11296 11299 11302 11305 11308 11311 11314 11317 11320 11323 11325 11327 11330 11332 11335 11338 11341 11344 11347 11350 11353 11356 11359 11362 11365 11368 11371 11374 11376 11379 11381 11383 11386 11388 11391 11394 11397 11400 11403 11406 11409 11412 11415 11417 11419 11422 11425 11428 11431 11434 11437 11440 11443 11446 11449 11452 11455 11458 11461 11464 11467 11470 11473 11476 11479 11482 11485 11487 11490 11493 11496 11499 11502 11504 11507 11510 11513 11516 11519 11521 11524 11527 11530 11532 11535 11538 11541 11544 11547 11550 11553 11556 11559 11561 11564 11567 11570 11573 11575 11578 11581 11584 11587 11590 11593 11595 11598 11601 11604 11607 11610 11613 11616 11618 11621 11624 11627 11630 11632 11635 11638 11641 11644 11647 11650 11653 11656 11659 11662 11664 11667 11670 11673 11676 11678 11681 11684 11687 11689 11692 11695 11698 11701 11704 11706 11709 11712 11715 11718 11721 11724 11727 11730 11733 11736 11739 11742 11745 11748 11750 11752 11755 11758 11760 11763 11766 11769 11772 11775 11778 11781 11783 11786 11789 11792 11795 11798 11801 11803 11806 11809 11812 11815 11818 11821 11824 11827 11830 11833 11836 11839 11842 11845 11848 11851 11854 11857 11860 11863 11866 11869 11872 11874 11877 11880 11883 11886 11889 11892 11895 11898 11900 11903 11906 11909 11912 11914 11917 11920 11923 11926 11929 11931 11934 11936 11939 11941 11944 11947 11950 11953 11956 11959 11962 11964 11967 11970 11973 11975 11978 11981 11984 11987 11990 11992 11995 11998 12001 12004 12007 12009 12012 12014 12017 12020 12022 12025 12027 12030 12033 12036 12039 12042 12044 12047 12050 12053 12055 12058 12061 12064 12067 12070 12073 12076 12079 12082 12085 12087 12090 12093 12096 12099 12102 12105 12108 12111 12114 12117 12120 12123 12126 12129 12132 12135 12138 12141 12144 12147 12150 12153 12155 12158 12161 12164 12167 12170 12173 12176 12179 12182 12185 12188 12191 12194 12197 12200 12203 12206 12209 12211 12214 12217 12220 12222 12225 12228 12231 12234 12237 12240 12242 12245 12248 12251 12253 12255 12258 12260 12263 12265 12267 12270 12272 12275 12278 12280 12283 12286 12288 12290 12293 12296 12299 12302 12305 12308 12311 12314 12316 12319 12321 12324 12327 12330 12333 12336 12339 12342 12345 12348 12351 12354 12357 12360 12363 12366 12369 12372 12375 12378 12381 12384 12387 12389 12392 12395 12398 12401 12404 12407 12410 12413 12415 12418 12421 12423 12426 12429 12431 12433 12436 12439 12441 12444 12447 12450 12453 12456 12459 12462 12465 12468 12471 12474 12477 12480 12483 12486 12489 12492 12495 12498 12501 12504 12507 12510 12513 12516 12519 12522 12525 12528 12531 12534 12537 12540 12543 12546 12549 12552 12555 12558 12560 12563 12565 12568 12571 12574 12577 12580 12583 12586 12589 12592 12595 12598 12601 12604 12607 12610 12613 12616 12619 12622 12625 12628 12631 12634 12637 12640 12643 12646 12649 12652 12655 12658 12661 12664 12667 12670 12673 12676 12679 12682 12685 12687 12690 12693 12695 12698 12701 12704 12707 12710 12712 12715 12717 12720 12723 12725 12728 12731 12734 12737 12740 12743 12745 12748 12751 12754 12757 12760 12763 12766 12769 12772 12775 12778 12780 12783 12786 12788 12790 12793 12795 12798 12801 12803 12806 12809 12812 12815 12817 12820 12823 12826 12829 12832 12835 12838 12841 12844 12846 12849 12851 12854 12857 12860 12863 12866 12869 12872 12874 12877 12879 12882 12885 12888 12891 12894 12897 12900 12903 12906 12908 12911 12913 12916 12919 12922 12925 12928 12931 12934 12937 12940 12943 12945 12948 12951 12954 12956 12959 12962 12964 12967 12970 12972 12975 12978 12981 12984 12986 12989 12992 12995 12997 13000 13003 13006 13009 13012 13015 13018 13021 13024 13027 13030 13033 13036 13039 13041 13044 13047 13050 13053 13056 13059 13061 13064 13066 13069 13071 13074 13077 13080 13082 13085 13088 13091 13094 13097 13100 13103 13106 13108 13111 13114 13117 13120 13123 13125 13128 13131 13133 13136 13139 13142 13145 13148 13151 13154 13157 13160 13162 13165 13168 13171 13173 13176 13179 13182 13185 13188 13191 13193 13196 13199 13202 13205 13208 13211 13214 13217 13220 13223 13226 13229 13232 13235 13238 13241 13244 13247 13250 13253 13256 13259 13262 13265 13268 13271 13274 13277 13280 13283 13286 13288 13291 13294 13297 13300 13303 13305 13308 13311 13313 13315 13318 13321 13324 13327 13329 13332 13335 13338 13341 13344 13346 13349 13352 13355 13358 13361 13364 13367 13370 13373 13376 13379 13382 13385 13388 13391 13394 13396 13399 13402 13405 13408 13411 13414 13417 13420 13422 13424 13427 13430 13433 13436 13439 13442 13444 13447 13450 13453 13456 13458 13461 13464 13467 13470 13473 13476 13479 13482 13485 13488 13491 13494 13497 13500 13503 13506 13509 13512 13515 13518 13521 13524 13527 13530 13532 13535 13538 13540 13543 13546 13549 13552 13555 13558 13561 13564 13567 13570 13573 13576 13579 13582 13585 13588 13591 13594 13597 13600 13603 13606 13609 13612 13615 13618 13621 13623 13626 13628 13631 13634 13637 13640 13643 13645 13648 13651 13654 13657 13660 13663 13666 13669 13672 13675 13678 13681 13684 13687 13690 13693 13696 13699 13702 13705 13707 13709 13712 13714 13717 13720 13723 13726 13729 13732 13735 13738 13741 13744 13747 13750 13753 13756 13759 13762 13764 13767 13770 13773 13775 13778 13781 13784 13787 13790 13793 13796 13799 13802 13805 13808 13811 13814 13816 13819 13822 13825 13828 13831 13834 13837 13840 13843 13846 13849 13852 13855 13858 13861 13864 13867 13870 13873 13876 13879 13882 13884 13887 13890 13893 13896 13899 13902 13905 13908 13911 13914 13917 13920 13923 13925 13928 13930 13933 13936 13938 13940 13943 13946 13949 13952 13955 13958 13961 13964 13967 13970 13973 13976 13979 13982 13985 13988 13991 13994 13997 14000 14002 14005 14008 14010 14013 14016 14019 14021 14024 14027 14030 14033 14036 14039 14041 14044 14047 14050 14052 14055 14058 14061 14064 14067 14070 14073 14076 14078 14081 14084 14086 14089 14092 14094 14097 14099 14102 14105 14108 14111 14113 14115 14118 14121 14123 14125 14128 14131 14133 14136 14139 14142 14145 14147 14150 14153 14155 14157 14160 14162 14165 14168 14171 14174 14177 14180 14183 14186 14189 14192 14195 14198 14201 14204 14207 14210 14213 14216 14219 14222 14224 14227 14230 14233 14236 14238 14241 14244 14247 14250 14252 14254 14257 14260 14263 14266 14269 14272 14275 14278 14281 14284 14287 14290 14292 14295 14298 14301 14303 14306 14309 14312 14315 14318 14321 14324 14326 14329 14332 14335 14337 14340 14343 14345 14347 14350 14353 14356 14358 14361 14364 14367 14369 14372 14375 14378 14381 14384 14387 14390 14393 14396 14399 14402 14405 14408 14411 14414 14417 14420 14423 14425 14428 14431 14434 14437 14440 14443 14446 14449 14452 14455 14458 14461 14464 14467 14470 14473 14476 14479 14481 14483 14486 14489 14492 14495 14498 14500 14502 14505 14507 14510 14513 14516 14519 14522 14525 14528 14531 14534 14536 14539 14542 14545 14547 14550 14553 14556 14559 14562 14565 14568 14571 14574 14577 14580 14583 14586 14589 14591 14594 14597 14600 14603 14606 14609 14612 14614 14617 14620 14622 14625 14628 14631 14634 14637 14640 14642 14645 14648 14651 14654 14656 14659 14662 14665 14668 14671 14674 14676 14679 14682 14685 14688 14691 14694 14697 14700 14702 14704 14707 14710 14713 14715 14717 14720 14723 14726 14729 14732 14734 14737 14740 14743 14746 14749 14752 14754 14757 14760 14763 14766 14768 14771 14774 14777 14780 14783 14785 14788 14791 14794 14797 14799 14802 14805 14808 14811 14814 14817 14820 14823 14826 14829 14832 14835 14838 14841 14844 14847 14850 14853 14856 14859 14862 14865 14868 14871 14874 14876 14879 14882 14885 14888 14890 14893 14895 14898 14900 14903 14906 14908 14911 14914 14916 14919 14922 14924 14927 14930 14933 14936 14939 14942 14944 14947 14950 14952 14955 14957 14959 14961 14964 14967 14969 14972 14974 14976 14979 14982 14985 14987 14990 14992 14995 14998 15001 15004 15007 15010 15012 15015 15018 15021 15023 15026 15029 15032 15035 15038 15041 15044 15046 15049 15052 15055 15057 15060 15062 15064 15067 15070 15073 15076 15079 15082 15085 15087 15090 15093 15096 15099 15102 15105 15108 15111 15113 15115 15118 15121 15124 15127 15129 15132 15135 15137 15140 15143 15146 15148 15151 15154 15157 15159 15161 15164 15167 15170 15173 15175 15178 15181 15184 15187 15190 15192 15194 15197 15200 15203 15206 15209 15212 15215 15218 15221 15224 15227 15230 15233 15236 15239 15242 15245 15248 15251 15254 15257 15260 15263 15266 15269 15272 15275 15278 15281 15284 15287 15289 15292 15295 15298 15300 15303 15306 15309 15312 15315 15318 15321 15324 15327 15330 15333 15336 15339 15342 15345 15347 15350 15352 15354 15357 15360 15362 15365 15368 15371 15374 15377 15380 15383 15386 15389 15392 15395 15398 15401 15404 15407 15410 15413 15416 15419 15422 15425 15428 15431 15433 15436 15439 15441 15443 15446 15449 15452 15455 15458 15461 15464 15466 15469 15472 15475 15477 15480 15483 15486 15489 15491 15493 15496 15499 15502 15505 15508 15511 15514 15516 15519 15522 15525 15528 15530 15533 15536 15539 15542 15544 15547 15550 15553 15556 15559 15562 15565 15568 15571 15574 15577 15580 15583 15586 15589 15592 15595 15598 15601 15603 15606 15609 15612 15615 15618 15621 15624 15627 15630 15633 15636 15639 15642 15645 15648 15651 15653 15656 15659 15662 15664 15667 15670 15673 15676 15679 15682 15685 15688 15691 15693 15696 15699 15702 15705 15708 15711 15714 15717 15720 15723 15726 15729 15732 15735 15738 15741 15744 15747 15750 15753 15756 15758 15761 15764 15767 15770 15773 15776 15779 15782 15785 15788 15791 15794 15797 15800 15803 15806 15809 15811 15814 15817 15820 15823 15826 15828 15831 15834 15837 15840 15843 15846 15849 15852 15855 15858 15861 15864 15867 15870 15873 15876 15879 15882 15885 15888 15891 15894 15897 15900 15903 15906 15909 15911 15914 15917 15919 15922 15925 15928 15930 15933 15936 15939 15942 15945 15948 15951 15954 15957 15960 15963 15966 15969 15972 15975 15977 15980 15982 15985 15988 15991 15994 15997 16000 16003 16006 16009 16011 16014 16017 16020 16023 16026 16029 16032 16035 16038 16040 16042 16045 16048 16051 16054 16057 16060 16063 16066 16069 16072 16075 16078 16081 16084 16087 16090 16093 16096 16099 16102 16105 16108 16111 16114 16117 16120 16123 16126 16129 16132 16135 16138 16141 16144 16147 16150 16153 16156 16159 16162 16165 16168 16171 16174 16177 16180 16183 16186 16189 16192 16195 16198 16201 16204 16207 16210 16213 16216 16219 16222 16225 16228 16231 16234 16237 16240 16243 16246 16249 16252 16255 16257 16260 16263 16266 16269 16272 16275 16277 16280 16283 16286 16289 16292 16295 16298 16301 16304 16306 16309 16311 16314 16317 16320 16323 16326 16329 16332 16335 16338 16341 16344 16347 16350 16353 16356 16359 16362 16365 16368 16371 16374 16377 16380 16383 16386 16389 16392 16395 16398 16401 16404 16407 16410 16413 16415 16418 16421 16424 16426 16428 16431 16434 16437 16440 16443 16446 16449 16452 16455 16458 16461 16464 16467 16470 16473 16476 16479 16482 16485 16488 16491 16494 16496 16498 16501 16504 16507 16510 16513 16516 16519 16522 16524 16527 16530 16533 16536 16539 16542 16544 16547 16550 16553 16556 16559 16561 16564 16567 16570 16573 16575 16578 16581 16584 16586 16589 16592 16595 16597 16600 16603 16605 16608 16611 16614 16617 16620 16623 16626 16629 16632 16635 16638 16641 16644 16646 16649 16652 16655 16658 16661 16664 16667 16670 16672 16675 16678 16681 16684 16687 16690 16693 16696 16699 16702 16705 16707 16710 16713 16716 16718 16721 16724 16727 16730 16732 16735 16738 16741 16744 16747 16750 16753 16756 16758 16761 16763 16766 16769 16771 16774 16777 16780 16783 16786 16788 16791 16794 16797 16800 16803 16806 16809 16812 16815 16818 16821 16824 16826 16829 16832 16835 16838 16841 16844 16847 16850 16853 16855 16858 16861 16864 16867 16870 16873 16875 16878 16881 16884 16887 16890 16893 16896 16898 16901 16904 16907 16910 16913 16915 16918 16921 16924 16927 16930 16933 16936 16939 16942 16945 16948 16951 16954 16957 16960 16963 16966 16969 16972 16975 16978 16981 16984 16987 16990 16993 16996 16999 17002 17005 17008 17011 17014 17017 17020 17023 17026 17029 17032 17035 17038 17041 17044 17047 17050 17053 17056 17058 17061 17063 17066 17069 17072 17075 17078 17081 17084 17087 17090 17093 17096 17099 17102 17105 17107 17110 17113 17116 17119 17122 17125 17128 17131 17134 17137 17140 17143 17146 17149 17152 17154 17157 17160 17162 17165 17167 17170 17173 17176 17179 17182 17184 17187 17190 17193 17196 17199 17202 17205 17208 17211 17214 17217 17220 17223 17226 17229 17232 17235 17238 17241 17244 17246 17249 17252 17255 17258 17261 17264 17267 17270 17273 17276 17279 17281 17284 17286 17289 17292 17294 17297 17299 17302 17305 17308 17311 17314 17317 17320 17322 17325 17327 17330 17333 17336 17339 17341 17344 17347 17350 17353 17355 17357 17360 17363 17365 17368 17371 17374 17377 17380 17383 17386 17389 17392 17395 17398 17401 17404 17407 17410 17413 17415 17418 17421 17424 17427 17430 17433 17436 17439 17442 17445 17448 17451 17454 17457 17459 17462 17464 17467 17470 17473 17476 17479 17482 17485 17487 17490 17492 17495 17498 17501 17504 17507 17510 17513 17516 17519 17521 17523 17526 17529 17532 17534 17537 17540 17543 17546 17548 17551 17553 17556 17559 17561 17564 17566 17568 17570 17573 17576 17578 17581 17584 17587 17589 17591 17593 17596 17599 17602 17605 17608 17611 17614 17617 17620 17623 17626 17628 17631 17634 17637 17640 17643 17646 17648 17651 17654 17657 17659 17662 17665 17668 17671 17674 17677 17680 17683 17685 17688 17691 17694 17696 17699 17702 17705 17708 17711 17714 17717 17720 17723 17726 17729 17732 17735 17738 17741 17744 17747 17750 17753 17756 17759 17762 17765 17768 17771 17774 17777 17780 17783 17786 17789 17792 17795 17798 17801 17804 17807 17810 17813 17816 17819 17822 17825 17828 17831 17834 17837 17840 17843 17846 17849 17852 17855 17858 17861 17864 17867 17870 17873 17876 17878 17881 17884 17887 17890 17893 17895 17898 17901 17904 17907 17909 17912 17915 17918 17920 17923 17926 17929 17932 17935 17938 17941 17944 17947 17950 17953 17956 17959 17962 17965 17968 17971 17974 17977 17980 17983 17986 17989 17992 17995 17998 18001 18004 18007 18010 18013 18016 18019 18022 18025 18028 18031 18034 18037 18040 18042 18045 18048 18050 18053 18056 18059 18062 18065 18068 18071 18073 18076 18079 18082 18085 18088 18091 18094 18097 18100 18103 18106 18108 18111 18114 18116 18119 18121 18124 18127 18130 18132 18135 18138 18141 18144 18147 18150 18153 18156 18158 18161 18164 18167 18170 18172 18175 18178 18181 18184 18186 18189 18191 18194 18197 18200 18203 18206 18209 18212 18215 18218 18221 18224 18227 18229 18232 18234 18237 18240 18243 18246 18249 18252 18255 18258 18261 18264 18267 18270 18273 18275 18278 18281 18284 18287 18290 18293 18296 18299 18302 18304 18307 18310 18313 18315 18318 18321 18324 18327 18330 18333 18336 18339 18342 18345 18348 18351 18354 18357 18360 18363 18366 18369 18372 18375 18378 18381 18384 18387 18390 18393 18396 18399 18402 18405 18408 18411 18414 18417 18420 18422 18425 18428 18430 18433 18436 18439 18442 18444 18447 18450 18453 18456 18459 18462 18465 18468 18471 18474 18477 18480 18483 18486 18489 18491 18494 18497 18500 18503 18506 18509 18512 18515 18518 18520 18523 18525 18528 18531 18534 18537 18540 18543 18546 18548 18551 18554 18557 18560 18563 18566 18569 18572 18575 18578 18581 18584 18587 18590 18592 18595 18598 18601 18604 18607 18610 18613 18616 18619 18622 18625 18627 18630 18633 18636 18639 18642 18645 18648 18651 18654 18657 18660 18663 18666 18669 18672 18675 18678 18681 18684 18687 18690 18693 18696 18698 18701 18703 18706 18709 18712 18715 18718 18721 18723 18726 18728 18731 18734 18737 18739 18742 18745 18748 18750 18753 18756 18759 18761 18764 18767 18769 18772 18775 18778 18781 18784 18787 18790 18792 18795 18798 18801 18804 18807 18810 18813 18815 18818 18821 18824 18827 18830 18833 18836 18839 18842 18845 18848 18851 18854 18856 18859 18862 18865 18868 18871 18874 18877 18880 18882 18885 18888 18891 18894 18897 18900 18903 18906 18909 18912 18915 18918 18921 18924 18927 18930 18933 18936 18939 18942 18944 18947 18950 18953 18956 18959 18962 18965 18968 18971 18974 18977 18980 18983 18986 18989 18992 18995 18998 19001 19004 19007 19010 19013 19016 19019 19022 19025 19028 19031 19034 19037 19040 19043 19046 19049 19052 19055 19058 19061 19064 19067 19070 19073 19076 19079 19082 19085 19088 19091 19094 19096 19099 19101 19104 19107 19110 19112 19115 19118 19120 19122 19125 19127 19130 19133 19136 19139 19142 19145 19148 19151 19154 19157 19160 19163 19166 19169 19172 19175 19178 19181 19184 19187 19190 19193 19196 19199 19202 19205 19208 19211 19214 19217 19220 19223 19226 19229 19232 19234 19237 19240 19243 19246 19248 19251 19254 19256 19259 19262 19265 19267 19270 19273 19276 19279 19281 19284 19286 19288 19291 19294 19297 19300 19302 19305 19308 19311 19313 19316 19319 19322 19324 19327 19330 19333 19336 19339 19342 19344 19347 19350 19353 19356 19359 19362 19365 19368 19371 19374 19377 19380 19383 19386 19389 19392 19395 19398 19401 19404 19406 19409 19412 19415 19418 19421 19424 19427 19430 19433 19436 19439 19442 19445 19448 19451 19454 19457 19460 19462 19465 19468 19470 19473 19476 19478 19481 19484 19487 19490 19493 19496 19499 19502 19505 19508 19511 19513 19516 19519 19522 19525 19527 19530 19533 19536 19539 19541 19544 19547 19550 19552 19555 19558 19561 19564 19567 19570 19573 19576 19579 19582 19585 19588 19591 19594 19597 19600 19603 19606 19609 19612 19615 19618 19621 19624 19627 19629 19632 19635 19638 19641 19644 19647 19650 19653 19655 19658 19661 19664 19666 19669 19672 19675 19678 19681 19684 19687 19690 19693 19696 19699 19702 19705 19708 19711 19714 19717 19720 19723 19726 19729 19732 19735 19738 19740 19743 19746 19749 19751 19754 19757 19760 19763 19766 19769 19772 19775 19777 19780 19783 19785 19788 19791 19794 19797 19799 19802 19805 19808 19811 19814 19817 19820 19822 19825 19827 19830 19833 19835 19838 19841 19843 19845 19848 19851 19854 19857 19860 19863 19866 19869 19872 19875 19878 19881 19884 19887 19890 19893 19896 19899 19902 19905 19908 19910 19913 19916 19919 19922 19924 19927 19930 19933 19936 19939 19942 19945 19948 19951 19954 19957 19960 19963 19965 19968 19971 19973 19976 19979 19982 19985 19988 19991 19994 19997 20000 20003 20006 20009 20012 20015 20018 20021 20024 20027 20030 20033 20036 20039 20042 20045 20048 20051 20054 20057 20060 20063 20066 20069 20072 20075 20078 20081 20084 20087 20090 20093 20096 20099 20102 20105 20108 20111 20114 20117 20120 20123 20126 20129 20132 20135 20138 20141 20144 20147 20150 20153 20156 20159 20162 20165 20168 20171 20174 20177 20180 20183 20186 20189 20192 20195 20198 20201 20204 20207 20210 20213 20216 20219 20222 20225 20228 20231 20234 20237 20240 20243 20246 20249 20252 20255 20258 20261 20264 20267 20270 20273 20276 20279 20282 20285 20288 20291 20294 20297 20300 20303 20306 20309 20312 20315 20318 20321 20324 20327 20330 20333 20336 20339 20342 20345 20348 20351 20354 20357 20359 20362 20365 20368 20371 20374 20377 20380 20382 20385 20388 20391 20394 20397 20400 20403 20406 20409 20411 20414 20416 20419 20422 20425 20427 20430 20433 20435 20438 20441 20444 20447 20450 20453 20456 20459 20462 20465 20468 20471 20474 20477 20480 20483 20486 20489 20492 20495 20498 20501 20504 20507 20510 20513 20516 20519 20522 20525 20528 20531 20534 20537 20540 20543 20546 20548 20551 20554 20556 20558 20561 20564 20566 20569 20572 20574 20577 20580 20583 20585 20588 20591 20594 20597 20600 20603 20606 20609 20612 20614 20617 20620 20623 20626 20629 20632 20634 20637 20640 20643 20646 20649 20652 20655 20658 20661 20664 20667 20670 20673 20676 20679 20682 20685 20688 20691 20694 20697 20700 20703 20706 20709 20712 20715 20718 20721 20724 20727 20729 20732 20735 20738 20741 20744 20747 20750 20753 20756 20759 20762 20765 20768 20771 20774 20777 20780 20783 20786 20789 20792 20795 20798 20801 20804 20807 20810 20813 20816 20819 20822 20825 20828 20831 20834 20837 20840 20843 20846 20849 20852 20855 20858 20861 20864 20867 20869 20872 20874 20877 20880 20883 20886 20888 20891 20894 20897 20900 20902 20905 20908 20911 20914 20916 20919 20922 20925 20928 20931 20934 20937 20940 20942 20945 20948 20950 20953 20955 20958 20961 20964 20967 20969 20972 20975 20977 20979 20982 20985 20988 20991 20994 20997 20999 21002 21005 21008 21011 21014 21017 21020 21023 21026 21029 21031 21033 21036 21039 21042 21045 21048 21050 21053 21056 21058 21061 21064 21067 21070 21072 21075 21078 21080 21083 21086 21089 21092 21095 21098 21101 21104 21107 21110 21113 21116 21119 21122 21125 21128 21131 21134 21137 21140 21143 21146 21149 21152 21155 21158 21161 21164 21167 21169 21172 21174 21177 21180 21183 21186 21189 21192 21195 21198 21201 21204 21207 21210 21213 21215 21218 21221 21224 21227 21229 21231 21234 21237 21240 21243 21246 21249 21252 21255 21258 21261 21264 21267 21270 21273 21276 21279 21282 21285 21288 21291 21294 21297 21300 21303 21306 21309 21312 21315 21318 21321 21324 21327 21330 21333 21336 21339 21342 21345 21348 21351 21354 21357 21359 21362 21365 21368 21370 21373 21376 21379 21382 21385 21388 21391 21394 21397 21400 21403 21406 21409 21412 21415 21418 21421 21424 21427 21430 21432 21435 21438 21440 21443 21446 21449 21452 21455 21458 21461 21464 21467 21469 21472 21475 21478 21481 21484 21486 21489 21492 21495 21498 21501 21503 21506 21508 21511 21514 21517 21520 21523 21526 21529 21532 21535 21538 21541 21544 21547 21549 21552 21555 21558 21560 21562 21565 21568 21571 21574 21577 21580 21583 21586 21588 21591 21594 21596 21599 21602 21604 21606 21609 21612 21615 21618 21621 21623 21626 21629 21632 21635 21638 21641 21644 21646 21649 21652 21654 21656 21659 21662 21665 21668 21671 21674 21676 21678 21681 21684 21687 21689 21692 21695 21698 21701 21704 21707 21710 21712 21715 21718 21721 21724 21727 21730 21733 21736 21739 21742 21745 21748 21751 21754 21757 21760 21763 21766 21769 21772 21775 21778 21781 21784 21787 21790 21792 21795 21798 21801 21804 21807 21810 21813 21815 21818 21821 21824 21827 21830 21833 21836 21839 21842 21845 21848 21850 21853 21856 21859 21862 21865 21868 21871 21874 21876 21879 21882 21885 21888 21891 21894 21897 21900 21903 21906 21909 21912 21915 21918 21921 21924 21926 21929 21932 21935 21937 21940 21943 21946 21949 21952 21954 21957 21960 21963 21966 21969 21972 21975 21978 21981 21984 21987 21990 21993 21996 21998 22001 22004 22007 22010 22012 22015 22018 22020 22023 22026 22029 22032 22035 22037 22040 22043 22046 22049 22052 22055 22058 22061 22064 22067 22070 22073 22076 22079 22081 22084 22086 22089 22092 22095 22097 22100 22102 22105 22107 22110 22113 22116 22119 22122 22125 22127 22129 22132 22135 22138 22141 22144 22147 22149 22152 22154 22157 22160 22163 22166 22169 22172 22175 22178 22181 22184 22187 22190 22193 22196 22199 22202 22205 22207 22210 22213 22216 22218 22220 22223 22226 22229 22232 22235 22237 22240 22243 22245 22247 22250 22253 22256 22259 22262 22265 22268 22271 22274 22277 22280 22283 22286 22289 22292 22295 22298 22301 22304 22307 22310 22313 22316 22319 22322 22325 22328 22331 22334 22337 22340 22343 22346 22349 22352 22355 22358 22361 22364 22367 22370 22373 22376 22379 22381 22384 22387 22389 22391 22393 22396 22399 22402 22405 22408 22411 22413 22416 22419 22422 22425 22428 22431 22434 22437 22440 22442 22445 22448 22451 22453 22456 22459 22462 22465 22468 22471 22474 22477 22480 22483 22486 22489 22492 22495 22498 22501 22504 22507 22510 22513 22515 22518 22521 22524 22527 22529 22532 22535 22538 22541 22544 22547 22550 22553 22556 22559 22562 22565 22568 22571 22574 22577 22580 22583 22586 22589 22592 22595 22598 22601 22604 22607 22610 22613 22616 22619 22622 22625 22628 22631 22633 22636 22638 22641 22644 22647 22650 22653 22656 22659 22662 22664 22667 22670 22673 22675 22678 22680 22683 22686 22689 22692 22695 22698 22701 22704 22706 22709 22712 22715 22718 22720 22723 22726 22729 22732 22734 22737 22740 22743 22746 22749 22752 22755 22757 22760 22763 22766 22769 22771 22774 22777 22780 22783 22786 22789 22792 22795 22798 22801 22804 22807 22810 22813 22816 22819 22822 22825 22828 22831 22834 22837 22840 22843 22846 22849 22852 22855 22858 22861 22864 22867 22870 22873 22876 22879 22882 22885 22888 22891 22894 22897 22900 22903 22906 22909 22911 22914 22917 22920 22923 22925 22927 22930 22933 22935 22937 22940 22943 22946 22949 22952 22955 22958 22961 22964 22967 22970 22973 22976 22979 22982 22985 22988 22991 22994 22996 22999 23002 23005 23007 23009 23012 23015 23018 23021 23024 23027 23030 23033 23036 23039 23042 23045 23048 23051 23054 23057 23060 23063 23066 23069 23072 23075 23078 23081 23084 23087 23090 23092 23095 23098 23101 23104 23107 23110 23113 23115 23118 23121 23124 23127 23130 23133 23136 23139 23142 23145 23148 23151 23154 23157 23160 23162 23165 23168 23171 23174 23177 23180 23183 23186 23188 23191 23193 23195 23198 23201 23204 23207 23210 23213 23216 23219 23222 23225 23228 23231 23233 23236 23239 23242 23245 23248 23251 23254 23257 23260 23263 23266 23269 23272 23275 23278 23281 23284 23287 23289 23292 23295 23298 23300 23303 23306 23309 23312 23315 23318 23321 23324 23326 23329 23332 23335 23338 23341 23344 23347 23350 23353 23356 23359 23362 23365 23368 23371 23373 23376 23379 23382 23384 23387 23390 23393 23396 23399 23402 23405 23408 23411 23414 23417 23420 23423 23426 23429 23432 23435 23438 23441 23444 23447 23450 23453 23456 23459 23462 23465 23468 23471 23474 23477 23480 23483 23485 23488 23490 23493 23496 23499 23502 23505 23508 23511 23514 23516 23519 23522 23525 23528 23531 23534 23537 23540 23543 23545 23548 23551 23553 23556 23559 23562 23565 23568 23570 23573 23576 23579 23582 23584 23587 23590 23593 23596 23598 23601 23604 23607 23609 23612 23614 23617 23620 23622 23625 23628 23631 23634 23637 23640 23643 23646 23649 23652 23655 23658 23661 23664 23666 23669 23672 23674 23677 23679 23682 23685 23688 23690 23693 23696 23698 23701 23704 23707 23710 23712 23715 23717 23720 23723 23726 23729 23732 23735 23737 23740 23742 23745 23748 23751 23754 23757 23759 23762 23765 23768 23771 23773 23776 23779 23782 23785 23788 23791 23793 23796 23799 23802 23805 23808 23811 23814 23817 23820 23823 23826 23829 23832 23835 23838 23841 23844 23847 23850 23853 23856 23859 23862 23865 23868 23871 23874 23877 23880 23883 23886 23889 23892 23894 23896 23899 23902 23905 23908 23911 23914 23917 23920 23923 23926 23928 23931 23934 23936 23938 23941 23943 23946 23949 23952 23955 23958 23961 23964 23966 23969 23972 23975 23978 23981 23984 23987 23990 23993 23996 23999 24002 24004 24007 24010 24013 24016 24018 24021 24024 24027 24030 24033 24036 24039 24042 24045 24048 24051 24054 24056 24059 24062 24065 24068 24071 24074 24077 24080 24083 24086 24089 24092 24095 24098 24101 24104 24107 24109 24112 24115 24118 24121 24124 24126 24129 24132 24135 24137 24140 24143 24146 24149 24152 24155 24157 24160 24162 24165 24168 24171 24173 24176 24179 24182 24185 24188 24191 24194 24197 24200 24202 24205 24208 24210 24213 24216 24219 24222 24225 24228 24231 24233 24236 24239 24242 24245 24248 24251 24254 24257 24260 24263 24266 24269 24272 24274 24277 24280 24282 24285 24288 24291 24294 24297 24300 24302 24305 24308 24311 24314 24317 24320 24322 24325 24328 24331 24334 24337 24340 24343 24345 24348 24351 24354 24357 24360 24363 24366 24369 24372 24375 24378 24381 24384 24387 24390 24393 24396 24399 24402 24405 24408 24411 24413 24416 24419 24422 24425 24428 24431 24434 24437 24440 24443 24445 24448 24451 24454 24457 24459 24461 24464 24467 24470 24473 24475 24478 24481 24484 24487 24490 24493 24496 24499 24502 24504 24507 24510 24513 24516 24519 24522 24525 24528 24531 24534 24537 24539 24542 24545 24548 24550 24553 24556 24559 24561 24564 24567 24570 24573 24576 24579 24582 24585 24588 24591 24594 24597 24599 24602 24605 24608 24611 24614 24616 24619 24622 24624 24627 24630 24633 24636 24639 24642 24645 24648 24651 24654 24657 24660 24663 24666 24668 24671 24674 24677 24680 24683 24686 24689 24691 24694 24697 24700 24702 24705 24708 24711 24714 24717 24719 24722 24725 24728 24731 24734 24737 24740 24743 24746 24748 24751 24754 24757 24760 24763 24766 24769 24772 24774 24777 24780 24783 24786 24789 24791 24794 24797 24800 24803 24806 24809 24812 24814 24817 24820 24823 24826 24829 24832 24835 24838 24841 24844 24847 24850 24853 24856 24859 24862 24865 24868 24871 24874 24877 24880 24883 24886 24889 24892 24895 24898 24901 24904 24907 24910 24913 24916 24919 24922 24925 24928 24931 24934 24937 24940 24943 24946 24949 24952 24955 24958 24960 24963 24966 24969 24972 24975 24978 24981 24983 24986 24989 24992 24995 24998 25001 25004 25007 25010 25013 25016 25019 25022 25025 25028 25031 25034 25037 25040 25043 25046 25049 25051 25053 25056 25059 25061 25063 25066 25069 25072 25075 25078 25081 25084 25086 25089 25092 25095 25098 25101 25104 25107 25110 25113 25116 25119 25122 25125 25128 25130 25133 25136 25139 25142 25145 25148 25151 25154 25156 25159 25162 25164 25167 25170 25173 25175 25178 25181 25184 25187 25190 25193 25196 25199 25202 25205 25208 25211 25214 25217 25220 25223 25226 25229 25232 25235 25238 25241 25244 25247 25250 25253 25256 25259 25261 25264 25267 25270 25273 25276 25279 25282 25285 25287 25290 25293 25296 25299 25302 25305 25307 25309 25312 25315 25318 25321 25323 25326 25329 25331 25334 25337 25339 25342 25345 25348 25351 25354 25357 25359 25362 25365 25368 25371 25374 25377 25380 25383 25385 25388 25391 25394 25397 25400 25403 25406 25409 25412 25415 25418 25420 25423 25426 25428 25431 25434 25437 25440 25443 25446 25449 25451 25454 25457 25460 25462 25465 25467 25470 25472 25475 25478 25481 25484 25487 25490 25493 25496 25499 25502 25505 25508 25511 25514 25517 25520 25523 25525 25528 25530 25533 25536 25539 25542 25545 25548 25551 25554 25557 25560 25562 25565 25568 25571 25574 25577 25580 25583 25585 25588 25591 25594 25596 25599 25601 25603 25606 25609 25611 25614 25617 25620 25623 25625 25628 25631 25634 25636 25639 25642 25645 25647 25650 25652 25654 25657 25660 25663 25666 25669 25672 25674 25677 25680 25683 25686 25689 25692 25695 25698 25700 25702 25704 25707 25709 25712 25715 25717 25719 25722 25725 25727 25730 25733 25736 25739 25742 25745 25748 25751 25754 25757 25760 25762 25765 25768 25771 25774 25777 25780 25783 25786 25789 25792 25795 25798 25801 25803 25805 25808 25811 25814 25817 25819 25822 25825 25828 25830 25833 25836 25839 25842 25845 25847 25849 25852 25855 25858 25860 25863 25866 25869 25872 25875 25878 25881 25884 25887 25890 25893 25896 25899 25902 25905 25907 25910 25913 25916 25918 25921 25924 25927 25929 25932 25935 25938 25941 25944 25947 25949 25952 25955 25958 25961 25964 25966 25969 25972 25975 25978 25981 25984 25987 25990 25992 25995 25998 26001 26004 26007 26010 26013 26016 26019 26021 26024 26027 26030 26033 26035 26038 26040 26043 26046 26048 26051 26053 26056 26059 26062 26065 26068 26071 26073 26076 26078 26080 26083 26086 26089 26092 26095 26098 26101 26104 26106 26109 26111 26114 26116 26119 26121 26124 26127 26130 26133 26136 26139 26142 26145 26148 26151 26154 26156 26159 26162 26165 26167 26170 26173 26176 26179 26182 26185 26188 26191 26193 26196 26199 26202 26205 26208 26211 26214 26217 26220 26222 26225 26228 26231 26234 26236 26239 26242 26244 26247 26250 26253 26256 26259 26262 26265 26268 26271 26273 26276 26279 26282 26284 26287 26290 26293 26296 26299 26302 26305 26308 26311 26314 26317 26320 26323 26326 26329 26332 26335 26338 26341 26343 26346 26349 26352 26355 26358 26361 26364 26367 26370 26373 26375 26378 26381 26384 26387 26390 26393 26396 26399 26402 26405 26408 26411 26414 26417 26420 26423 26426 26429 26432 26435 26438 26441 26444 26447 26450 26453 26456 26459 26462 26465 26468 26471 26474 26477 26480 26483 26486 26489 26492 26495 26498 26501 26504 26507 26510 26512 26514 26517 26520 26523 26526 26529 26532 26535 26538 26541 26544 26547 26550 26553 26555 26557 26560 26563 26566 26568 26571 26574 26576 26579 26582 26585 26587 26590 26593 26596 26598 26601 26604 26607 26610 26613 26616 26619 26622 26624 26627 26630 26632 26635 26637 26639 26642 26645 26648 26651 26654 26657 26659 26662 26664 26666 26668 26671 26674 26676 26679 26682 26684 26686 26689 26692 26695 26698 26701 26704 26707 26710 26713 26716 26719 26722 26725 26728 26731 26734 26737 26740 26743 26746 26749 26751 26754 26757 26760 26763 26766 26769 26772 26775 26778 26780 26783 26786 26789 26792 26795 26798 26801 26803 26805 26808 26811 26814 26817 26820 26823 26826 26829 26832 26835 26838 26841 26844 26847 26850 26853 26856 26859 26862 26865 26868 26871 26874 26876 26879 26881 26884 26887 26890 26893 26896 26899 26902 26904 26907 26910 26913 26915 26917 26920 26923 26925 26928 26931 26934 26937 26939 26942 26945 26948 26950 26953 26956 26959 26961 26964 26967 26970 26973 26976 26979 26982 26985 26988 26990 26992 26995 26998 27001 27004 27007 27009 27012 27015 27017 27019 27021 27024 27027 27030 27033 27036 27038 27041 27044 27047 27050 27053 27056 27059 27062 27065 27067 27070 27072 27075 27078 27081 27084 27087 27090 27093 27096 27099 27102 27105 27108 27111 27114 27117 27120 27123 27126 27129 27132 27135 27138 27141 27144 27146 27149 27152 27155 27158 27160 27162 27165 27168 27171 27173 27176 27179 27182 27185 27188 27191 27194 27197 27200 27203 27206 27209 27212 27215 27218 27221 27223 27226 27229 27232 27234 27237 27240 27242 27245 27248 27251 27254 27257 27260 27263 27266 27269 27272 27275 27278 27281 27283 27286 27289 27291 27294 27297 27300 27302 27305 27307 27310 27312 27315 27317 27319 27321 27324 27327 27330 27333 27336 27339 27342 27345 27347 27350 27353 27356 27359 27362 27365 27368 27371 27373 27376 27379 27381 27384 27387 27390 27393 27396 27399 27402 27405 27408 27411 27414 27417 27420 27423 27426 27429 27432 27435 27438 27441 27444 27446 27449 27452 27455 27458 27461 27464 27467 27470 27473 27476 27478 27481 27483 27486 27489 27491 27494 27496 27499 27501 27504 27507 27509 27512 27514 27517 27520 27522 27525 27528 27531 27533 27536 27539 27542 27545 27548 27551 27554 27557 27560 27563 27566 27569 27572 27575 27578 27581 27584 27587 27590 27593 27596 27599 27602 27605 27608 27611 27614 27617 27620 27623 27626 27629 27632 27635 27638 27641 27644 27647 27650 27653 27656 27659 27662 27665 27668 27671 27674 27677 27680 27683 27686 27689 27692 27695 27698 27701 27704 27707 27710 27713 27716 27718 27721 27724 27726 27729 27732 27735 27738 27741 27744 27746 27748 27751 27754 27757 27760 27763 27766 27769 27772 27775 27778 27781 27784 27787 27790 27793 27796 27799 27802 27804 27807 27810 27813 27815 27818 27821 27824 27827 27830 27833 27836 27839 27842 27845 27848 27851 27854 27857 27860 27863 27865 27868 27871 27874 27877 27880 27883 27886 27888 27891 27894 27897 27900 27903 27906 27909 27912 27914 27917 27919 27922 27925 27928 27931 27934 27937 27940 27943 27946 27949 27952 27955 27958 27961 27964 27967 27969 27972 27975 27978 27981 27984 27987 27990 27992 27995 27998 28001 28004 28006 28009 28012 28015 28018 28021 28024 28027 28029 28032 28035 28037 28039 28042 28045 28047 28050 28053 28056 28059 28062 28065 28067 28070 28073 28076 28079 28082 28085 28088 28091 28094 28096 28099 28102 28104 28107 28110 28112 28115 28118 28120 28123 28126 28129 28132 28135 28137 28140 28143 28146 28149 28152 28155 28158 28161 28163 28166 28169 28172 28175 28178 28181 28184 28186 28189 28192 28195 28198 28201 28204 28207 28210 28213 28216 28219 28222 28224 28227 28230 28233 28236 28239 28242 28245 28247 28249 28252 28254 28257 28259 28262 28265 28268 28271 28274 28277 28280 28283 28286 28289 28292 28295 28298 28301 28304 28306 28309 28311 28314 28317 28320 28323 28326 28329 28332 28335 28337 28340 28342 28345 28347 28350 28352 28355 28357 28360 28363 28365 28368 28371 28374 28377 28380 28382 28385 28388 28391 28394 28397 28400 28403 28406 28408 28411 28414 28417 28420 28423 28425 28428 28431 28433 28436 28438 28440 28443 28446 28449 28452 28455 28458 28461 28464 28466 28469 28472 28475 28478 28481 28484 28487 28490 28493 28496 28499 28502 28505 28507 28510 28513 28516 28519 28522 28525 28528 28530 28533 28536 28539 28541 28544 28547 28550 28553 28556 28559 28562 28565 28568 28571 28574 28577 28580 28583 28586 28589 28592 28594 28597 28600 28603 28606 28609 28612 28615 28617 28620 28623 28625 28628 28631 28634 28637 28640 28643 28646 28649 28652 28655 28658 28661 28664 28667 28670 28672 28675 28678 28681 28684 28686 28689 28692 28695 28698 28701 28704 28707 28710 28713 28716 28719 28722 28725 28728 28731 28734 28737 28740 28743 28746 28749 28752 28755 28758 28761 28763 28766 28769 28772 28775 28778 28781 28783 28786 28789 28792 28795 28798 28801 28804 28807 28810 28812 28814 28817 28820 28823 28825 28828 28830 28833 28836 28839 28842 28845 28848 28851 28854 28857 28860 28863 28866 28869 28872 28875 28877 28880 28883 28886 28889 28892 28895 28898 28901 28904 28907 28910 28913 28915 28917 28920 28923 28926 28929 28932 28935 28938 28941 28943 28946 28949 28951 28954 28957 28959 28961 28964 28967 28970 28973 28976 28979 28982 28984 28987 28990 28993 28996 28999 29002 29005 29008 29011 29013 29016 29019 29022 29024 29027 29030 29033 29036 29039 29041 29044 29047 29050 29053 29056 29059 29062 29065 29068 29071 29074 29077 29079 29082 29085 29088 29090 29093 29096 29099 29101 29104 29107 29110 29113 29116 29119 29122 29125 29128 29131 29134 29137 29140 29143 29146 29149 29152 29155 29158 29161 29164 29167 29170 29173 29176 29179 29182 29185 29188 29191 29194 29197 29199 29202 29205 29208 29211 29214 29217 29220 29223 29226 29229 29232 29235 29238 29241 29244 29247 29250 29253 29256 29259 29262 29265 29268 29271 29273 29276 29278 29281 29284 29286 29289 29292 29295 29298 29301 29304 29307 29310 29313 29315 29318 29321 29324 29327 29330 29333 29336 29339 29342 29345 29348 29351 29354 29357 29359 29362 29365 29368 29371 29373 29376 29379 29382 29384 29387 29390 29393 29396 29399 29402 29405 29408 29411 29414 29417 29420 29423 29426 29429 29432 29435 29438 29441 29444 29447 29450 29453 29456 29459 29462 29465 29468 29471 29474 29477 29480 29483 29486 29489 29492 29495 29498 29501 29504 29507 29510 29513 29516 29519 29522 29525 29528 29531 29534 29537 29540 29543 29546 29549 29552 29555 29558 29561 29564 29567 29570 29573 29576 29579 29582 29585 29588 29591 29594 29597 29600 29603 29606 29609 29612 29615 29618 29621 29624 29627 29630 29633 29636 29639 29642 29645 29648 29651 29654 29657 29660 29663 29666 29669 29672 29675 29678 29681 29684 29687 29690 29693 29696 29699 29702 29705 29708 29711 29714 29717 29720 29723 29726 29729 29732 29735 29738 29741 29744 29747 29750 29753 29756 29759 29762 29765 29768 29771 29774 29777 29780 29783 29786 29789 29792 29795 29798 29801 29804 29807 29810 29813 29816 29819 29822 29825 29828 29831 29834 29837 29840 29843 29846 29849 29852 29855 29858 29861 29864 29867 29870 29873 29876 29879 29882 29885 29888 29891 29894 29897 29900 29903 29906 29909 29912 29915 29918 29921 29924 29927 29930 29933 29936 29939 29942 29945 29948 29951 29953 29956 29959 29962 29965 29968 29971 29974 29977 29980 29983 29986 29989 29992 29995 29998 30001 30003 30006 30009 30012 30015 30018 30021 30024 30027 30029 30032 30035 30038 30041 30043 30046 30049 30052 30055 30058 30061 30064 30067 30070 30073 30076 30079 30082 30085 30088 30091 30094 30097 30100 30103 30106 30109 30111 30114 30117 30120 30123 30126 30129 30132 30135 30138 30141 30144 30147 30150 30152 30154 30157 30160 30163 30166 30169 30171 30174 30176 30179 30182 30185 30188 30191 30194 30197 30200 30203 30206 30209 30211 30214 30217 30220 30223 30226 30229 30232 30234 30237 30240 30243 30246 30249 30252 30255 30258 30261 30264 30267 30270 30273 30276 30279 30281 30283 30286 30289 30292 30295 30298 30301 30304 30307 30310 30313 30316 30319 30321 30324 30327 30330 30333 30336 30339 30342 30345 30348 30351 30354 30357 30360 30363 30366 30369 30371 30374 30377 30380 30383 30386 30389 30392 30394 30397 30400 30403 30406 30409 30412 30415 30418 30421 30424 30426 30428 30431 30434 30437 30440 30443 30446 30449 30452 30455 30458 30461 30464 30467 30470 30473 30476 30479 30482 30485 30488 30491 30494 30497 30500 30503 30506 30509 30512 30515 30518 30520 30523 30526 30529 30532 30535 30537 30540 30543 30546 30549 30552 30555 30558 30561 30564 30567 30569 30572 30575 30578 30581 30583 30586 30589 30592 30595 30598 30601 30604 30607 30610 30613 30615 30618 30620 30623 30626 30629 30632 30635 30638 30641 30644 30647 30650 30653 30656 30659 30662 30665 30668 30671 30674 30677 30680 30683 30686 30689 30692 30695 30698 30701 30704 30707 30710 30713 30715 30718 30721 30724 30727 30730 30732 30735 30738 30741 30744 30747 30750 30753 30756 30759 30762 30765 30768 30771 30774 30777 30780 30783 30786 30788 30791 30794 30796 30799 30802 30805 30807 30810 30813 30816 30819 30822 30824 30827 30830 30833 30836 30839 30842 30845 30848 30851 30854 30856 30859 30862 30865 30868 30871 30874 30876 30879 30882 30885 30888 30891 30893 30895 30898 30901 30903 30906 30909 30911 30914 30917 30920 30923 30926 30929 30932 30935 30938 30941 30943 30946 30949 30951 30954 30957 30959 30962 30965 30967 30970 30973 30975 30978 30981 30983 30986 30989 30992 30995 30998 31001 31003 31006 31009 31012 31015 31018 31021 31024 31027 31030 31033 31036 31038 31041 31044 31047 31050 31053 31056 31059 31061 31064 31067 31070 31073 31075 31078 31081 31084 31086 31089 31092 31095 31098 31101 31104 31107 31110 31113 31116 31119 31121 31124 31127 31130 31133 31136 31139 31142 31145 31148 31151 31154 31157 31160 31163 31166 31169 31172 31175 31178 31181 31184 31187 31190 31193 31195 31198 31201 31204 31207 31210 31212 31215 31218 31221 31224 31227 31230 31233 31236 31239 31242 31245 31248 31251 31254 31256 31259 31262 31264 31267 31269 31272 31275 31278 31281 31283 31286 31288 31290 31293 31295 31298 31301 31304 31307 31310 31313 31316 31318 31321 31323 31326 31329 31332 31335 31338 31341 31343 31346 31349 31352 31355 31358 31361 31363 31366 31369 31372 31375 31377 31380 31383 31386 31389 31392 31394 31397 31400 31402 31405 31408 31411 31414 31416 31419 31422 31425 31428 31430 31433 31436 31439 31442 31445 31448 31450 31453 31456 31459 31462 31465 31468 31471 31474 31477 31479 31482 31485 31488 31491 31494 31497 31499 31502 31505 31508 31511 31513 31516 31519 31522 31525 31528 31531 31534 31537 31540 31543 31546 31549 31552 31555 31558 31561 31563 31566 31569 31572 31574 31577 31580 31582 31585 31588 31591 31594 31597 31600 31603 31606 31609 31612 31615 31618 31621 31624 31627 31630 31632 31635 31637 31640 31643 31646 31649 31652 31655 31658 31661 31664 31667 31670 31673 31676 31679 31682 31685 31688 31691 31694 31697 31700 31703 31706 31709 31712 31715 31717 31720 31723 31725 31728 31731 31734 31737 31740 31743 31746 31749 31752 31755 31757 31760 31763 31766 31769 31771 31774 31777 31780 31783 31785 31788 31791 31794 31797 31800 31803 31806 31809 31812 31814 31817 31820 31823 31826 31829 31832 31835 31838 31841 31844 31847 31850 31853 31856 31859 31862 31865 31868 31871 31874 31877 31880 31883 31886 31889 31892 31895 31898 
</DataArray>
<DataArray type="UInt32" Name="types" format="ascii">
5 5 5 5 5 3 5 5 5 5 5 5 5 3 5 5 5 5 3 5 5 3 5 5 5 5 3 5 5 5 5 3 5 5 5 5 5 5 5 5 5 5 5 5 5 3 5 5 3 5 5 5 5 5 3 5 5 5 5 5 5 5 3 5 5 5 5 3 5 5 5 5 5 5 5 5 5 3 5 5 3 5 5 3 5 5 5 5 3 5 5 5 5 5 5 5 3 3 3 5 5 3 5 5 5 5 5 3 5 5 5 5 5 5 5 5 5 5 5 5 5 3 5 5 5 3 5 5 5 5 5 5 3 5 5 5 5 5 5 5 5 5 5 5 5 5 5 5 5 5 5 5 5 5 5 5 5 5 3 5 5 5 3 5 5 3 5 5 5 5 5 5 5 5 5 5 5 3 5 5 5 5 5 5 5 5 3 5 5 5 5 5 5 5 5 3 5 5 5 5 5 5 5 5 5 3 5 5 5 5 5 5 5 5 5 5 5 5 5 5 5 5 5 5 5 5 5 5 5 3 5 5 5 3 5 3 5 3 5 5 3 5 5 5 3 5 3 5 3 5 3 3 5 3 5 5 3 5 3 5 5 5 3 5 3 3 5 5 3 5 5 5 3 5 3 3 3 5 3 5 5 5 3 5 3 3 3 5 5 3 3 5 5 5 5 3 5 3 5 5 3 5 5 5 3 5 3 3 3 5 5 5 3 5 3 3 3 3 5 5 5 3 3 5 5 3 3 3 5 3 5 5 5 5 3 5 5 5 5 5 5 5 3 5 5 5 5 5 5 3 3 5 5 5 3 5 5 5 3 5 3 5 3 3 5 5 5 5 3 5 5 3 5 5 5 5 3 5 3 5 5 5 5 5 3 3 5 5 5 5 5 5 5 5 3 5 5 5 3 5 5 3 5 3 5 5 5 5 5 5 5 5 5 5 5 3 5 3 5 3 5 5 5 3 5 3 5 3 5 5 5 5 5 5 3 5 3 5 5 5 3 5 5 5 3 5 3 3 5 5 5 5 3 5 5 5 5 3 3 5 5 3 5 3 5 3 3 5 5 5 3 5 5 5 5 3 5 5 5 5 5 5 5 5 5 5 5 3 5 5 5 5 3 5 5 5 3 5 3 3 3 5 5 5 3 3 5 3 5 5 3 5 5 5 5 3 5 5 5 5 5 5 5 5 5 5 5 3 3 5 5 3 5 5 5 3 5 5 5 5 5 5 3 5 5 5 3 5 5 5 3 5 5 5 5 5 5 5 5 5 5 5 3 5 5 5 3 5 5 5 5 5 5 5 3 5 5 5 5 5 3 5 5 5 5 5 5 5 5 5 5 5 5 5 5 5 5 5 5 5 3 5 5 5 5 3 5 5 3 5 5 5 5 5 5 5 3 5 5 5 5 5 5 5 5 3 5 3 5 5 3 5 5 5 3 5 5 3 5 5 5 3 5 3 5 5 3 5 3 5 5 5 5 5 5 5 5 5 5 5 5 5 5 5 5 5 5 5 5 5 5 3 5 3 5 3 5 5 5 5 5 5 5 5 5 5 5 5 5 5 5 3 5 5 5 5 5 5 5 5 5 3 5 5 5 5 5 5 5 5 5 5 5 5 5 5 5 5 5 5 5 5 5 5 5 5 5 5 5 5 5 3 5 5 3 5 5 5 3 3 5 3 5 5 5 5 5 3 5 5 5 5 5 3 5 5 5 5 5 5 5 5 5 5 5 5 5 5 5 5 5 5 5 5 5 5 5 5 5 5 5 5 5 5 5 5 5 5 5 5 5 5 5 5 5 5 5 5 5 5 5 5 5 3 5 5 5 5 5 5 5 5 5 5 5 5 5 5 5 3 5 5 5 5 3 5 5 5 5 5 5 5 5 5 5 5 5 5 5 5 5 5 5 5 5 5 5 5 5 5 5 5 3 5 5 3 5 3 3 3 3 5 5 3 5 5 5 5 5 5 5 5 5 5 5 5 5 5 5 5 5 3 5 5 3 5 3 5 5 5 5 3 5 3 5 5 5 5 3 5 5 5 3 5 5 5 5 5 3 5 3 5 5 3 3 5 3 5 5 5 5 5 5 5 5 5 5 5 3 5 5 5 3 5 5 5 3 5 5 3 3 3 5 5 5 5 5 5 5 5 5 5 5 3 5 5 5 5 5 5 5 5 3 3 3 5 5 5 5 5 5 5 5 3 3 5 5 5 3 5 5 3 5 5 5 5 5 5 5 5 5 5 5 3 5 5 5 5 5 5 5 5 3 5 5 5 5 5 5 5 5 5 5 3 5 3 3 3 5 5 5 5 5 5 5 3 3 5 3 5 5 5 5 5 3 5 3 3 5 5 5 3 5 3 5 5 5 5 3 5 5 5 5 5 5 5 5 5 5 5 5 5 5 5 5 5 3 5 5 5 3 5 5 5 5 5 3 5 5 5 5 5 5 3 5 3 5 5 5 5 5 5 5 5 3 5 5 5 3 5 5 5 5 5 5 5 5 5 5 5 5 5 5 5 5 5 5 5 5 5 5 5 5 5 3 3 3 5 5 5 5 3 5 5 5 5 3 5 5 5 5 5 5 5 3 5 5 5 5 5 5 5 5 3 5 5 5 5 5 5 5 5 5 5 5 5 3 5 5 5 5 5 5 3 5 5 5 5 5 5 5 5 3 5 5 5 3 5 5 5 5 5 5 5 5 5 5 5 5 3 5 5 5 5 5 5 5 5 5 5 5 5 5 5 5 5 5 5 5 5 5 5 5 5 5 5 5 5 5 5 5 5 5 5 5 5 5 5 5 5 5 5 5 5 5 5 5 3 5 5 5 5 5 5 5 5 5 5 5 5 5 5 5 5 5 5 5 5 5 5 5 5 3 5 5 5 5 5 5 5 5 5 5 3 5 5 3 5 5 5 5 5 5 5 5 5 3 5 3 5 5 5 5 3 5 5 3 5 3 5 5 5 5 5 3 5 5 5 5 5 5 5 5 3 5 5 5 5 5 5 5 5 5 5 5 5 5 5 3 5 3 3 5 5 5 5 5 3 5 5 5 5 5 5 5 5 5 5 5 5 5 5 5 3 5 5 5 5 5 5 5 5 5 5 5 5 5 5 5 5 3 5 5 5 5 5 3 3 5 5 3 5 5 5 5 5 5 5 5 5 5 3 5 5 5 5 5 5 5 5 5 3 5 3 5 5 5 5 5 3 5 5 5 5 3 5 5 5 3 5 5 5 3 5 5 3 5 5 5 5 5 5 5 5 5 5 5 5 5 5 5 5 3 5 5 5 5 5 5 5 3 5 5 5 5 5 5 5 5 5 5 5 5 5 5 5 5 5 5 5 5 5 5 5 5 5 5 5 3 5 5 5 5 3 5 5 5 3 5 5 5 5 5 5 5 5 5 3 5 3 5 5 5 5 5 5 5 5 5 5 5 5 5 5 5 5 5 5 3 3 5 5 5 3 5 5 3 5 5 3 5 5 5 3 5 5 3 5 5 5 5 5 5 5 5 5 5 5 5 5 5 5 5 5 5 5 5 3 5 3 5 5 5 5 5 5 5 5 5 5 5 3 5 3 5 5 5 3 5 5 5 5 5 3 5 5 5 5 5 5 3 5 5 5 5 5 5 5 5 5 5 5 3 5 5 5 5 5 5 5 5 3 5 5 5 3 5 5 3 5 5 5 5 5 3 5 5 5 5 5 5 5 5 5 3 5 5 3 5 3 5 3 3 3 5 3 5 5 5 5 5 5 3 5 5 5 5 5 5 3 5 5 5 5 5 5 5 3 5 5 5 5 3 5 5 5 5 5 3 5 3 5 5 5 5 5 5 5 5 5 5 3 5 5 5 5 5 5 5 3 5 5 5 5 5 5 5 3 5 3 5 5 5 5 5 5 5 5 3 5 5 5 3 3 5 5 5 5 5 3 3 5 3 5 5 3 5 5 3 5 5 5 5 5 5 5 5 3 5 5 5 5 5 3 5 5 5 5 3 5 5 3 5 5 5 5 5 5 5 5 5 5 5 5 5 5 5 5 5 5 5 5 5 5 5 5 5 5 5 5 5 5 5 5 5 5 5 5 5 5 5 5 5 3 5 5 3 5 5 5 5 5 3 5 5 5 5 3 5 5 5 5 5 5 5 5 5 5 5 5 5 5 5 5 5 5 5 5 5 5 5 5 3 5 5 5 3 5 5 5 5 5 5 3 5 5 5 5 5 5 5 5 5 5 5 3 5 3 3 5 5 3 5 5 5 5 5 5 5 5 5 5 5 3 5 5 3 5 5 5 5 5 5 5 5 5 5 5 5 5 5 5 3 5 5 5 5 5 5 5 3 5 3 5 5 5 5 3 5 3 5 5 5 5 5 5 5 5 5 3 5 5 5 5 5 5 5 5 5 5 5 5 5 5 5 5 5 3 5 5 5 5 5 5 5 5 5 5 5 5 5 5 5 5 5 5 5 5 5 5 5 5 5 3 3 5 5 5 5 5 5 5 5 5 5 5 3 5 5 5 5 3 5 5 5 5 3 5 5 5 5 5 5 5 5 3 5 5 5 5 5 5 5 5 5 3 5 5 5 5 5 5 5 5 5 5 5 5 5 5 5 5 5 5 5 5 3 5 5 5 5 5 5 5 5 5 5 5 5 5 5 3 5 3 5 5 5 5 5 5 5 5 3 5 5 3 5 5 5 5 5 5 5 5 5 5 5 5 5 5 5 5 5 5 5 5 5 5 5 5 5 5 5 5 5 5 5 5 5 5 5 5 3 5 5 3 5 5 5 5 3 5 3 5 5 3 5 3 5 5 5 5 5 3 5 5 5 5 5 5 5 5 5 5 5 5 3 5 5 5 3 5 5 5 5 5 5 5 5 5 3 5 5 5 5 3 3 5 5 5 5 5 5 5 5 3 5 5 5 5 5 3 5 5 5 3 5 5 5 3 5 5 5 5 3 5 5 5 5 5 5 5 5 5 5 5 5 5 5 3 5 5 5 5 5 5 3 5 3 3 5 3 5 3 5 5 5 5 3 5 5 5 5 3 5 5 5 5 5 5 5 5 5 3 5 5 5 5 5 5 5 5 5 5 5 5 5 5 3 5 5 5 3 5 5 5 3 5 3 5 5 5 5 5 5 5 5 5 5 5 5 5 5 5 5 3 5 5 5 5 5 5 3 5 5 5 5 5 5 5 5 5 5 5 5 5 5 5 5 5 5 3 5 5 5 5 5 5 5 5 5 5 5 5 5 5 5 5 5 5 5 5 5 5 5 5 5 5 5 5 5 5 5 5 5 5 3 5 5 5 5 3 5 5 5 5 5 5 5 3 5 5 5 5 5 5 5 5 5 3 5 5 3 5 5 5 5 5 3 5 5 5 3 5 5 3 5 5 5 5 5 5 5 5 5 5 5 5 5 5 5 5 5 5 5 5 3 5 5 5 5 5 5 5 5 5 5 3 3 5 3 5 5 5 5 5 3 5 5 5 5 3 5 5 5 5 5 3 5 3 5 5 3 5 5 5 5 5 5 5 5 3 5 5 5 5 5 5 3 5 5 5 5 5 5 3 5 5 5 5 3 5 5 3 5 3 5 5 3 5 5 5 5 5 5 3 5 5 5 5 3 5 5 5 5 5 5 5 5 3 3 5 5 5 5 5 5 5 5 3 5 5 5 5 5 5 3 5 5 5 5 5 5 5 3 5 5 5 3 5 5 5 5 5 5 5 5 5 5 5 5 3 5 5 5 5 3 5 5 3 5 5 5 5 3 5 5 5 3 3 5 5 5 3 5 5 5 3 5 5 5 5 5 5 5 5 5 3 5 5 5 3 5 5 5 5 5 5 5 5 5 5 5 5 3 5 3 5 5 3 5 5 3 5 5 5 5 5 5 5 3 5 5 5 5 5 3 5 3 5 5 5 3 3 5 3 3 5 3 5 5 5 5 5 5 3 5 3 5 5 5 5 5 5 5 5 5 5 5 5 5 3 5 5 3 5 3 5 5 3 5 5 5 3 3 5 5 3 5 5 5 5 5 5 5 5 5 5 5 5 5 5 5 5 5 5 5 5 5 5 5 3 3 5 3 5 3 5 5 3 3 5 5 3 5 5 3 5 5 3 5 3 5 5 5 5 3 5 5 5 5 3 5 3 3 5 3 5 5 3 3 5 5 5 3 5 5 5 5 3 3 5 5 5 5 5 3 5 5 5 5 5 5 5 5 5 5 5 3 5 3 5 3 5 5 3 5 3 5 5 5 5 5 5 5 5 3 5 5 3 5 5 5 5 3 5 5 5 5 5 5 5 5 5 5 5 5 3 5 5 5 5 5 5 5 5 5 5 5 3 5 5 5 5 5 5 3 5 3 5 5 3 5 5 5 5 5 5 5 5 5 5 5 5 5 5 5 5 5 3 3 5 5 5 3 5 5 3 5 5 5 5 5 5 5 5 5 5 5 5 5 5 5 5 5 5 5 5 5 5 5 5 5 3 3 5 5 5 5 5 5 5 5 5 5 5 3 5 5 5 5 5 5 5 5 5 5 5 5 5 5 5 5 5 5 5 5 5 5 5 5 5 5 5 5 5 5 5 5 5 3 5 5 5 5 5 3 5 5 3 5 5 3 3 5 5 5 5 5 5 5 5 5 5 5 5 5 3 5 5 3 5 5 5 5 5 5 3 5 5 3 5 5 5 5 5 5 5 5 5 5 5 5 5 3 5 5 5 5 5 5 5 3 5 5 5 5 5 5 5 5 5 5 5 5 3 5 5 3 5 5 5 5 5 5 5 5 5 5 5 5 5 5 5 5 5 5 5 5 3 5 5 3 5 3 5 5 5 3 5 5 3 5 3 5 5 5 3 5 5 5 5 3 5 5 5 5 5 5 5 3 5 5 5 3 5 5 5 5 5 5 5 5 5 5 5 5 3 5 5 5 5 5 5 5 5 3 5 5 5 5 5 5 5 5 5 5 5 3 5 5 5 5 5 5 5 5 5 5 5 5 5 5 5 5 5 5 5 3 3 5 5 5 3 5 5 5 5 5 5 5 5 5 5 5 5 3 5 5 5 5 5 5 5 5 5 3 5 5 5 5 5 5 5 5 5 5 5 5 5 5 5 5 3 5 3 5 5 5 5 5 3 5 5 5 5 3 5 5 5 3 5 5 5 3 5 5 5 5 5 5 5 5 5 3 5 5 5 3 5 5 3 5 5 5 5 5 5 3 5 5 5 5 5 5 5 5 3 5 5 5 3 5 5 5 5 5 5 5 5 5 5 5 5 5 5 5 5 5 5 5 5 5 5 5 5 5 5 5 3 5 5 5 5 5 5 5 3 5 5 5 5 5 5 5 5 5 5 5 5 5 5 5 5 5 5 5 5 5 5 5 5 5 3 5 3 5 5 5 5 5 5 3 5 5 5 3 5 5 3 5 5 5 5 5 5 5 5 5 5 5 5 3 5 5 5 5 5 3 5 5 5 5 5 5 5 5 5 5 5 5 5 3 5 5 5 3 5 5 5 5 5 5 5 5 5 5 5 5 3 3 5 5 5 5 3 5 5 5 5 5 5 5 5 5 3 3 5 5 5 5 5 3 5 5 5 5 5 3 5 5 5 5 5 3 5 3 5 5 5 5 3 5 3 5 3 3 5 5 5 5 5 5 5 3 3 5 5 5 5 5 5 3 3 3 5 3 3 5 5 5 3 5 5 5 5 5 3 3 3 5 3 5 5 5 3 5 3 3 5 5 5 5 5 5 5 3 3 5 5 3 3 3 5 5 5 5 5 5 5 5 5 5 5 5 5 5 5 5 5 5 5 5 5 5 5 5 5 5 5 5 5 5 5 5 5 5 5 5 5 5 5 5 3 5 5 5 5 5 5 5 5 5 5 3 5 5 5 5 5 5 3 5 5 3 5 5 5 5 5 5 5 5 5 5 5 5 5 3 5 3 5 5 5 5 3 5 5 5 3 5 5 3 5 5 5 3 5 5 3 5 5 5 5 5 3 5 5 5 5 5 5 5 3 5 5 5 5 5 5 5 3 5 5 3 5 5 5 5 3 5 3 5 5 5 5 5 3 5 5 5 5 3 5 5 5 5 5 5 3 3 5 5 5 5 5 3 5 5 3 5 5 5 5 5 5 5 5 5 5 3 5 5 5 5 5 5 5 5 5 5 5 5 5 5 5 5 5 5 3 5 5 5 5 5 5 3 5 5 5 5 5 5 5 3 3 5 5 5 5 3 5 5 5 5 5 5 5 3 5 5 3 5 3 3 3 5 5 5 5 5 5 3 5 5 5 5 5 3 5 5 5 5 3 5 5 5 3 5 5 5 3 5 5 5 5 5 5 5 5 5 5 5 5 5 5 5 5 5 5 5 5 5 5 5 5 5 3 5 5 5 5 5 5 5 3 5 3 5 5 5 5 5 5 3 5 5 3 5 5 5 3 5 5 3 5 5 5 5 5 3 5 5 5 3 3 5 5 5 5 5 5 5 5 5 5 5 5 3 5 5 5 5 5 5 5 5 5 3 5 5 5 5 5 3 3 5 5 5 5 5 5 5 5 5 3 5 5 5 5 5 5 5 5 3 5 5 5 5 5 5 5 5 5 5 5 5 5 5 5 5 5 5 3 5 5 5 5 3 5 3 5 3 5 5 5 5 5 5 5 5 5 5 5 5 5 5 5 5 5 3 5 5 5 5 5 3 5 5 5 3 3 5 5 5 5 5 3 5 5 5 5 3 5 5 5 5 5 5 5 5 3 5 5 5 5 5 5 5 3 5 5 5 5 5 5 5 5 5 3 5 5 5 5 5 5 5 5 5 5 5 5 5 5 5 5 5 5 3 5 5 5 5 5 5 5 5 5 5 5 5 5 3 5 5 5 5 5 5 3 5 5 3 5 5 3 5 5 5 5 5 5 5 5 5 5 5 5 5 5 5 5 5 5 5 5 5 5 5 5 5 5 3 5 3 5 3 3 5 5 5 3 5 5 5 5 5 5 5 5 5 3 3 5 3 5 5 5 5 5 5 5 5 5 5 5 5 5 5 3 5 3 3 5 3 5 5 5 5 5 5 5 5 5 3 3 5 5 5 5 5 5 5 5 5 5 5 5 5 5 5 5 5 5 5 5 5 5 3 5 5 5 5 5 3 5 5 5 5 5 3 5 5 5 3 5 5 5 5 5 5 5 5 5 3 5 5 5 5 3 5 5 5 5 5 5 3 5 5 5 5 5 5 5 3 5 5 5 5 3 5 5 5 5 5 5 5 5 5 5 3 5 5 5 5 3 5 5 5 3 5 5 5 5 5 3 5 5 5 5 5 5 5 5 5 5 5 5 5 5 3 3 5 5 3 5 5 5 5 5 5 5 3 5 5 5 5 5 5 3 5 5 5 5 5 5 5 5 5 5 5 5 5 5 5 5 5 5 5 5 5 5 5 3 5 5 5 5 5 5 5 5 3 5 5 5 5 3 5 5 5 5 5 3 5 3 5 3 5 5 5 5 5 5 5 3 5 5 5 3 5 5 5 5 5 3 5 5 5 5 5 3 5 3 5 5 3 5 3 5 5 5 5 5 3 5 5 5 3 5 5 5 5 5 5 5 5 5 5 3 5 5 5 5 5 5 5 5 5 5 5 5 5 5 5 5 5 5 5 5 5 5 3 5 5 5 5 5 5 5 5 5 5 5 5 5 5 5 5 5 5 3 5 5 5 3 5 5 5 5 5 5 3 5 5 5 3 3 5 3 5 3 3 5 3 5 5 3 5 5 3 3 5 5 5 5 5 5 5 5 3 5 3 5 5 5 5 5 5 5 5 5 5 5 5 5 5 5 5 5 5 5 5 5 5 3 5 5 5 5 5 5 5 5 3 5 5 3 5 5 3 3 5 5 3 5 5 5 5 5 5 5 5 5 5 5 5 5 5 5 5 5 5 5 5 5 5 5 5 5 5 5 5 5 5 5 5 5 5 5 5 5 5 5 3 5 3 5 5 5 5 5 5 5 5 5 5 5 5 5 5 5 5 5 5 5 5 5 5 5 5 5 5 5 5 5 5 5 5 5 5 5 5 5 5 5 5 3 5 5 3 5 5 5 5 5 3 5 3 5 5 3 5 5 5 5 5 5 3 5 5 5 5 5 5 5 5 5 5 5 3 5 5 3 3 5 3 5 5 3 5 5 5 5 3 5 5 5 5 5 5 5 5 5 3 5 3 5 5 5 5 5 5 5 3 5 3 5 5 5 5 5 5 5 5 5 3 5 3 5 5 5 5 5 5 5 5 5 5 3 5 5 5 3 5 5 3 5 5 3 5 5 5 5 3 5 5 5 3 5 5 5 5 5 5 5 5 5 5 5 5 5 5 3 5 5 5 5 5 5 3 5 3 5 3 5 5 5 3 5 5 5 5 5 5 5 5 3 5 5 5 5 5 3 5 5 3 5 5 5 5 5 5 5 5 5 3 5 5 5 3 5 5 5 5 5 5 3 5 5 5 5 5 5 5 5 5 5 5 5 5 5 5 5 5 5 5 5 5 5 5 5 5 5 5 5 5 5 5 3 5 5 5 5 5 3 5 5 3 3 5 5 5 5 3 5 5 5 5 5 3 5 5 5 5 5 5 5 5 5 5 5 5 5 5 5 5 3 5 5 5 5 5 5 5 5 3 3 5 5 5 5 5 5 3 5 5 5 5 3 5 5 5 5 5 5 5 5 5 5 5 5 5 5 5 5 5 5 5 5 5 5 5 5 3 5 5 3 5 5 5 5 5 5 5 5 5 5 5 5 5 5 5 5 5 5 5 5 5 5 5 5 5 5 5 3 5 3 5 5 5 5 5 3 5 5 5 5 5 5 5 5 5 5 5 5 5 5 5 5 5 5 5 5 3 3 5 3 5 5 5 5 5 5 5 5 5 5 5 5 5 5 5 5 3 5 5 5 3 5 5 5 5 5 5 5 5 5 5 5 5 5 3 5 5 5 5 5 5 5 5 5 5 5 5 5 5 5 5 5 5 5 5 5 5 3 5 5 5 5 5 5 5 5 5 5 5 5 5 3 5 3 5 5 3 3 5 5 5 5 5 5 5 5 5 5 5 5 5 5 5 5 5 5 5 5 3 5 5 3 5 5 5 3 5 5 5 5 5 5 3 5 5 5 3 5 5 5 5 5 5 5 5 3 5 5 3 5 5 3 5 3 5 5 5 5 3 3 5 5 3 3 5 5 3 5 5 5 5 3 5 5 3 3 5 3 5 5 5 5 5 5 5 5 5 5 5 5 5 5 5 5 5 5 5 5 3 5 5 5 5 3 5 5 5 5 3 3 5 5 5 5 5 5 5 5 5 5 5 5 3 5 5 5 3 5 5 5 5 5 5 5 3 5 5 5 3 5 5 3 3 5 5 5 3 5 5 5 3 5 5 5 5 5 5 5 5 5 5 5 5 5 5 5 5 5 5 3 5 5 5 5 5 5 5 5 5 5 5 5 5 5 5 5 5 5 3 3 5 5 5 5 5 3 3 5 3 5 5 5 5 5 5 5 5 5 3 5 5 5 3 5 5 5 5 5 5 5 5 5 5 5 5 5 5 3 5 5 5 5 5 5 5 3 5 5 3 5 5 5 5 5 5 3 5 5 5 5 3 5 5 5 5 5 5 3 5 5 5 5 5 5 5 5 3 3 5 5 5 3 3 5 5 5 5 5 3 5 5 5 5 5 5 3 5 5 5 5 3 5 5 5 5 5 3 5 5 5 5 3 5 5 5 5 5 5 5 5 5 5 5 5 5 5 5 5 5 5 5 5 5 5 5 5 5 3 5 5 5 5 3 5 3 5 3 5 5 3 5 5 3 5 5 3 5 5 5 5 5 5 3 5 5 3 5 3 3 3 5 5 3 5 3 3 5 5 5 3 5 3 5 5 5 5 5 5 3 5 5 5 3 5 5 5 5 5 5 5 3 5 5 5 3 5 3 3 5 5 5 5 5 5 5 3 5 5 5 5 5 5 5 5 3 3 5 5 5 5 3 5 5 3 5 5 5 3 5 5 5 3 3 5 5 5 5 3 5 5 5 5 5 3 3 5 5 5 5 5 5 5 5 5 5 5 5 5 5 5 5 5 5 5 5 5 5 5 5 5 5 5 5 5 5 5 3 5 5 5 3 5 5 5 5 5 5 5 5 5 5 5 5 5 5 5 3 5 3 3 5 5 3 5 5 5 5 5 5 5 5 5 5 5 5 5 5 5 5 5 5 5 5 5 5 5 3 5 5 3 3 5 5 5 5 5 5 5 3 5 5 5 3 5 5 5 5 3 3 5 5 5 5 5 5 5 3 5 5 5 5 3 5 5 5 5 3 5 5 5 5 5 5 5 5 5 5 5 5 5 5 5 5 5 5 5 3 5 5 5 5 5 5 5 5 5 5 5 5 5 5 5 5 3 5 5 5 3 5 5 5 5 5 5 5 5 5 3 5 5 5 5 5 5 5 5 5 5 5 5 5 5 5 5 5 5 5 5 5 3 5 5 5 5 5 5 5 5 5 5 5 5 5 5 5 5 5 3 5 5 5 5 5 3 5 5 5 5 5 5 5 5 5 5 5 5 5 5 5 5 5 5 5 5 5 5 5 5 5 5 5 3 5 5 3 5 5 5 3 5 5 5 5 5 5 5 5 5 5 5 5 5 5 5 3 5 3 5 5 5 5 5 5 5 5 5 3 5 5 5 5 5 5 5 5 5 3 3 5 5 5 5 5 5 5 5 5 5 5 5 5 5 5 5 5 5 5 5 5 5 5 5 5 5 5 5 5 5 5 5 5 5 5 5 5 5 5 5 5 5 5 5 5 5 5 5 5 5 5 5 5 5 5 5 5 5 5 5 5 5 5 5 5 5 5 5 5 5 5 3 5 5 5 5 5 5 3 5 5 5 5 5 5 5 5 5 3 5 3 5 5 5 5 5 5 5 5 5 5 5 5 5 5 5 5 5 5 5 5 5 5 5 5 5 5 5 5 5 5 5 5 5 5 3 5 5 5 3 3 5 5 5 5 5 5 5 5 5 5 5 5 5 5 5 5 5 5 5 5 5 5 3 3 5 5 5 5 5 5 5 5 3 5 5 5 5 5 5 3 5 5 5 5 5 3 5 5 5 5 3 5 5 5 3 5 5 5 3 5 5 3 5 5 5 5 5 5 5 5 5 5 5 5 5 3 5 5 5 5 5 5 5 5 3 5 5 5 5 5 5 5 5 5 5 5 3 5 5 5 3 5 5 5 5 3 5 5 5 5 5 5 5 5 3 5 3 5 5 3 5 5 5 5 5 3 5 5 5 5 5 5 5 5 5 5 5 5 3 5 5 5 5 5 5 5 5 5 3 5 5 5 5 5 5 3 5 5 5 5 5 5 5 3 5 5 5 5 5 3 5 5 5 5 5 5 5 5 5 5 5 5 5 5 5 5 5 5 5 5 5 5 5 5 5 5 5 5 5 5 5 5 5 5 5 5 5 5 5 5 5 5 5 5 5 5 5 3 5 3 5 5 5 5 5 5 5 5 5 5 5 5 5 5 3 5 5 5 5 5 5 5 5 5 5 5 5 5 5 5 3 5 5 3 5 3 5 5 5 5 5 3 5 5 5 5 5 5 5 5 5 5 5 5 5 5 5 5 5 5 5 5 3 5 5 5 5 5 5 5 5 5 5 5 3 5 3 5 5 3 5 3 5 5 5 5 5 5 5 3 5 3 5 5 5 5 3 5 5 5 5 3 3 5 5 3 5 5 5 5 5 5 5 5 5 5 5 5 5 5 5 5 3 5 5 5 5 5 5 5 5 5 5 5 5 5 5 3 5 3 5 5 5 5 5 5 5 3 5 3 5 5 5 5 5 5 5 5 5 3 3 5 5 5 3 5 5 5 5 3 5 3 5 5 3 5 3 3 3 5 5 3 5 5 5 3 3 3 5 5 5 5 5 5 5 5 5 5 5 3 5 5 5 5 5 5 3 5 5 5 3 5 5 5 5 5 5 5 5 3 5 5 5 3 5 5 5 5 5 5 5 5 5 5 5 5 5 5 5 5 5 5 5 5 5 5 5 5 5 5 5 5 5 5 5 5 5 5 5 5 5 5 5 5 5 5 5 5 5 5 5 5 5 5 5 5 5 5 5 5 5 5 5 5 3 5 5 5 5 5 3 5 5 5 5 3 5 5 5 3 5 5 5 5 5 5 5 5 5 5 5 5 5 5 5 5 5 5 5 5 5 5 5 5 5 5 5 5 5 5 5 5 5 5 5 5 5 5 5 5 3 5 5 3 5 5 5 5 5 5 5 3 5 5 5 5 5 5 5 5 5 5 5 3 5 5 3 5 3 5 5 5 3 5 5 5 5 5 5 5 5 3 5 5 5 5 3 5 5 5 5 3 5 3 5 5 5 5 5 5 5 5 5 5 5 5 3 5 3 5 5 5 5 5 5 5 5 5 5 5 5 5 3 5 5 5 5 5 5 5 5 5 3 5 5 5 3 5 5 5 5 5 5 5 5 5 5 5 5 5 5 5 5 5 5 5 5 5 5 5 5 5 5 5 5 5 5 5 5 5 5 5 3 5 5 3 5 5 5 5 3 5 5 5 5 5 5 5 5 5 5 5 5 5 5 5 3 5 5 5 5 5 5 5 5 5 3 5 3 5 5 5 5 5 5 5 3 5 5 5 5 5 5 5 5 5 5 5 5 5 5 3 5 5 5 5 5 5 5 5 5 5 5 3 5 5 5 5 5 5 5 5 5 5 5 5 5 5 5 5 5 5 5 5 5 5 5 3 5 3 5 5 5 5 5 5 3 5 3 5 5 5 3 5 5 5 3 5 5 5 3 5 5 3 5 5 5 5 5 5 5 3 5 5 5 5 5 5 5 3 5 5 5 5 5 5 5 5 5 5 5 5 5 3 5 5 5 5 5 5 5 5 3 5 5 5 5 5 5 5 5 5 5 5 5 5 5 5 5 5 5 5 5 3 5 5 5 5 5 5 5 5 5 5 5 5 5 5 5 5 5 5 5 5 5 5 5 5 5 5 5 5 5 5 5 5 5 5 5 5 5 5 5 5 5 5 5 5 5 5 5 5 5 5 3 5 3 5 5 5 3 5 5 3 3 5 3 5 5 5 5 5 5 5 5 5 5 5 5 5 5 5 5 5 5 5 5 5 5 5 5 5 5 5 5 5 5 5 5 5 5 5 3 5 5 5 5 3 5 5 3 5 5 5 3 5 5 5 5 3 5 3 3 5 5 5 5 3 5 5 5 3 5 5 5 3 5 5 5 5 5 5 3 5 5 5 5 5 5 5 5 5 5 5 5 5 5 5 5 5 5 5 5 3 5 5 5 5 5 5 5 5 5 5 5 5 5 5 5 5 5 5 3 5 5 3 5 5 3 5 5 5 5 5 5 5 5 5 5 5 3 5 5 5 5 3 5 5 5 5 3 5 5 5 3 5 5 5 5 5 5 5 5 5 5 5 5 5 5 5 5 5 5 5 5 5 5 5 5 5 3 5 5 5 5 5 5 5 5 3 5 5 5 3 5 5 5 5 5 5 5 5 5 5 5 5 5 5 5 5 5 5 5 5 5 5 5 5 3 5 5 5 3 5 5 5 5 5 5 5 5 3 5 5 3 5 5 5 5 3 5 5 5 5 5 5 5 3 5 3 5 5 3 5 5 3 3 5 5 5 5 5 5 5 5 5 5 5 5 5 5 5 5 5 5 5 5 5 3 5 5 5 5 3 5 5 5 5 5 5 5 5 5 5 5 5 5 3 5 5 3 5 5 5 5 5 5 5 5 5 5 5 5 5 5 5 5 5 5 5 5 5 5 5 5 5 5 5 5 5 5 5 5 5 5 5 5 5 5 5 5 5 5 5 5 5 5 5 5 5 5 5 5 5 5 5 5 5 5 5 5 5 5 5 5 5 5 5 5 5 5 5 5 5 5 5 5 5 5 5 5 5 5 5 5 5 5 5 5 5 5 5 5 5 5 5 5 5 5 5 5 5 5 5 5 5 5 5 5 5 5 5 5 5 5 5 5 5 5 5 5 5 5 5 5 5 5 5 5 3 5 5 5 5 5 5 5 3 5 5 5 5 5 5 5 5 5 3 5 3 5 5 5 3 5 5 3 5 5 5 5 5 5 5 5 5 5 5 5 5 5 5 5 5 5 5 5 5 5 5 5 5 5 5 5 5 5 5 5 5 5 5 5 5 3 5 5 3 3 5 5 3 5 5 3 5 5 5 3 5 5 5 5 5 5 5 5 5 3 5 5 5 5 5 5 3 5 5 5 5 5 5 5 5 5 5 5 5 5 5 5 5 5 5 5 5 5 5 5 5 5 5 5 5 5 5 5 3 5 5 5 5 5 5 5 5 5 5 5 5 5 5 5 5 5 5 5 5 5 5 5 5 5 5 5 5 5 5 5 5 5 5 5 5 5 5 5 5 5 5 5 5 5 5 3 5 3 5 5 5 5 3 5 5 5 5 3 5 5 5 5 3 5 5 5 5 5 5 5 5 3 5 5 3 5 3 5 5 5 5 3 5 5 3 3 5 5 5 5 5 5 3 5 5 5 5 5 5 5 5 5 5 3 3 5 5 5 5 5 3 5 5 3 5 5 5 5 3 5 5 3 5 5 5 5 5 5 5 5 5 5 5 5 5 5 5 5 5 5 5 5 5 5 5 5 5 5 5 5 5 3 5 3 5 5 5 5 5 5 5 5 5 5 5 5 5 3 5 5 5 5 3 3 5 5 5 5 5 5 5 5 5 5 5 5 5 5 5 5 5 5 5 5 5 5 5 5 5 5 5 5 5 5 5 5 5 5 5 5 5 5 5 5 5 5 3 5 5 5 3 5 5 5 5 5 5 5 5 5 5 5 5 5 5 5 5 5 5 5 5 3 5 5 3 5 5 5 5 5 5 5 5 5 3 5 5 5 5 5 3 5 5 5 5 5 3 5 3 5 5 5 5 5 5 5 5 5 5 5 5 5 3 5 5 5 3 3 5 5 5 5 5 5 5 5 3 5 5 3 5 5 3 3 5 5 5 5 5 3 5 5 5 5 5 5 5 3 5 5 3 3 5 5 5 5 5 5 3 3 5 5 5 3 5 5 5 5 5 5 5 3 5 5 5 5 5 5 5 5 5 5 5 5 5 5 5 5 5 5 5 5 5 5 5 5 5 5 3 5 5 5 5 5 5 5 3 5 5 5 5 5 5 5 5 5 5 5 3 5 5 5 5 5 5 5 5 3 5 5 5 5 5 5 5 5 5 5 5 5 5 5 5 5 3 5 5 5 3 5 5 5 5 5 3 5 5 5 5 5 5 5 5 5 5 5 5 5 5 3 5 5 5 5 3 5 5 3 5 5 5 5 5 3 5 5 5 5 5 5 5 5 5 5 5 5 5 5 3 5 3 5 5 5 3 5 3 5 3 5 5 5 5 5 5 3 3 5 5 5 5 5 5 3 5 3 5 5 5 5 5 5 5 5 5 5 5 5 5 5 5 5 5 3 5 5 5 3 3 5 5 5 5 5 3 5 5 3 3 5 5 5 5 5 5 5 5 5 5 5 5 5 5 5 5 5 5 5 5 5 5 5 5 5 5 5 5 5 5 5 5 5 5 5 5 5 5 5 5 5 5 5 5 3 5 5 3 3 3 5 5 5 5 5 5 3 5 5 5 5 5 5 5 5 5 3 5 5 5 3 5 5 5 5 5 5 5 5 5 5 5 5 5 5 5 5 5 5 5 5 3 5 5 5 5 3 5 5 5 5 5 5 5 5 5 5 5 5 5 5 5 5 5 5 5 5 5 5 5 5 5 5 5 5 5 5 5 5 5 5 3 5 3 5 5 5 5 5 5 5 5 3 5 5 5 3 5 3 5 5 5 5 5 5 5 5 3 5 5 5 5 3 5 5 5 5 3 5 5 5 5 5 5 5 3 5 5 5 5 3 5 5 5 5 5 5 5 5 5 5 5 5 5 5 5 5 5 5 5 5 5 5 5 5 5 5 5 5 5 5 5 5 5 5 5 5 5 5 5 5 5 5 5 5 5 5 3 5 5 5 5 3 3 5 5 3 3 5 5 5 5 5 5 5 5 5 5 5 5 5 5 5 5 5 5 5 3 5 5 5 3 3 5 5 5 5 5 5 5 5 5 5 5 5 5 5 5 5 5 5 5 5 5 5 5 5 5 5 5 3 5 5 5 5 5 5 5 3 5 5 5 5 5 5 5 5 5 5 5 5 5 5 5 3 5 5 5 5 5 5 5 5 3 5 3 3 5 5 5 5 5 5 5 5 5 5 5 5 3 5 5 5 5 5 5 5 5 5 5 5 5 5 5 5 5 5 5 3 5 5 5 3 5 5 5 5 5 5 5 5 3 5 5 5 5 5 5 5 5 5 5 5 5 5 5 5 3 5 5 5 3 5 5 5 5 5 5 5 5 5 5 5 5 5 5 5 5 5 5 5 5 5 5 5 5 5 5 5 5 5 5 5 5 5 3 5 3 5 5 5 5 5 5 5 5 3 5 5 5 5 5 5 5 5 5 3 5 5 3 5 5 5 5 5 3 5 5 5 5 3 5 5 5 5 3 5 5 5 3 5 3 5 5 3 5 5 5 5 5 5 5 5 5 5 5 5 5 5 3 5 5 3 5 3 5 5 5 3 5 5 3 5 5 5 5 3 5 3 5 5 5 5 5 5 3 5 3 5 5 5 5 5 3 5 5 5 5 3 5 5 5 5 5 5 3 5 5 5 5 5 5 5 5 5 5 5 5 5 5 5 5 5 5 5 5 5 5 5 5 5 5 5 5 5 5 5 5 5 3 3 5 5 5 5 5 5 5 5 5 5 3 5 5 3 3 5 3 5 5 5 5 5 5 5 3 5 5 5 5 5 5 5 5 5 5 5 5 3 5 5 5 5 3 5 5 5 5 5 5 5 5 5 5 5 5 3 5 5 5 5 5 5 5 5 5 5 5 5 5 5 5 5 5 3 5 5 5 5 5 3 5 5 5 3 5 5 5 5 5 5 3 5 3 5 5 5 3 5 5 5 5 5 5 5 5 5 3 5 5 3 5 5 5 5 5 5 5 3 5 5 5 5 5 5 5 5 5 5 5 5 5 3 5 5 3 5 5 5 5 5 5 3 5 5 5 5 5 5 3 5 5 5 5 5 5 5 3 5 5 5 5 5 5 5 5 5 5 5 5 5 5 5 5 5 5 5 5 5 5 3 5 5 5 5 5 5 5 5 5 5 3 5 5 5 5 3 3 5 5 5 5 3 5 5 5 5 5 5 5 5 5 3 5 5 5 5 5 5 5 5 5 5 5 3 5 5 5 3 5 5 5 3 5 5 5 5 5 5 5 5 5 5 5 5 3 5 5 5 5 5 3 5 5 3 5 5 5 5 5 5 5 5 5 5 5 5 5 5 3 5 5 5 5 5 5 5 3 5 5 5 3 5 5 5 5 5 3 5 5 5 5 5 5 5 5 5 3 5 5 5 5 5 5 5 5 3 5 5 5 5 5 3 5 5 5 5 5 5 5 3 5 5 5 5 5 5 5 5 5 5 5 5 5 5 5 5 5 5 5 5 5 5 5 5 5 5 5 5 5 5 5 5 5 5 5 5 5 5 5 5 5 5 5 5 5 5 5 5 3 5 5 5 5 5 5 5 3 5 5 5 5 5 5 5 5 5 5 5 5 5 5 5 5 5 5 5 5 5 5 3 3 5 5 3 3 5 5 5 5 5 5 5 3 5 5 5 5 5 5 5 5 5 5 5 5 5 5 3 5 5 5 5 5 5 5 5 3 5 5 3 5 5 5 3 5 5 5 5 5 5 5 5 5 5 5 5 5 5 5 5 5 5 5 5 5 5 5 5 5 5 5 5 3 5 5 5 5 5 5 5 5 3 5 5 5 5 5 5 3 3 5 5 5 5 3 5 5 3 5 5 3 5 5 5 5 5 5 3 5 5 5 5 5 5 5 5 3 5 5 5 5 5 5 5 5 5 5 5 3 5 5 3 5 5 5 5 5 5 5 3 5 5 5 3 5 3 5 3 5 5 5 5 5 5 5 5 5 5 5 5 5 5 5 5 5 3 5 3 5 5 5 5 5 5 5 5 5 5 3 5 5 5 5 5 5 5 3 5 5 5 3 5 3 3 5 5 3 5 5 5 5 3 5 5 5 3 5 5 5 3 5 3 3 5 5 5 5 5 5 3 5 5 5 5 5 5 5 5 3 3 3 5 3 5 5 3 3 5 5 3 5 5 5 5 5 5 5 5 5 5 5 3 5 5 5 5 5 5 5 5 5 5 5 5 5 3 3 5 5 5 5 3 5 5 5 3 5 5 5 5 5 3 3 5 5 5 3 5 5 5 5 5 5 5 5 5 5 5 5 5 5 5 3 5 5 5 3 5 5 5 3 5 5 5 5 5 5 3 5 5 5 5 5 3 5 5 5 5 5 5 5 5 3 5 5 5 5 5 5 5 5 5 3 5 5 5 5 3 5 3 5 5 3 5 3 5 5 5 5 5 5 3 5 3 3 5 5 5 5 5 5 5 5 3 5 3 5 3 5 3 5 5 5 5 5 5 5 5 5 5 5 3 5 5 5 3 5 5 5 5 5 5 5 5 3 5 5 5 5 5 5 5 5 5 3 5 5 5 5 3 5 5 3 5 5 5 5 5 5 5 5 5 3 5 5 5 3 5 5 5 5 5 5 5 5 5 5 5 5 5 5 5 5 5 5 5 3 5 5 5 5 5 5 5 5 5 5 3 5 5 5 5 5 5 5 5 5 5 5 5 5 5 5 5 5 5 5 5 5 5 5 5 5 5 5 5 5 5 5 5 5 5 5 5 5 5 5 5 5 5 5 5 5 3 3 5 5 5 5 5 5 5 5 5 5 5 5 5 3 3 5 5 5 3 5 5 3 5 5 5 3 5 5 5 3 5 5 5 5 5 5 5 5 3 5 5 3 5 3 3 5 5 5 5 5 5 3 5 3 3 3 5 5 3 5 5 3 3 5 5 5 5 5 5 5 5 5 5 5 5 5 5 5 5 5 5 5 5 5 3 5 5 5 5 5 5 5 5 5 3 5 5 5 5 5 5 5 3 3 5 5 5 5 5 5 5 5 5 5 5 5 5 5 5 5 5 5 5 5 5 5 5 3 5 3 5 5 5 5 5 5 5 3 5 5 5 3 3 5 5 3 5 5 5 5 3 5 5 5 3 5 5 5 3 5 5 5 5 5 5 5 5 5 3 3 5 5 5 5 5 3 5 5 3 3 3 5 5 5 5 5 3 5 5 5 5 5 5 5 5 5 3 5 3 5 5 5 5 5 5 5 5 5 5 5 5 5 5 5 5 5 5 5 5 5 5 5 5 3 5 5 5 5 3 3 5 5 5 3 5 5 5 5 5 5 5 5 5 5 5 5 5 5 5 5 3 5 5 5 3 5 5 3 5 5 5 5 5 5 5 5 5 5 5 5 5 3 5 5 3 5 5 5 3 5 3 5 3 5 3 3 3 5 5 5 5 5 5 5 5 3 5 5 5 5 5 5 5 5 3 5 5 3 5 5 5 5 5 5 5 5 5 5 5 5 5 5 5 5 5 5 5 5 5 3 5 5 5 5 5 5 5 5 5 5 3 5 3 5 5 3 5 3 5 3 5 5 3 5 3 5 5 3 5 5 5 3 5 5 5 5 5 5 5 5 5 5 5 5 5 5 5 5 5 5 5 5 5 5 5 5 5 5 5 5 5 5 5 5 5 5 5 5 5 5 5 5 5 5 5 5 5 5 5 5 5 5 5 5 5 5 5 5 5 5 5 5 5 3 5 5 3 5 5 5 5 5 5 3 3 5 5 5 5 5 5 5 5 5 5 5 5 5 5 5 5 5 5 3 5 5 5 3 5 5 5 5 5 5 5 5 5 5 5 5 5 5 5 5 3 5 5 5 5 5 5 5 3 5 5 5 5 5 5 5 5 3 5 3 5 5 5 5 5 5 5 5 5 5 5 5 5 5 5 5 3 5 5 5 5 5 5 5 3 5 5 5 5 3 5 5 5 5 5 5 5 3 5 5 3 3 5 5 3 5 5 5 5 5 5 3 5 5 5 5 5 5 5 5 5 3 5 5 3 5 5 3 5 5 3 5 5 5 5 5 3 5 5 5 5 5 5 5 5 3 5 5 5 5 5 5 5 3 5 5 5 5 5 5 5 5 5 5 5 5 3 5 5 5 5 5 5 5 3 3 5 3 5 3 5 5 5 5 5 5 5 5 5 5 5 5 5 5 5 3 5 3 5 5 5 5 5 5 5 5 3 5 3 5 3 5 3 5 3 5 5 3 5 5 5 5 5 3 5 5 5 5 5 5 5 5 3 5 5 5 5 5 3 5 5 3 5 3 3 5 5 5 5 5 5 5 5 3 5 5 5 5 5 5 5 5 5 5 5 5 5 3 5 5 5 5 5 5 5 3 5 5 5 3 5 5 5 5 5 5 5 5 5 5 5 5 5 5 5 5 5 3 5 5 5 5 5 5 5 3 5 5 3 5 5 5 5 5 5 5 5 5 5 5 5 5 5 5 3 5 5 5 5 3 5 5 5 5 5 5 5 5 5 5 5 5 5 5 5 5 5 5 5 5 5 5 5 5 5 3 5 5 5 5 5 5 3 5 5 5 5 5 5 5 5 5 3 3 5 5 5 3 5 3 5 5 5 5 5 5 5 5 5 5 5 5 5 5 5 3 5 5 5 5 5 5 5 5 5 5 5 5 3 3 5 5 5 5 5 5 5 5 3 5 5 3 5 5 3 3 5 5 5 5 5 5 5 3 5 5 5 5 5 5 5 5 5 3 5 5 5 3 5 5 5 5 5 3 5 5 5 5 5 5 5 5 5 5 5 5 3 5 5 5 3 5 5 5 3 5 5 5 5 5 5 5 5 5 5 5 5 5 5 5 5 5 5 5 5 5 5 5 5 5 5 5 5 5 5 5 5 3 5 5 5 5 5 5 5 5 5 5 5 5 5 5 5 5 5 5 5 5 5 5 5 5 3 5 3 5 5 3 5 5 5 5 5 5 5 5 5 3 5 5 5 5 5 5 5 5 5 5 5 5 5 5 3 5 5 5 5 3 5 5 5 3 5 5 5 5 5 5 5 5 5 5 5 5 5 5 5 5 5 5 5 5 5 5 5 5 5 5 5 5 5 5 5 5 5 5 5 5 5 5 5 5 5 5 5 5 5 5 5 5 5 5 5 5 5 5 5 5 5 5 5 5 5 5 5 5 5 5 5 5 5 5 5 5 5 5 5 5 5 5 5 5 5 5 5 5 5 5 5 5 5 5 5 5 5 5 5 5 5 5 5 5 5 5 5 5 5 5 5 5 5 5 5 5 5 5 5 5 5 5 5 5 5 5 5 5 5 5 5 5 5 5 5 5 5 5 5 5 5 5 5 5 5 5 5 5 5 5 5 5 5 5 5 5 5 5 5 5 5 5 5 5 5 5 5 5 5 5 5 5 5 5 5 5 5 5 5 5 5 5 5 5 5 5 5 5 5 5 5 5 5 3 5 5 5 5 5 5 5 5 5 5 5 5 5 5 5 5 3 5 5 5 5 5 5 5 5 3 5 5 5 5 3 5 5 5 5 5 5 5 5 5 5 5 5 5 5 5 5 5 5 5 5 5 5 3 5 5 5 5 5 5 5 5 5 5 5 5 5 3 3 5 5 5 5 5 3 5 3 5 5 5 5 5 5 5 5 5 5 5 3 5 5 5 5 5 5 5 3 5 5 5 5 5 5 5 5 5 5 5 5 5 5 5 3 3 5 5 5 5 5 5 5 5 5 5 5 5 3 5 5 5 5 5 5 5 5 5 5 5 5 5 5 5 5 3 5 5 5 5 5 5 5 3 5 5 5 5 5 5 5 5 5 5 3 3 5 5 5 5 5 5 5 5 5 5 5 5 5 5 5 5 5 5 5 5 5 5 5 5 5 5 5 5 5 5 3 5 5 5 5 5 3 5 5 5 5 5 5 5 5 5 5 3 5 5 5 5 3 5 5 5 5 5 5 5 5 5 5 3 5 3 5 5 5 5 5 5 5 5 5 5 5 5 5 5 5 5 5 5 5 5 5 5 5 5 5 5 5 5 5 5 5 3 5 5 5 5 5 3 5 5 5 5 5 5 5 5 5 5 5 5 5 5 5 5 5 5 3 5 5 3 5 5 5 3 5 5 5 5 5 3 5 5 5 5 5 5 5 5 5 5 3 5 5 5 5 5 5 3 5 5 5 5 5 3 3 5 5 3 5 5 3 5 5 5 5 5 5 5 5 5 5 3 5 5 3 5 5 3 5 5 3 5 5 3 5 5 3 5 5 5 5 5 5 3 5 5 5 5 5 5 5 5 5 5 5 3 5 5 5 5 5 5 5 3 5 5 5 5 3 5 5 5 3 5 5 5 5 5 5 5 5 5 5 5 3 5 5 5 5 5 5 5 5 5 5 5 5 5 5 5 5 5 5 5 5 5 5 5 5 3 5 5 5 5 5 3 5 5 5 5 5 5 5 5 5 5 5 5 5 5 3 5 5 3 5 3 5 5 5 5 3 5 3 3 5 3 5 5 5 5 5 5 5 3 5 3 5 5 5 5 5 5 3 5 5 5 5 5 5 3 5 5 5 5 3 5 5 5 5 5 3 5 5 3 5 5 5 5 3 5 5 5 5 3 5 5 5 5 5 5 3 5 5 5 5 5 5 5 5 5 3 5 5 5 5 5 5 3 5 5 5 5 3 5 5 5 5 5 5 5 5 5 5 5 5 5 5 5 5 3 5 5 5 3 5 5 3 5 5 5 5 5 5 5 5 5 5 5 5 5 5 5 5 3 5 3 5 5 5 5 5 5 5 5 5 5 5 5 5 5 5 5 5 5 5 5 5 5 5 5 5 5 3 5 5 3 5 5 5 5 5 5 5 5 5 5 3 5 5 5 5 3 5 5 5 5 3 5 5 5 5 5 5 5 5 5 3 5 5 5 5 5 5 5 5 5 5 5 5 5 5 5 5 5 5 5 5 5 5 5 5 5 5 5 5 
</DataArray>
</Cells>
<PointData Scalars="" Vectors="displacement," Tensors="">
<DataArray type="Float64" Name="displacement" NumberOfComponents="3" format="ascii">
-0.034997113048659115 -2.6487730674895224e-07 0 -0.034111201907280154 -0.00017467265044791307 0 -0.034997652355532337 -7.370007093267307e-07 0 -0.034997113048659115 -2.6487730674895224e-07 0 -0.033464144653812276 -0.00011435773580906777 0 -0.034111201907280154 -0.00017467265044791307 0 -0.034997113048659115 -2.6487730674895224e-07 0 -0.033464144653812276 -0.00011435773580906777 0 -0.031404206873408225 -2.4718176399681152e-07 0 -0.033464144653812276 -0.00011435773580906777 0 -0.031404206873408225 -2.4718176399681152e-07 0 -0.032832746892160973 9.4728801207486578e-05 0 -0.031404206873408225 -2.4718176399681152e-07 0 -0.032832746892160973 9.4728801207486578e-05 0 -0.031202454504190801 -6.7154498738905387e-05 0 -0.033148300221825869 0.00023402810976629106 0 -0.033310372470152061 0.00023594221121482915 0 -0.032832746892160973 9.4728801207486578e-05 0 -0.032178777945901023 0.00038817344105737472 0 -0.032120131191581816 0.00012521147363473128 0 -0.032832746892160973 9.4728801207486578e-05 0 -0.032120131191581816 0.00012521147363473128 0 -0.032197414031356855 8.1601974744278162e-06 0 -0.033464144653812276 -0.00011435773580906777 0 -0.032832746892160973 9.4728801207486578e-05 0 -0.034111201907280154 -0.00017467265044791307 0 -0.032832746892160973 9.4728801207486578e-05 0 -0.034111201907280154 -0.00017467265044791307 0 -0.034442644141535181 0.00027886460492975801 0 -0.034111201907280154 -0.00017467265044791307 0 -0.034886227820386716 -2.544515612861981e-05 0 -0.034442644141535181 0.00027886460492975801 0 -0.034111201907280154 -0.00017467265044791307 0 -0.034997652355532337 -7.370007093267307e-07 0 -0.034886227820386716 -2.544515612861981e-05 0 -0.034999998396113112 1.3843330738908646e-10 0 -0.0349980247633533 -4.69015804903003e-07 0 -0.034999997511114427 -6.1337273390183999e-10 0 -0.034998877187269822 4.4666457152220816e-07 0 -0.034444834172455974 0.00014389404952790214 0 -0.034999997511114427 -6.1337273390183999e-10 0 -0.03499767495361901 -8.8732254315875949e-07 0 -0.034998965383492085 -1.5004395414546102e-06 0 -0.034999997511114427 -6.1337273390183999e-10 0 -0.034999996175871594 -2.3445971026885709e-09 0 -0.034998965383492085 -1.5004395414546102e-06 0 -0.0349980247633533 -4.69015804903003e-07 0 -0.034999997511114427 -6.1337273390183999e-10 0 -0.03499767495361901 -8.8732254315875949e-07 0 -0.0349980247633533 -4.69015804903003e-07 0 -0.03499767495361901 -8.8732254315875949e-07 0 -0.034995179483090243 -6.2754067515751317e-07 0 -0.034444834172455974 0.00014389404952790214 0 -0.03358849220304197 0.00017374965672615754 0 -0.03499767495361901 -8.8732254315875949e-07 0 -0.034997082708973282 -9.2578997518790234e-07 0 -0.034995179483090243 -6.2754067515751317e-07 0 -0.03499767495361901 -8.8732254315875949e-07 0 -0.034997082708973282 -9.2578997518790234e-07 0 -0.034998965383492085 -1.5004395414546102e-06 0 -0.034104615412909031 7.7933633090509027e-05 0 -0.03358849220304197 0.00017374965672615754 0 -0.033319417863219972 0.00017015985933923266 0 -0.033142215206455071 0.00038511388103216663 0 -0.032887225771807652 0.00028168636554692645 0 -0.033319417863219972 0.00017015985933923266 0 -0.033142215206455071 0.00038511388103216663 0 -0.033373085361779617 0.00043807824756840794 0 -0.033142215206455071 0.00038511388103216663 0 -0.032887225771807652 0.00028168636554692645 0 -0.033096565820523428 0.0006469075577379338 0 -0.031813732718428453 0.00046393529685123756 0 -0.031671526383069297 0.00023273818125251191 0 -0.031949043825695952 0.00027551392421368374 0 -0.03358849220304197 0.00017374965672615754 0 -0.032679188735867212 0.00037298626890541503 0 -0.031671526383069297 0.00023273818125251191 0 -0.031949043825695952 0.00027551392421368374 0 -0.031868355864280079 0.00013336081899538351 0 -0.033096565820523428 0.0006469075577379338 0 -0.033373085361779617 0.00043807824756840794 0 -0.033442803155823993 0.00066402443343092075 0 -0.033142215206455071 0.00038511388103216663 0 -0.033096565820523428 0.0006469075577379338 0 -0.033373085361779617 0.00043807824756840794 0 -0.031813732718428453 0.00046393529685123756 0 -0.032178777945901023 0.00038817344105737472 0 -0.031949043825695952 0.00027551392421368374 0 -0.03358849220304197 0.00017374965672615754 0 -0.033310372470152061 0.00023594221121482915 0 -0.034886227820386716 -2.544515612861981e-05 0 -0.035009501731799231 0.00024760720052786949 0 -0.034442644141535181 0.00027886460492975801 0 -0.031949043825695952 0.00027551392421368374 0 -0.032120131191581816 0.00012521147363473128 0 -0.032003436904351236 0.0001468490609228668 0 -0.031949043825695952 0.00027551392421368374 0 -0.032003436904351236 0.0001468490609228668 0 -0.031868355864280079 0.00013336081899538351 0 -0.032178777945901023 0.00038817344105737472 0 -0.031949043825695952 0.00027551392421368374 0 -0.032120131191581816 0.00012521147363473128 0 -0.032120131191581816 0.00012521147363473128 0 -0.032117922350315721 6.5074750512468166e-05 0 -0.032197414031356855 8.1601974744278162e-06 0 -0.032117922350315721 6.5074750512468166e-05 0 -0.032126197378100969 9.5647664990987054e-05 0 -0.032197414031356855 8.1601974744278162e-06 0 -0.032117922350315721 6.5074750512468166e-05 0 -0.032082475786443909 6.8782284514233428e-05 0 -0.032092700470949323 7.4428030076741038e-05 0 -0.032117922350315721 6.5074750512468166e-05 0 -0.032066787330963818 8.933906501771454e-05 0 -0.032082475786443909 6.8782284514233428e-05 0 -0.032120131191581816 0.00012521147363473128 0 -0.032117922350315721 6.5074750512468166e-05 0 -0.032066787330963818 8.933906501771454e-05 0 -0.032120131191581816 0.00012521147363473128 0 -0.032003436904351236 0.0001468490609228668 0 -0.032066787330963818 8.933906501771454e-05 0 -0.032003436904351236 0.0001468490609228668 0 -0.032066787330963818 8.933906501771454e-05 0 -0.032006997007422683 7.3328089446346705e-05 0 -0.032003436904351236 0.0001468490609228668 0 -0.032006997007422683 7.3328089446346705e-05 0 -0.031868355864280079 0.00013336081899538351 0 -0.032006997007422683 7.3328089446346705e-05 0 -0.031868355864280079 0.00013336081899538351 0 -0.031866373040740893 7.3015293475677159e-07 0 -0.028824085023540003 0.00078058412073654887 0 -0.028719482737250435 0.00083345558642088135 0 -0.032006997007422683 7.3328089446346705e-05 0 -0.032050360191905831 5.5796972408859264e-05 0 -0.032011283420894425 -9.4960791391544296e-06 0 -0.032006997007422683 7.3328089446346705e-05 0 -0.031976383399830485 -6.4146939518837625e-05 0 -0.031866373040740893 7.3015293475677159e-07 0 -0.028819737358658316 0.0008687857970214849 0 -0.028719482737250435 0.00083345558642088135 0 -0.032050360191905831 5.5796972408859264e-05 0 -0.032092700470949323 7.4428030076741038e-05 0 -0.03208833411820583 7.8251368041464757e-05 0 -0.032066787330963818 8.933906501771454e-05 0 -0.032082475786443909 6.8782284514233428e-05 0 -0.032050360191905831 5.5796972408859264e-05 0 -0.032066787330963818 8.933906501771454e-05 0 -0.032006997007422683 7.3328089446346705e-05 0 -0.032050360191905831 5.5796972408859264e-05 0 -0.032082475786443909 6.8782284514233428e-05 0 -0.032050360191905831 5.5796972408859264e-05 0 -0.032092700470949323 7.4428030076741038e-05 0 -0.032092700470949323 7.4428030076741038e-05 0 -0.03208833411820583 7.8251368041464757e-05 0 -0.032097929862439173 9.495402977565785e-05 0 -0.028719482737250435 0.00083345558642088135 0 -0.027947941007251915 0.00063577759661310551 0 -0.03208833411820583 7.8251368041464757e-05 0 -0.032097929862439173 9.495402977565785e-05 0 -0.032095501084331228 0.00011305464466558948 0 -0.032097929862439173 9.495402977565785e-05 0 -0.032126197378100969 9.5647664990987054e-05 0 -0.032094317875473219 0.00012041579320225384 0 -0.032126197378100969 9.5647664990987054e-05 0 -0.032094317875473219 0.00012041579320225384 0 -0.032122207872033452 0.00016088834881269992 0 -0.032092700470949323 7.4428030076741038e-05 0 -0.032097929862439173 9.495402977565785e-05 0 -0.032126197378100969 9.5647664990987054e-05 0 -0.032117922350315721 6.5074750512468166e-05 0 -0.032092700470949323 7.4428030076741038e-05 0 -0.032126197378100969 9.5647664990987054e-05 0 -0.031671526383069297 0.00023273818125251191 0 -0.031496842624455408 -1.9324116852037554e-05 0 -0.031718557125462774 1.7600043447895663e-05 0 -0.033096565820523428 0.0006469075577379338 0 -0.033304021333770535 0.00099473425183476544 0 -0.033442803155823993 0.00066402443343092075 0 -0.032679188735867212 0.00037298626890541503 0 -0.031981499228808934 0.00069647969258037257 0 -0.031496842624455408 -1.9324116852037554e-05 0 -0.031718557125462774 1.7600043447895663e-05 0 -0.031627497683661868 -0.00010977161828011895 0 -0.031671526383069297 0.00023273818125251191 0 -0.031718557125462774 1.7600043447895663e-05 0 -0.031868355864280079 0.00013336081899538351 0 -0.031718557125462774 1.7600043447895663e-05 0 -0.031868355864280079 0.00013336081899538351 0 -0.031866373040740893 7.3015293475677159e-07 0 -0.031976383399830485 -6.4146939518837625e-05 0 -0.031774680591615055 -0.00015755276592274703 0 -0.031784491411865679 -0.00038121159126791408 0 -0.028719482737250435 0.00083345558642088135 0 -0.028059891795331238 0.00089923103612482265 0 -0.031718557125462774 1.7600043447895663e-05 0 -0.031866373040740893 7.3015293475677159e-07 0 -0.031774680591615055 -0.00015755276592274703 0 -0.031976383399830485 -6.4146939518837625e-05 0 -0.031866373040740893 7.3015293475677159e-07 0 -0.031774680591615055 -0.00015755276592274703 0 -0.031718557125462774 1.7600043447895663e-05 0 -0.031774680591615055 -0.00015755276592274703 0 -0.031627497683661868 -0.00010977161828011895 0 -0.031774680591615055 -0.00015755276592274703 0 -0.031627497683661868 -0.00010977161828011895 0 -0.031520649064208275 -0.00028140944409156044 0 -0.031496842624455408 -1.9324116852037554e-05 0 -0.031520649064208275 -0.00028140944409156044 0 -0.031333843378394927 -0.00028386647604824636 0 -0.031496842624455408 -1.9324116852037554e-05 0 -0.031627497683661868 -0.00010977161828011895 0 -0.031520649064208275 -0.00028140944409156044 0 -0.031520649064208275 -0.00028140944409156044 0 -0.031571318438028212 -0.00047380866697775421 0 -0.031784491411865679 -0.00038121159126791408 0 -0.031520649064208275 -0.00028140944409156044 0 -0.031571318438028212 -0.00047380866697775421 0 -0.031397433029172812 -0.00049768455186623671 0 -0.031774680591615055 -0.00015755276592274703 0 -0.031520649064208275 -0.00028140944409156044 0 -0.031784491411865679 -0.00038121159126791408 0 -0.028059891795331238 0.00089923103612482265 0 -0.0263187392991154 0.0010116919045706728 0 -0.02739209812620344 0.00079717260515491703 0 -0.027486668596474792 0.00044188042255474479 0 -0.027188205310556879 0.00044664631246397872 0 -0.02739209812620344 0.00079717260515491703 0 -0.027486668596474792 0.00044188042255474479 0 -0.027541617759001668 0.00079482505597252098 0 -0.02633200179235486 0.0003685444589524095 0 -0.0263187392991154 0.0010116919045706728 0 -0.031579764007505104 -0.00073813119660809119 0 -0.031397433029172812 -0.00049768455186623671 0 -0.031298024576492771 -0.00073942969300880334 0 -0.031571318438028212 -0.00047380866697775421 0 -0.031579764007505104 -0.00073813119660809119 0 -0.031397433029172812 -0.00049768455186623671 0 -0.0263187392991154 0.0010116919045706728 0 -0.027827541919894092 0.00089298111893395258 0 -0.031571318438028212 -0.00047380866697775421 0 -0.031784491411865679 -0.00038121159126791408 0 -0.031579764007505104 -0.00073813119660809119 0 -0.027598269912045666 0.0011471424019609544 0 -0.02739209812620344 0.00079717260515491703 0 -0.027541617759001668 0.00079482505597252098 0 -0.032097929862439173 9.495402977565785e-05 0 -0.032094317875473219 0.00012041579320225384 0 -0.032095501084331228 0.00011305464466558948 0 -0.03207987776439538 0.00012045726048735304 0 -0.032094317875473219 0.00012041579320225384 0 -0.032095501084331228 0.00011305464466558948 0 -0.02633200179235486 0.0003685444589524095 0 -0.027947941007251915 0.00063577759661310551 0 -0.03207987776439538 0.00012045726048735304 0 -0.032094317875473219 0.00012041579320225384 0 -0.032086926990321313 0.0001236683219647573 0 -0.032094317875473219 0.00012041579320225384 0 -0.032100801583817951 0.00013031215373586082 0 -0.032086926990321313 0.0001236683219647573 0 -0.032100801583817951 0.00013031215373586082 0 -0.032085729598618377 0.00013156545521120759 0 -0.032086926990321313 0.0001236683219647573 0 -0.032094317875473219 0.00012041579320225384 0 -0.032100801583817951 0.00013031215373586082 0 -0.032122207872033452 0.00016088834881269992 0 -0.032100801583817951 0.00013031215373586082 0 -0.032106920879192452 0.00014165914555174417 0 -0.032122207872033452 0.00016088834881269992 0 -0.031663146498790165 0.00060420279591015503 0 -0.029695957828582826 0.00072672053800991844 0 -0.031054767571220835 0.00020549936339072874 0 -0.023806751226528772 0.0016205586617386242 0 -0.024010961980872915 0.00083746523860337818 0 -0.024934171011264022 0.0010325565591755863 0 -0.02828817207039927 -0.00057092367116428147 0 -0.027400011557119765 -5.1536388494039004e-05 0 -0.02828817207039927 -0.00057092367116428147 0 -0.028297500596883806 -0.00056755150121507673 0 -0.02828817207039927 -0.00057092367116428147 0 -0.027517490223507579 0.00016468742689566989 0 -0.032100801583817951 0.00013031215373586082 0 -0.032106920879192452 0.00014165914555174417 0 -0.032094943253007026 0.00013163316168331035 0 -0.032100801583817951 0.00013031215373586082 0 -0.032094943253007026 0.00013163316168331035 0 -0.032085729598618377 0.00013156545521120759 0 -0.027517490223507579 0.00016468742689566989 0 -0.026671656775202054 0.0007294941317483424 0 -0.024010961980872915 0.00083746523860337818 0 -0.024544239877183668 0.00054786223163390746 0 -0.024218211754317879 2.9345984350676881e-05 0 -0.024544239877183668 0.00054786223163390746 0 -0.024934171011264022 0.0010325565591755863 0 -0.024849421450487658 7.1588686070030641e-06 0 -0.024934171011264022 0.0010325565591755863 0 -0.025533785617223883 -0.00012652996693446051 0 -0.024849421450487658 7.1588686070030641e-06 0 -0.024544239877183668 0.00054786223163390746 0 -0.024849421450487658 7.1588686070030641e-06 0 -0.024218211754317879 2.9345984350676881e-05 0 -0.024010961980872915 0.00083746523860337818 0 -0.024544239877183668 0.00054786223163390746 0 -0.024934171011264022 0.0010325565591755863 0 -0.026667557404880707 1.7473977637321889e-07 0 -0.027400011557119765 -5.1536388494039004e-05 0 -0.026663343324124927 1.7748009132523364e-06 0 -0.024934171011264022 0.0010325565591755863 0 -0.025533785617223883 -0.00012652996693446051 0 -0.026669733438867856 2.8189054370812304e-06 0 -0.029695957828582826 0.00072672053800991844 0 -0.028698735472065889 -5.1593979261388865e-07 0 -0.029695957828582826 0.00072672053800991844 0 -0.031054767571220835 0.00020549936339072874 0 -0.028698735472065889 -5.1593979261388865e-07 0 -0.031054767571220835 0.00020549936339072874 0 -0.028698735472065889 -5.1593979261388865e-07 0 -0.031202454504190801 -6.7154498738905387e-05 0 -0.031404206873408225 -2.4718176399681152e-07 0 -0.028698735472065889 -5.1593979261388865e-07 0 -0.031202454504190801 -6.7154498738905387e-05 0 -0.031054767571220835 0.00020549936339072874 0 -0.031202454504190801 -6.7154498738905387e-05 0 -0.031917353062386203 2.3423109862309767e-05 0 -0.032832746892160973 9.4728801207486578e-05 0 -0.031202454504190801 -6.7154498738905387e-05 0 -0.031917353062386203 2.3423109862309767e-05 0 -0.032832746892160973 9.4728801207486578e-05 0 -0.031917353062386203 2.3423109862309767e-05 0 -0.032197414031356855 8.1601974744278162e-06 0 -0.031917353062386203 2.3423109862309767e-05 0 -0.032197414031356855 8.1601974744278162e-06 0 -0.031915498996879593 0.00013198917739829652 0 -0.032197414031356855 8.1601974744278162e-06 0 -0.032122207872033452 0.00016088834881269992 0 -0.031915498996879593 0.00013198917739829652 0 -0.032126197378100969 9.5647664990987054e-05 0 -0.032197414031356855 8.1601974744278162e-06 0 -0.032122207872033452 0.00016088834881269992 0 -0.031703981850197238 0.00057189774411564858 0 -0.032122207872033452 0.00016088834881269992 0 -0.031722432041779575 0.00047206994535750748 0 -0.032122207872033452 0.00016088834881269992 0 -0.031722432041779575 0.00047206994535750748 0 -0.031915498996879593 0.00013198917739829652 0 -0.02828817207039927 -0.00057092367116428147 0 -0.029215259149103348 -0.00079950139073571536 0 -0.031054767571220835 0.00020549936339072874 0 -0.031722432041779575 0.00047206994535750748 0 -0.031915498996879593 0.00013198917739829652 0 -0.031663146498790165 0.00060420279591015503 0 -0.031054767571220835 0.00020549936339072874 0 -0.031722432041779575 0.00047206994535750748 0 -0.031054767571220835 0.00020549936339072874 0 -0.031917353062386203 2.3423109862309767e-05 0 -0.031915498996879593 0.00013198917739829652 0 -0.03227689404430089 0.00032214571148309404 0 -0.030764959441568495 0.0011422434055013504 0 -0.034771979156942884 -0.00036409905544888566 0 -0.03482224837371431 -0.0015600359160465962 0 -0.034185279582829763 -0.00059485931384884458 0 -0.034929292595867585 0.0001277441368735366 0 -0.034961024828988829 9.8016103774762199e-05 0 -0.034966114183150529 0.00016899200714847259 0 -0.034929292595867585 0.0001277441368735366 0 -0.034922098819042548 0.00018773431755907818 0 -0.034966114183150529 0.00016899200714847259 0 -0.034929292595867585 0.0001277441368735366 0 -0.034887943355080032 0.00018036791378849338 0 -0.034922098819042548 0.00018773431755907818 0 -0.034929292595867585 0.0001277441368735366 0 -0.034937330951665832 6.8135502708777232e-05 0 -0.034937773306691344 6.3120082037563068e-05 0 -0.034929292595867585 0.0001277441368735366 0 -0.034937330951665832 6.8135502708777232e-05 0 -0.034961024828988829 9.8016103774762199e-05 0 -0.03227689404430089 0.00032214571148309404 0 -0.032730829562898592 0.00024716675691759099 0 -0.034937330951665832 6.8135502708777232e-05 0 -0.034961024828988829 9.8016103774762199e-05 0 -0.034891190440222888 5.9934590040885663e-05 0 -0.034771979156942884 -0.00036409905544888566 0 -0.034891190440222888 5.9934590040885663e-05 0 -0.034254805449541202 4.7997452816133481e-05 0 -0.034891190440222888 5.9934590040885663e-05 0 -0.034999904209563441 1.1831952622398315e-07 0 -0.034956679617899611 3.8094744115333992e-05 0 -0.034891190440222888 5.9934590040885663e-05 0 -0.034999904209563441 1.1831952622398315e-07 0 -0.034713825421289701 7.2083581917077304e-05 0 -0.034999904209563441 1.1831952622398315e-07 0 -0.034956679617899611 3.8094744115333992e-05 0 -0.034999921273728467 -5.5062156017819115e-09 0 -0.034937330951665832 6.8135502708777232e-05 0 -0.034891190440222888 5.9934590040885663e-05 0 -0.034956679617899611 3.8094744115333992e-05 0 -0.034937330951665832 6.8135502708777232e-05 0 -0.034956679617899611 3.8094744115333992e-05 0 -0.034937773306691344 6.3120082037563068e-05 0 -0.034937773306691344 6.3120082037563068e-05 0 -0.034958154147241273 1.0424883618424299e-05 0 -0.034918207555241491 4.7564405064247851e-05 0 -0.034956679617899611 3.8094744115333992e-05 0 -0.034937773306691344 6.3120082037563068e-05 0 -0.034958154147241273 1.0424883618424299e-05 0 -0.034999921273728467 -5.5062156017819115e-09 0 -0.034958154147241273 1.0424883618424299e-05 0 -0.0349999124587815 1.0347716230853043e-08 0 -0.034956679617899611 3.8094744115333992e-05 0 -0.034999921273728467 -5.5062156017819115e-09 0 -0.034958154147241273 1.0424883618424299e-05 0 -0.034958154147241273 1.0424883618424299e-05 0 -0.0349999124587815 1.0347716230853043e-08 0 -0.034936868530625824 -1.1950807639301749e-05 0 -0.034936868530625824 -1.1950807639301749e-05 0 -0.034918207555241491 4.7564405064247851e-05 0 -0.034815109118801799 4.0406863229543625e-05 0 -0.034958154147241273 1.0424883618424299e-05 0 -0.034936868530625824 -1.1950807639301749e-05 0 -0.034918207555241491 4.7564405064247851e-05 0 -0.034918207555241491 4.7564405064247851e-05 0 -0.034845888230644148 0.00011095926865568892 0 -0.034815109118801799 4.0406863229543625e-05 0 -0.034845888230644148 0.00011095926865568892 0 -0.034840605504946692 0.00017226506001223802 0 -0.034782363283704723 0.00016621184029505179 0 -0.034845888230644148 0.00011095926865568892 0 -0.034901917769214738 0.00011616662343478738 0 -0.034840605504946692 0.00017226506001223802 0 -0.034918207555241491 4.7564405064247851e-05 0 -0.034845888230644148 0.00011095926865568892 0 -0.034901917769214738 0.00011616662343478738 0 -0.034929292595867585 0.0001277441368735366 0 -0.034937773306691344 6.3120082037563068e-05 0 -0.034901917769214738 0.00011616662343478738 0 -0.034937773306691344 6.3120082037563068e-05 0 -0.034918207555241491 4.7564405064247851e-05 0 -0.034901917769214738 0.00011616662343478738 0 -0.034929292595867585 0.0001277441368735366 0 -0.034901917769214738 0.00011616662343478738 0 -0.034887943355080032 0.00018036791378849338 0 -0.034901917769214738 0.00011616662343478738 0 -0.034887943355080032 0.00018036791378849338 0 -0.034840605504946692 0.00017226506001223802 0 -0.034887943355080032 0.00018036791378849338 0 -0.034840605504946692 0.00017226506001223802 0 -0.034827129482239025 0.00023193169434597305 0 -0.034840605504946692 0.00017226506001223802 0 -0.034756410789490946 0.00022144932286900901 0 -0.034827129482239025 0.00023193169434597305 0 -0.034840605504946692 0.00017226506001223802 0 -0.034782363283704723 0.00016621184029505179 0 -0.034756410789490946 0.00022144932286900901 0 -0.032703728920029908 0.0011159933014472743 0 -0.032937212635474791 0.00099840860452422961 0 -0.034704659936096366 0.00025814585639408617 0 -0.034627114928636495 0.00026391196603070815 0 -0.034677231030850596 0.00016389381557428351 0 -0.034782363283704723 0.00016621184029505179 0 -0.034756410789490946 0.00022144932286900901 0 -0.034677231030850596 0.00016389381557428351 0 -0.034433627351451848 0.00097425903581497577 0 -0.034349616240744625 0.00066317176308824716 0 -0.034640709108583675 9.3647094343208951e-05 0 -0.032627832367308068 0.0010059465504131356 0 -0.033137213685827359 0.0010097705746164452 0 -0.034433627351451848 0.00097425903581497577 0 -0.034349616240744625 0.00066317176308824716 0 -0.034031751392241433 0.00062890888591243951 0 -0.034349616240744625 0.00066317176308824716 0 -0.034640709108583675 9.3647094343208951e-05 0 -0.034429053630240972 0.00023686226713272106 0 -0.032627832367308068 0.0010059465504131356 0 -0.033320814507737204 0.00028264311112207959 0 -0.034627114928636495 0.00026391196603070815 0 -0.034640709108583675 9.3647094343208951e-05 0 -0.034677231030850596 0.00016389381557428351 0 -0.034349616240744625 0.00066317176308824716 0 -0.034300011074479844 0.00039393589048870501 0 -0.034141563810475388 0.00044134252683379805 0 -0.034349616240744625 0.00066317176308824716 0 -0.034300011074479844 0.00039393589048870501 0 -0.034429053630240972 0.00023686226713272106 0 -0.034300011074479844 0.00039393589048870501 0 -0.034237857719920453 0.00022067613630551017 0 -0.034141563810475388 0.00044134252683379805 0 -0.034300011074479844 0.00039393589048870501 0 -0.034237857719920453 0.00022067613630551017 0 -0.034429053630240972 0.00023686226713272106 0 -0.034640709108583675 9.3647094343208951e-05 0 -0.034758522641225836 0.00012006231598766418 0 -0.034815109118801799 4.0406863229543625e-05 0 -0.034640709108583675 9.3647094343208951e-05 0 -0.034677231030850596 0.00016389381557428351 0 -0.034758522641225836 0.00012006231598766418 0 -0.034845888230644148 0.00011095926865568892 0 -0.034782363283704723 0.00016621184029505179 0 -0.034758522641225836 0.00012006231598766418 0 -0.034782363283704723 0.00016621184029505179 0 -0.034677231030850596 0.00016389381557428351 0 -0.034758522641225836 0.00012006231598766418 0 -0.034845888230644148 0.00011095926865568892 0 -0.034758522641225836 0.00012006231598766418 0 -0.034815109118801799 4.0406863229543625e-05 0 -0.034936868530625824 -1.1950807639301749e-05 0 -0.034815109118801799 4.0406863229543625e-05 0 -0.034623541238347759 -9.9107001509448828e-05 0 -0.034776917554773405 -3.8312560132995774e-05 0 -0.034683478708759402 -2.701350120671397e-05 0 -0.034936868530625824 -1.1950807639301749e-05 0 -0.034984117885492549 -2.8131430470699571e-06 0 -0.035000491655202172 -1.3506882086627732e-05 0 -0.034640709108583675 9.3647094343208951e-05 0 -0.034815109118801799 4.0406863229543625e-05 0 -0.034623541238347759 -9.9107001509448828e-05 0 -0.0349999124587815 1.0347716230853043e-08 0 -0.035000015537675976 -4.3067193088877264e-09 0 -0.034996063730613605 -1.6093462360356948e-06 0 -0.0349999124587815 1.0347716230853043e-08 0 -0.034984117885492549 -2.8131430470699571e-06 0 -0.034996063730613605 -1.6093462360356948e-06 0 -0.0349999124587815 1.0347716230853043e-08 0 -0.034936868530625824 -1.1950807639301749e-05 0 -0.034984117885492549 -2.8131430470699571e-06 0 -0.034984117885492549 -2.8131430470699571e-06 0 -0.034996063730613605 -1.6093462360356948e-06 0 -0.035000491655202172 -1.3506882086627732e-05 0 -0.034996063730613605 -1.6093462360356948e-06 0 -0.035000491655202172 -1.3506882086627732e-05 0 -0.035000801901524194 -3.2818772661255699e-06 0 -0.035000015537675976 -4.3067193088877264e-09 0 -0.034996063730613605 -1.6093462360356948e-06 0 -0.035000801901524194 -3.2818772661255699e-06 0 -0.034683478708759402 -2.701350120671397e-05 0 -0.034432475247734837 1.5731529239694968e-05 0 -0.035000491655202172 -1.3506882086627732e-05 0 -0.034999675097859888 -3.1840285012085771e-06 0 -0.035000801901524194 -3.2818772661255699e-06 0 -0.034237857719920453 0.00022067613630551017 0 -0.034623541238347759 -9.9107001509448828e-05 0 -0.033908584667918393 8.4001726740632188e-07 0 -0.034640709108583675 9.3647094343208951e-05 0 -0.034429053630240972 0.00023686226713272106 0 -0.034623541238347759 -9.9107001509448828e-05 0 -0.034237857719920453 0.00022067613630551017 0 -0.034429053630240972 0.00023686226713272106 0 -0.034623541238347759 -9.9107001509448828e-05 0 -0.034999675097859888 -3.1840285012085771e-06 0 -0.035000801901524194 -3.2818772661255699e-06 0 -0.034998965383492085 -1.5004395414546102e-06 0 -0.035000015537675976 -4.3067193088877264e-09 0 -0.035000801901524194 -3.2818772661255699e-06 0 -0.034999996175871594 -2.3445971026885709e-09 0 -0.035000801901524194 -3.2818772661255699e-06 0 -0.034999996175871594 -2.3445971026885709e-09 0 -0.034998965383492085 -1.5004395414546102e-06 0 -0.034997082708973282 -9.2578997518790234e-07 0 -0.034999675097859888 -3.1840285012085771e-06 0 -0.034998965383492085 -1.5004395414546102e-06 0 -0.034104615412909031 7.7933633090509027e-05 0 -0.034432475247734837 1.5731529239694968e-05 0 -0.033319417863219972 0.00017015985933923266 0 -0.033373085361779617 0.00043807824756840794 0 -0.033639453331465695 0.00028142233253598153 0 -0.033319417863219972 0.00017015985933923266 0 -0.033908584667918393 8.4001726740632188e-07 0 -0.033639453331465695 0.00028142233253598153 0 -0.033373085361779617 0.00043807824756840794 0 -0.033639453331465695 0.00028142233253598153 0 -0.033596604117570199 0.00048369439398089962 0 -0.033908584667918393 8.4001726740632188e-07 0 -0.033639453331465695 0.00028142233253598153 0 -0.033973533973582958 0.00031798614739070991 0 -0.034237857719920453 0.00022067613630551017 0 -0.033908584667918393 8.4001726740632188e-07 0 -0.033973533973582958 0.00031798614739070991 0 -0.034237857719920453 0.00022067613630551017 0 -0.033973533973582958 0.00031798614739070991 0 -0.034141563810475388 0.00044134252683379805 0 -0.033973533973582958 0.00031798614739070991 0 -0.034141563810475388 0.00044134252683379805 0 -0.034031751392241433 0.00062890888591243951 0 -0.033639453331465695 0.00028142233253598153 0 -0.033829532819100977 0.00050932690945275859 0 -0.033596604117570199 0.00048369439398089962 0 -0.033639453331465695 0.00028142233253598153 0 -0.033973533973582958 0.00031798614739070991 0 -0.034031751392241433 0.00062890888591243951 0 -0.033212804927676857 0.00094101858561069433 0 -0.033137213685827359 0.0010097705746164452 0 -0.033829532819100977 0.00050932690945275859 0 -0.033683492204595565 0.00060286765900494142 0 -0.033596604117570199 0.00048369439398089962 0 -0.034349616240744625 0.00066317176308824716 0 -0.034141563810475388 0.00044134252683379805 0 -0.034031751392241433 0.00062890888591243951 0 -0.033829532819100977 0.00050932690945275859 0 -0.033851274655240231 0.0006194451968666232 0 -0.033683492204595565 0.00060286765900494142 0 -0.034028104808809689 0.00069572143734642031 0 -0.033829532819100977 0.00050932690945275859 0 -0.033851274655240231 0.0006194451968666232 0 -0.033851274655240231 0.0006194451968666232 0 -0.03374080341758659 0.0007207993083335109 0 -0.033791176777130449 0.00084958320563233267 0 -0.033851274655240231 0.0006194451968666232 0 -0.03374080341758659 0.0007207993083335109 0 -0.033683492204595565 0.00060286765900494142 0 -0.03374080341758659 0.0007207993083335109 0 -0.033683492204595565 0.00060286765900494142 0 -0.033584753672320673 0.0008256294446372821 0 -0.033683492204595565 0.00060286765900494142 0 -0.033442803155823993 0.00066402443343092075 0 -0.033584753672320673 0.0008256294446372821 0 -0.033373085361779617 0.00043807824756840794 0 -0.033442803155823993 0.00066402443343092075 0 -0.033596604117570199 0.00048369439398089962 0 -0.033683492204595565 0.00060286765900494142 0 -0.033442803155823993 0.00066402443343092075 0 -0.033596604117570199 0.00048369439398089962 0 -0.033304021333770535 0.00099473425183476544 0 -0.033442803155823993 0.00066402443343092075 0 -0.033584753672320673 0.0008256294446372821 0 -0.033304021333770535 0.00099473425183476544 0 -0.033584753672320673 0.0008256294446372821 0 -0.033553889842424599 0.0010687165600355463 0 -0.033584753672320673 0.0008256294446372821 0 -0.033713941436365649 0.0010082937572261127 0 -0.033553889842424599 0.0010687165600355463 0 -0.033851274655240231 0.0006194451968666232 0 -0.033791176777130449 0.00084958320563233267 0 -0.03398694964981322 0.0009671950280186498 0 -0.03374080341758659 0.0007207993083335109 0 -0.033584753672320673 0.0008256294446372821 0 -0.033791176777130449 0.00084958320563233267 0 -0.033791176777130449 0.00084958320563233267 0 -0.033855986847505425 0.00099801213224240013 0 -0.033713941436365649 0.0010082937572261127 0 -0.033791176777130449 0.00084958320563233267 0 -0.033855986847505425 0.00099801213224240013 0 -0.03398694964981322 0.0009671950280186498 0 -0.033584753672320673 0.0008256294446372821 0 -0.033791176777130449 0.00084958320563233267 0 -0.033713941436365649 0.0010082937572261127 0 -0.033713941436365649 0.0010082937572261127 0 -0.033684937825563428 0.0011750045971092255 0 -0.033553889842424599 0.0010687165600355463 0 -0.033684937825563428 0.0011750045971092255 0 -0.033492088251758041 0.0013250244640865129 0 -0.033887850953278995 0.0013325236813425726 0 -0.033713941436365649 0.0010082937572261127 0 -0.033828074054273065 0.0010953481970201319 0 -0.033684937825563428 0.0011750045971092255 0 -0.033855986847505425 0.00099801213224240013 0 -0.033713941436365649 0.0010082937572261127 0 -0.033828074054273065 0.0010953481970201319 0 -0.033855986847505425 0.00099801213224240013 0 -0.033828074054273065 0.0010953481970201319 0 -0.033961889339349953 0.0010707931211762676 0 -0.031809637544241008 0.0013498682272935524 0 -0.031613775471974782 0.0013834682681620311 0 -0.033828074054273065 0.0010953481970201319 0 -0.033684937825563428 0.0011750045971092255 0 -0.033887850953278995 0.0013325236813425726 0 -0.033828074054273065 0.0010953481970201319 0 -0.033887850953278995 0.0013325236813425726 0 -0.03394874424421921 0.0010730930856304201 0 -0.033304021333770535 0.00099473425183476544 0 -0.033553889842424599 0.0010687165600355463 0 -0.033492088251758041 0.0013250244640865129 0 -0.031981499228808934 0.00069647969258037257 0 -0.031097151834191837 0.0010947423906231268 0 -0.033684937825563428 0.0011750045971092255 0 -0.033553889842424599 0.0010687165600355463 0 -0.033492088251758041 0.0013250244640865129 0 -0.031179935647122237 0.00099477834072360144 0 -0.031097151834191837 0.0010947423906231268 0 -0.031520649064208275 -0.00028140944409156044 0 -0.031277712386209126 -0.00027841767111332045 0 -0.031397433029172812 -0.00049768455186623671 0 -0.031097151834191837 0.0010947423906231268 0 -0.029781252556478236 0.00092914483659259513 0 -0.031277712386209126 -0.00027841767111332045 0 -0.031397433029172812 -0.00049768455186623671 0 -0.031142302719855953 -0.00050569821019784183 0 -0.031397433029172812 -0.00049768455186623671 0 -0.031142302719855953 -0.00050569821019784183 0 -0.031298024576492771 -0.00073942969300880334 0 -0.027827541919894092 0.00089298111893395258 0 -0.028399025463274413 0.0010303501760883529 0 -0.031142302719855953 -0.00050569821019784183 0 -0.031298024576492771 -0.00073942969300880334 0 -0.031006140410900006 -0.00073494412548037638 0 -0.029784633230109367 0.0011129066568231229 0 -0.02971790317282564 0.0010183708568082975 0 -0.029679213663807047 0.0012030406234663799 0 -0.029141807018946773 0.0015701289709656951 0 -0.029204067928653453 0.0013182712822081197 0 -0.029261663868554076 0.0014543341552119382 0 -0.028379675397196394 0.0010957400937152827 0 -0.030634073237976268 0.0012162088163562047 0 -0.02830145640067289 0.0010603109370847042 0 -0.0280337554118683 0.0010639214791344207 0 -0.028316812677180656 0.00099464210081820904 0 -0.028379675397196394 0.0010957400937152827 0 -0.028007845921734751 0.0014798533061888737 0 -0.028229557511499533 0.00099606960595232242 0 -0.028065984044117458 0.00099845254170420703 0 -0.028181046517461745 0.0012041973064290444 0 -0.028379675397196394 0.0010957400937152827 0 -0.028399025463274413 0.0010303501760883529 0 -0.029784633230109367 0.0011129066568231229 0 -0.02971790317282564 0.0010183708568082975 0 -0.029728909410347223 0.0010182087259719942 0 -0.029781252556478236 0.00092914483659259513 0 -0.028399025463274413 0.0010303501760883529 0 -0.031097151834191837 0.0010947423906231268 0 -0.030634073237976268 0.0012162088163562047 0 -0.029840010435368502 0.0012077056742983436 0 -0.029784633230109367 0.0011129066568231229 0 -0.029679213663807047 0.0012030406234663799 0 -0.030634073237976268 0.0012162088163562047 0 -0.030180797441936101 0.0015652825103253168 0 -0.029336382346711078 0.0013224337032713529 0 -0.029261663868554076 0.0014543341552119382 0 -0.029406316212720107 0.0014919194960255264 0 -0.029204067928653453 0.0013182712822081197 0 -0.029336382346711078 0.0013224337032713529 0 -0.029261663868554076 0.0014543341552119382 0 -0.028007845921734751 0.0014798533061888737 0 -0.027907332573054354 0.0023942190056672787 0 -0.029261663868554076 0.0014543341552119382 0 -0.029219286918672406 0.001569187530160338 0 -0.029406316212720107 0.0014919194960255264 0 -0.028007845921734751 0.0014798533061888737 0 -0.028607112485213596 0.0020269880528893504 0 -0.029141807018946773 0.0015701289709656951 0 -0.029261663868554076 0.0014543341552119382 0 -0.029219286918672406 0.001569187530160338 0 -0.028205672773980572 0.0020963146653972249 0 -0.028164582962420304 0.0020979827815627099 0 -0.028170834124412094 0.002111899804721535 0 -0.02843588110332148 0.0027579181899747679 0 -0.028473951980545 0.0028456164969572206 0 -0.028248184057420259 0.0028440302165130315 0 -0.027907332573054354 0.0023942190056672787 0 -0.028607112485213596 0.0020269880528893504 0 -0.02949300551559806 0.0018264063153831701 0 -0.029491530981361733 0.0018266350311955939 0 -0.029492905404043875 0.00182685728270515 0 -0.030180797441936101 0.0015652825103253168 0 -0.028607112485213596 0.0020269880528893504 0 -0.030180797441936101 0.0015652825103253168 0 -0.030018380348373112 0.0020506129292299012 0 -0.030891831079297119 0.0016545766644364261 0 -0.030851918160980537 0.0016893110914539054 0 -0.030789696123869087 0.0016523695204404276 0 -0.030851918160980537 0.0016893110914539054 0 -0.030918348228231422 0.0017132141609523172 0 -0.030846188392207742 0.0017266368179038739 0 -0.031511513227180807 0.0014330687276531949 0 -0.031864748500199519 0.0014843635952430613 0 -0.030851918160980537 0.0016893110914539054 0 -0.030846188392207742 0.0017266368179038739 0 -0.03081344015516415 0.0016998726983797167 0 -0.030836062526586449 0.0015452385864603818 0 -0.030963200381309154 0.0012624583237417976 0 -0.030900162840097563 0.0012741466441977512 0 -0.030836062526586449 0.0015452385864603818 0 -0.031085454233748023 0.0015520992168409893 0 -0.030963200381309154 0.0012624583237417976 0 -0.030180797441936101 0.0015652825103253168 0 -0.031511513227180807 0.0014330687276531949 0 -0.030891831079297119 0.0016545766644364261 0 -0.030851918160980537 0.0016893110914539054 0 -0.030918348228231422 0.0017132141609523172 0 -0.030634073237976268 0.0012162088163562047 0 -0.031613775471974782 0.0013834682681620311 0 -0.031613775471974782 0.0013834682681620311 0 -0.031834622857788229 0.0013513996694006505 0 -0.031511513227180807 0.0014330687276531949 0 -0.031834622857788229 0.0013513996694006505 0 -0.031940532435573224 0.001585152648088701 0 -0.031751528004802916 0.0016203328195083591 0 -0.031823581364497665 0.0013112894810791156 0 -0.031511513227180807 0.0014330687276531949 0 -0.031613775471974782 0.0013834682681620311 0 -0.034028104808809689 0.00069572143734642031 0 -0.033851274655240231 0.0006194451968666232 0 -0.033969077824181362 0.00092458072156506306 0 -0.032193367117471366 0.0013243932468856657 0 -0.03222876354975044 0.0011687773055562034 0 -0.031990184933745142 0.0011538652700797873 0 -0.032204969100268849 0.0011139657581596778 0 -0.03222876354975044 0.0011687773055562034 0 -0.031990184933745142 0.0011538652700797873 0 -0.032200495417372466 0.0013214210069947231 0 -0.031834622857788229 0.0013513996694006505 0 -0.033855986847505425 0.00099801213224240013 0 -0.033961889339349953 0.0010707931211762676 0 -0.03398694964981322 0.0009671950280186498 0 -0.032627832367308068 0.0010059465504131356 0 -0.031834622857788229 0.0013513996694006505 0 -0.032627832367308068 0.0010059465504131356 0 -0.031864748500199519 0.0014843635952430613 0 -0.032703728920029908 0.0011159933014472743 0 -0.031905892552254185 0.0014315178622920958 0 -0.034704659936096366 0.00025814585639408617 0 -0.034627114928636495 0.00026391196603070815 0 -0.034708609103601164 0.00033873005498569935 0 -0.034704659936096366 0.00025814585639408617 0 -0.034708609103601164 0.00033873005498569935 0 -0.034729551511495232 0.0003349199511394885 0 -0.031864748500199519 0.0014843635952430613 0 -0.031905892552254185 0.0014315178622920958 0 -0.031905892552254185 0.0014315178622920958 0 -0.031702646761167394 0.0012836803749658985 0 -0.034756410789490946 0.00022144932286900901 0 -0.034789641166072645 0.00029206234955892184 0 -0.034827129482239025 0.00023193169434597305 0 -0.031014629604482445 0.0015511936727109915 0 -0.031062877153261146 0.0015418243550924823 0 -0.031025199892537124 0.0015760491952064447 0 -0.034789641166072645 0.00029206234955892184 0 -0.034827129482239025 0.00023193169434597305 0 -0.034878947613241111 0.00027590871438940381 0 -0.034887943355080032 0.00018036791378849338 0 -0.034827129482239025 0.00023193169434597305 0 -0.034878947613241111 0.00027590871438940381 0 -0.031702646761167394 0.0012836803749658985 0 -0.03175461950745305 0.0011501662669423476 0 -0.030151545021051721 0.0022199653659065689 0 -0.030017989455372058 0.0020949018468873273 0 -0.029905732835261253 0.0022647829837890358 0 -0.031975707708621258 0.00093642384953840526 0 -0.031702646761167394 0.0012836803749658985 0 -0.034887943355080032 0.00018036791378849338 0 -0.03488005416438611 0.00020579468364219198 0 -0.034922098819042548 0.00018773431755907818 0 -0.030151545021051721 0.0022199653659065689 0 -0.030017989455372058 0.0020949018468873273 0 -0.030173928164570245 0.001964278940694876 0 -0.031702646761167394 0.0012836803749658985 0 -0.030411499879178523 0.0018154990400044326 0 -0.030017989455372058 0.0020949018468873273 0 -0.030031107358233528 0.0019735194929928483 0 -0.030173928164570245 0.001964278940694876 0 -0.030582057188617166 0.001960681422242358 0 -0.030424441376428319 0.0016280248960718658 0 -0.03031156695089077 0.0017344098335113525 0 -0.031062877153261146 0.0015418243550924823 0 -0.031025199892537124 0.0015760491952064447 0 -0.031055205817157389 0.0016029825231253405 0 -0.031164785452592169 0.0016370083150252439 0 -0.030411499879178523 0.0018154990400044326 0 -0.030851918160980537 0.0016893110914539054 0 -0.03081344015516415 0.0016998726983797167 0 -0.030789696123869087 0.0016523695204404276 0 -0.031164785452592169 0.0016370083150252439 0 -0.030018380348373112 0.0020506129292299012 0 -0.031864748500199519 0.0014843635952430613 0 -0.031164785452592169 0.0016370083150252439 0 -0.031905892552254185 0.0014315178622920958 0 -0.031164785452592169 0.0016370083150252439 0 -0.031546766251207371 0.0017943561403049382 0 -0.031473254924757985 0.0018079169527801691 0 -0.031414295407471308 0.0016828425960860756 0 -0.029491530981361733 0.0018266350311955939 0 -0.029492905404043875 0.00182685728270515 0 -0.029492550805449779 0.0018269791984377001 0 -0.030424441376428319 0.0016280248960718658 0 -0.030321591140160913 0.0016253090561257674 0 -0.03031156695089077 0.0017344098335113525 0 -0.030018380348373112 0.0020506129292299012 0 -0.02993523881176777 0.0021566587504925861 0 -0.02961904093190286 0.0021058676996399423 0 -0.029640754861821505 0.0021534185953383613 0 -0.029645679072739059 0.0021066185622581912 0 -0.030018380348373112 0.0020506129292299012 0 -0.02948397114738624 0.0022938173169150351 0 -0.02948397114738624 0.0022938173169150351 0 -0.02993523881176777 0.0021566587504925861 0 -0.027907332573054354 0.0023942190056672787 0 -0.027933978242827562 0.0036864178660135616 0 -0.028607112485213596 0.0020269880528893504 0 -0.02948397114738624 0.0022938173169150351 0 -0.028473951980545 0.0028456164969572206 0 -0.028207454378948792 0.0029561220004723941 0 -0.028248184057420259 0.0028440302165130315 0 -0.02843588110332148 0.0027579181899747679 0 -0.028248184057420259 0.0028440302165130315 0 -0.02822467149540344 0.0027624191800707035 0 -0.028207454378948792 0.0029561220004723941 0 -0.028248184057420259 0.0028440302165130315 0 -0.028221327386989958 0.0027907471506254749 0 -0.02948397114738624 0.0022938173169150351 0 -0.028039996487648398 0.003633299280206372 0 -0.028032842223338163 0.0036041038592962869 0 -0.028039996487648398 0.003633299280206372 0 -0.028248184057420259 0.0028440302165130315 0 -0.0282220580969114 0.0027907203626418254 0 -0.02822467149540344 0.0027624191800707035 0 -0.027941393987668119 0.0039669321606623656 0 -0.027967768024445894 0.0036908585559801755 0 -0.027809324117947707 0.0036931797419895909 0 -0.028039996487648398 0.003633299280206372 0 -0.027928674980565692 0.0037884610066470496 0 -0.028039996487648398 0.003633299280206372 0 -0.027933978242827562 0.0036864178660135616 0 -0.027933978242827562 0.0036864178660135616 0 -0.027928674980565692 0.0037884610066470496 0 -0.028351008090311023 0.0033955195947070593 0 -0.028199265712135664 0.0035348667625548333 0 -0.02810407318204251 0.0035175614381024812 0 -0.027928674980565692 0.0037884610066470496 0 -0.027070880803541236 0.0051301681521927047 0 -0.028351008090311023 0.0033955195947070593 0 -0.02810407318204251 0.0035175614381024812 0 -0.028015380994330378 0.0034030031518056622 0 -0.028369652075694699 0.0034335995550775068 0 -0.028351008090311023 0.0033955195947070593 0 -0.02828048497220232 0.003513196134028302 0 -0.028351008090311023 0.0033955195947070593 0 -0.02828048497220232 0.003513196134028302 0 -0.028199265712135664 0.0035348667625548333 0 -0.028351671162746207 0.003656372032127602 0 -0.028369652075694699 0.0034335995550775068 0 -0.02828048497220232 0.003513196134028302 0 -0.02948397114738624 0.0022938173169150351 0 -0.029463478844183918 0.0024227442299279522 0 -0.028347428575765245 0.0036567855776954337 0 -0.02828048497220232 0.003513196134028302 0 -0.028233549081721532 0.0036241169157937084 0 -0.02828048497220232 0.003513196134028302 0 -0.028199265712135664 0.0035348667625548333 0 -0.028233549081721532 0.0036241169157937084 0 -0.028199265712135664 0.0035348667625548333 0 -0.02814788588256617 0.0036008057360135382 0 -0.028233549081721532 0.0036241169157937084 0 -0.02814788588256617 0.0036008057360135382 0 -0.028063699492266572 0.0036574974030463025 0 -0.02810407318204251 0.0035175614381024812 0 -0.028199265712135664 0.0035348667625548333 0 -0.02814788588256617 0.0036008057360135382 0 -0.02810407318204251 0.0035175614381024812 0 -0.028168231126624695 0.0036801312745956831 0 -0.02833718563957929 0.0037631082423632439 0 -0.028059937951994258 0.0037549332115154261 0 -0.02814788588256617 0.0036008057360135382 0 -0.028168231126624695 0.0036801312745956831 0 -0.028063699492266572 0.0036574974030463025 0 -0.02993523881176777 0.0021566587504925861 0 -0.028867835872360231 0.0028222741302558032 0 -0.030179446331213933 0.001910072716701993 0 -0.030130393649604521 0.0019283779245644625 0 -0.029946494530743783 0.0019044895002192368 0 -0.02814788588256617 0.0036008057360135382 0 -0.028168231126624695 0.0036801312745956831 0 -0.028233549081721532 0.0036241169157937084 0 -0.028168231126624695 0.0036801312745956831 0 -0.028233549081721532 0.0036241169157937084 0 -0.02833718563957929 0.0037631082423632439 0 -0.028347428575765245 0.0036567855776954337 0 -0.028233549081721532 0.0036241169157937084 0 -0.02833718563957929 0.0037631082423632439 0 -0.030031107358233528 0.0019735194929928483 0 -0.030130393649604521 0.0019283779245644625 0 -0.030173928164570245 0.001964278940694876 0 -0.030179446331213933 0.001910072716701993 0 -0.030130393649604521 0.0019283779245644625 0 -0.030174747875505031 0.0019656468265054844 0 -0.02993523881176777 0.0021566587504925861 0 -0.030411499879178523 0.0018154990400044326 0 -0.030406987979929839 0.0018146155122079225 0 -0.030411499879178523 0.0018154990400044326 0 -0.030031107358233528 0.0019735194929928483 0 -0.030130393649604521 0.0019283779245644625 0 -0.029946494530743783 0.0019044895002192368 0 -0.028063699492266572 0.0036574974030463025 0 -0.02796008540262767 0.0034321504281874921 0 -0.027804376019151814 0.0037450197926940034 0 -0.028059937951994258 0.0037549332115154261 0 -0.028063699492266572 0.0036574974030463025 0 -0.027804376019151814 0.0037450197926940034 0 -0.028867835872360231 0.0028222741302558032 0 -0.02761179296655503 0.0034817152088828392 0 -0.029946494530743783 0.0019044895002192368 0 -0.029713909329187105 0.001899555493520741 0 -0.029855611761531831 0.0020533775360762761 0 -0.028168231126624695 0.0036801312745956831 0 -0.028059937951994258 0.0037549332115154261 0 -0.028063699492266572 0.0036574974030463025 0 -0.028063699492266572 0.0036574974030463025 0 -0.02796008540262767 0.0034321504281874921 0 -0.028016733922452203 0.0034318643939595761 0 -0.02711850395179689 0.0046171234889763602 0 -0.027070880803541236 0.0051301681521927047 0 -0.028063699492266572 0.0036574974030463025 0 -0.02810407318204251 0.0035175614381024812 0 -0.028015380994330378 0.0034030031518056622 0 -0.026919609248551288 0.0053215231201732879 0 -0.027070880803541236 0.0051301681521927047 0 -0.023001858210712336 0.006949928124829907 0 -0.024193212340031977 0.0061812060189019268 0 -0.024065644674943692 0.0047721379398403957 0 -0.026919609248551288 0.0053215231201732879 0 -0.026252257892178534 0.0061868511454404541 0 -0.026919609248551288 0.0053215231201732879 0 -0.02761179296655503 0.0034817152088828392 0 -0.023001858210712336 0.006949928124829907 0 -0.024193212340031977 0.0061812060189019268 0 -0.025431247778386283 0.0069326849229038468 0 -0.024193212340031977 0.0061812060189019268 0 -0.02489645326194705 0.0054039429920076289 0 -0.025431247778386283 0.0069326849229038468 0 -0.024193212340031977 0.0061812060189019268 0 -0.02489645326194705 0.0054039429920076289 0 -0.024065644674943692 0.0047721379398403957 0 -0.023921840156980092 0.0045952979322185852 0 -0.024820601036815448 0.0043264525598360609 0 -0.026226891841390293 0.0046072749032973802 0 -0.02761179296655503 0.0034817152088828392 0 -0.026799934493022124 0.0038253531735951457 0 -0.02489645326194705 0.0054039429920076289 0 -0.024065644674943692 0.0047721379398403957 0 -0.02575291702268603 0.0047541421608864242 0 -0.023921840156980092 0.0045952979322185852 0 -0.024820601036815448 0.0043264525598360609 0 -0.024719381215567444 0.0029591390480225217 0 -0.02761179296655503 0.0034817152088828392 0 -0.028335910061094007 0.0024995440874255037 0 -0.029713909329187105 0.001899555493520741 0 -0.029637010908996713 0.0020590007615115314 0 -0.029855611761531831 0.0020533775360762761 0 -0.029637010908996713 0.0020590007615115314 0 -0.029855611761531831 0.0020533775360762761 0 -0.029764769179260357 0.0021713585608249663 0 -0.024597283720575926 0.0030355207463831362 0 -0.024782028946046974 0.0026289973123969834 0 -0.024256759892460327 0.00018266051188181657 0 -0.024820601036815448 0.0043264525598360609 0 -0.024635750061186071 0.0030000466217132834 0 -0.025340230811905996 0.0036350354359627767 0 -0.02817717180146645 0.0026929739089706899 0 -0.028335910061094007 0.0024995440874255037 0 -0.024635750061186071 0.0030000466217132834 0 -0.024782028946046974 0.0026289973123969834 0 -0.025474231309297862 0.002700139726789555 0 -0.028335910061094007 0.0024995440874255037 0 -0.028310723150341471 0.0025207258597705201 0 -0.030017989455372058 0.0020949018468873273 0 -0.029855611761531831 0.0020533775360762761 0 -0.029905732835261253 0.0022647829837890358 0 -0.030031107358233528 0.0019735194929928483 0 -0.029946494530743783 0.0019044895002192368 0 -0.029855611761531831 0.0020533775360762761 0 -0.030017989455372058 0.0020949018468873273 0 -0.030031107358233528 0.0019735194929928483 0 -0.029855611761531831 0.0020533775360762761 0 -0.029855611761531831 0.0020533775360762761 0 -0.029905732835261253 0.0022647829837890358 0 -0.029764769179260357 0.0021713585608249663 0 -0.029905732835261253 0.0022647829837890358 0 -0.029764769179260357 0.0021713585608249663 0 -0.029661190260291157 0.0023080649595391333 0 -0.028335910061094007 0.0024995440874255037 0 -0.030764959441568495 0.0011422434055013504 0 -0.03175461950745305 0.0011501662669423476 0 -0.030764959441568495 0.0011422434055013504 0 -0.029637010908996713 0.0020590007615115314 0 -0.029764769179260357 0.0021713585608249663 0 -0.029661190260291157 0.0023080649595391333 0 -0.024782028946046974 0.0026289973123969834 0 -0.024256759892460327 0.00018266051188181657 0 -0.025110819818058683 0.001729272905458327 0 -0.026248411132155841 0.0081730016115696223 0 -0.025999242571401709 0.0084380501772554663 0 -0.026549072726820781 0.0078695065376974873 0 -0.026248411132155841 0.0081730016115696223 0 -0.026075438651088877 0.008369608920615966 0 -0.026082610782693801 0.0081483627200759062 0 -0.026248411132155841 0.0081730016115696223 0 -0.026284594558247488 0.0080112558528333457 0 -0.026082610782693801 0.0081483627200759062 0 -0.026284594558247488 0.0080112558528333457 0 -0.02624488081470951 0.0077651208118047496 0 -0.026082610782693801 0.0081483627200759062 0 -0.026248411132155841 0.0081730016115696223 0 -0.026284594558247488 0.0080112558528333457 0 -0.026549072726820781 0.0078695065376974873 0 -0.027299571911540952 0.0090267415300492419 0 -0.027717065623035463 0.0083882487241065361 0 -0.027288346184572813 0.0079921020496403154 0 -0.026798092629751663 0.007761403280742131 0 -0.026704268605829772 0.0078434859571705866 0 -0.026747695742505965 0.0082422457277537709 0 -0.026549072726820781 0.0078695065376974873 0 -0.026614771620338661 0.0077117884611543662 0 -0.027299571911540952 0.0090267415300492419 0 -0.027288346184572813 0.0079921020496403154 0 -0.026614771620338661 0.0077117884611543662 0 -0.02671726601675983 0.0082414110521339245 0 -0.026747695742505965 0.0082422457277537709 0 -0.026549072726820781 0.0078695065376974873 0 -0.027520196921487501 0.0060137169569977767 0 -0.027576964676168887 0.0071147107739464033 0 -0.02671726601675983 0.0082414110521339245 0 -0.026641397592749624 0.0083668351258688982 0 -0.026549072726820781 0.0078695065376974873 0 -0.026740556041351286 0.0082386286873085274 0 -0.026641397592749624 0.0083668351258688982 0 -0.026802702516573209 0.0084351746204109814 0 -0.027520196921487501 0.0060137169569977767 0 -0.027515405198153188 0.0057450478468350479 0 -0.02671726601675983 0.0082414110521339245 0 -0.026740556041351286 0.0082386286873085274 0 -0.026641397592749624 0.0083668351258688982 0 -0.027513524715331385 0.0060182462206132522 0 -0.027520196921487501 0.0060137169569977767 0 -0.025999242571401709 0.0084380501772554663 0 -0.026080046117730224 0.0083639966300416094 0 -0.026024707851020921 0.0083774768981268507 0 -0.026248411132155841 0.0081730016115696223 0 -0.025999242571401709 0.0084380501772554663 0 -0.026080046117730224 0.0083639966300416094 0 -0.026248411132155841 0.0081730016115696223 0 -0.026080046117730224 0.0083639966300416094 0 -0.026075438651088877 0.008369608920615966 0 -0.026080046117730224 0.0083639966300416094 0 -0.026075438651088877 0.008369608920615966 0 -0.026024707851020921 0.0083774768981268507 0 -0.026075438651088877 0.008369608920615966 0 -0.026024707851020921 0.0083774768981268507 0 -0.026054596670514463 0.0084578793616081061 0 -0.025999242571401709 0.0084380501772554663 0 -0.026024707851020921 0.0083774768981268507 0 -0.02589623128009472 0.0081714081237220879 0 -0.026024707851020921 0.0083774768981268507 0 -0.026002679378647638 0.0081688381814389935 0 -0.026054596670514463 0.0084578793616081061 0 -0.026024707851020921 0.0083774768981268507 0 -0.02589623128009472 0.0081714081237220879 0 -0.026002679378647638 0.0081688381814389935 0 -0.025683174516657158 0.0078174714016629714 0 -0.025847874931191294 0.0079420618931282157 0 -0.026044396499323573 0.0076159293317218648 0 -0.026002679378647638 0.0081688381814389935 0 -0.025847874931191294 0.0079420618931282157 0 -0.026044396499323573 0.0076159293317218648 0 -0.02589623128009472 0.0081714081237220879 0 -0.026002679378647638 0.0081688381814389935 0 -0.025847874931191294 0.0079420618931282157 0 -0.026996663993555464 0.0057790368713273267 0 -0.027515405198153188 0.0057450478468350479 0 -0.027077117635191095 0.0053012042928922065 0 -0.027381795694391961 0.0052968443684874673 0 -0.027298979546527938 0.0048492187375789239 0 -0.027070880803541236 0.0051301681521927047 0 -0.026996663993555464 0.0057790368713273267 0 -0.025683174516657158 0.0078174714016629714 0 -0.025847874931191294 0.0079420618931282157 0 -0.025632900647835258 0.0079238780111041945 0 -0.026919609248551288 0.0053215231201732879 0 -0.026996663993555464 0.0057790368713273267 0 -0.02589623128009472 0.0081714081237220879 0 -0.025847874931191294 0.0079420618931282157 0 -0.025632900647835258 0.0079238780111041945 0 -0.025999242571401709 0.0084380501772554663 0 -0.02589623128009472 0.0081714081237220879 0 -0.025632900647835258 0.0079238780111041945 0 -0.026641397592749624 0.0083668351258688982 0 -0.026705722226166569 0.0086156656140595304 0 -0.026802702516573209 0.0084351746204109814 0 -0.026798092629751663 0.007761403280742131 0 -0.026996663993555464 0.0057790368713273267 0 -0.027390372281652874 0.004860028892642876 0 -0.027164807896897101 0.0047383021790931073 0 -0.027325907632613729 0.004990060693571878 0 -0.027515405198153188 0.0057450478468350479 0 -0.027540517929398642 0.0056450012398173086 0 -0.027538848567340332 0.0047962151902474345 0 -0.027718222045984463 0.0048448747704385774 0 -0.027639790054457415 0.0050097359883596263 0 -0.027928674980565692 0.0037884610066470496 0 -0.027515405198153188 0.0057450478468350479 0 -0.027538848567340332 0.0047962151902474345 0 -0.02770905958429767 0.0047962171919471719 0 -0.027718222045984463 0.0048448747704385774 0 -0.027210719386170857 0.0044795946303095033 0 -0.027390372281652874 0.004860028892642876 0 -0.027164807896897101 0.0047383021790931073 0 -0.027190115637164489 0.0044797854790411514 0 -0.027210719386170857 0.0044795946303095033 0 -0.027164807896897101 0.0047383021790931073 0 -0.027411304215403852 0.0031784513463701323 0 -0.027640142898382927 0.0031765833706623049 0 -0.027559840001982076 0.00327991164766195 0 -0.027411304215403852 0.0031784513463701323 0 -0.027559840001982076 0.00327991164766195 0 -0.027503563439801051 0.0033985780052697145 0 -0.027640142898382927 0.0031765833706623049 0 -0.027559840001982076 0.00327991164766195 0 -0.027618571464383606 0.0033974631332365454 0 -0.027933978242827562 0.0036864178660135616 0 -0.027351596084616136 0.003957001028778254 0 -0.027559840001982076 0.00327991164766195 0 -0.027503563439801051 0.0033985780052697145 0 -0.027618571464383606 0.0033974631332365454 0 -0.027148410142655014 0.0029829101157683919 0 -0.026768290122978319 0.0040826825220956079 0 -0.025689347189631076 0.0022054269916698824 0 -0.025883489282874577 0.002651378412723782 0 -0.025632259184253679 0.0025158707912314414 0 -0.027164807896897101 0.0047383021790931073 0 -0.02714193180889013 0.0049939163361153059 0 -0.027325907632613729 0.004990060693571878 0 -0.027503563439801051 0.0033985780052697145 0 -0.027618571464383606 0.0033974631332365454 0 -0.027596344432449536 0.0036207790585885045 0 -0.027351596084616136 0.003957001028778254 0 -0.026768290122978319 0.0040826825220956079 0 -0.025667148044449428 0.0027213404783590694 0 -0.025883489282874577 0.002651378412723782 0 -0.025632259184253679 0.0025158707912314414 0 -0.025667148044449428 0.0027213404783590694 0 -0.025883489282874577 0.002651378412723782 0 -0.025854493627822828 0.002962332392696364 0 -0.025667148044449428 0.0027213404783590694 0 -0.025710180675132373 0.0029894708564641953 0 -0.025854493627822828 0.002962332392696364 0 -0.026768290122978319 0.0040826825220956079 0 -0.026213826055508403 0.0044159010121275887 0 -0.026111328591845537 0.0041493854607151156 0 -0.026394516042634247 0.0048106084026753532 0 -0.026464061384271896 0.0040830453323170875 0 -0.02670237681132942 0.0049314278543036664 0 -0.026768290122978319 0.0040826825220956079 0 -0.027520196921487501 0.0060137169569977767 0 -0.02670237681132942 0.0049314278543036664 0 -0.027496273643072403 0.0050947185540911391 0 -0.027209780273608482 0.0051480662654258113 0 -0.027325907632613729 0.004990060693571878 0 -0.027496273643072403 0.0050947185540911391 0 -0.027385978669301786 0.0048686040628679213 0 -0.027325907632613729 0.004990060693571878 0 -0.027209780273608482 0.0051480662654258113 0 -0.02714193180889013 0.0049939163361153059 0 -0.027325907632613729 0.004990060693571878 0 -0.028387981558502973 0.0088099957179695303 0 -0.027717065623035463 0.0083882487241065361 0 -0.028068634100994947 0.0080607817363646181 0 -0.02670237681132942 0.0049314278543036664 0 -0.027157138882256723 0.0059200401902753576 0 -0.027299571911540952 0.0090267415300492419 0 -0.028387981558502973 0.0088099957179695303 0 -0.027717065623035463 0.0083882487241065361 0 -0.027717065623035463 0.0083882487241065361 0 -0.028068634100994947 0.0080607817363646181 0 -0.027660076490072193 0.0078608161272828991 0 -0.027717065623035463 0.0083882487241065361 0 -0.027660076490072193 0.0078608161272828991 0 -0.027288346184572813 0.0079921020496403154 0 -0.021902400392516487 0.0033837507243905506 0 -0.021886638993582872 0.0033641515808511238 0 -0.021852494824352059 0.0034031519669785151 0 -0.026017763453507797 0.004537888897447869 0 -0.025388387542096946 0.0040389948208688293 0 -0.025388387542096946 0.0040389948208688293 0 -0.026213826055508403 0.0044159010121275887 0 -0.025951580839563389 0.0034938430621143141 0 -0.02718239198767148 0.004929135901949498 0 -0.025789284690797058 0.0051908589631135494 0 -0.026844969627865669 0.0049224289726834732 0 -0.027007542434745922 0.0052974356370561679 0 -0.026674455410601632 0.0051299388185827152 0 -0.02670237681132942 0.0049314278543036664 0 -0.026213826055508403 0.0044159010121275887 0 -0.026844969627865669 0.0049224289726834732 0 -0.026674455410601632 0.0051299388185827152 0 -0.026691491594630377 0.0049511668485178835 0 -0.026017763453507797 0.004537888897447869 0 -0.026213826055508403 0.0044159010121275887 0 -0.021886638993582872 0.0033641515808511238 0 -0.021852494824352059 0.0034031519669785151 0 -0.021808783773491644 0.003374310417302085 0 -0.025388387542096946 0.0040389948208688293 0 -0.02296887722010181 0.0032933576450052153 0 -0.02296887722010181 0.0032933576450052153 0 -0.019429768762570829 0.0027536798696886308 0 -0.02517449212042544 0.0030356198421217125 0 -0.024853388942856255 0.0025114535158067032 0 -0.024663637071496474 0.0031288747490103908 0 -0.02517449212042544 0.0030356198421217125 0 -0.025289474015671207 0.0024860716161679008 0 -0.024853388942856255 0.0025114535158067032 0 -0.025667148044449428 0.0027213404783590694 0 -0.025710180675132373 0.0029894708564641953 0 -0.025289474015671207 0.0024860716161679008 0 -0.025388387542096946 0.0040389948208688293 0 -0.025122522782120529 0.0033881852959416229 0 -0.025670237123093697 0.0029433702272273414 0 -0.02517449212042544 0.0030356198421217125 0 -0.025289474015671207 0.0024860716161679008 0 -0.025667148044449428 0.0027213404783590694 0 -0.025632259184253679 0.0025158707912314414 0 -0.025289474015671207 0.0024860716161679008 0 -0.025689347189631076 0.0022054269916698824 0 -0.025632259184253679 0.0025158707912314414 0 -0.025289474015671207 0.0024860716161679008 0 -0.025689347189631076 0.0022054269916698824 0 -0.025289474015671207 0.0024860716161679008 0 -0.025150957341412775 0.0022520478255275561 0 -0.027907332573054354 0.0023942190056672787 0 -0.027148410142655014 0.0029829101157683919 0 -0.025505613738616689 0.0017743944514446658 0 -0.025689347189631076 0.0022054269916698824 0 -0.025230177907596602 0.001989648042098377 0 -0.025689347189631076 0.0022054269916698824 0 -0.025230177907596602 0.001989648042098377 0 -0.025150957341412775 0.0022520478255275561 0 -0.024956656032495465 0.0017837735114537747 0 -0.025505613738616689 0.0017743944514446658 0 -0.025230177907596602 0.001989648042098377 0 -0.024956656032495465 0.0017837735114537747 0 -0.024928846708651163 0.0019504158285142971 0 -0.025230177907596602 0.001989648042098377 0 -0.025230177907596602 0.001989648042098377 0 -0.024912307226787948 0.0021289187160262115 0 -0.025150957341412775 0.0022520478255275561 0 -0.024928846708651163 0.0019504158285142971 0 -0.025230177907596602 0.001989648042098377 0 -0.024912307226787948 0.0021289187160262115 0 -0.025289474015671207 0.0024860716161679008 0 -0.025150957341412775 0.0022520478255275561 0 -0.024853388942856255 0.0025114535158067032 0 -0.024912307226787948 0.0021289187160262115 0 -0.025150957341412775 0.0022520478255275561 0 -0.024853388942856255 0.0025114535158067032 0 -0.024912307226787948 0.0021289187160262115 0 -0.024853388942856255 0.0025114535158067032 0 -0.024731079282966036 0.0021733115886724383 0 -0.024853388942856255 0.0025114535158067032 0 -0.024545317438250017 0.00227643841513969 0 -0.024385686042880262 0.0026330313604853231 0 -0.024853388942856255 0.0025114535158067032 0 -0.024545317438250017 0.00227643841513969 0 -0.024731079282966036 0.0021733115886724383 0 -0.027625875908757314 0.0011123739372559953 0 -0.027935163611453612 0.0012011664690616422 0 -0.024912307226787948 0.0021289187160262115 0 -0.024731079282966036 0.0021733115886724383 0 -0.024726123886934244 0.0019254348820166454 0 -0.025989652259848728 0.0005470399438886938 0 -0.02682593873926243 0.00053297685188018228 0 -0.026861630097585586 0.00071025580032266374 0 -0.024545317438250017 0.00227643841513969 0 -0.024731079282966036 0.0021733115886724383 0 -0.024726123886934244 0.0019254348820166454 0 -0.024956656032495465 0.0017837735114537747 0 -0.024928846708651163 0.0019504158285142971 0 -0.024748413362425826 0.0018719159274767476 0 -0.028007845921734751 0.0014798533061888737 0 -0.027935163611453612 0.0012011664690616422 0 -0.0280337554118683 0.0010639214791344207 0 -0.028316812677180656 0.00099464210081820904 0 -0.028329180410564654 0.00094170958624529601 0 -0.02682593873926243 0.00053297685188018228 0 -0.026880374999779993 0.00063066516063113749 0 -0.026861630097585586 0.00071025580032266374 0 -0.024928846708651163 0.0019504158285142971 0 -0.024912307226787948 0.0021289187160262115 0 -0.024748413362425826 0.0018719159274767476 0 -0.028399025463274413 0.0010303501760883529 0 -0.028218352005600699 0.0010734852784093152 0 -0.024912307226787948 0.0021289187160262115 0 -0.024726123886934244 0.0019254348820166454 0 -0.024740175192369408 0.0018690338335442633 0 -0.028379675397196394 0.0010957400937152827 0 -0.028218352005600699 0.0010734852784093152 0 -0.028218352005600699 0.0010734852784093152 0 -0.027935163611453612 0.0012011664690616422 0 -0.027925091450721404 0.0012128129300919479 0 -0.027935163611453612 0.0012011664690616422 0 -0.025989652259848728 0.0005470399438886938 0 -0.026861630097585586 0.00071025580032266374 0 -0.025549226056610381 0.0012550633315382069 0 -0.024545317438250017 0.00227643841513969 0 -0.024726123886934244 0.0019254348820166454 0 -0.024101548256005849 0.0021317389387924632 0 -0.024726123886934244 0.0019254348820166454 0 -0.024740011856733378 0.0018695708599841972 0 -0.024101548256005849 0.0021317389387924632 0 -0.027935163611453612 0.0012011664690616422 0 -0.023321532559733835 0.0010820037627772344 0 -0.020896486132652548 0.0019745207944924037 0 -0.023321532559733835 0.0010820037627772344 0 -0.024545317438250017 0.00227643841513969 0 -0.024385686042880262 0.0026330313604853231 0 -0.024101548256005849 0.0021317389387924632 0 -0.020896486132652548 0.0019745207944924037 0 -0.019429768762570829 0.0027536798696886308 0 -0.014421281050460462 0.002721573093381168 0 -0.014181957288201803 0.0022772127650531738 0 -0.01458729307145582 0.002485845551593824 0 -0.024853388942856255 0.0025114535158067032 0 -0.024385686042880262 0.0026330313604853231 0 -0.024663637071496474 0.0031288747490103908 0 -0.019429768762570829 0.0027536798696886308 0 -0.015984257726426972 0.0027177414566825634 0 -0.014181957288201803 0.0022772127650531738 0 -0.014584530510694768 0.0021932432315888155 0 -0.01458729307145582 0.002485845551593824 0 -0.014168495306674994 0.0020020378309121476 0 -0.013879307592506052 0.0016343688666926612 0 -0.014337509399899766 0.0014814416579590106 0 -0.013714022327673801 0.0020648091981603713 0 -0.014168495306674994 0.0020020378309121476 0 -0.013879307592506052 0.0016343688666926612 0 -0.013714022327673801 0.0020648091981603713 0 -0.013879307592506052 0.0016343688666926612 0 -0.013419242788163557 0.0014935617679815113 0 -0.019429768762570829 0.0027536798696886308 0 -0.018552725307060192 0.0021681348935088831 0 -0.013879307592506052 0.0016343688666926612 0 -0.013982127859134653 0.0011268842814595201 0 -0.013419242788163557 0.0014935617679815113 0 -0.013879307592506052 0.0016343688666926612 0 -0.013982127859134653 0.0011268842814595201 0 -0.014337509399899766 0.0014814416579590106 0 -0.013982127859134653 0.0011268842814595201 0 -0.013935705298531073 0.00072325751989162242 0 -0.013623054903358547 0.0009016020854733215 0 -0.013982127859134653 0.0011268842814595201 0 -0.013935705298531073 0.00072325751989162242 0 -0.014131019679504701 0.00071667042680147825 0 -0.013935705298531073 0.00072325751989162242 0 -0.01406381864782927 0.00054682364741738695 0 -0.013969691541917992 0.00050800657819695459 0 -0.013935705298531073 0.00072325751989162242 0 -0.014131019679504701 0.00071667042680147825 0 -0.01406381864782927 0.00054682364741738695 0 -0.013935705298531073 0.00072325751989162242 0 -0.013623054903358547 0.0009016020854733215 0 -0.013828124881331781 0.00052159812712248438 0 -0.013623054903358547 0.0009016020854733215 0 -0.013828124881331781 0.00052159812712248438 0 -0.013425191287270464 0.00056598789988841324 0 -0.013982127859134653 0.0011268842814595201 0 -0.013623054903358547 0.0009016020854733215 0 -0.013419242788163557 0.0014935617679815113 0 -0.0218239501239684 0.0035316242103609688 0 -0.021842611745626548 0.0035108509331994728 0 -0.021779458032745162 0.0034626683257307652 0 -0.013623054903358547 0.0009016020854733215 0 -0.013144955206348901 0.00095868660128932209 0 -0.013419242788163557 0.0014935617679815113 0 -0.018758530089117306 0.0020182674158299575 0 -0.018552725307060192 0.0021681348935088831 0 -0.018758530089117306 0.0020182674158299575 0 -0.016056783873746434 0.0020424131279689122 0 -0.013623054903358547 0.0009016020854733215 0 -0.013144955206348901 0.00095868660128932209 0 -0.013425191287270464 0.00056598789988841324 0 -0.01751363082488706 0.0017481259053671195 0 -0.017196961430858037 0.0021949230710903325 0 -0.017544022485210222 0.0023061626361781601 0 -0.018758530089117306 0.0020182674158299575 0 -0.021735842620479985 0.0036525849456648142 0 -0.021831676406373023 0.0035271843129419315 0 -0.021872077882052435 0.0035256767073277013 0 -0.021868910345635928 0.0035805126894753094 0 -0.01751363082488706 0.0017481259053671195 0 -0.017544022485210222 0.0023061626361781601 0 -0.017829917214108565 0.002297780423579387 0 -0.021831676406373023 0.0035271843129419315 0 -0.021842611745626548 0.0035108509331994728 0 -0.021872077882052435 0.0035256767073277013 0 -0.018758530089117306 0.0020182674158299575 0 -0.018886359079334024 0.0020285187645018481 0 -0.021842611745626548 0.0035108509331994728 0 -0.021840480694341476 0.0034598924311319591 0 -0.021886650336625957 0.0034598354935741569 0 -0.021842611745626548 0.0035108509331994728 0 -0.021840480694341476 0.0034598924311319591 0 -0.021779458032745162 0.0034626683257307652 0 -0.021852494824352059 0.0034031519669785151 0 -0.021808783773491644 0.003374310417302085 0 -0.021779458032745162 0.0034626683257307652 0 -0.021808783773491644 0.003374310417302085 0 -0.021729237812428057 0.0033857468057437601 0 -0.021779458032745162 0.0034626683257307652 0 -0.021852494824352059 0.0034031519669785151 0 -0.021840480694341476 0.0034598924311319591 0 -0.021779458032745162 0.0034626683257307652 0 -0.021852494824352059 0.0034031519669785151 0 -0.021840480694341476 0.0034598924311319591 0 -0.021886650336625957 0.0034598354935741569 0 -0.026017763453507797 0.004537888897447869 0 -0.025011393244131545 0.0047879232076756895 0 -0.021902400392516487 0.0033837507243905506 0 -0.021852494824352059 0.0034031519669785151 0 -0.021886650336625957 0.0034598354935741569 0 -0.028803865501639419 0.0079512405119195623 0 -0.028462648548909165 0.0073086322008718138 0 -0.02894242485434817 0.006707987356426263 0 -0.028462648548909165 0.0073086322008718138 0 -0.028346592202366259 0.0068755446749806763 0 -0.02894242485434817 0.006707987356426263 0 -0.026017763453507797 0.004537888897447869 0 -0.027277770930846847 0.0061562282771821858 0 -0.028803865501639419 0.0079512405119195623 0 -0.028462648548909165 0.0073086322008718138 0 -0.027832543412636409 0.0068971491221073433 0 -0.027007542434745922 0.0052974356370561679 0 -0.026674455410601632 0.0051299388185827152 0 -0.027170166320608112 0.0056731922187389736 0 -0.028068634100994947 0.0080607817363646181 0 -0.027660076490072193 0.0078608161272828991 0 -0.027750628886587008 0.0073051312580676804 0 -0.027157138882256723 0.0059200401902753576 0 -0.027277770930846847 0.0061562282771821858 0 -0.027660076490072193 0.0078608161272828991 0 -0.027750628886587008 0.0073051312580676804 0 -0.027472219506170403 0.0075594531845600494 0 -0.028462648548909165 0.0073086322008718138 0 -0.028198874526260954 0.0069455516502551634 0 -0.028346592202366259 0.0068755446749806763 0 -0.028462648548909165 0.0073086322008718138 0 -0.027832543412636409 0.0068971491221073433 0 -0.028198874526260954 0.0069455516502551634 0 -0.028198874526260954 0.0069455516502551634 0 -0.028346592202366259 0.0068755446749806763 0 -0.028115619933717802 0.0067191560974281164 0 -0.027832543412636409 0.0068971491221073433 0 -0.028198874526260954 0.0069455516502551634 0 -0.028115619933717802 0.0067191560974281164 0 -0.028115619933717802 0.0067191560974281164 0 -0.028314018090070975 0.0065397197082222623 0 -0.027857458588309032 0.0062551569850469741 0 -0.028346592202366259 0.0068755446749806763 0 -0.028115619933717802 0.0067191560974281164 0 -0.028314018090070975 0.0065397197082222623 0 -0.027832543412636409 0.0068971491221073433 0 -0.028115619933717802 0.0067191560974281164 0 -0.027857458588309032 0.0062551569850469741 0 -0.028314018090070975 0.0065397197082222623 0 -0.027857458588309032 0.0062551569850469741 0 -0.028347065295370396 0.0059399063680662008 0 -0.028314018090070975 0.0065397197082222623 0 -0.02894242485434817 0.006707987356426263 0 -0.028347065295370396 0.0059399063680662008 0 -0.02894242485434817 0.006707987356426263 0 -0.029115770176091852 0.0054012636197427804 0 -0.028347065295370396 0.0059399063680662008 0 -0.025011393244131545 0.0047879232076756895 0 -0.023835623688947725 0.0042776325451317054 0 -0.028346592202366259 0.0068755446749806763 0 -0.028314018090070975 0.0065397197082222623 0 -0.02894242485434817 0.006707987356426263 0 -0.021842611745626548 0.0035108509331994728 0 -0.021886650336625957 0.0034598354935741569 0 -0.021872077882052435 0.0035256767073277013 0 -0.029115770176091852 0.0054012636197427804 0 -0.028273378791267366 0.0049156674770522669 0 -0.028347065295370396 0.0059399063680662008 0 -0.023835623688947725 0.0042776325451317054 0 -0.021735842620479985 0.0036525849456648142 0 -0.029115770176091852 0.0054012636197427804 0 -0.028273378791267366 0.0049156674770522669 0 -0.029288712237059724 0.0040213719063971233 0 -0.028273378791267366 0.0049156674770522669 0 -0.027726924966993385 0.0054849064769714123 0 -0.02728981027867735 0.004526157455086971 0 -0.028273378791267366 0.0049156674770522669 0 -0.02728981027867735 0.004526157455086971 0 -0.028370584133013219 0.0039657909113986001 0 -0.028273378791267366 0.0049156674770522669 0 -0.027726924966993385 0.0054849064769714123 0 -0.028347065295370396 0.0059399063680662008 0 -0.027857458588309032 0.0062551569850469741 0 -0.027726924966993385 0.0054849064769714123 0 -0.028347065295370396 0.0059399063680662008 0 -0.027726924966993385 0.0054849064769714123 0 -0.026862716969178052 0.0057701726630260313 0 -0.02728981027867735 0.004526157455086971 0 -0.027857458588309032 0.0062551569850469741 0 -0.027726924966993385 0.0054849064769714123 0 -0.026862716969178052 0.0057701726630260313 0 -0.026882575082691613 0.0058184541865877494 0 -0.026393399037156609 0.0052801619040139733 0 -0.026862716969178052 0.0057701726630260313 0 -0.02728981027867735 0.004526157455086971 0 -0.025821415211462997 0.004697869805884344 0 -0.026926695283439817 0.0061333068605684731 0 -0.025529341446796038 0.0059250584227751087 0 -0.025821415211462997 0.004697869805884344 0 -0.026926695283439817 0.0061333068605684731 0 -0.026133984769068998 0.0069154881520161427 0 -0.025529341446796038 0.0059250584227751087 0 -0.026926695283439817 0.0061333068605684731 0 -0.026133984769068998 0.0069154881520161427 0 -0.026647229223638564 0.0071184086432839371 0 -0.027832543412636409 0.0068971491221073433 0 -0.027857458588309032 0.0062551569850469741 0 -0.026862716969178052 0.0057701726630260313 0 -0.027277770930846847 0.0061562282771821858 0 -0.026882575082691613 0.0058184541865877494 0 -0.026926695283439817 0.0061333068605684731 0 -0.026647229223638564 0.0071184086432839371 0 -0.027162230447226501 0.0073557709746238783 0 -0.027750628886587008 0.0073051312580676804 0 -0.026926695283439817 0.0061333068605684731 0 -0.027162230447226501 0.0073557709746238783 0 -0.026647229223638564 0.0071184086432839371 0 -0.027162230447226501 0.0073557709746238783 0 -0.026855984426736482 0.0074643440658829488 0 -0.026855984426736482 0.0074643440658829488 0 -0.027213259574296818 0.0075886863671680866 0 -0.026998845964977626 0.0076859117104774973 0 -0.027162230447226501 0.0073557709746238783 0 -0.026855984426736482 0.0074643440658829488 0 -0.027213259574296818 0.0075886863671680866 0 -0.026855984426736482 0.0074643440658829488 0 -0.026998845964977626 0.0076859117104774973 0 -0.026614771620338661 0.0077117884611543662 0 -0.027750628886587008 0.0073051312580676804 0 -0.027162230447226501 0.0073557709746238783 0 -0.027472219506170403 0.0075594531845600494 0 -0.027162230447226501 0.0073557709746238783 0 -0.027213259574296818 0.0075886863671680866 0 -0.027472219506170403 0.0075594531845600494 0 -0.027660076490072193 0.0078608161272828991 0 -0.027472219506170403 0.0075594531845600494 0 -0.027288346184572813 0.0079921020496403154 0 -0.027213259574296818 0.0075886863671680866 0 -0.027472219506170403 0.0075594531845600494 0 -0.027288346184572813 0.0079921020496403154 0 -0.027213259574296818 0.0075886863671680866 0 -0.027288346184572813 0.0079921020496403154 0 -0.026998845964977626 0.0076859117104774973 0 -0.027288346184572813 0.0079921020496403154 0 -0.026998845964977626 0.0076859117104774973 0 -0.026614771620338661 0.0077117884611543662 0 -0.026284594558247488 0.0080112558528333457 0 -0.026549072726820781 0.0078695065376974873 0 -0.02624488081470951 0.0077651208118047496 0 -0.026133984769068998 0.0069154881520161427 0 -0.026647229223638564 0.0071184086432839371 0 -0.02624488081470951 0.0077651208118047496 0 -0.026549072726820781 0.0078695065376974873 0 -0.026614771620338661 0.0077117884611543662 0 -0.02624488081470951 0.0077651208118047496 0 -0.026647229223638564 0.0071184086432839371 0 -0.026855984426736482 0.0074643440658829488 0 -0.026614771620338661 0.0077117884611543662 0 -0.026647229223638564 0.0071184086432839371 0 -0.026614771620338661 0.0077117884611543662 0 -0.02624488081470951 0.0077651208118047496 0 -0.024230433664251164 -0.00014129601573749671 0 -0.02446521801847611 -3.1339151500704315e-05 0 -0.024501429470434266 -0.00037902842412142809 0 -0.024230433664251164 -0.00014129601573749671 0 -0.02446521801847611 -3.1339151500704315e-05 0 -0.024041288283444918 0.00027008009420072726 0 -0.020826398159629642 0.0011845901752390161 0 -0.020962142840396984 0.0013905653584144078 0 -0.02446521801847611 -3.1339151500704315e-05 0 -0.024501429470434266 -0.00037902842412142809 0 -0.024812948928594578 -0.00019521822764467553 0 -0.016744889736940875 0.002722280734236175 0 -0.016645324837724802 0.002175200929950868 0 -0.015933704562345111 0.0022571554228869657 0 -0.016744889736940875 0.002722280734236175 0 -0.016645324837724802 0.002175200929950868 0 -0.017250368732487951 0.00183457851425366 0 -0.016645324837724802 0.002175200929950868 0 -0.017250368732487951 0.00183457851425366 0 -0.016846049488109135 0.0013601931162574607 0 -0.020826398159629642 0.0011845901752390161 0 -0.021239580446791695 0.00070681769663079048 0 -0.016744889736940875 0.002722280734236175 0 -0.017250368732487951 0.00183457851425366 0 -0.018596837329113471 0.0020959911848925884 0 -0.024041288283444918 0.00027008009420072726 0 -0.023409435513307344 -4.0422567880743149e-05 0 -0.023958038053726476 -2.2132326642254e-05 0 -0.021239580446791695 0.00070681769663079048 0 -0.02172383799473299 1.1223519663689481e-06 0 -0.023409435513307344 -4.0422567880743149e-05 0 -0.023371087814376381 -5.0044068864332534e-07 0 -0.021726836430016196 1.3341742345676974e-06 0 -0.024041288283444918 0.00027008009420072726 0 -0.023409435513307344 -4.0422567880743149e-05 0 -0.021726836430016196 1.3341742345676974e-06 0 -0.023409435513307344 -4.0422567880743149e-05 0 -0.024167222537502326 -0.00018788086290238542 0 -0.023371087814376381 -5.0044068864332534e-07 0 -0.024230433664251164 -0.00014129601573749671 0 -0.023958038053726476 -2.2132326642254e-05 0 -0.02413023873276552 -0.00037118798038964055 0 -0.024167222537502326 -0.00018788086290238542 0 -0.023958038053726476 -2.2132326642254e-05 0 -0.024567986545610508 -0.00026223245772775473 0 -0.023409435513307344 -4.0422567880743149e-05 0 -0.024167222537502326 -0.00018788086290238542 0 -0.023958038053726476 -2.2132326642254e-05 0 -0.024230433664251164 -0.00014129601573749671 0 -0.024041288283444918 0.00027008009420072726 0 -0.023958038053726476 -2.2132326642254e-05 0 -0.025442123141503847 0.00010687326034127585 0 -0.025754962654319997 0.00017361146676337201 0 -0.024167222537502326 -0.00018788086290238542 0 -0.024567986545610508 -0.00026223245772775473 0 -0.024855216557997852 -0.00018573105144797944 0 -0.024167222537502326 -0.00018788086290238542 0 -0.025019335458382409 -1.0418799951056768e-06 0 -0.024855216557997852 -0.00018573105144797944 0 -0.024167222537502326 -0.00018788086290238542 0 -0.023371087814376381 -5.0044068864332534e-07 0 -0.025019335458382409 -1.0418799951056768e-06 0 -0.026663343324124927 1.7748009132523364e-06 0 -0.025019335458382409 -1.0418799951056768e-06 0 -0.025533785617223883 -0.00012652996693446051 0 -0.025019335458382409 -1.0418799951056768e-06 0 -0.024855216557997852 -0.00018573105144797944 0 -0.025533785617223883 -0.00012652996693446051 0 -0.024567986545610508 -0.00026223245772775473 0 -0.024855216557997852 -0.00018573105144797944 0 -0.024849421450487658 7.1588686070030641e-06 0 -0.024567986545610508 -0.00026223245772775473 0 -0.024849421450487658 7.1588686070030641e-06 0 -0.024660955305948855 1.6069293328112378e-05 0 -0.024855216557997852 -0.00018573105144797944 0 -0.025533785617223883 -0.00012652996693446051 0 -0.024849421450487658 7.1588686070030641e-06 0 -0.026296028995127053 0.00069514578412937741 0 -0.026671656775202054 0.0007294941317483424 0 -0.02413023873276552 -0.00037118798038964055 0 -0.024237407968749226 -0.00069737652563823941 0 -0.024501429470434266 -0.00037902842412142809 0 -0.025754962654319997 0.00017361146676337201 0 -0.026671656775202054 0.0007294941317483424 0 -0.024230433664251164 -0.00014129601573749671 0 -0.02413023873276552 -0.00037118798038964055 0 -0.024501429470434266 -0.00037902842412142809 0 -0.024237407968749226 -0.00069737652563823941 0 -0.024501429470434266 -0.00037902842412142809 0 -0.024688616267106347 -0.00069386940680570323 0 -0.026671656775202054 0.0007294941317483424 0 -0.027894512985237326 0.00029316281559205523 0 -0.024501429470434266 -0.00037902842412142809 0 -0.024688616267106347 -0.00069386940680570323 0 -0.024906498991466599 -0.00048686108663246227 0 -0.025123360760366684 -0.00069318414931604944 0 -0.024688616267106347 -0.00069386940680570323 0 -0.024906498991466599 -0.00048686108663246227 0 -0.025123360760366684 -0.00069318414931604944 0 -0.024906498991466599 -0.00048686108663246227 0 -0.025167036951683479 -0.00034533084364547431 0 -0.02633200179235486 0.0003685444589524095 0 -0.027894512985237326 0.00029316281559205523 0 -0.024906498991466599 -0.00048686108663246227 0 -0.025167036951683479 -0.00034533084364547431 0 -0.024812948928594578 -0.00019521822764467553 0 -0.015138268617936533 0.0029415554889735836 0 -0.015150384650107363 0.0030107080237082896 0 -0.015765351958379994 0.0028908342000086348 0 -0.022963042918766149 0.0010156575105327453 0 -0.020962142840396984 0.0013905653584144078 0 -0.024501429470434266 -0.00037902842412142809 0 -0.024906498991466599 -0.00048686108663246227 0 -0.024812948928594578 -0.00019521822764467553 0 -0.024907500944825727 0.0006841966450778352 0 -0.024964952804441505 0.00079024652062011135 0 -0.02478966243769851 0.00086275012200201875 0 -0.025155802469078926 0.00056221466843542594 0 -0.025989652259848728 0.0005470399438886938 0 -0.025549226056610381 0.0012550633315382069 0 -0.0263187392991154 0.0010116919045706728 0 -0.023321532559733835 0.0010820037627772344 0 -0.024769056277490736 0.00068609509393132188 0 -0.024907500944825727 0.0006841966450778352 0 -0.02478966243769851 0.00086275012200201875 0 -0.02633200179235486 0.0003685444589524095 0 -0.022963042918766149 0.0010156575105327453 0 -0.015152173976761833 0.0029954980416122949 0 -0.014812314286837706 0.0028784310445420375 0 -0.014980782788060204 0.0028185322299264359 0 -0.015138268617936533 0.0029415554889735836 0 -0.015152173976761833 0.0029954980416122949 0 -0.014980782788060204 0.0028185322299264359 0 -0.022935503614315334 0.0010317257040809227 0 -0.022963042918766149 0.0010156575105327453 0 -0.014421281050460462 0.002721573093381168 0 -0.014682013672184647 0.0031665721465762172 0 -0.014812314286837706 0.0028784310445420375 0 -0.023321532559733835 0.0010820037627772344 0 -0.022963042918766149 0.0010156575105327453 0 -0.014682013672184647 0.0031665721465762172 0 -0.015152173976761833 0.0029954980416122949 0 -0.014812314286837706 0.0028784310445420375 0 -0.014421281050460462 0.002721573093381168 0 -0.01458729307145582 0.002485845551593824 0 -0.014812314286837706 0.0028784310445420375 0 -0.01458729307145582 0.002485845551593824 0 -0.014812314286837706 0.0028784310445420375 0 -0.014864425354197686 0.0025112577270432878 0 -0.014812314286837706 0.0028784310445420375 0 -0.014864425354197686 0.0025112577270432878 0 -0.014980782788060204 0.0028185322299264359 0 -0.015138268617936533 0.0029415554889735836 0 -0.015075693398551963 0.0026390489399931902 0 -0.015357280897895814 0.002525722878914899 0 -0.014864425354197686 0.0025112577270432878 0 -0.014980782788060204 0.0028185322299264359 0 -0.015075693398551963 0.0026390489399931902 0 -0.014864425354197686 0.0025112577270432878 0 -0.015075693398551963 0.0026390489399931902 0 -0.015073121071710317 0.0023797268808671852 0 -0.015138268617936533 0.0029415554889735836 0 -0.014980782788060204 0.0028185322299264359 0 -0.015075693398551963 0.0026390489399931902 0 -0.015075693398551963 0.0026390489399931902 0 -0.015073121071710317 0.0023797268808671852 0 -0.015357280897895814 0.002525722878914899 0 -0.014864425354197686 0.0025112577270432878 0 -0.015073121071710317 0.0023797268808671852 0 -0.014987287183083571 0.0020788105360286099 0 -0.015073121071710317 0.0023797268808671852 0 -0.015384759947871005 0.0018898707066387489 0 -0.014987287183083571 0.0020788105360286099 0 -0.014584530510694768 0.0021932432315888155 0 -0.014864425354197686 0.0025112577270432878 0 -0.014987287183083571 0.0020788105360286099 0 -0.014584530510694768 0.0021932432315888155 0 -0.01458729307145582 0.002485845551593824 0 -0.014864425354197686 0.0025112577270432878 0 -0.015765351958379994 0.0028908342000086348 0 -0.015357280897895814 0.002525722878914899 0 -0.015933704562345111 0.0022571554228869657 0 -0.016744889736940875 0.002722280734236175 0 -0.015765351958379994 0.0028908342000086348 0 -0.015933704562345111 0.0022571554228869657 0 -0.015138268617936533 0.0029415554889735836 0 -0.015765351958379994 0.0028908342000086348 0 -0.015357280897895814 0.002525722878914899 0 -0.015357280897895814 0.002525722878914899 0 -0.015933704562345111 0.0022571554228869657 0 -0.015384759947871005 0.0018898707066387489 0 -0.015073121071710317 0.0023797268808671852 0 -0.015357280897895814 0.002525722878914899 0 -0.015384759947871005 0.0018898707066387489 0 -0.015933704562345111 0.0022571554228869657 0 -0.015384759947871005 0.0018898707066387489 0 -0.016009078785355124 0.0015461759045195191 0 -0.015384759947871005 0.0018898707066387489 0 -0.015229480548639469 0.0013420410242510194 0 -0.014836303701396452 0.0015642762703575808 0 -0.015384759947871005 0.0018898707066387489 0 -0.015229480548639469 0.0013420410242510194 0 -0.016009078785355124 0.0015461759045195191 0 -0.015229480548639469 0.0013420410242510194 0 -0.016009078785355124 0.0015461759045195191 0 -0.015504879119696573 0.00094931978683589972 0 -0.016047362807172682 0.0013022408656801841 0 -0.015672294052784981 0.00069862974962246001 0 -0.016211765827521939 0.00082898341168910733 0 -0.015777684340557249 0.000331539095258027 0 -0.016527746701641692 0.00032881628400799481 0 -0.015984257726426972 0.0027177414566825634 0 -0.015319751606775057 0.0025160416847004202 0 -0.014168495306674994 0.0020020378309121476 0 -0.014677896651585207 0.0019667054893963477 0 -0.014337509399899766 0.0014814416579590106 0 -0.015320940598065807 0.0024179770249304604 0 -0.015319751606775057 0.0025160416847004202 0 -0.015384759947871005 0.0018898707066387489 0 -0.014677896651585207 0.0019667054893963477 0 -0.014836303701396452 0.0015642762703575808 0 -0.014677896651585207 0.0019667054893963477 0 -0.014836303701396452 0.0015642762703575808 0 -0.014337509399899766 0.0014814416579590106 0 -0.015229480548639469 0.0013420410242510194 0 -0.014836303701396452 0.0015642762703575808 0 -0.014661142254701413 0.0012016071453640632 0 -0.014836303701396452 0.0015642762703575808 0 -0.014337509399899766 0.0014814416579590106 0 -0.014661142254701413 0.0012016071453640632 0 -0.013982127859134653 0.0011268842814595201 0 -0.014337509399899766 0.0014814416579590106 0 -0.014304735589852317 0.00094488986479622527 0 -0.014337509399899766 0.0014814416579590106 0 -0.014304735589852317 0.00094488986479622527 0 -0.014661142254701413 0.0012016071453640632 0 -0.013982127859134653 0.0011268842814595201 0 -0.014304735589852317 0.00094488986479622527 0 -0.014131019679504701 0.00071667042680147825 0 -0.015229480548639469 0.0013420410242510194 0 -0.014661142254701413 0.0012016071453640632 0 -0.014732088234797387 0.00078797791053729371 0 -0.014304735589852317 0.00094488986479622527 0 -0.014661142254701413 0.0012016071453640632 0 -0.014732088234797387 0.00078797791053729371 0 -0.014732088234797387 0.00078797791053729371 0 -0.014239395837640587 0.00055177752961277132 0 -0.014442998440907609 0.00039743297098437225 0 -0.014732088234797387 0.00078797791053729371 0 -0.015050179686651503 0.00033020526070234749 0 -0.014442998440907609 0.00039743297098437225 0 -0.014304735589852317 0.00094488986479622527 0 -0.014732088234797387 0.00078797791053729371 0 -0.014239395837640587 0.00055177752961277132 0 -0.014304735589852317 0.00094488986479622527 0 -0.014239395837640587 0.00055177752961277132 0 -0.014131019679504701 0.00071667042680147825 0 -0.014239395837640587 0.00055177752961277132 0 -0.014131019679504701 0.00071667042680147825 0 -0.01406381864782927 0.00054682364741738695 0 -0.015229480548639469 0.0013420410242510194 0 -0.014732088234797387 0.00078797791053729371 0 -0.015504879119696573 0.00094931978683589972 0 -0.015672294052784981 0.00069862974962246001 0 -0.015466758356031569 0.00040852513274566474 0 -0.014732088234797387 0.00078797791053729371 0 -0.015504879119696573 0.00094931978683589972 0 -0.015050179686651503 0.00033020526070234749 0 -0.015777684340557249 0.000331539095258027 0 -0.016247232125393904 1.3493902711983436e-05 0 -0.015050179686651503 0.00033020526070234749 0 -0.016247232125393904 1.3493902711983436e-05 0 -0.017435541812355921 4.6059810506529839e-05 0 -0.017052907394079091 -0.00017134773852040981 0 -0.016247232125393904 1.3493902711983436e-05 0 -0.017435541812355921 4.6059810506529839e-05 0 -0.016527746701641692 0.00032881628400799481 0 -0.015777684340557249 0.000331539095258027 0 -0.016247232125393904 1.3493902711983436e-05 0 -0.016527746701641692 0.00032881628400799481 0 -0.016211765827521939 0.00082898341168910733 0 -0.016527746701641692 0.00032881628400799481 0 -0.017465364125967522 0.00084059429701437496 0 -0.017435541812355921 4.6059810506529839e-05 0 -0.016527746701641692 0.00032881628400799481 0 -0.017465364125967522 0.00084059429701437496 0 -0.017250368732487951 0.00183457851425366 0 -0.017465364125967522 0.00084059429701437496 0 -0.016846049488109135 0.0013601931162574607 0 -0.017250368732487951 0.00183457851425366 0 -0.018596837329113471 0.0020959911848925884 0 -0.017465364125967522 0.00084059429701437496 0 -0.01629284052156026 0.0017511580256048237 0 -0.016047362807172682 0.0013022408656801841 0 -0.016645324837724802 0.002175200929950868 0 -0.015933704562345111 0.0022571554228869657 0 -0.016009078785355124 0.0015461759045195191 0 -0.016645324837724802 0.002175200929950868 0 -0.016211765827521939 0.00082898341168910733 0 -0.016846049488109135 0.0013601931162574607 0 -0.016211765827521939 0.00082898341168910733 0 -0.017465364125967522 0.00084059429701437496 0 -0.016846049488109135 0.0013601931162574607 0 -0.018596837329113471 0.0020959911848925884 0 -0.021719751980378336 4.7675675751077109e-06 0 -0.019040612587887158 0.00016637498726514456 0 -0.018596837329113471 0.0020959911848925884 0 -0.017465364125967522 0.00084059429701437496 0 -0.019040612587887158 0.00016637498726514456 0 -0.017435541812355921 4.6059810506529839e-05 0 -0.017465364125967522 0.00084059429701437496 0 -0.019040612587887158 0.00016637498726514456 0 -0.019040612587887158 0.00016637498726514456 0 -0.019773737559313054 -1.3133822618032372e-06 0 -0.018191229937141892 -9.8608853167199799e-05 0 -0.021719751980378336 4.7675675751077109e-06 0 -0.019040612587887158 0.00016637498726514456 0 -0.019773737559313054 -1.3133822618032372e-06 0 -0.019773737559313054 -1.3133822618032372e-06 0 -0.018191229937141892 -9.8608853167199799e-05 0 -0.017822860920275446 -1.9390236816651733e-07 0 -0.017435541812355921 4.6059810506529839e-05 0 -0.019040612587887158 0.00016637498726514456 0 -0.018191229937141892 -9.8608853167199799e-05 0 -0.017435541812355921 4.6059810506529839e-05 0 -0.018191229937141892 -9.8608853167199799e-05 0 -0.017052907394079091 -0.00017134773852040981 0 -0.018191229937141892 -9.8608853167199799e-05 0 -0.017052907394079091 -0.00017134773852040981 0 -0.017822860920275446 -1.9390236816651733e-07 0 -0.017822860920275446 -1.9390236816651733e-07 0 -0.016229357010902355 -0.00025250131650563407 0 -0.015873414586601041 -4.4899245269222666e-07 0 -0.017052907394079091 -0.00017134773852040981 0 -0.017822860920275446 -1.9390236816651733e-07 0 -0.016229357010902355 -0.00025250131650563407 0 -0.017052907394079091 -0.00017134773852040981 0 -0.016229357010902355 -0.00025250131650563407 0 -0.016195852715456326 -0.00029727626355857326 0 -0.016229357010902355 -0.00025250131650563407 0 -0.016195852715456326 -0.00029727626355857326 0 -0.01535360229192477 -0.00037167979055772825 0 -0.016229357010902355 -0.00025250131650563407 0 -0.015873414586601041 -4.4899245269222666e-07 0 -0.01535360229192477 -0.00037167979055772825 0 -0.016247232125393904 1.3493902711983436e-05 0 -0.016195852715456326 -0.00029727626355857326 0 -0.015662881989890572 -0.00011180542805529384 0 -0.016247232125393904 1.3493902711983436e-05 0 -0.017052907394079091 -0.00017134773852040981 0 -0.016195852715456326 -0.00029727626355857326 0 -0.016195852715456326 -0.00029727626355857326 0 -0.015813653944065555 -0.00039173503671937845 0 -0.01535360229192477 -0.00037167979055772825 0 -0.016195852715456326 -0.00029727626355857326 0 -0.015813653944065555 -0.00039173503671937845 0 -0.015662881989890572 -0.00011180542805529384 0 -0.015813653944065555 -0.00039173503671937845 0 -0.015720674720008498 -0.00027215601892889444 0 -0.015370685973065045 -0.00055920458963397413 0 -0.015813653944065555 -0.00039173503671937845 0 -0.015720674720008498 -0.00027215601892889444 0 -0.01535360229192477 -0.00037167979055772825 0 -0.015720674720008498 -0.00027215601892889444 0 -0.01535360229192477 -0.00037167979055772825 0 -0.015006321743511415 0.00021089366499880193 0 -0.015873414586601041 -4.4899245269222666e-07 0 -0.01535360229192477 -0.00037167979055772825 0 -0.01392331760328565 -1.2166202119832876e-06 0 -0.01535360229192477 -0.00037167979055772825 0 -0.013855517426960701 2.5313712357860206e-05 0 -0.015006321743511415 0.00021089366499880193 0 -0.01535360229192477 -0.00037167979055772825 0 -0.01392331760328565 -1.2166202119832876e-06 0 -0.013855517426960701 2.5313712357860206e-05 0 -0.01392331760328565 -1.2166202119832876e-06 0 -0.013855517426960701 2.5313712357860206e-05 0 -0.011975898763162301 2.6979800238281897e-06 0 -0.013855517426960701 2.5313712357860206e-05 0 -0.011975898763162301 2.6979800238281897e-06 0 -0.013173264491149346 0.00091030087123209695 0 -0.011972415449474437 3.2105402467525331e-07 0 -0.011876930832333406 4.8075199595116147e-05 0 -0.011970891607064781 2.6003702333441253e-10 0 -0.011546644931333757 -4.5308565084134283e-07 0 -0.011135441551523869 -1.5171730198354321e-09 0 -0.0099749221676880585 0.00075652138544379615 0 -0.011130639000086208 1.451478281635292e-06 0 -0.0098792009020979218 0.00013483384340920234 0 -0.011876930832333406 4.8075199595116147e-05 0 -0.011135857519355745 1.0300790584042384e-06 0 -0.014607737502064896 0.00073462034236966729 0 -0.014265474899562267 0.00074118291782090126 0 -0.01421044017418302 0.00099045056615025724 0 -0.014607737502064896 0.00073462034236966729 0 -0.014265474899562267 0.00074118291782090126 0 -0.014269262047835242 0.00047450463757830043 0 -0.0099749221676880585 0.00075652138544379615 0 -0.0098792009020979218 0.00013483384340920234 0 -0.0088792393716574606 3.6513966462202911e-05 0 -0.011876930832333406 4.8075199595116147e-05 0 -0.011612996387844052 0.00024821833125154288 0 -0.011876930832333406 4.8075199595116147e-05 0 -0.013740560884316912 -2.7101735349604393e-05 0 -0.013855517426960701 2.5313712357860206e-05 0 -0.013173264491149346 0.00091030087123209695 0 -0.015006321743511415 0.00021089366499880193 0 -0.014263967818075729 8.6456533389063929e-05 0 -0.013740560884316912 -2.7101735349604393e-05 0 -0.013696507125232509 0.0012049232538834866 0 -0.01421044017418302 0.00099045056615025724 0 -0.013972756019270208 0.00076149971434700896 0 -0.013696507125232509 0.0012049232538834866 0 -0.013972756019270208 0.00076149971434700896 0 -0.013588317156627127 0.00097573301777084838 0 -0.013972756019270208 0.00076149971434700896 0 -0.013680565218659242 0.0006363211384462174 0 -0.013588317156627127 0.00097573301777084838 0 -0.014265474899562267 0.00074118291782090126 0 -0.013972756019270208 0.00076149971434700896 0 -0.014269262047835242 0.00047450463757830043 0 -0.014265474899562267 0.00074118291782090126 0 -0.01421044017418302 0.00099045056615025724 0 -0.013972756019270208 0.00076149971434700896 0 -0.011144167643102228 0.00030003307082945846 0 -0.011612996387844052 0.00024821833125154288 0 -0.0090085763792557092 -9.4851543062599928e-06 0 -0.0088247305328564684 -5.6463710958555121e-05 0 -0.0088792393716574606 3.6513966462202911e-05 0 -0.013972756019270208 0.00076149971434700896 0 -0.014003184564636138 0.00017279141955877023 0 -0.014269262047835242 0.00047450463757830043 0 -0.014003184564636138 0.00017279141955877023 0 -0.013678144037419977 0.00014667880026592901 0 -0.013680565218659242 0.0006363211384462174 0 -0.013972756019270208 0.00076149971434700896 0 -0.014003184564636138 0.00017279141955877023 0 -0.013680565218659242 0.0006363211384462174 0 -0.014003184564636138 0.00017279141955877023 0 -0.013678144037419977 0.00014667880026592901 0 -0.013689764712380689 -0.00036238901635147293 0 -0.011144167643102228 0.00030003307082945846 0 -0.010226640658274297 0.00029498461514104252 0 -0.0090085763792557092 -9.4851543062599928e-06 0 -0.0088247305328564684 -5.6463710958555121e-05 0 -0.0089627607068337219 0.0001583163799347834 0 -0.0088247305328564684 -5.6463710958555121e-05 0 -0.0083111698230954999 0.00013209082641154623 0 -0.0093947532747501866 -6.1516647606502169e-05 0 -0.0088247305328564684 -5.6463710958555121e-05 0 -0.0083111698230954999 0.00013209082641154623 0 -0.0089627607068337219 0.0001583163799347834 0 -0.0090675169256263892 -2.3783678840897163e-07 0 -0.0083111698230954999 0.00013209082641154623 0 -0.0093947532747501866 -6.1516647606502169e-05 0 -0.011130639000086208 1.451478281635292e-06 0 -0.0090675169256263892 -2.3783678840897163e-07 0 -0.0093947532747501866 -6.1516647606502169e-05 0 -0.011130639000086208 1.451478281635292e-06 0 -0.0093947532747501866 -6.1516647606502169e-05 0 -0.0098792009020979218 0.00013483384340920234 0 -0.0093947532747501866 -6.1516647606502169e-05 0 -0.0098792009020979218 0.00013483384340920234 0 -0.0088792393716574606 3.6513966462202911e-05 0 -0.0088247305328564684 -5.6463710958555121e-05 0 -0.0093947532747501866 -6.1516647606502169e-05 0 -0.0088792393716574606 3.6513966462202911e-05 0 -0.013025578539709901 0.00069641294639141672 0 -0.0125019443189306 0.00075055203758138888 0 -0.012762425927653483 0.00017994319199017127 0 -0.0125019443189306 0.00075055203758138888 0 -0.012236241864615433 1.7968065585441607e-05 0 -0.012762425927653483 0.00017994319199017127 0 -0.013025578539709901 0.00069641294639141672 0 -0.012762425927653483 0.00017994319199017127 0 -0.01313524903880337 0.00017533304993000857 0 -0.0125019443189306 0.00075055203758138888 0 -0.012236241864615433 1.7968065585441607e-05 0 -0.01131306189618112 0.00019046189582485736 0 -0.0125019443189306 0.00075055203758138888 0 -0.012054912758169735 0.0012739263670210089 0 -0.01131306189618112 0.00019046189582485736 0 -0.012236241864615433 1.7968065585441607e-05 0 -0.01184982777058984 -0.00059690852349401078 0 -0.01131306189618112 0.00019046189582485736 0 -0.012236241864615433 1.7968065585441607e-05 0 -0.01184982777058984 -0.00059690852349401078 0 -0.012559712295458401 -0.00042815046170715295 0 -0.012236241864615433 1.7968065585441607e-05 0 -0.012559712295458401 -0.00042815046170715295 0 -0.012762425927653483 0.00017994319199017127 0 -0.012762425927653483 0.00017994319199017127 0 -0.012913226643834279 -0.00026936980641555482 0 -0.01313524903880337 0.00017533304993000857 0 -0.012559712295458401 -0.00042815046170715295 0 -0.012762425927653483 0.00017994319199017127 0 -0.012913226643834279 -0.00026936980641555482 0 -0.012559712295458401 -0.00042815046170715295 0 -0.012913226643834279 -0.00026936980641555482 0 -0.012872135942941367 -0.00061639497175805904 0 -0.012913226643834279 -0.00026936980641555482 0 -0.013225052909022443 -0.00021866125436790135 0 -0.013081861207756968 -0.00054098196231626211 0 -0.013225052909022443 -0.00021866125436790135 0 -0.013319836212446992 -0.00045820927356844237 0 -0.013081861207756968 -0.00054098196231626211 0 -0.013225052909022443 -0.00021866125436790135 0 -0.01339907992157504 8.6836921809189005e-05 0 -0.013464925435558049 -0.00019039055176070028 0 -0.013225052909022443 -0.00021866125436790135 0 -0.013464925435558049 -0.00019039055176070028 0 -0.013319836212446992 -0.00045820927356844237 0 -0.013225052909022443 -0.00021866125436790135 0 -0.01339907992157504 8.6836921809189005e-05 0 -0.01313524903880337 0.00017533304993000857 0 -0.012913226643834279 -0.00026936980641555482 0 -0.013225052909022443 -0.00021866125436790135 0 -0.01313524903880337 0.00017533304993000857 0 -0.013464925435558049 -0.00019039055176070028 0 -0.013678144037419977 0.00014667880026592901 0 -0.013689764712380689 -0.00036238901635147293 0 -0.01339907992157504 8.6836921809189005e-05 0 -0.013464925435558049 -0.00019039055176070028 0 -0.013678144037419977 0.00014667880026592901 0 -0.013678144037419977 0.00014667880026592901 0 -0.013386610054127305 0.00048102778784654704 0 -0.013680565218659242 0.0006363211384462174 0 -0.01339907992157504 8.6836921809189005e-05 0 -0.013678144037419977 0.00014667880026592901 0 -0.013386610054127305 0.00048102778784654704 0 -0.013025578539709901 0.00069641294639141672 0 -0.01313524903880337 0.00017533304993000857 0 -0.013386610054127305 0.00048102778784654704 0 -0.01339907992157504 8.6836921809189005e-05 0 -0.01313524903880337 0.00017533304993000857 0 -0.013386610054127305 0.00048102778784654704 0 -0.013025578539709901 0.00069641294639141672 0 -0.013386610054127305 0.00048102778784654704 0 -0.013309273425699089 0.001021564415179431 0 -0.013386610054127305 0.00048102778784654704 0 -0.013309273425699089 0.001021564415179431 0 -0.013680565218659242 0.0006363211384462174 0 -0.013309273425699089 0.001021564415179431 0 -0.013680565218659242 0.0006363211384462174 0 -0.013588317156627127 0.00097573301777084838 0 -0.013696507125232509 0.0012049232538834866 0 -0.013588317156627127 0.00097573301777084838 0 -0.013381191818939925 0.0011514335189077261 0 -0.013309273425699089 0.001021564415179431 0 -0.013588317156627127 0.00097573301777084838 0 -0.013381191818939925 0.0011514335189077261 0 -0.013309273425699089 0.001021564415179431 0 -0.013221495357981766 0.0012747947515487734 0 -0.013381191818939925 0.0011514335189077261 0 -0.013221495357981766 0.0012747947515487734 0 -0.012845622397845429 0.0012324730578327401 0 -0.012995397464193736 0.0014195504564103842 0 -0.013309273425699089 0.001021564415179431 0 -0.013221495357981766 0.0012747947515487734 0 -0.012845622397845429 0.0012324730578327401 0 -0.013221495357981766 0.0012747947515487734 0 -0.012995397464193736 0.0014195504564103842 0 -0.013297777648751504 0.0012396068217223886 0 -0.013025578539709901 0.00069641294639141672 0 -0.013309273425699089 0.001021564415179431 0 -0.012845622397845429 0.0012324730578327401 0 -0.013025578539709901 0.00069641294639141672 0 -0.0125019443189306 0.00075055203758138888 0 -0.012845622397845429 0.0012324730578327401 0 -0.012054912758169735 0.0012739263670210089 0 -0.012586753818710541 0.001517086715217645 0 -0.011697585623050791 0.0018100499031926426 0 -0.012845622397845429 0.0012324730578327401 0 -0.012054912758169735 0.0012739263670210089 0 -0.012586753818710541 0.001517086715217645 0 -0.0125019443189306 0.00075055203758138888 0 -0.012845622397845429 0.0012324730578327401 0 -0.012054912758169735 0.0012739263670210089 0 -0.012586753818710541 0.001517086715217645 0 -0.011697585623050791 0.0018100499031926426 0 -0.012648486683965012 0.001475254469906182 0 -0.012845622397845429 0.0012324730578327401 0 -0.012586753818710541 0.001517086715217645 0 -0.012995397464193736 0.0014195504564103842 0 -0.012586753818710541 0.001517086715217645 0 -0.012995397464193736 0.0014195504564103842 0 -0.013088164040471232 0.0015133293015886929 0 -0.012586753818710541 0.001517086715217645 0 -0.013088164040471232 0.0015133293015886929 0 -0.012648486683965012 0.001475254469906182 0 -0.013031956142197125 0.0018984455290544354 0 -0.012911846765421916 0.0020905087374235094 0 -0.013088164040471232 0.0015133293015886929 0 -0.012511566160140521 0.0023425176905404999 0 -0.012648486683965012 0.001475254469906182 0 -0.013088164040471232 0.0015133293015886929 0 -0.013482261626046901 0.0010909830917837067 0 -0.013971951230328633 0.00095783746075310604 0 -0.013482261626046901 0.0010909830917837067 0 -0.013728830101426035 0.00079467920815709677 0 -0.013971951230328633 0.00095783746075310604 0 -0.013482261626046901 0.0010909830917837067 0 -0.013297777648751504 0.0012396068217223886 0 -0.013647482868234913 0.00085161112560479247 0 -0.013088164040471232 0.0015133293015886929 0 -0.013482261626046901 0.0010909830917837067 0 -0.013297777648751504 0.0012396068217223886 0 -0.012995397464193736 0.0014195504564103842 0 -0.013088164040471232 0.0015133293015886929 0 -0.013297777648751504 0.0012396068217223886 0 -0.013221495357981766 0.0012747947515487734 0 -0.013297777648751504 0.0012396068217223886 0 -0.013502896203439661 0.0010462620605958374 0 -0.013297777648751504 0.0012396068217223886 0 -0.013647482868234913 0.00085161112560479247 0 -0.013502896203439661 0.0010462620605958374 0 -0.013647482868234913 0.00085161112560479247 0 -0.013855864275874491 0.00057472187731247 0 -0.014141685919085194 0.00018920117998145097 0 -0.013647482868234913 0.00085161112560479247 0 -0.013502896203439661 0.0010462620605958374 0 -0.014141685919085194 0.00018920117998145097 0 -0.013855864275874491 0.00057472187731247 0 -0.013728830101426035 0.00079467920815709677 0 -0.013940752977408091 0.00060388532524349909 0 -0.013855864275874491 0.00057472187731247 0 -0.013983602836268167 0.00042991072007044385 0 -0.013940752977408091 0.00060388532524349909 0 -0.013728830101426035 0.00079467920815709677 0 -0.013971951230328633 0.00095783746075310604 0 -0.013940752977408091 0.00060388532524349909 0 -0.013647482868234913 0.00085161112560479247 0 -0.013855864275874491 0.00057472187731247 0 -0.013728830101426035 0.00079467920815709677 0 -0.013482261626046901 0.0010909830917837067 0 -0.013647482868234913 0.00085161112560479247 0 -0.013728830101426035 0.00079467920815709677 0 -0.014263967818075729 8.6456533389063929e-05 0 -0.014297399259951195 0.00015478780357443763 0 -0.013696507125232509 0.0012049232538834866 0 -0.013381191818939925 0.0011514335189077261 0 -0.01330154695024818 0.001016244278557082 0 -0.013381191818939925 0.0011514335189077261 0 -0.013502896203439661 0.0010462620605958374 0 -0.01330154695024818 0.001016244278557082 0 -0.013221495357981766 0.0012747947515487734 0 -0.013381191818939925 0.0011514335189077261 0 -0.013502896203439661 0.0010462620605958374 0 -0.013502896203439661 0.0010462620605958374 0 -0.01330154695024818 0.001016244278557082 0 -0.014141685919085194 0.00018920117998145097 0 -0.014297399259951195 0.00015478780357443763 0 -0.014261221016821989 0.00017589820230682476 0 -0.015813653944065555 -0.00039173503671937845 0 -0.015370685973065045 -0.00055920458963397413 0 -0.015662881989890572 -0.00011180542805529384 0 -0.015370685973065045 -0.00055920458963397413 0 -0.015662881989890572 -0.00011180542805529384 0 -0.014141685919085194 0.00018920117998145097 0 -0.015662881989890572 -0.00011180542805529384 0 -0.015050179686651503 0.00033020526070234749 0 -0.014141685919085194 0.00018920117998145097 0 -0.016247232125393904 1.3493902711983436e-05 0 -0.015662881989890572 -0.00011180542805529384 0 -0.015050179686651503 0.00033020526070234749 0 -0.013983602836268167 0.00042991072007044385 0 -0.014132296354454245 0.0003740700743141526 0 -0.014016509142100654 0.00042597279546032716 0 -0.013983602836268167 0.00042991072007044385 0 -0.01401714341745801 0.0004839736935656807 0 -0.013940752977408091 0.00060388532524349909 0 -0.013983602836268167 0.00042991072007044385 0 -0.014016509142100654 0.00042597279546032716 0 -0.01401714341745801 0.0004839736935656807 0 -0.014141685919085194 0.00018920117998145097 0 -0.014442998440907609 0.00039743297098437225 0 -0.014132296354454245 0.0003740700743141526 0 -0.013855864275874491 0.00057472187731247 0 -0.013983602836268167 0.00042991072007044385 0 -0.014141685919085194 0.00018920117998145097 0 -0.013983602836268167 0.00042991072007044385 0 -0.014141685919085194 0.00018920117998145097 0 -0.014132296354454245 0.0003740700743141526 0 -0.015050179686651503 0.00033020526070234749 0 -0.014141685919085194 0.00018920117998145097 0 -0.014442998440907609 0.00039743297098437225 0 -0.014239395837640587 0.00055177752961277132 0 -0.014442998440907609 0.00039743297098437225 0 -0.014132296354454245 0.0003740700743141526 0 -0.014239395837640587 0.00055177752961277132 0 -0.014132296354454245 0.0003740700743141526 0 -0.014087316026568307 0.00044502900512015251 0 -0.014132296354454245 0.0003740700743141526 0 -0.014087316026568307 0.00044502900512015251 0 -0.014016509142100654 0.00042597279546032716 0 -0.014239395837640587 0.00055177752961277132 0 -0.014087316026568307 0.00044502900512015251 0 -0.01406381864782927 0.00054682364741738695 0 -0.01406381864782927 0.00054682364741738695 0 -0.013969691541917992 0.00050800657819695459 0 -0.014017335661047785 0.00044114965695087543 0 -0.014087316026568307 0.00044502900512015251 0 -0.01406381864782927 0.00054682364741738695 0 -0.014017335661047785 0.00044114965695087543 0 -0.013935705298531073 0.00072325751989162242 0 -0.013969691541917992 0.00050800657819695459 0 -0.013828124881331781 0.00052159812712248438 0 -0.013969691541917992 0.00050800657819695459 0 -0.013937238058637223 0.00046996687420748743 0 -0.013828124881331781 0.00052159812712248438 0 -0.013969691541917992 0.00050800657819695459 0 -0.013937238058637223 0.00046996687420748743 0 -0.013979076948094186 0.00044451417226788417 0 -0.013937238058637223 0.00046996687420748743 0 -0.013979076948094186 0.00044451417226788417 0 -0.0139673684728226 0.00041365193815765477 0 -0.013969691541917992 0.00050800657819695459 0 -0.013979076948094186 0.00044451417226788417 0 -0.014017335661047785 0.00044114965695087543 0 -0.013979076948094186 0.00044451417226788417 0 -0.014017335661047785 0.00044114965695087543 0 -0.013994472914207301 0.00042771364487880186 0 -0.013979076948094186 0.00044451417226788417 0 -0.013994472914207301 0.00042771364487880186 0 -0.0139673684728226 0.00041365193815765477 0 -0.014087316026568307 0.00044502900512015251 0 -0.014017335661047785 0.00044114965695087543 0 -0.014016509142100654 0.00042597279546032716 0 -0.013994472914207301 0.00042771364487880186 0 -0.01401714341745801 0.0004839736935656807 0 -0.014124206080792482 0.0005701778669337694 0 -0.014016509142100654 0.00042597279546032716 0 -0.013994472914207301 0.00042771364487880186 0 -0.01401714341745801 0.0004839736935656807 0 -0.013105488844949924 0.0019150058058824417 0 -0.012857149760685221 0.0022849478278928509 0 -0.014017335661047785 0.00044114965695087543 0 -0.014016509142100654 0.00042597279546032716 0 -0.013994472914207301 0.00042771364487880186 0 -0.013994472914207301 0.00042771364487880186 0 -0.0139673684728226 0.00041365193815765477 0 -0.014124206080792482 0.0005701778669337694 0 -0.01346953282562155 0.0026170624847238143 0 -0.012021137046984926 0.0030509106637824201 0 -0.012875699768279323 0.0024612628665871984 0 -0.013007445788108127 0.0026189514789465036 0 -0.013084124478936551 0.0021609731072088955 0 -0.01346953282562155 0.0026170624847238143 0 -0.013821630761627025 0.002946353550126088 0 -0.01346953282562155 0.0026170624847238143 0 -0.012857149760685221 0.0022849478278928509 0 -0.01346953282562155 0.0026170624847238143 0 -0.013105488844949924 0.0019150058058824417 0 -0.01346953282562155 0.0026170624847238143 0 -0.016056783873746434 0.0020424131279689122 0 -0.013720824184466893 0.00015330787382334483 0 -0.01386084885173992 0.00031992310999151715 0 -0.013828124881331781 0.00052159812712248438 0 -0.013720824184466893 0.00015330787382334483 0 -0.013828124881331781 0.00052159812712248438 0 -0.013425191287270464 0.00056598789988841324 0 -0.013105488844949924 0.0019150058058824417 0 -0.013156304263285153 0.0017209322837136729 0 -0.013937238058637223 0.00046996687420748743 0 -0.0139673684728226 0.00041365193815765477 0 -0.013828124881331781 0.00052159812712248438 0 -0.01686383035812114 0.002659790565902662 0 -0.017196961430858037 0.0021949230710903325 0 -0.017285239453370637 0.0025784338772696725 0 -0.017196961430858037 0.0021949230710903325 0 -0.017544022485210222 0.0023061626361781601 0 -0.017285239453370637 0.0025784338772696725 0 -0.017660533789628566 0.0024937058522520473 0 -0.017790080112864492 0.0026866860743198074 0 -0.017829917214108565 0.002297780423579387 0 -0.017544022485210222 0.0023061626361781601 0 -0.017505272876872841 0.0025209947500783418 0 -0.017660533789628566 0.0024937058522520473 0 -0.017544022485210222 0.0023061626361781601 0 -0.017505272876872841 0.0025209947500783418 0 -0.017285239453370637 0.0025784338772696725 0 -0.017544022485210222 0.0023061626361781601 0 -0.017660533789628566 0.0024937058522520473 0 -0.017829917214108565 0.002297780423579387 0 -0.017790080112864492 0.0026866860743198074 0 -0.017637981749126293 0.0028896823411904506 0 -0.017860508433268463 0.0030787948456163835 0 -0.017660533789628566 0.0024937058522520473 0 -0.017790080112864492 0.0026866860743198074 0 -0.017562703451316809 0.0026783762567691486 0 -0.017505272876872841 0.0025209947500783418 0 -0.017562703451316809 0.0026783762567691486 0 -0.017285239453370637 0.0025784338772696725 0 -0.017505272876872841 0.0025209947500783418 0 -0.017660533789628566 0.0024937058522520473 0 -0.017562703451316809 0.0026783762567691486 0 -0.017562703451316809 0.0026783762567691486 0 -0.017637981749126293 0.0028896823411904506 0 -0.017418517079571122 0.0028255673095867787 0 -0.017790080112864492 0.0026866860743198074 0 -0.017562703451316809 0.0026783762567691486 0 -0.017637981749126293 0.0028896823411904506 0 -0.01686383035812114 0.002659790565902662 0 -0.017285239453370637 0.0025784338772696725 0 -0.017160758837745309 0.0028762536715536339 0 -0.01343263979980232 0.0029882717246584168 0 -0.013052519091251111 0.0027043407898197326 0 -0.01293746377344678 0.0023876460444183819 0 -0.017562703451316809 0.0026783762567691486 0 -0.017285239453370637 0.0025784338772696725 0 -0.017418517079571122 0.0028255673095867787 0 -0.017285239453370637 0.0025784338772696725 0 -0.017418517079571122 0.0028255673095867787 0 -0.017160758837745309 0.0028762536715536339 0 -0.013821630761627025 0.002946353550126088 0 -0.013462522645640494 0.0029785166574804165 0 -0.017418517079571122 0.0028255673095867787 0 -0.017160758837745309 0.0028762536715536339 0 -0.017446601459629507 0.0031056661984860479 0 -0.013052519091251111 0.0027043407898197326 0 -0.01293746377344678 0.0023876460444183819 0 -0.012684895564903972 0.0024025367374609394 0 -0.012021137046984926 0.0030509106637824201 0 -0.013462522645640494 0.0029785166574804165 0 -0.016071760111199627 0.0035548103092050637 0 -0.015510896618698044 0.0035868670050081342 0 -0.015351022291277088 0.0029510420530701868 0 -0.013462522645640494 0.0029785166574804165 0 -0.017057098346240026 0.0028789246904597165 0 -0.0088520804238853782 0.0059969346369483411 0 -0.0080900180447898793 0.0060469367029862484 0 -0.007377914726423615 0.0044313249213228899 0 -0.017637981749126293 0.0028896823411904506 0 -0.017446601459629507 0.0031056661984860479 0 -0.017860508433268463 0.0030787948456163835 0 -0.017637981749126293 0.0028896823411904506 0 -0.017418517079571122 0.0028255673095867787 0 -0.017446601459629507 0.0031056661984860479 0 -0.010938800307498449 0.0032106635334253164 0 -0.010490139754206819 0.0027133293946552351 0 -0.010386966561221308 0.0026552483486859445 0 -0.013462522645640494 0.0029785166574804165 0 -0.011662560176237792 0.0026738923504780218 0 -0.0080900180447898793 0.0060469367029862484 0 -0.007377914726423615 0.0044313249213228899 0 -0.0060878918573729806 0.0044454005864617572 0 -0.012021137046984926 0.0030509106637824201 0 -0.0096185798852201042 0.0027853164707924696 0 -0.010472446635860971 0.0027080409377332392 0 -0.010716976937891792 0.0024860935419133735 0 -0.010446889224195267 0.0024036011368025498 0 -0.010490139754206819 0.0027133293946552351 0 -0.010386966561221308 0.0026552483486859445 0 -0.010051763005838075 0.0022161962346054337 0 -0.010879972043905686 0.003186693620632685 0 -0.010953560677324833 0.0027157430867261576 0 -0.011360698991368863 0.0027461633475237375 0 -0.010879972043905686 0.003186693620632685 0 -0.010472446635860971 0.0027080409377332392 0 -0.010953560677324833 0.0027157430867261576 0 -0.012021137046984926 0.0030509106637824201 0 -0.011199027199538856 0.0025584373234514329 0 -0.010472446635860971 0.0027080409377332392 0 -0.010953560677324833 0.0027157430867261576 0 -0.010716976937891792 0.0024860935419133735 0 -0.010953560677324833 0.0027157430867261576 0 -0.011202370854374094 0.0023091682521975765 0 -0.010716976937891792 0.0024860935419133735 0 -0.010953560677324833 0.0027157430867261576 0 -0.011360698991368863 0.0027461633475237375 0 -0.011202370854374094 0.0023091682521975765 0 -0.012589320333467661 0.0024260890655458897 0 -0.011606542316274497 0.0024940608517015905 0 -0.011360698991368863 0.0027461633475237375 0 -0.01173907352116226 0.0031299552608476514 0 -0.011856819835630273 0.0024088875446494503 0 -0.012511566160140521 0.0023425176905404999 0 -0.01228405253615298 0.0014208891954384521 0 -0.012648486683965012 0.001475254469906182 0 -0.012511566160140521 0.0023425176905404999 0 -0.01207748511732936 0.0027074599300885766 0 -0.01228405253615298 0.0014208891954384521 0 -0.012511566160140521 0.0023425176905404999 0 -0.01207748511732936 0.0027074599300885766 0 -0.012258095719727921 0.0027090404238655054 0 -0.012707426838481271 0.0025965229031522596 0 -0.012584277373636056 0.0025952879431444249 0 -0.01274648056796422 0.0023603861933398614 0 -0.012589320333467661 0.0024260890655458897 0 -0.012742199389893958 0.0023484401524898864 0 -0.013971951230328633 0.00095783746075310604 0 -0.014087164766785102 0.00073572190945399708 0 -0.013940752977408091 0.00060388532524349909 0 -0.012911846765421916 0.0020905087374235094 0 -0.012742199389893958 0.0023484401524898864 0 -0.014087164766785102 0.00073572190945399708 0 -0.013940752977408091 0.00060388532524349909 0 -0.014124206080792482 0.0005701778669337694 0 -0.01401714341745801 0.0004839736935656807 0 -0.013940752977408091 0.00060388532524349909 0 -0.014124206080792482 0.0005701778669337694 0 -0.012589320333467661 0.0024260890655458897 0 -0.012857149760685221 0.0022849478278928509 0 -0.012742199389893958 0.0023484401524898864 0 -0.012857149760685221 0.0022849478278928509 0 -0.010879972043905686 0.003186693620632685 0 -0.011360698991368863 0.0027461633475237375 0 -0.01173907352116226 0.0031299552608476514 0 -0.012021137046984926 0.0030509106637824201 0 -0.012589320333467661 0.0024260890655458897 0 -0.012760440948797558 0.0026738915268586356 0 -0.012859555600396607 0.0026670560998412651 0 -0.01285607678740119 0.0026892434663266015 0 -0.012819980364928145 0.0027421024282969233 0 -0.012760440948797558 0.0026738915268586356 0 -0.01285607678740119 0.0026892434663266015 0 -0.026480811729161564 0.0033964251036621763 0 -0.026223877033386422 0.0021828646786130339 0 -0.025022123416379303 0.003059401586479495 0 -0.026480811729161564 0.0033964251036621763 0 -0.027297573686083331 0.0022030271281765611 0 -0.026223877033386422 0.0021828646786130339 0 -0.02728981027867735 0.004526157455086971 0 -0.026480811729161564 0.0033964251036621763 0 -0.025821415211462997 0.004697869805884344 0 -0.02728981027867735 0.004526157455086971 0 -0.026480811729161564 0.0033964251036621763 0 -0.02774563408803659 0.003240791005050531 0 -0.026480811729161564 0.0033964251036621763 0 -0.02774563408803659 0.003240791005050531 0 -0.027297573686083331 0.0022030271281765611 0 -0.02774563408803659 0.003240791005050531 0 -0.028308507968808287 0.0021723210587350152 0 -0.027297573686083331 0.0022030271281765611 0 -0.02774563408803659 0.003240791005050531 0 -0.028370584133013219 0.0039657909113986001 0 -0.028809079552203128 0.0031076583946750094 0 -0.02774563408803659 0.003240791005050531 0 -0.028809079552203128 0.0031076583946750094 0 -0.028308507968808287 0.0021723210587350152 0 -0.02728981027867735 0.004526157455086971 0 -0.02774563408803659 0.003240791005050531 0 -0.028370584133013219 0.0039657909113986001 0 -0.021735842620479985 0.0036525849456648142 0 -0.021765708191690967 0.0032991036810414583 0 -0.028370584133013219 0.0039657909113986001 0 -0.029288712237059724 0.0040213719063971233 0 -0.028809079552203128 0.0031076583946750094 0 -0.028273378791267366 0.0049156674770522669 0 -0.028370584133013219 0.0039657909113986001 0 -0.029288712237059724 0.0040213719063971233 0 -0.017790080112864492 0.0026866860743198074 0 -0.017829917214108565 0.002297780423579387 0 -0.018052263193903299 0.0026727236945175577 0 -0.021765708191690967 0.0032991036810414583 0 -0.021084211667526696 0.0026477823511623791 0 -0.017790080112864492 0.0026866860743198074 0 -0.018052263193903299 0.0026727236945175577 0 -0.017860508433268463 0.0030787948456163835 0 -0.018052263193903299 0.0026727236945175577 0 -0.017860508433268463 0.0030787948456163835 0 -0.018276402229339968 0.0030515166719751151 0 -0.015510896618698044 0.0035868670050081342 0 -0.015351022291277088 0.0029510420530701868 0 -0.014941692449772028 0.0036251160659541747 0 -0.017057098346240026 0.0028789246904597165 0 -0.021084211667526696 0.0026477823511623791 0 -0.015351022291277088 0.0029510420530701868 0 -0.014576350840018954 0.0029947902129371404 0 -0.014941692449772028 0.0036251160659541747 0 -0.027987170115808056 0.00072102167585967364 0 -0.028687307290791567 0.001995763880063848 0 -0.027456706809245921 0.0020783853771119578 0 -0.019394696917849886 0.0025344665998559349 0 -0.021084211667526696 0.0026477823511623791 0 -0.021084211667526696 0.0026477823511623791 0 -0.024893938503126392 0.0023733041316577413 0 -0.024893938503126392 0.0023733041316577413 0 -0.025550550320007633 0.0023200736166055381 0 -0.027987170115808056 0.00072102167585967364 0 -0.027456706809245921 0.0020783853771119578 0 -0.026536767822466129 0.00088767287650291424 0 -0.027987170115808056 0.00072102167585967364 0 -0.026536767822466129 0.00088767287650291424 0 -0.027263393264821467 -0.00059201307787824689 0 -0.026536767822466129 0.00088767287650291424 0 -0.025276366768412013 0.0015296367059800234 0 -0.025508531335629966 0.00031389680036740297 0 -0.026536767822466129 0.00088767287650291424 0 -0.0261301750175351 -5.6852731857825838e-05 0 -0.025508531335629966 0.00031389680036740297 0 -0.026536767822466129 0.00088767287650291424 0 -0.026223877033386422 0.0021828646786130339 0 -0.025276366768412013 0.0015296367059800234 0 -0.027456706809245921 0.0020783853771119578 0 -0.026536767822466129 0.00088767287650291424 0 -0.026223877033386422 0.0021828646786130339 0 -0.026498529225546189 -0.001927523667754012 0 -0.026304030509293298 -0.0014965618399654988 0 -0.027263393264821467 -0.00059201307787824689 0 -0.025833996722497764 -0.0018007135175620349 0 -0.026304030509293298 -0.0014965618399654988 0 -0.026147595116542719 -0.0022334402176688996 0 -0.025833996722497764 -0.0018007135175620349 0 -0.026304030509293298 -0.0014965618399654988 0 -0.025782507762310981 -0.0012414118080323177 0 -0.025833996722497764 -0.0018007135175620349 0 -0.025782507762310981 -0.0012414118080323177 0 -0.025316141595383684 -0.0017504086014747302 0 -0.026498529225546189 -0.001927523667754012 0 -0.026304030509293298 -0.0014965618399654988 0 -0.026115964654657417 -0.0022202769974856351 0 -0.012378871482144534 0.0011941852724072343 0 -0.011790829319501784 0.0013203910646940682 0 -0.026304030509293298 -0.0014965618399654988 0 -0.026360970681135999 -0.00074833574007814366 0 -0.027263393264821467 -0.00059201307787824689 0 -0.026304030509293298 -0.0014965618399654988 0 -0.025782507762310981 -0.0012414118080323177 0 -0.026360970681135999 -0.00074833574007814366 0 -0.025782507762310981 -0.0012414118080323177 0 -0.025700415406977924 -0.00053982905653305908 0 -0.026360970681135999 -0.00074833574007814366 0 -0.026536767822466129 0.00088767287650291424 0 -0.0261301750175351 -5.6852731857825838e-05 0 -0.027263393264821467 -0.00059201307787824689 0 -0.025700415406977924 -0.00053982905653305908 0 -0.0261301750175351 -5.6852731857825838e-05 0 -0.026360970681135999 -0.00074833574007814366 0 -0.0261301750175351 -5.6852731857825838e-05 0 -0.026360970681135999 -0.00074833574007814366 0 -0.027263393264821467 -0.00059201307787824689 0 -0.025700415406977924 -0.00053982905653305908 0 -0.0261301750175351 -5.6852731857825838e-05 0 -0.025508531335629966 0.00031389680036740297 0 -0.014576350840018954 0.0029947902129371404 0 -0.014199374835946552 0.0023446349113087576 0 -0.014602555657204759 0.0023223485410376436 0 -0.019394696917849886 0.0025344665998559349 0 -0.016750133664225352 0.0022520154976378901 0 -0.012037787908020958 0.0014998626983670667 0 -0.010741069639143699 0.0018326528118327904 0 -0.012037787908020958 0.0014998626983670667 0 -0.016750133664225352 0.0022520154976378901 0 -0.013823798863636409 0.0016733073342742742 0 -0.014199374835946552 0.0023446349113087576 0 -0.014602555657204759 0.0023223485410376436 0 -0.0029241269035479756 0.001668904440634547 0 -0.0038717020560952828 0.0018404128643982303 0 -0.0042419704976138185 0.0028954372626362056 0 -0.0038717020560952828 0.0018404128643982303 0 -0.0048829584269745605 0.0019927797231101903 0 -0.0039572627260382551 0.0012156431132018379 0 -0.0045097401888481107 0.0020818583485088991 0 -0.0053223537092359384 0.0019348888708189116 0 -0.0045415441934363197 0.0013450384615170292 0 -0.0048829584269745605 0.0019927797231101903 0 -0.0042419704976138185 0.0028954372626362056 0 -0.0051222258826121355 0.0028252499030309479 0 -0.0038717020560952828 0.0018404128643982303 0 -0.0048829584269745605 0.0019927797231101903 0 -0.0042419704976138185 0.0028954372626362056 0 -0.015351022291277088 0.0029510420530701868 0 -0.014576350840018954 0.0029947902129371404 0 -0.014602555657204759 0.0023223485410376436 0 -0.0060878918573729806 0.0044454005864617572 0 -0.0042419704976138185 0.0028954372626362056 0 -0.0051222258826121355 0.0028252499030309479 0 -0.011662560176237792 0.0026738923504780218 0 -0.010741069639143699 0.0018326528118327904 0 -0.0072291684528053559 0.0020579811461627043 0 -0.0074892448865098342 0.0020578811493876061 0 -0.007377914726423615 0.0044313249213228899 0 -0.0060878918573729806 0.0044454005864617572 0 -0.0059478756716629172 0.0029331737374314755 0 -0.0060878918573729806 0.0044454005864617572 0 -0.0051222258826121355 0.0028252499030309479 0 -0.0059478756716629172 0.0029331737374314755 0 -0.010386966561221308 0.0026552483486859445 0 -0.009857261108009923 0.0020977338794016974 0 -0.010051763005838075 0.0022161962346054337 0 -0.0096185798852201042 0.0027853164707924696 0 -0.0074892448865098342 0.0020578811493876061 0 -0.0052588255761322148 0.0030922789267394048 0 -0.0053223537092359384 0.0019348888708189116 0 -0.006165741952954662 0.0024090795318278046 0 -0.0045097401888481107 0.0020818583485088991 0 -0.0052588255761322148 0.0030922789267394048 0 -0.0053223537092359384 0.0019348888708189116 0 -0.0062857643030604362 0.0015569701737192178 0 -0.0074892448865098342 0.0020578811493876061 0 -0.0048829584269745605 0.0019927797231101903 0 -0.0051222258826121355 0.0028252499030309479 0 -0.0058309707570731667 0.0029249471628097537 0 -0.0051199502239191279 0.00094219427208214049 0 -0.0061596988689945169 0.0014348919028686772 0 -0.0058485433009683495 0.00018077863982278577 0 -0.0053223537092359384 0.0019348888708189116 0 -0.0051199502239191279 0.00094219427208214049 0 -0.0061596988689945169 0.0014348919028686772 0 -0.0053223537092359384 0.0019348888708189116 0 -0.0051199502239191279 0.00094219427208214049 0 -0.0045415441934363197 0.0013450384615170292 0 -0.0051199502239191279 0.00094219427208214049 0 -0.0049229546462963257 0.00015245659999949391 0 -0.0058485433009683495 0.00018077863982278577 0 -0.0049229546462963257 0.00015245659999949391 0 -0.0058485433009683495 0.00018077863982278577 0 -0.0052161502695926591 -0.00053067206927169845 0 -0.0049229546462963257 0.00015245659999949391 0 -0.0041843888972884317 0.00051557104270770471 0 -0.0043671287464678282 -0.00043307297320548501 0 -0.0051199502239191279 0.00094219427208214049 0 -0.0049229546462963257 0.00015245659999949391 0 -0.0041843888972884317 0.00051557104270770471 0 -0.0041843888972884317 0.00051557104270770471 0 -0.0045415441934363197 0.0013450384615170292 0 -0.0039572627260382551 0.0012156431132018379 0 -0.0051199502239191279 0.00094219427208214049 0 -0.0041843888972884317 0.00051557104270770471 0 -0.0045415441934363197 0.0013450384615170292 0 -0.0045097401888481107 0.0020818583485088991 0 -0.0045415441934363197 0.0013450384615170292 0 -0.0039572627260382551 0.0012156431132018379 0 -0.0062857643030604362 0.0015569701737192178 0 -0.0058296920924405726 0.0013074121128733704 0 -0.0029241269035479756 0.001668904440634547 0 -0.0038717020560952828 0.0018404128643982303 0 -0.0034771053252058864 0.0012684091210937041 0 -0.0038717020560952828 0.0018404128643982303 0 -0.0039572627260382551 0.0012156431132018379 0 -0.0034771053252058864 0.0012684091210937041 0 -0.0029241269035479756 0.001668904440634547 0 -0.0034771053252058864 0.0012684091210937041 0 -0.0030388402490832611 0.0010833989484729774 0 -0.0034771053252058864 0.0012684091210937041 0 -0.0033044770304791497 0.00069535205632922828 0 -0.0030388402490832611 0.0010833989484729774 0 -0.0034771053252058864 0.0012684091210937041 0 -0.0037053602385867831 0.00078267465295014189 0 -0.0033044770304791497 0.00069535205632922828 0 -0.0039572627260382551 0.0012156431132018379 0 -0.0034771053252058864 0.0012684091210937041 0 -0.0037053602385867831 0.00078267465295014189 0 -0.0041843888972884317 0.00051557104270770471 0 -0.0039572627260382551 0.0012156431132018379 0 -0.0037053602385867831 0.00078267465295014189 0 -0.0041843888972884317 0.00051557104270770471 0 -0.0037053602385867831 0.00078267465295014189 0 -0.0034358017877116065 0.00032291779974707356 0 -0.0034579114206828329 0.00026419919933289639 0 -0.0031261530769829404 -1.0767186201789673e-05 0 -0.0041843888972884317 0.00051557104270770471 0 -0.0034358017877116065 0.00032291779974707356 0 -0.0034571000516010453 -0.00035270991644145949 0 -0.0034358017877116065 0.00032291779974707356 0 -0.0030795322272710456 0.00038268666086938518 0 -0.0030489580384590437 4.0344635942825227e-05 0 -0.0034358017877116065 0.00032291779974707356 0 -0.0030489580384590437 4.0344635942825227e-05 0 -0.0034571000516010453 -0.00035270991644145949 0 -0.0034358017877116065 0.00032291779974707356 0 -0.0033044770304791497 0.00069535205632922828 0 -0.0030795322272710456 0.00038268666086938518 0 -0.0037053602385867831 0.00078267465295014189 0 -0.0034358017877116065 0.00032291779974707356 0 -0.0033044770304791497 0.00069535205632922828 0 -0.0033044770304791497 0.00069535205632922828 0 -0.0028757830249138755 0.00062145032608835592 0 -0.0030795322272710456 0.00038268666086938518 0 -0.0028757830249138755 0.00062145032608835592 0 -0.0030795322272710456 0.00038268666086938518 0 -0.002742488135457995 0.00025184898416632612 0 -0.0030489580384590437 4.0344635942825227e-05 0 -0.002742488135457995 0.00025184898416632612 0 -0.0028376903114588738 -0.00027639691765890469 0 -0.0030795322272710456 0.00038268666086938518 0 -0.0030489580384590437 4.0344635942825227e-05 0 -0.002742488135457995 0.00025184898416632612 0 -0.002742488135457995 0.00025184898416632612 0 -0.0025840576959073889 0.00031461099084484486 0 -0.0028376903114588738 -0.00027639691765890469 0 -0.0073822512993495255 0.0013526329575013886 0 -0.007486552676902871 0.001330994457399497 0 -0.0089000263082763716 0.00076928482846815884 0 -0.0089977076793289288 0.0012096166783988707 0 -0.0087714865665220413 0.00081934681073599774 0 -0.007486552676902871 0.001330994457399497 0 -0.0099867946450101983 0.0011628350729777452 0 -0.007486552676902871 0.001330994457399497 0 -0.0076140253730303782 0.001257549765812717 0 -0.0099867946450101983 0.0011628350729777452 0 -0.0076140253730303782 0.001257549765812717 0 -0.0028757830249138755 0.00062145032608835592 0 -0.0025474419657275293 0.00032558839877771308 0 -0.0026460309919793461 0.0010227845005922811 0 -0.0028757830249138755 0.00062145032608835592 0 -0.002742488135457995 0.00025184898416632612 0 -0.0025474419657275293 0.00032558839877771308 0 -0.010486236356867571 0.00062928425893811295 0 -0.010646101840687785 0.0013770887311174609 0 -0.0087496318972564695 -0.00016745399131333312 0 -0.0033044770304791497 0.00069535205632922828 0 -0.0028757830249138755 0.00062145032608835592 0 -0.0030388402490832611 0.0010833989484729774 0 -0.0028757830249138755 0.00062145032608835592 0 -0.0026460309919793461 0.0010227845005922811 0 -0.0030388402490832611 0.0010833989484729774 0 -0.010994182794893314 0.0017540533049114917 0 -0.010769788715881513 0.0013638779062752561 0 -0.010825328020126564 0.0016179263674284624 0 -0.0029241269035479756 0.001668904440634547 0 -0.0026460309919793461 0.0010227845005922811 0 -0.0030388402490832611 0.0010833989484729774 0 -0.012037787908020958 0.0014998626983670667 0 -0.0099867946450101983 0.0011628350729777452 0 -0.012037787908020958 0.0014998626983670667 0 -0.011790829319501784 0.0013203910646940682 0 -0.025833996722497764 -0.0018007135175620349 0 -0.026147595116542719 -0.0022334402176688996 0 -0.02539835591848949 -0.0022783939397413079 0 -0.0099867946450101983 0.0011628350729777452 0 -0.011790829319501784 0.0013203910646940682 0 -0.010160760052229621 0.0026914172348945489 0 -0.0089072560166607861 0.0016566761008337133 0 -0.010577089468771037 0.0011931011599748205 0 -0.010160760052229621 0.0026914172348945489 0 -0.0089072560166607861 0.0016566761008337133 0 -0.0088168870390642924 0.0038083607242969976 0 -0.010160760052229621 0.0026914172348945489 0 -0.011697585623050791 0.0018100499031926426 0 -0.010577089468771037 0.0011931011599748205 0 -0.012054912758169735 0.0012739263670210089 0 -0.011697585623050791 0.0018100499031926426 0 -0.010577089468771037 0.0011931011599748205 0 -0.010160760052229621 0.0026914172348945489 0 -0.011697585623050791 0.0018100499031926426 0 -0.011236936113975297 0.0042913232485603421 0 -0.01166282983232309 0.0022395537441806798 0 -0.011606542316274497 0.0024940608517015905 0 -0.011697585623050791 0.0018100499031926426 0 -0.012593566239716684 0.0015034692134439052 0 -0.012648486683965012 0.001475254469906182 0 -0.011606542316274497 0.0024940608517015905 0 -0.011661786550823646 0.0024817736127610373 0 -0.011606542316274497 0.0024940608517015905 0 -0.010176335177388513 0.0025395734397680903 0 -0.011360698991368863 0.0027461633475237375 0 -0.011856819835630273 0.0024088875446494503 0 -0.011202370854374094 0.0023091682521975765 0 -0.010160760052229621 0.0026914172348945489 0 -0.011236936113975297 0.0042913232485603421 0 -0.0088168870390642924 0.0038083607242969976 0 -0.0088168870390642924 0.0038083607242969976 0 -0.0068772549433118203 0.0034761803060759265 0 -0.0073277123012036099 0.0021688803085845379 0 -0.010176335177388513 0.0025395734397680903 0 -0.0088233790371772917 0.0023859403867857302 0 -0.011202370854374094 0.0023091682521975765 0 -0.010716976937891792 0.0024860935419133735 0 -0.010542035292307255 0.0022031112250327969 0 -0.0074892448865098342 0.0020578811493876061 0 -0.0088233790371772917 0.0023859403867857302 0 -0.009857261108009923 0.0020977338794016974 0 -0.010051763005838075 0.0022161962346054337 0 -0.010542035292307255 0.0022031112250327969 0 -0.0052588255761322148 0.0030922789267394048 0 -0.0068772549433118203 0.0034761803060759265 0 -0.006165741952954662 0.0024090795318278046 0 -0.010472446635860971 0.0027080409377332392 0 -0.010051763005838075 0.0022161962346054337 0 -0.010446889224195267 0.0024036011368025498 0 -0.010051763005838075 0.0022161962346054337 0 -0.010446889224195267 0.0024036011368025498 0 -0.010542035292307255 0.0022031112250327969 0 -0.011199027199538856 0.0025584373234514329 0 -0.010901860593563496 0.0023513235287866861 0 -0.010716976937891792 0.0024860935419133735 0 -0.010446889224195267 0.0024036011368025498 0 -0.010542035292307255 0.0022031112250327969 0 -0.0068772549433118203 0.0034761803060759265 0 -0.006165741952954662 0.0024090795318278046 0 -0.0073277123012036099 0.0021688803085845379 0 -0.006165741952954662 0.0024090795318278046 0 -0.0073277123012036099 0.0021688803085845379 0 -0.0061596988689945169 0.0014348919028686772 0 -0.0053223537092359384 0.0019348888708189116 0 -0.006165741952954662 0.0024090795318278046 0 -0.0061596988689945169 0.0014348919028686772 0 -0.0089072560166607861 0.0016566761008337133 0 -0.0088168870390642924 0.0038083607242969976 0 -0.0073277123012036099 0.0021688803085845379 0 -0.0089072560166607861 0.0016566761008337133 0 -0.0073277123012036099 0.0021688803085845379 0 -0.0073988937348613603 0.00086804322063432687 0 -0.0073988937348613603 0.00086804322063432687 0 -0.0061596988689945169 0.0014348919028686772 0 -0.0058485433009683495 0.00018077863982278577 0 -0.0073277123012036099 0.0021688803085845379 0 -0.0073988937348613603 0.00086804322063432687 0 -0.0061596988689945169 0.0014348919028686772 0 -0.0073988937348613603 0.00086804322063432687 0 -0.0058485433009683495 0.00018077863982278577 0 -0.0073772356975451208 -0.00043228339938074234 0 -0.0073988937348613603 0.00086804322063432687 0 -0.0073772356975451208 -0.00043228339938074234 0 -0.0093116652823732396 0.00038349413332605453 0 -0.0073772356975451208 -0.00043228339938074234 0 -0.0093116652823732396 0.00038349413332605453 0 -0.01009257278124946 -0.0012701173595234762 0 -0.0089072560166607861 0.0016566761008337133 0 -0.0093116652823732396 0.00038349413332605453 0 -0.010577089468771037 0.0011931011599748205 0 -0.0089072560166607861 0.0016566761008337133 0 -0.0073988937348613603 0.00086804322063432687 0 -0.0093116652823732396 0.00038349413332605453 0 -0.0093116652823732396 0.00038349413332605453 0 -0.010577089468771037 0.0011931011599748205 0 -0.01131306189618112 0.00019046189582485736 0 -0.012054912758169735 0.0012739263670210089 0 -0.010577089468771037 0.0011931011599748205 0 -0.01131306189618112 0.00019046189582485736 0 -0.01184982777058984 -0.00059690852349401078 0 -0.01131306189618112 0.00019046189582485736 0 -0.01009257278124946 -0.0012701173595234762 0 -0.0093116652823732396 0.00038349413332605453 0 -0.01131306189618112 0.00019046189582485736 0 -0.01009257278124946 -0.0012701173595234762 0 -0.0087933042331382241 -0.00085954186383044946 0 -0.0091273503983410088 -0.00096033237471455338 0 -0.0078513724333884264 -0.00062692785217617934 0 -0.0080347534156858733 -0.0010262872883071816 0 -0.0086158920098588342 -0.00085356145462763477 0 -0.01184982777058984 -0.00059690852349401078 0 -0.01009257278124946 -0.0012701173595234762 0 -0.011847547625326593 -0.0013075732297337392 0 -0.0080347534156858733 -0.0010262872883071816 0 -0.0077533030447373783 -0.0014893468775253409 0 -0.0085504474143133849 -0.0012367842894567573 0 -0.0053662770264497582 -0.0011955290643391875 0 -0.005839093636622896 -0.00096887977055879642 0 -0.0028083801818402951 -0.0010547561905251681 0 -0.0025303743144891775 -0.00089748303318045266 0 -0.0025789404277967256 -0.00064030444743801737 0 -0.0077533030447373783 -0.0014893468775253409 0 -0.0073712198089321713 -0.00093050574343882329 0 -0.0064764937536062207 -0.0017884883720737299 0 -0.0080347534156858733 -0.0010262872883071816 0 -0.0077533030447373783 -0.0014893468775253409 0 -0.0073712198089321713 -0.00093050574343882329 0 -0.0078513724333884264 -0.00062692785217617934 0 -0.0080347534156858733 -0.0010262872883071816 0 -0.0073712198089321713 -0.00093050574343882329 0 -0.0073772356975451208 -0.00043228339938074234 0 -0.0078513724333884264 -0.00062692785217617934 0 -0.0073712198089321713 -0.00093050574343882329 0 -0.0083003315510600389 -0.00071820070044197309 0 -0.0087933042331382241 -0.00085954186383044946 0 -0.0073772356975451208 -0.00043228339938074234 0 -0.0073712198089321713 -0.00093050574343882329 0 -0.006337569272514644 -0.00081760333320758227 0 -0.0058485433009683495 0.00018077863982278577 0 -0.0073772356975451208 -0.00043228339938074234 0 -0.006337569272514644 -0.00081760333320758227 0 -0.0058485433009683495 0.00018077863982278577 0 -0.006337569272514644 -0.00081760333320758227 0 -0.0052161502695926591 -0.00053067206927169845 0 -0.006337569272514644 -0.00081760333320758227 0 -0.0053071913659585622 -0.001092589887811507 0 -0.0052161502695926591 -0.00053067206927169845 0 -0.006337569272514644 -0.00081760333320758227 0 -0.0053071913659585622 -0.001092589887811507 0 -0.0064764937536062207 -0.0017884883720737299 0 -0.0073712198089321713 -0.00093050574343882329 0 -0.006337569272514644 -0.00081760333320758227 0 -0.0064764937536062207 -0.0017884883720737299 0 -0.0053662770264497582 -0.0011955290643391875 0 -0.0050544377086251717 -0.0013458034268342281 0 -0.0028083801818402951 -0.0010547561905251681 0 -0.0032914026244582209 -0.0013947715402703332 0 -0.0030847897610023472 -0.00098395652342422282 0 -0.0050544377086251717 -0.0013458034268342281 0 -0.0048704512031310775 -0.0013960216960006563 0 -0.0032914026244582209 -0.0013947715402703332 0 -0.0030847897610023472 -0.00098395652342422282 0 -0.004300968508200575 -0.0014711359850401215 0 -0.0053071913659585622 -0.001092589887811507 0 -0.0064764937536062207 -0.0017884883720737299 0 -0.004300968508200575 -0.0014711359850401215 0 -0.0030847897610023472 -0.00098395652342422282 0 -0.004300968508200575 -0.0014711359850401215 0 -0.0034088289236676589 -0.00088288844342987146 0 -0.0030847897610023472 -0.00098395652342422282 0 -0.0027323640669108039 -0.00078284094327552088 0 -0.0027550631704111889 -0.00071183553883325771 0 -0.0027323640669108039 -0.00078284094327552088 0 -0.0027550631704111889 -0.00071183553883325771 0 -0.0026171895330301788 -0.00057710678456746099 0 -0.0027323640669108039 -0.00078284094327552088 0 -0.0026171895330301788 -0.00057710678456746099 0 -0.0025789404277967256 -0.00064030444743801737 0 -0.0028083801818402951 -0.0010547561905251681 0 -0.0027323640669108039 -0.00078284094327552088 0 -0.0025789404277967256 -0.00064030444743801737 0 -0.0028083801818402951 -0.0010547561905251681 0 -0.0030847897610023472 -0.00098395652342422282 0 -0.0027323640669108039 -0.00078284094327552088 0 -0.0025040096109717786 -0.0001966844181817973 0 -0.0031261530769829404 -1.0767186201789673e-05 0 -0.0028426983112208003 -0.0011593919631691439 0 -0.0028376903114588738 -0.00027639691765890469 0 -0.0024153187844328451 -0.00065322684736642369 0 -0.0025840576959073889 0.00031461099084484486 0 -0.0028376903114588738 -0.00027639691765890469 0 -0.0024153187844328451 -0.00065322684736642369 0 -0.0028426983112208003 -0.0011593919631691439 0 -0.0028376903114588738 -0.00027639691765890469 0 -0.0034571000516010453 -0.00035270991644145949 0 -0.007486552676902871 0.001330994457399497 0 -0.0042807038135612794 0.00030784539838696795 0 -0.0030489580384590437 4.0344635942825227e-05 0 -0.0028376903114588738 -0.00027639691765890469 0 -0.0034571000516010453 -0.00035270991644145949 0 -0.0034351679538648316 -0.0008998980786683766 0 -0.0036624334122133495 -0.00043787675790370694 0 -0.0036679599035090121 -0.0010422898190010129 0 -0.0036624334122133495 -0.00043787675790370694 0 -0.0040030354474350008 -0.0010192244044830189 0 -0.0036679599035090121 -0.0010422898190010129 0 -0.0040030354474350008 -0.0010192244044830189 0 -0.0045493368476442562 -0.00094347509875603811 0 -0.004300968508200575 -0.0014711359850401215 0 -0.0040030354474350008 -0.0010192244044830189 0 -0.0043671287464678282 -0.00043307297320548501 0 -0.0045493368476442562 -0.00094347509875603811 0 -0.0041843888972884317 0.00051557104270770471 0 -0.0036624334122133495 -0.00043787675790370694 0 -0.0043671287464678282 -0.00043307297320548501 0 -0.0036624334122133495 -0.00043787675790370694 0 -0.0040030354474350008 -0.0010192244044830189 0 -0.0043671287464678282 -0.00043307297320548501 0 -0.0043671287464678282 -0.00043307297320548501 0 -0.0052161502695926591 -0.00053067206927169845 0 -0.0045493368476442562 -0.00094347509875603811 0 -0.0049229546462963257 0.00015245659999949391 0 -0.0043671287464678282 -0.00043307297320548501 0 -0.0052161502695926591 -0.00053067206927169845 0 -0.0053071913659585622 -0.001092589887811507 0 -0.0045493368476442562 -0.00094347509875603811 0 -0.004300968508200575 -0.0014711359850401215 0 -0.0053071913659585622 -0.001092589887811507 0 -0.0052161502695926591 -0.00053067206927169845 0 -0.0045493368476442562 -0.00094347509875603811 0 -0.004300968508200575 -0.0014711359850401215 0 -0.0039214402189227089 -0.0011147016662117935 0 -0.0039355737701583828 -0.0012132872087198901 0 -0.004300968508200575 -0.0014711359850401215 0 -0.0039214402189227089 -0.0011147016662117935 0 -0.0034088289236676589 -0.00088288844342987146 0 -0.0039214402189227089 -0.0011147016662117935 0 -0.0039355737701583828 -0.0012132872087198901 0 -0.0037329322592672323 -0.0010435633827003423 0 -0.0039355737701583828 -0.0012132872087198901 0 -0.0036281576391101879 -0.0011343942847313975 0 -0.0037329322592672323 -0.0010435633827003423 0 -0.0040030354474350008 -0.0010192244044830189 0 -0.004300968508200575 -0.0014711359850401215 0 -0.0039355737701583828 -0.0012132872087198901 0 -0.0040030354474350008 -0.0010192244044830189 0 -0.0039355737701583828 -0.0012132872087198901 0 -0.0036679599035090121 -0.0010422898190010129 0 -0.0039355737701583828 -0.0012132872087198901 0 -0.0036679599035090121 -0.0010422898190010129 0 -0.0036281576391101879 -0.0011343942847313975 0 -0.0036679599035090121 -0.0010422898190010129 0 -0.0036281576391101879 -0.0011343942847313975 0 -0.0034857124763076268 -0.0010759036069267916 0 -0.0036281576391101879 -0.0011343942847313975 0 -0.0034054679420840372 -0.0011295045159376302 0 -0.0033947229649311361 -0.0010883836226918942 0 -0.0036281576391101879 -0.0011343942847313975 0 -0.0034054679420840372 -0.0011295045159376302 0 -0.0034857124763076268 -0.0010759036069267916 0 -0.0034054679420840372 -0.0011295045159376302 0 -0.0034857124763076268 -0.0010759036069267916 0 -0.0033370731659174441 -0.0010888216426293521 0 -0.0034054679420840372 -0.0011295045159376302 0 -0.0033228008152705471 -0.0011522582602793829 0 -0.0033370731659174441 -0.0010888216426293521 0 -0.0034351679538648316 -0.0008998980786683766 0 -0.0034857124763076268 -0.0010759036069267916 0 -0.0033370731659174441 -0.0010888216426293521 0 -0.0034351679538648316 -0.0008998980786683766 0 -0.0036679599035090121 -0.0010422898190010129 0 -0.0034857124763076268 -0.0010759036069267916 0 -0.0025040096109717786 -0.0001966844181817973 0 -0.0018829961651108769 0.00048719580300894357 0 -0.00035376080586310834 0.002330330504697403 0 -0.00095943275414806883 0.0016101048626002902 0 -0.0010475550748209894 0.0011815863033676809 0 -0.001225033689465822 0.0012185937887832122 0 0.0009679677437761054 0.0037395403966657883 0 0.0012148801961712977 0.0040672465809497927 0 0.0013526290518909607 0.0047618959661032689 0 -0.00083556076790868147 0.0019244146624111118 0 -0.00071205892234567651 0.0024989468200210889 0 -0.0009633548911896809 0.0015992834963393467 0 -0.0030075788177361122 -0.0010570936882920632 0 -0.0031695091120542145 -0.0011316325520134153 0 -0.0033228008152705471 -0.0011522582602793829 0 0.0009679677437761054 0.0037395403966657883 0 0.0012148801961712977 0.0040672465809497927 0 0.0010857083909233745 0.0033084168770209006 0 -0.00063605266645155379 0.002191142961715908 0 -0.00035376080586310834 0.002330330504697403 0 -0.0030075788177361122 -0.0010570936882920632 0 -0.0028783370501656957 -0.0011767285035988906 0 -0.0022101920449944142 -0.00057498697602487733 0 -0.0028783370501656957 -0.0011767285035988906 0 -0.0031695091120542145 -0.0011316325520134153 0 -0.0032046761330033289 -0.0010936173274797736 0 -0.0030075788177361122 -0.0010570936882920632 0 -0.0028783370501656957 -0.0011767285035988906 0 -0.0031695091120542145 -0.0011316325520134153 0 -0.0033075188445352518 -0.00112226903815713 0 -0.0031695091120542145 -0.0011316325520134153 0 -0.0033228008152705471 -0.0011522582602793829 0 -0.00063605266645155379 0.002191142961715908 0 -0.001225033689465822 0.0012185937887832122 0 -0.0034054679420840372 -0.0011295045159376302 0 -0.0033075188445352518 -0.00112226903815713 0 -0.0033228008152705471 -0.0011522582602793829 0 -0.0034054679420840372 -0.0011295045159376302 0 -0.0033075188445352518 -0.00112226903815713 0 -0.0033947229649311361 -0.0010883836226918942 0 -0.0033075188445352518 -0.00112226903815713 0 -0.0031695091120542145 -0.0011316325520134153 0 -0.0033947229649311361 -0.0010883836226918942 0 -0.0031695091120542145 -0.0011316325520134153 0 -0.0033947229649311361 -0.0010883836226918942 0 -0.0032046761330033289 -0.0010936173274797736 0 -0.0033947229649311361 -0.0010883836226918942 0 -0.0034116145823642071 -0.0010474149715140411 0 -0.0032046761330033289 -0.0010936173274797736 0 -0.0033947229649311361 -0.0010883836226918942 0 -0.0034116145823642071 -0.0010474149715140411 0 -0.0037329322592672323 -0.0010435633827003423 0 -0.0036281576391101879 -0.0011343942847313975 0 -0.0033947229649311361 -0.0010883836226918942 0 -0.0037329322592672323 -0.0010435633827003423 0 -0.0027137220473845091 -0.00079405061206267575 0 -0.002559576863887243 -0.00068979913622839722 0 -0.0028783370501656957 -0.0011767285035988906 0 -0.0011468725079571214 -0.00061068740255486862 0 -0.0022101920449944142 -0.00057498697602487733 0 -0.0028783370501656957 -0.0011767285035988906 0 -0.0034116145823642071 -0.0010474149715140411 0 -0.0037504521381473478 -0.0010180502143357043 0 -0.0028783370501656957 -0.0011767285035988906 0 -0.0034116145823642071 -0.0010474149715140411 0 -0.0032046761330033289 -0.0010936173274797736 0 -0.0034116145823642071 -0.0010474149715140411 0 -0.0037504521381473478 -0.0010180502143357043 0 -0.0037329322592672323 -0.0010435633827003423 0 -0.0037504521381473478 -0.0010180502143357043 0 -0.0037329322592672323 -0.0010435633827003423 0 -0.003727295296968111 -0.00089462683284163293 0 -0.0039214402189227089 -0.0011147016662117935 0 -0.003727295296968111 -0.00089462683284163293 0 -0.0034088289236676589 -0.00088288844342987146 0 -0.0039214402189227089 -0.0011147016662117935 0 -0.0037329322592672323 -0.0010435633827003423 0 -0.003727295296968111 -0.00089462683284163293 0 -0.0037504521381473478 -0.0010180502143357043 0 -0.003727295296968111 -0.00089462683284163293 0 -0.0034658859179630469 -0.00049357347401331414 0 -0.002559576863887243 -0.00068979913622839722 0 -0.0024435306531321796 -0.0005198665258277609 0 -0.0011468725079571214 -0.00061068740255486862 0 -0.0011462865939299686 -0.00030986239606978265 0 -0.0014325590456227193 -9.407691405374304e-05 0 -0.0011462865939299686 -0.00030986239606978265 0 -0.0013059808720650619 -0.00034106813976187984 0 -0.0014325590456227193 -9.407691405374304e-05 0 -0.0011462865939299686 -0.00030986239606978265 0 -0.0013059808720650619 -0.00034106813976187984 0 -0.001085623902003757 -0.0001685257725035208 0 -0.0013059808720650619 -0.00034106813976187984 0 -0.001085623902003757 -0.0001685257725035208 0 -0.0011055555643058035 -0.00030174377084815157 0 -0.0011462865939299686 -0.00030986239606978265 0 -0.001085623902003757 -0.0001685257725035208 0 -0.0013871837798600979 -0.0002265136740144856 0 -0.001085623902003757 -0.0001685257725035208 0 -0.0010632632900999326 1.6034502896178699e-05 0 -0.00081974052753436949 -8.9200505745611649e-05 0 -0.001085623902003757 -0.0001685257725035208 0 -0.0013871837798600979 -0.0002265136740144856 0 -0.0010632632900999326 1.6034502896178699e-05 0 -0.0011468725079571214 -0.00061068740255486862 0 -0.0011462865939299686 -0.00030986239606978265 0 -0.0013871837798600979 -0.0002265136740144856 0 -0.0011468725079571214 -0.00061068740255486862 0 -0.0022101920449944142 -0.00057498697602487733 0 -0.0013871837798600979 -0.0002265136740144856 0 -0.0022101920449944142 -0.00057498697602487733 0 -0.0017177576282016063 -0.00021896020655353337 0 -0.0018781542832617291 -2.6557054720100572e-05 0 -0.0022101920449944142 -0.00057498697602487733 0 -0.0017177576282016063 -0.00021896020655353337 0 -0.0013871837798600979 -0.0002265136740144856 0 -0.0013871837798600979 -0.0002265136740144856 0 -0.0015018681140114172 -0.00011437616752779191 0 -0.0010632632900999326 1.6034502896178699e-05 0 -0.00096577534985303227 0.0008868553916252809 0 -0.00096280303369763055 0.00059262839881863262 0 -0.0010632632900999326 1.6034502896178699e-05 0 -0.0018781542832617291 -2.6557054720100572e-05 0 -0.00042662241165231346 0.00020841163416861382 0 -0.0017177576282016063 -0.00021896020655353337 0 -0.0013871837798600979 -0.0002265136740144856 0 -0.0015018681140114172 -0.00011437616752779191 0 -0.0015018681140114172 -0.00011437616752779191 0 -0.0010632632900999326 1.6034502896178699e-05 0 -0.0018781542832617291 -2.6557054720100572e-05 0 -0.0017177576282016063 -0.00021896020655353337 0 -0.0015018681140114172 -0.00011437616752779191 0 -0.0018781542832617291 -2.6557054720100572e-05 0 0.0010227178474760488 0.0030126424091506342 0 0.0012038828890433041 0.0022018916079588587 0 0.00064645812057197497 0.00096202763558936972 0 0.00039372176924478195 0.0025146103331003941 0 0.00091800930340120326 0.0025803271130870578 0 0.00064645812057197497 0.00096202763558936972 0 0.00013983552627898447 0.0025695739175501911 0 0.00016250048480636193 0.0022160962011513242 0 0.0014106575763219115 0.0017881263299735308 0 0.0012038828890433041 0.0022018916079588587 0 0.00064645812057197497 0.00096202763558936972 0 0.0015872155554498438 0.002444184579264493 0 0.0019549815767947827 0.0028221399371693252 0 0.0019897157281464823 0.0020504365662008099 0 0.0014106575763219115 0.0017881263299735308 0 0.0015872155554498438 0.002444184579264493 0 0.0019897157281464823 0.0020504365662008099 0 0.0014106575763219115 0.0017881263299735308 0 0.0012038828890433041 0.0022018916079588587 0 0.0015872155554498438 0.002444184579264493 0 0.0012038828890433041 0.0022018916079588587 0 0.0015872155554498438 0.002444184579264493 0 0.0014118307010139428 0.002669213086394796 0 0.0015872155554498438 0.002444184579264493 0 0.0014118307010139428 0.002669213086394796 0 0.0019549815767947827 0.0028221399371693252 0 0.0010227178474760488 0.0030126424091506342 0 0.0014118307010139428 0.002669213086394796 0 0.0019549815767947827 0.0028221399371693252 0 0.0010227178474760488 0.0030126424091506342 0 0.0012038828890433041 0.0022018916079588587 0 0.0014118307010139428 0.002669213086394796 0 0.00013983552627898447 0.0025695739175501911 0 -0.00035376080586310834 0.002330330504697403 0 0.0009679677437761054 0.0037395403966657883 0 0.00039372176924478195 0.0025146103331003941 0 0.0010857083909233745 0.0033084168770209006 0 -0.00075904429998404374 0.0021824468598761349 0 -0.00080560609240089591 0.0020081184358906041 0 -0.001018373517886808 0.0020342477865685463 0 -0.0030075788177361122 -0.0010570936882920632 0 -0.0022101920449944142 -0.00057498697602487733 0 -0.0018781542832617291 -2.6557054720100572e-05 0 -0.0010475550748209894 0.0011815863033676809 0 -0.00096577534985303227 0.0008868553916252809 0 0.00039372176924478195 0.0025146103331003941 0 0.00091800930340120326 0.0025803271130870578 0 0.0010857083909233745 0.0033084168770209006 0 -0.0025884644053814549 -0.0005172994181442403 0 -0.0028864573996232826 -0.00066095832528477905 0 -0.0024584471112790644 -0.00027626832942769441 0 -0.0025884644053814549 -0.0005172994181442403 0 -0.0024584471112790644 -0.00027626832942769441 0 -0.0025116095341920024 -0.0004725174639061252 0 -0.0025884644053814549 -0.0005172994181442403 0 -0.0025116095341920024 -0.0004725174639061252 0 -0.0026091653581675886 -0.00050593965702839616 0 -0.0026171895330301788 -0.00057710678456746099 0 -0.0025884644053814549 -0.0005172994181442403 0 -0.0026091653581675886 -0.00050593965702839616 0 -0.0027550631704111889 -0.00071183553883325771 0 -0.0026171895330301788 -0.00057710678456746099 0 -0.0025884644053814549 -0.0005172994181442403 0 -0.0027550631704111889 -0.00071183553883325771 0 -0.0025884644053814549 -0.0005172994181442403 0 -0.0028864573996232826 -0.00066095832528477905 0 -0.0030847897610023472 -0.00098395652342422282 0 -0.0027550631704111889 -0.00071183553883325771 0 -0.0028864573996232826 -0.00066095832528477905 0 -0.0030847897610023472 -0.00098395652342422282 0 -0.0028864573996232826 -0.00066095832528477905 0 -0.0034088289236676589 -0.00088288844342987146 0 -0.0028864573996232826 -0.00066095832528477905 0 -0.0034088289236676589 -0.00088288844342987146 0 -0.0034658859179630469 -0.00049357347401331414 0 -0.003727295296968111 -0.00089462683284163293 0 -0.0034088289236676589 -0.00088288844342987146 0 -0.0034658859179630469 -0.00049357347401331414 0 -0.0028864573996232826 -0.00066095832528477905 0 -0.0034658859179630469 -0.00049357347401331414 0 -0.0024584471112790644 -0.00027626832942769441 0 -0.0024435306531321796 -0.0005198665258277609 0 -0.0024126166897116431 -0.0004560029018092262 0 -0.0014325590456227193 -9.407691405374304e-05 0 -0.0018908868768109921 -0.00057917328508400663 0 -0.0024584471112790644 -0.00027626832942769441 0 -0.0013059808720650619 -0.00034106813976187984 0 -0.0014325590456227193 -9.407691405374304e-05 0 -0.0018908868768109921 -0.00057917328508400663 0 -0.0013059808720650619 -0.00034106813976187984 0 -0.0018908868768109921 -0.00057917328508400663 0 -0.0013066882659019301 -0.00058050249845630736 0 -0.0018908868768109921 -0.00057917328508400663 0 -0.0023143439348760919 -0.00063891948455445282 0 -0.0024584471112790644 -0.00027626832942769441 0 -0.0023143439348760919 -0.00063891948455445282 0 -0.0024584471112790644 -0.00027626832942769441 0 -0.0025116095341920024 -0.0004725174639061252 0 -0.0023143439348760919 -0.00063891948455445282 0 -0.0025116095341920024 -0.0004725174639061252 0 -0.0024974777058324009 -0.00066277086303666711 0 -0.0024974777058324009 -0.00066277086303666711 0 -0.0027894465769519906 -0.00062745107589404214 0 -0.0026807471509379026 -0.00053495117742020004 0 -0.0024974777058324009 -0.00066277086303666711 0 -0.0027894465769519906 -0.00062745107589404214 0 -0.0025022853343813177 -0.00085390654881947259 0 -0.0027894465769519906 -0.00062745107589404214 0 -0.0026807471509379026 -0.00053495117742020004 0 -0.0029011290439596412 -0.00054256899072670207 0 -0.0025116095341920024 -0.0004725174639061252 0 -0.0024974777058324009 -0.00066277086303666711 0 -0.0026807471509379026 -0.00053495117742020004 0 -0.0026807471509379026 -0.00053495117742020004 0 -0.0027564391498648695 -0.00049581172304190291 0 -0.0026091653581675886 -0.00050593965702839616 0 -0.0025116095341920024 -0.0004725174639061252 0 -0.0026807471509379026 -0.00053495117742020004 0 -0.0026091653581675886 -0.00050593965702839616 0 -0.0026807471509379026 -0.00053495117742020004 0 -0.0027564391498648695 -0.00049581172304190291 0 -0.0029011290439596412 -0.00054256899072670207 0 -0.0027564391498648695 -0.00049581172304190291 0 -0.0026891912036836312 -0.00048595947752996192 0 -0.0028569395314095867 -0.00040885231676793807 0 -0.0027564391498648695 -0.00049581172304190291 0 -0.0026091653581675886 -0.00050593965702839616 0 -0.0026891912036836312 -0.00048595947752996192 0 -0.0026171895330301788 -0.00057710678456746099 0 -0.0026091653581675886 -0.00050593965702839616 0 -0.0026891912036836312 -0.00048595947752996192 0 -0.0031744450131838621 -0.00046358505533376711 0 -0.0031738485789780139 -0.00052993801638662565 0 -0.0034635434403092807 -0.00044579773666746753 0 -0.0031744450131838621 -0.00046358505533376711 0 -0.0029907771830091313 -0.00048695971388174031 0 -0.0030752970746140518 -0.0003498837995373828 0 -0.0031744450131838621 -0.00046358505533376711 0 -0.0034635434403092807 -0.00044579773666746753 0 -0.0033757706822823384 -0.00016136893510647178 0 -0.0029907771830091313 -0.00048695971388174031 0 -0.0028569395314095867 -0.00040885231676793807 0 -0.0030752970746140518 -0.0003498837995373828 0 -0.0027564391498648695 -0.00049581172304190291 0 -0.0029907771830091313 -0.00048695971388174031 0 -0.0028569395314095867 -0.00040885231676793807 0 -0.0027564391498648695 -0.00049581172304190291 0 -0.0029907771830091313 -0.00048695971388174031 0 -0.0029011290439596412 -0.00054256899072670207 0 -0.0029907771830091313 -0.00048695971388174031 0 -0.0031738485789780139 -0.00052993801638662565 0 -0.0029011290439596412 -0.00054256899072670207 0 -0.0031744450131838621 -0.00046358505533376711 0 -0.0029907771830091313 -0.00048695971388174031 0 -0.0031738485789780139 -0.00052993801638662565 0 -0.0031738485789780139 -0.00052993801638662565 0 -0.0030258213073031353 -0.00057226213302346977 0 -0.0031250284043784398 -0.00053308640848845053 0 -0.0031738485789780139 -0.00052993801638662565 0 -0.0030258213073031353 -0.00057226213302346977 0 -0.0029011290439596412 -0.00054256899072670207 0 -0.0027894465769519906 -0.00062745107589404214 0 -0.0030258213073031353 -0.00057226213302346977 0 -0.0029011290439596412 -0.00054256899072670207 0 -0.0027894465769519906 -0.00062745107589404214 0 -0.0030258213073031353 -0.00057226213302346977 0 -0.0029892003857586143 -0.00068693072915543827 0 -0.0030258213073031353 -0.00057226213302346977 0 -0.0030652107636109905 -0.00052948235086763969 0 -0.0029892003857586143 -0.00068693072915543827 0 -0.0030652107636109905 -0.00052948235086763969 0 -0.0027674655799908667 -0.00046549487791168031 0 -0.0030119915229044757 -0.00044580223589729256 0 -0.0027674655799908667 -0.00046549487791168031 0 -0.0030119915229044757 -0.00044580223589729256 0 -0.0028402972154827405 -0.00035352574329409472 0 -0.0030652107636109905 -0.00052948235086763969 0 -0.0030119915229044757 -0.00044580223589729256 0 -0.0032398491143005017 -0.00049334464587363837 0 -0.0030119915229044757 -0.00044580223589729256 0 -0.0032653843127079959 -0.00040767110929222015 0 -0.0030859891846384368 -0.00029733715606710867 0 -0.0030119915229044757 -0.00044580223589729256 0 -0.0032653843127079959 -0.00040767110929222015 0 -0.0032398491143005017 -0.00049334464587363837 0 -0.0031738485789780139 -0.00052993801638662565 0 -0.0032398491143005017 -0.00049334464587363837 0 -0.0031250284043784398 -0.00053308640848845053 0 -0.0030258213073031353 -0.00057226213302346977 0 -0.0030652107636109905 -0.00052948235086763969 0 -0.0031250284043784398 -0.00053308640848845053 0 -0.0030652107636109905 -0.00052948235086763969 0 -0.0032398491143005017 -0.00049334464587363837 0 -0.0031250284043784398 -0.00053308640848845053 0 -0.00080410458470764118 5.2774106180590147e-07 0 -0.00048873384040270661 1.4411670025135934e-05 0 0.0011195996640251521 -6.2988448956661494e-05 0 -0.0028448349083366785 -0.00032398154728917583 0 -0.0025889718643581144 -0.00039221793791694364 0 -0.0028402972154827405 -0.00035352574329409472 0 -0.0028448349083366785 -0.00032398154728917583 0 -0.0028402972154827405 -0.00035352574329409472 0 -0.0029194545774912377 -0.0002039947101109035 0 -0.0027674655799908667 -0.00046549487791168031 0 -0.0025889718643581144 -0.00039221793791694364 0 -0.0028402972154827405 -0.00035352574329409472 0 -0.0030119915229044757 -0.00044580223589729256 0 -0.0028402972154827405 -0.00035352574329409472 0 -0.0030859891846384368 -0.00029733715606710867 0 -0.0030859891846384368 -0.00029733715606710867 0 -0.0029194545774912377 -0.0002039947101109035 0 -0.0031006735006719145 -0.00020931653415429607 0 -0.0028402972154827405 -0.00035352574329409472 0 -0.0030859891846384368 -0.00029733715606710867 0 -0.0029194545774912377 -0.0002039947101109035 0 -0.00080410458470764118 5.2774106180590147e-07 0 -0.00048873384040270661 1.4411670025135934e-05 0 -0.0026032597615430289 -3.1133760102246987e-05 0 -0.0028448349083366785 -0.00032398154728917583 0 -0.0029194545774912377 -0.0002039947101109035 0 -0.0026032597615430289 -3.1133760102246987e-05 0 -0.00080410458470764118 5.2774106180590147e-07 0 -0.0028708825571037654 -6.7451311920864995e-07 0 -0.0026032597615430289 -3.1133760102246987e-05 0 -0.00073017870773755579 -0.00040129353299489046 0 -0.0010018161483871192 -0.00046653628503653673 0 -0.0029194545774912377 -0.0002039947101109035 0 -0.0026032597615430289 -3.1133760102246987e-05 0 -0.0031006735006719145 -0.00020931653415429607 0 -0.0028708825571037654 -6.7451311920864995e-07 0 -0.0032320859887017619 -0.00017784408628671855 0 -0.0040053808257677964 -0.00019914258749983028 0 -0.0028708825571037654 -6.7451311920864995e-07 0 -0.0026032597615430289 -3.1133760102246987e-05 0 -0.0032320859887017619 -0.00017784408628671855 0 -0.0026032597615430289 -3.1133760102246987e-05 0 -0.0032320859887017619 -0.00017784408628671855 0 -0.0031006735006719145 -0.00020931653415429607 0 -0.0032320859887017619 -0.00017784408628671855 0 -0.0034528006897125013 -0.00032723620899064733 0 -0.0040053808257677964 -0.00019914258749983028 0 -0.0032320859887017619 -0.00017784408628671855 0 -0.0034528006897125013 -0.00032723620899064733 0 -0.0031006735006719145 -0.00020931653415429607 0 -0.0030859891846384368 -0.00029733715606710867 0 -0.0034528006897125013 -0.00032723620899064733 0 -0.0031006735006719145 -0.00020931653415429607 0 -0.0032653843127079959 -0.00040767110929222015 0 -0.0030859891846384368 -0.00029733715606710867 0 -0.0034528006897125013 -0.00032723620899064733 0 -0.0034528006897125013 -0.00032723620899064733 0 -0.0039643786162786663 -0.00036562532328564268 0 -0.0035047028737499883 -0.00043942534865540616 0 -0.0034528006897125013 -0.00032723620899064733 0 -0.0039643786162786663 -0.00036562532328564268 0 -0.0040053808257677964 -0.00019914258749983028 0 -0.0039643786162786663 -0.00036562532328564268 0 -0.0040053808257677964 -0.00019914258749983028 0 -0.0045797052465450629 -0.00020454385159323065 0 -0.0028708825571037654 -6.7451311920864995e-07 0 -0.0040053808257677964 -0.00019914258749983028 0 -0.0049361171360926227 -5.0358794269123111e-07 0 -0.0031738485789780139 -0.00052993801638662565 0 -0.0032398491143005017 -0.00049334464587363837 0 -0.0033891639857741508 -0.00048306998154755524 0 -0.0031738485789780139 -0.00052993801638662565 0 -0.0033891639857741508 -0.00048306998154755524 0 -0.0034635434403092807 -0.00044579773666746753 0 -0.0032398491143005017 -0.00049334464587363837 0 -0.0033891639857741508 -0.00048306998154755524 0 -0.0035047028737499883 -0.00043942534865540616 0 -0.0032653843127079959 -0.00040767110929222015 0 -0.0032398491143005017 -0.00049334464587363837 0 -0.0035047028737499883 -0.00043942534865540616 0 -0.0032653843127079959 -0.00040767110929222015 0 -0.0034528006897125013 -0.00032723620899064733 0 -0.0035047028737499883 -0.00043942534865540616 0 -0.0033891639857741508 -0.00048306998154755524 0 -0.0035047028737499883 -0.00043942534865540616 0 -0.0036947806587443953 -0.00041717675093311843 0 -0.0039643786162786663 -0.00036562532328564268 0 -0.0036947806587443953 -0.00041717675093311843 0 -0.0040317847397953726 -0.00030925471641259696 0 -0.0039643786162786663 -0.00036562532328564268 0 -0.0035047028737499883 -0.00043942534865540616 0 -0.0036947806587443953 -0.00041717675093311843 0 -0.0036947806587443953 -0.00041717675093311843 0 -0.0034635434403092807 -0.00044579773666746753 0 -0.0040317847397953726 -0.00030925471641259696 0 -0.0033891639857741508 -0.00048306998154755524 0 -0.0036947806587443953 -0.00041717675093311843 0 -0.0034635434403092807 -0.00044579773666746753 0 -0.0034635434403092807 -0.00044579773666746753 0 -0.0040317847397953726 -0.00030925471641259696 0 -0.0033757706822823384 -0.00016136893510647178 0 -0.0040317847397953726 -0.00030925471641259696 0 -0.0054968723644170459 2.9117290899422398e-06 0 -0.0039154634187223546 0.00037477767730799329 0 -0.0052827729958596194 3.1640627179511988e-05 0 -0.0051658264267310152 5.5580313411945701e-05 0 -0.0040317847397953726 -0.00030925471641259696 0 -0.0039154634187223546 0.00037477767730799329 0 -0.0033757706822823384 -0.00016136893510647178 0 -0.0039154634187223546 0.00037477767730799329 0 -0.0032880478007558532 0.00026091736181256227 0 -0.0033757706822823384 -0.00016136893510647178 0 -0.0040053808257677964 -0.00019914258749983028 0 -0.0049361171360926227 -5.0358794269123111e-07 0 -0.0045797052465450629 -0.00020454385159323065 0 -0.0039643786162786663 -0.00036562532328564268 0 -0.0040317847397953726 -0.00030925471641259696 0 -0.0045797052465450629 -0.00020454385159323065 0 -0.0040317847397953726 -0.00030925471641259696 0 -0.0045797052465450629 -0.00020454385159323065 0 -0.0054968723644170459 2.9117290899422398e-06 0 -0.0049361171360926227 -5.0358794269123111e-07 0 -0.0045797052465450629 -0.00020454385159323065 0 -0.0054968723644170459 2.9117290899422398e-06 0 -0.0049361171360926227 -5.0358794269123111e-07 0 -0.0054968723644170459 2.9117290899422398e-06 0 -0.0070012059313868035 1.4988722883722322e-08 0 -0.0054968723644170459 2.9117290899422398e-06 0 -0.0070012059313868035 1.4988722883722322e-08 0 -0.006755294774101416 -6.6576783787576597e-05 0 -0.0054968723644170459 2.9117290899422398e-06 0 -0.006755294774101416 -6.6576783787576597e-05 0 -0.0061121440040616285 -9.9316042667117082e-05 0 -0.0083111698230954999 0.00013209082641154623 0 -0.006755294774101416 -6.6576783787576597e-05 0 -0.006158383363182432 0.0003078443458921122 0 -0.0078009118987521766 8.9905227810190119e-05 0 -0.0076465367592151437 4.9655991228159209e-05 0 -0.0083111698230954999 0.00013209082641154623 0 -0.0070012059313868035 1.4988722883722322e-08 0 -0.006755294774101416 -6.6576783787576597e-05 0 -0.0090675169256263892 -2.3783678840897163e-07 0 -0.0083111698230954999 0.00013209082641154623 0 -0.0070012059313868035 1.4988722883722322e-08 0 -0.0051658264267310152 5.5580313411945701e-05 0 -0.0052824471886181307 -3.2464474115334038e-06 0 -0.006028039221142212 3.2351634809061155e-05 0 -0.0058930328342866366 0.00011375145198259201 0 -0.0058487274196065446 -1.4018727941480118e-05 0 -0.006028039221142212 3.2351634809061155e-05 0 -0.006111668516200779 -4.2722687946425434e-05 0 -0.0058487274196065446 -1.4018727941480118e-05 0 -0.0054968723644170459 2.9117290899422398e-06 0 -0.006111668516200779 -4.2722687946425434e-05 0 -0.0061121440040616285 -9.9316042667117082e-05 0 -0.006028039221142212 3.2351634809061155e-05 0 -0.006111668516200779 -4.2722687946425434e-05 0 -0.0061121440040616285 -9.9316042667117082e-05 0 -0.006755294774101416 -6.6576783787576597e-05 0 -0.0061121440040616285 -9.9316042667117082e-05 0 -0.006158383363182432 0.0003078443458921122 0 -0.006028039221142212 3.2351634809061155e-05 0 -0.0061121440040616285 -9.9316042667117082e-05 0 -0.006158383363182432 0.0003078443458921122 0 -0.0090085763792557092 -9.4851543062599928e-06 0 -0.0089627607068337219 0.0001583163799347834 0 -0.0091314529190693952 0.00016946457110649576 0 -0.006028039221142212 3.2351634809061155e-05 0 -0.006158383363182432 0.0003078443458921122 0 -0.0058930328342866366 0.00011375145198259201 0 -0.0090085763792557092 -9.4851543062599928e-06 0 -0.009170428721527131 0.00010780266797103193 0 -0.0091314529190693952 0.00016946457110649576 0 -0.0076465367592151437 4.9655991228159209e-05 0 -0.0075618895501936064 -6.3879672241267456e-05 0 -0.009170428721527131 0.00010780266797103193 0 -0.0091314529190693952 0.00016946457110649576 0 -0.0092952391102325022 0.00019167375547854144 0 -0.0075618895501936064 -6.3879672241267456e-05 0 -0.007446738039381371 -0.00032473068483650805 0 -0.013464925435558049 -0.00019039055176070028 0 -0.013689764712380689 -0.00036238901635147293 0 -0.013319836212446992 -0.00045820927356844237 0 -0.0058930328342866366 0.00011375145198259201 0 -0.0058487274196065446 -1.4018727941480118e-05 0 -0.0056930159782603322 4.8378415885679075e-05 0 -0.0032880478007558532 0.00026091736181256227 0 -0.0030414934060596145 2.7710833991659743e-05 0 -0.0029112803314598288 0.00017755031499755477 0 -0.0058487274196065446 -1.4018727941480118e-05 0 -0.0056731995770182564 3.3873975200376912e-05 0 -0.0056930159782603322 4.8378415885679075e-05 0 -0.0052824471886181307 -3.2464474115334038e-06 0 -0.0068954347580417021 -0.00045938795993969231 0 -0.0030414934060596145 2.7710833991659743e-05 0 -0.0029112803314598288 0.00017755031499755477 0 -0.0028779553935871132 -6.6152945217970164e-05 0 -0.013090260308563306 -0.0011426383199608274 0 -0.012973365016100153 -0.0010774581949554054 0 -0.012912733031512118 -0.0012126955110182604 0 -0.007446738039381371 -0.00032473068483650805 0 -0.007211201235581925 -0.00050954787887016041 0 -0.006825103605288407 -0.00061301700622026485 0 -0.0067884764693975077 -0.0006372070335729981 0 -0.0068584934959310577 -0.00062347195081412601 0 -0.0068954347580417021 -0.00045938795993969231 0 -0.007446738039381371 -0.00032473068483650805 0 -0.013689764712380689 -0.00036238901635147293 0 -0.013199328686977643 -0.0007768471003914136 0 -0.013319836212446992 -0.00045820927356844237 0 -0.013090260308563306 -0.0011426383199608274 0 -0.013049467019128165 -0.00097607701193590344 0 -0.013199328686977643 -0.0007768471003914136 0 -0.013049467019128165 -0.00097607701193590344 0 -0.012973365016100153 -0.0010774581949554054 0 -0.012934653033317436 -0.00091132552214525959 0 -0.013689764712380689 -0.00036238901635147293 0 -0.013090260308563306 -0.0011426383199608274 0 -0.013199328686977643 -0.0007768471003914136 0 -0.013090260308563306 -0.0011426383199608274 0 -0.013049467019128165 -0.00097607701193590344 0 -0.012973365016100153 -0.0010774581949554054 0 -0.010226640658274297 0.00029498461514104252 0 -0.007446738039381371 -0.00032473068483650805 0 -0.013049467019128165 -0.00097607701193590344 0 -0.013199328686977643 -0.0007768471003914136 0 -0.012934653033317436 -0.00091132552214525959 0 -0.013081861207756968 -0.00054098196231626211 0 -0.012872135942941367 -0.00061639497175805904 0 -0.012934653033317436 -0.00091132552214525959 0 -0.013199328686977643 -0.0007768471003914136 0 -0.013081861207756968 -0.00054098196231626211 0 -0.012934653033317436 -0.00091132552214525959 0 -0.013199328686977643 -0.0007768471003914136 0 -0.013319836212446992 -0.00045820927356844237 0 -0.013081861207756968 -0.00054098196231626211 0 -0.012559712295458401 -0.00042815046170715295 0 -0.012872135942941367 -0.00061639497175805904 0 -0.012678963166853997 -0.00079312942565962837 0 -0.012647210691805655 -0.0010645124875060133 0 -0.011847547625326593 -0.0013075732297337392 0 -0.012912733031512118 -0.0012126955110182604 0 -0.012913226643834279 -0.00026936980641555482 0 -0.013081861207756968 -0.00054098196231626211 0 -0.012872135942941367 -0.00061639497175805904 0 -0.012360534952051879 -0.00092014154861100187 0 -0.012647210691805655 -0.0010645124875060133 0 -0.011847547625326593 -0.0013075732297337392 0 -0.0091273503983410088 -0.00096033237471455338 0 -0.007211201235581925 -0.00050954787887016041 0 -0.012872135942941367 -0.00061639497175805904 0 -0.012678963166853997 -0.00079312942565962837 0 -0.012934653033317436 -0.00091132552214525959 0 -0.012559712295458401 -0.00042815046170715295 0 -0.012678963166853997 -0.00079312942565962837 0 -0.012360534952051879 -0.00092014154861100187 0 -0.012678963166853997 -0.00079312942565962837 0 -0.012360534952051879 -0.00092014154861100187 0 -0.012647210691805655 -0.0010645124875060133 0 -0.012973365016100153 -0.0010774581949554054 0 -0.01286749572416886 -0.0010687017390734047 0 -0.012912733031512118 -0.0012126955110182604 0 -0.012973365016100153 -0.0010774581949554054 0 -0.01286749572416886 -0.0010687017390734047 0 -0.012934653033317436 -0.00091132552214525959 0 -0.012647210691805655 -0.0010645124875060133 0 -0.01286749572416886 -0.0010687017390734047 0 -0.012934653033317436 -0.00091132552214525959 0 -0.012647210691805655 -0.0010645124875060133 0 -0.01286749572416886 -0.0010687017390734047 0 -0.012912733031512118 -0.0012126955110182604 0 -0.012678963166853997 -0.00079312942565962837 0 -0.012647210691805655 -0.0010645124875060133 0 -0.012934653033317436 -0.00091132552214525959 0 -0.01184982777058984 -0.00059690852349401078 0 -0.012360534952051879 -0.00092014154861100187 0 -0.011847547625326593 -0.0013075732297337392 0 -0.01184982777058984 -0.00059690852349401078 0 -0.012559712295458401 -0.00042815046170715295 0 -0.012360534952051879 -0.00092014154861100187 0 -0.0086158920098588342 -0.00085356145462763477 0 -0.0085504474143133849 -0.0012367842894567573 0 -0.0093021783943373348 -0.0010467758856600141 0 -0.0025303743144891775 -0.00089748303318045266 0 -0.002410729620956674 -0.00082279296460720502 0 -0.0025789404277967256 -0.00064030444743801737 0 -0.0080347534156858733 -0.0010262872883071816 0 -0.0086158920098588342 -0.00085356145462763477 0 -0.0085504474143133849 -0.0012367842894567573 0 -0.0025303743144891775 -0.00089748303318045266 0 -0.0023003633176247405 -0.00092012798022914738 0 -0.002410729620956674 -0.00082279296460720502 0 -0.005839093636622896 -0.00096887977055879642 0 -0.007211201235581925 -0.00050954787887016041 0 -0.0022816720342639265 -0.0009141652346979349 0 -0.0023003633176247405 -0.00092012798022914738 0 -0.002410729620956674 -0.00082279296460720502 0 -0.0068954347580417021 -0.00045938795993969231 0 -0.007211201235581925 -0.00050954787887016041 0 -0.0068954347580417021 -0.00045938795993969231 0 -0.0046372311555346341 -0.0011435589658939933 0 -0.0029112803314598288 0.00017755031499755477 0 -0.0026986857433989242 -0.00013220807049220333 0 -0.0028779553935871132 -6.6152945217970164e-05 0 -0.0028779553935871132 -6.6152945217970164e-05 0 -0.0027464080342615377 -0.00034006796153831538 0 -0.0029660928302564591 -0.00019246054069366474 0 -0.0026986857433989242 -0.00013220807049220333 0 -0.0028779553935871132 -6.6152945217970164e-05 0 -0.0027464080342615377 -0.00034006796153831538 0 -0.0026986857433989242 -0.00013220807049220333 0 -0.0027464080342615377 -0.00034006796153831538 0 -0.0025789404277967256 -0.00064030444743801737 0 -0.0027464080342615377 -0.00034006796153831538 0 -0.0025789404277967256 -0.00064030444743801737 0 -0.0026400106512075435 -0.00051656004345555003 0 -0.0046372311555346341 -0.0011435589658939933 0 -0.0040948282196250534 -0.0012616997715167969 0 -0.0027464080342615377 -0.00034006796153831538 0 -0.0026891912036836312 -0.00048595947752996192 0 -0.0026400106512075435 -0.00051656004345555003 0 -0.0026171895330301788 -0.00057710678456746099 0 -0.0025789404277967256 -0.00064030444743801737 0 -0.0026400106512075435 -0.00051656004345555003 0 -0.0026171895330301788 -0.00057710678456746099 0 -0.0026891912036836312 -0.00048595947752996192 0 -0.0026400106512075435 -0.00051656004345555003 0 -0.0027464080342615377 -0.00034006796153831538 0 -0.0028569395314095867 -0.00040885231676793807 0 -0.0029660928302564591 -0.00019246054069366474 0 -0.0027464080342615377 -0.00034006796153831538 0 -0.0026891912036836312 -0.00048595947752996192 0 -0.0028569395314095867 -0.00040885231676793807 0 -0.0030752970746140518 -0.0003498837995373828 0 -0.0031562773681391419 -8.3517322391536217e-05 0 -0.0029660928302564591 -0.00019246054069366474 0 -0.0028569395314095867 -0.00040885231676793807 0 -0.0030752970746140518 -0.0003498837995373828 0 -0.0029660928302564591 -0.00019246054069366474 0 -0.0030752970746140518 -0.0003498837995373828 0 -0.0033757706822823384 -0.00016136893510647178 0 -0.0031562773681391419 -8.3517322391536217e-05 0 -0.0031744450131838621 -0.00046358505533376711 0 -0.0030752970746140518 -0.0003498837995373828 0 -0.0033757706822823384 -0.00016136893510647178 0 -0.0032880478007558532 0.00026091736181256227 0 -0.0033757706822823384 -0.00016136893510647178 0 -0.0031562773681391419 -8.3517322391536217e-05 0 -0.0032880478007558532 0.00026091736181256227 0 -0.0030414934060596145 2.7710833991659743e-05 0 -0.0031562773681391419 -8.3517322391536217e-05 0 -0.0030414934060596145 2.7710833991659743e-05 0 -0.0031562773681391419 -8.3517322391536217e-05 0 -0.0029660928302564591 -0.00019246054069366474 0 -0.0030414934060596145 2.7710833991659743e-05 0 -0.0028779553935871132 -6.6152945217970164e-05 0 -0.0029660928302564591 -0.00019246054069366474 0 -0.0034871589770961407 0.0018944608252479799 0 -0.003129341806894355 0.0009248664033113691 0 -0.0043654834029230585 0.00064216766914370542 0 -0.0034871589770961407 0.0018944608252479799 0 -0.0021513028079302166 0.0011810217285513165 0 -0.003129341806894355 0.0009248664033113691 0 -0.0073932860985059003 0.0013551716711400433 0 -0.0078425211784383525 0.001659949638243019 0 -0.0034871589770961407 0.0018944608252479799 0 -0.0050209757519658416 0.0020259548368205338 0 -0.0043654834029230585 0.00064216766914370542 0 -0.0050209757519658416 0.0020259548368205338 0 -0.0043654834029230585 0.00064216766914370542 0 -0.0061844771458254887 0.001755001715576493 0 -0.0034871589770961407 0.0018944608252479799 0 -0.0043237939560486841 0.0025526677618786884 0 -0.0050209757519658416 0.0020259548368205338 0 -0.0043237939560486841 0.0025526677618786884 0 -0.0050209757519658416 0.0020259548368205338 0 -0.0049435970977386133 0.0030502504764565392 0 -0.0050209757519658416 0.0020259548368205338 0 -0.0049435970977386133 0.0030502504764565392 0 -0.0061867942099781787 0.0026304292523513591 0 -0.0050209757519658416 0.0020259548368205338 0 -0.0061844771458254887 0.001755001715576493 0 -0.0061867942099781787 0.0026304292523513591 0 -0.0049435970977386133 0.0030502504764565392 0 -0.0061867942099781787 0.0026304292523513591 0 -0.0056767304519484661 0.0036819771765287603 0 -0.0043237939560486841 0.0025526677618786884 0 -0.0049435970977386133 0.0030502504764565392 0 -0.0038773766996567315 0.0034200163518609055 0 -0.0049435970977386133 0.0030502504764565392 0 -0.0038773766996567315 0.0034200163518609055 0 -0.0046736997817283703 0.0040037488024506846 0 -0.0034871589770961407 0.0018944608252479799 0 -0.0038773766996567315 0.0034200163518609055 0 -0.0021478136108029821 0.0031570609233995562 0 -0.0034871589770961407 0.0018944608252479799 0 -0.0043237939560486841 0.0025526677618786884 0 -0.0038773766996567315 0.0034200163518609055 0 -0.0025873210400209987 0.0034746036447713935 0 -0.0015437697580464691 0.003185365792315016 0 -0.0021513028079302166 0.0011810217285513165 0 -0.0025873210400209987 0.0034746036447713935 0 -0.0015437697580464691 0.003185365792315016 0 -0.0016390615255224273 0.0044362591081578443 0 -0.00089214819039893723 0.0025739508402134875 0 -0.0015437697580464691 0.003185365792315016 0 -0.00051477657355108021 0.0038373536814832634 0 -0.00089214819039893723 0.0025739508402134875 0 -0.0010216290624843903 0.001458857891324789 0 -0.0021513028079302166 0.0011810217285513165 0 -0.00089214819039893723 0.0025739508402134875 0 -0.0015437697580464691 0.003185365792315016 0 -0.0021513028079302166 0.0011810217285513165 0 -0.0022077375758990255 0.0036770741889604864 0 -0.0020785585051292998 0.002500479092667195 0 -0.0034871589770961407 0.0018944608252479799 0 -0.0021478136108029821 0.0031570609233995562 0 -0.0021513028079302166 0.0011810217285513165 0 -0.0021513028079302166 0.0011810217285513165 0 -0.00097328244352911861 0.0006150408764107998 0 -0.0025803793999437841 9.7023776710676525e-05 0 -0.0021513028079302166 0.0011810217285513165 0 -0.0025803793999437841 9.7023776710676525e-05 0 -0.003129341806894355 0.0009248664033113691 0 -0.0010216290624843903 0.001458857891324789 0 -0.0021513028079302166 0.0011810217285513165 0 -0.00097328244352911861 0.0006150408764107998 0 -0.00097328244352911861 0.0006150408764107998 0 -0.0025803793999437841 9.7023776710676525e-05 0 -0.0011745867468729825 -0.0007024054957609178 0 -0.0066887878240587256 0.00095111107357362737 0 -0.0059060774384140568 0.000452490729068382 0 -0.011283480454099604 0.0018615974348311381 0 -0.011612580542276374 0.0019017752771226767 0 -0.010732982375785377 0.0019175570740737466 0 -0.010365052229747028 0.0019252848911582854 0 -0.010710372140146224 0.00204728401580379 0 -0.010732982375785377 0.0019175570740737466 0 -0.010018736156510189 0.0013375028607586173 0 -0.010365052229747028 0.0019252848911582854 0 -0.0066887878240587256 0.00095111107357362737 0 -0.0073932860985059003 0.0013551716711400433 0 -0.0025803793999437841 9.7023776710676525e-05 0 -0.003129341806894355 0.0009248664033113691 0 -0.0043654834029230585 0.00064216766914370542 0 -0.010018736156510189 0.0013375028607586173 0 -0.0094638836124040088 0.0016962769022359767 0 -0.010365052229747028 0.0019252848911582854 0 -0.010018736156510189 0.0013375028607586173 0 -0.0094638836124040088 0.0016962769022359767 0 -0.0088196225558836595 0.0014787312116739096 0 -0.0094638836124040088 0.0016962769022359767 0 -0.010365052229747028 0.0019252848911582854 0 -0.0093634667647666779 0.002215516753318309 0 -0.010365052229747028 0.0019252848911582854 0 -0.0093634667647666779 0.002215516753318309 0 -0.011274008528358746 0.0026486149129805819 0 -0.010371350032643809 0.0019590229206878033 0 -0.0096871834589128472 0.0020028580714306671 0 -0.0094386600213862259 0.0017383475586983464 0 -0.010371350032643809 0.0019590229206878033 0 -0.0096871834589128472 0.0020028580714306671 0 -0.0098735966700550497 0.0024684917716726253 0 -0.0091094182622370578 0.0020622088630851995 0 -0.0090939983291199109 0.0023689300902582488 0 -0.0095064256868725577 0.0024583098572493909 0 -0.0091034885759170864 0.0018753798699997579 0 -0.0096871834589128472 0.0020028580714306671 0 -0.0098735966700550497 0.0024684917716726253 0 -0.0091034885759170864 0.0018753798699997579 0 -0.0091094182622370578 0.0020622088630851995 0 -0.0095064256868725577 0.0024583098572493909 0 -0.0097204509594402272 0.0020371223552433583 0 -0.010018352461093267 0.0022764012005465186 0 -0.0091094182622370578 0.0020622088630851995 0 -0.0087714386639510793 0.0022621423543186777 0 -0.0090939983291199109 0.0023689300902582488 0 -0.0091034885759170864 0.0018753798699997579 0 -0.0096871834589128472 0.0020028580714306671 0 -0.0094386600213862259 0.0017383475586983464 0 -0.0091034885759170864 0.0018753798699997579 0 -0.0091094182622370578 0.0020622088630851995 0 -0.0089852318118393733 0.0015041714083319196 0 -0.0091034885759170864 0.0018753798699997579 0 -0.0094386600213862259 0.0017383475586983464 0 -0.0089852318118393733 0.0015041714083319196 0 -0.0094386600213862259 0.0017383475586983464 0 -0.009356407338527075 0.0014256870465485789 0 -0.0089852318118393733 0.0015041714083319196 0 -0.010371350032643809 0.0019590229206878033 0 -0.0094386600213862259 0.0017383475586983464 0 -0.009356407338527075 0.0014256870465485789 0 -0.0094638836124040088 0.0016962769022359767 0 -0.0093634667647666779 0.002215516753318309 0 -0.0088408838937335255 0.0016412565401529365 0 -0.0093634667647666779 0.002215516753318309 0 -0.008220585657864472 0.0015280945777058801 0 -0.0088408838937335255 0.0016412565401529365 0 -0.008220585657864472 0.0015280945777058801 0 -0.0088408838937335255 0.0016412565401529365 0 -0.0083699695113027463 0.0014805323322965441 0 -0.0097744666411688982 0.0020263372331628059 0 -0.0092323712384453811 0.0016691820032873107 0 -0.0094638836124040088 0.0016962769022359767 0 -0.0088408838937335255 0.0016412565401529365 0 -0.0088196225558836595 0.0014787312116739096 0 0.0022357405841111583 0.0040229835342115812 0 0.0024087575125977178 0.0044120118629677992 0 -0.0083309994712086159 0.0023080286157062617 0 -0.0085728809137870718 0.0018738989461756879 0 -0.0081373905368485461 0.0015968965988927422 0 -0.0083309994712086159 0.0023080286157062617 0 -0.0081373905368485461 0.0015968965988927422 0 -0.0076998406980020809 0.0024306787270851463 0 -0.0083309994712086159 0.0023080286157062617 0 -0.0085728809137870718 0.0018738989461756879 0 -0.0087714386639510793 0.0022621423543186777 0 -0.0091094182622370578 0.0020622088630851995 0 -0.0087714386639510793 0.0022621423543186777 0 -0.008813848953612733 0.0018992601257512628 0 -0.0085728809137870718 0.0018738989461756879 0 -0.0087714386639510793 0.0022621423543186777 0 -0.008813848953612733 0.0018992601257512628 0 -0.0029309280864167554 0.0036315242609135752 0 -0.0018053328890449305 0.0036791310605189514 0 -0.0085728809137870718 0.0018738989461756879 0 -0.0087920753862969214 0.0014047321996290372 0 -0.0081373905368485461 0.0015968965988927422 0 -0.0091094182622370578 0.0020622088630851995 0 -0.008813848953612733 0.0018992601257512628 0 -0.0087920753862969214 0.0014047321996290372 0 -0.0085728809137870718 0.0018738989461756879 0 -0.008813848953612733 0.0018992601257512628 0 -0.0087920753862969214 0.0014047321996290372 0 0.013628525446886631 0.0058284025731892694 0 0.013615337660211559 0.005691596658808985 0 0.013393789386278172 0.0056208518526443861 0 0.0022357405841111583 0.0040229835342115812 0 0.0018530173043555115 0.0041008593301634722 0 0.013628525446886631 0.0058284025731892694 0 0.013615337660211559 0.005691596658808985 0 0.01377055379292187 0.005748047253345317 0 0.013615337660211559 0.005691596658808985 0 0.013556312880163072 0.0055644936749336925 0 0.01369564247486011 0.0056260308618416681 0 0.013615337660211559 0.005691596658808985 0 0.013393789386278172 0.0056208518526443861 0 0.013556312880163072 0.0055644936749336925 0 -0.0018053328890449305 0.0036791310605189514 0 0.0018530173043555115 0.0041008593301634722 0 -0.0089852318118393733 0.0015041714083319196 0 -0.0087800875300160924 0.0015231177811606148 0 -0.00872151256943819 0.001546412516391465 0 -0.0087920753862969214 0.0014047321996290372 0 -0.0081373905368485461 0.0015968965988927422 0 -0.008538330674141165 0.00078437232900448802 0 0.012438519715630267 0.0072104006703297505 0 0.011762653172660373 0.0058596329294550607 0 0.012892370904163807 0.0060369448696693806 0 0.0018530173043555115 0.0041008593301634722 0 0.0014433470065955717 0.0065392761598851261 0 -0.00872151256943819 0.001546412516391465 0 -0.0084831967669010619 0.0016741155244647653 0 -0.0084846651658523412 0.0023264620674221851 0 -0.0087800875300160924 0.0015231177811606148 0 -0.00872151256943819 0.001546412516391465 0 -0.0084846651658523412 0.0023264620674221851 0 0.0018530173043555115 0.0041008593301634722 0 0.0062029310426177106 0.0037975640700484629 0 0.013393789386278172 0.0056208518526443861 0 0.013556312880163072 0.0055644936749336925 0 0.013386237074849476 0.0053452986903294846 0 0.013556312880163072 0.0055644936749336925 0 0.013386237074849476 0.0053452986903294846 0 0.013721435669729691 0.005497228883673007 0 0.013556312880163072 0.0055644936749336925 0 0.01369564247486011 0.0056260308618416681 0 0.013721435669729691 0.005497228883673007 0 -0.010018736156510189 0.0013375028607586173 0 -0.0088196225558836595 0.0014787312116739096 0 -0.0077599438105478745 0.0015406758055614253 0 -0.0043654834029230585 0.00064216766914370542 0 -0.0061844771458254887 0.001755001715576493 0 -0.0077599438105478745 0.0015406758055614253 0 -0.0082968441521419078 0.0014884488565940295 0 -0.0088196225558836595 0.0014787312116739096 0 -0.0077599438105478745 0.0015406758055614253 0 -0.0082968441521419078 0.0014884488565940295 0 -0.0080665129282931052 0.0015071713110849764 0 -0.0081674497228989198 0.0015035672521184187 0 -0.0080665129282931052 0.0015071713110849764 0 -0.0080154033037726762 0.0015571816641470656 0 -0.0081674497228989198 0.0015035672521184187 0 -0.0080665129282931052 0.0015071713110849764 0 -0.0080154033037726762 0.0015571816641470656 0 -0.0077599438105478745 0.0015406758055614253 0 -0.0082968441521419078 0.0014884488565940295 0 -0.0080665129282931052 0.0015071713110849764 0 -0.0077599438105478745 0.0015406758055614253 0 -0.0082968441521419078 0.0014884488565940295 0 -0.0083699695113027463 0.0014805323322965441 0 -0.0081674497228989198 0.0015035672521184187 0 -0.0082968441521419078 0.0014884488565940295 0 -0.0088196225558836595 0.0014787312116739096 0 -0.0083699695113027463 0.0014805323322965441 0 -0.0088408838937335255 0.0016412565401529365 0 -0.0088196225558836595 0.0014787312116739096 0 -0.0083699695113027463 0.0014805323322965441 0 -0.008220585657864472 0.0015280945777058801 0 -0.0082705489178219252 0.0014947447851464627 0 -0.0083858324163615088 0.0015415717686583603 0 -0.009356407338527075 0.0014256870465485789 0 -0.0089852318118393733 0.0015041714083319196 0 -0.00872151256943819 0.001546412516391465 0 -0.008220585657864472 0.0015280945777058801 0 -0.00872151256943819 0.001546412516391465 0 -0.0083858324163615088 0.0015415717686583603 0 -0.0092323712384453811 0.0016691820032873107 0 -0.0090889269198785178 0.001604104414774083 0 -0.0083699695113027463 0.0014805323322965441 0 -0.0082705489178219252 0.0014947447851464627 0 -0.0081674497228989198 0.0015035672521184187 0 -0.008220585657864472 0.0015280945777058801 0 -0.0083699695113027463 0.0014805323322965441 0 -0.0082705489178219252 0.0014947447851464627 0 -0.00872151256943819 0.001546412516391465 0 -0.0083858324163615088 0.0015415717686583603 0 -0.0084831967669010619 0.0016741155244647653 0 -0.0083858324163615088 0.0015415717686583603 0 -0.0081674497228989198 0.0015035672521184187 0 -0.0082631983614727192 0.0017172670399787904 0 -0.0082705489178219252 0.0014947447851464627 0 -0.0083858324163615088 0.0015415717686583603 0 -0.0081674497228989198 0.0015035672521184187 0 -0.0081674497228989198 0.0015035672521184187 0 -0.0081037348943189796 0.0016214654952367896 0 -0.0082631983614727192 0.0017172670399787904 0 -0.0080154033037726762 0.0015571816641470656 0 -0.0081674497228989198 0.0015035672521184187 0 -0.0081037348943189796 0.0016214654952367896 0 -0.0012738746051805523 0.0062860763876007022 0 0.0014433470065955717 0.0065392761598851261 0 -0.0081037348943189796 0.0016214654952367896 0 -0.0082631983614727192 0.0017172670399787904 0 -0.0079336224200036755 0.0017591251190004693 0 -0.0082631983614727192 0.0017172670399787904 0 -0.0084831967669010619 0.0016741155244647653 0 -0.0084846651658523412 0.0023264620674221851 0 -0.0079336224200036755 0.0017591251190004693 0 -0.0078828443420960841 0.0035449013678352293 0 -0.0092730157626916346 0.0042913672834814613 0 -0.0082631983614727192 0.0017172670399787904 0 -0.0079336224200036755 0.0017591251190004693 0 -0.0084846651658523412 0.0023264620674221851 0 -0.0083858324163615088 0.0015415717686583603 0 -0.0082631983614727192 0.0017172670399787904 0 -0.0084831967669010619 0.0016741155244647653 0 -0.0072591415376071925 0.0030673760323224998 0 -0.0079336224200036755 0.0017591251190004693 0 -0.0078828443420960841 0.0035449013678352293 0 -0.0072591415376071925 0.0030673760323224998 0 -0.007403570132336966 0.0021984716948526928 0 -0.0069366339892169854 0.0026061461272090885 0 -0.0072591415376071925 0.0030673760323224998 0 -0.007403570132336966 0.0021984716948526928 0 -0.0079336224200036755 0.0017591251190004693 0 -0.007403570132336966 0.0021984716948526928 0 -0.0068958722350523161 0.0021577293152623645 0 -0.0069366339892169854 0.0026061461272090885 0 -0.007403570132336966 0.0021984716948526928 0 -0.0077599438105478745 0.0015406758055614253 0 -0.0068958722350523161 0.0021577293152623645 0 -0.0080154033037726762 0.0015571816641470656 0 -0.0077599438105478745 0.0015406758055614253 0 -0.0079336224200036755 0.0017591251190004693 0 -0.007403570132336966 0.0021984716948526928 0 -0.0077599438105478745 0.0015406758055614253 0 -0.0079336224200036755 0.0017591251190004693 0 -0.0080154033037726762 0.0015571816641470656 0 -0.0081037348943189796 0.0016214654952367896 0 -0.0079336224200036755 0.0017591251190004693 0 -0.0061844771458254887 0.001755001715576493 0 -0.0068958722350523161 0.0021577293152623645 0 -0.0061867942099781787 0.0026304292523513591 0 -0.0061844771458254887 0.001755001715576493 0 -0.0077599438105478745 0.0015406758055614253 0 -0.0068958722350523161 0.0021577293152623645 0 -0.0068958722350523161 0.0021577293152623645 0 -0.0061867942099781787 0.0026304292523513591 0 -0.0069366339892169854 0.0026061461272090885 0 -0.0061867942099781787 0.0026304292523513591 0 -0.006559068847041289 0.0032537848532142068 0 -0.0056767304519484661 0.0036819771765287603 0 -0.0061867942099781787 0.0026304292523513591 0 -0.0069366339892169854 0.0026061461272090885 0 -0.006559068847041289 0.0032537848532142068 0 -0.0072591415376071925 0.0030673760323224998 0 -0.0069366339892169854 0.0026061461272090885 0 -0.006559068847041289 0.0032537848532142068 0 -0.006559068847041289 0.0032537848532142068 0 -0.0066276201001933838 0.0041828276171943304 0 -0.0056767304519484661 0.0036819771765287603 0 -0.0072591415376071925 0.0030673760323224998 0 -0.006559068847041289 0.0032537848532142068 0 -0.0066276201001933838 0.0041828276171943304 0 -0.0066276201001933838 0.0041828276171943304 0 -0.0062979500667242382 0.0057682540667285285 0 -0.0052184104043664489 0.0048911392742380239 0 -0.0066276201001933838 0.0041828276171943304 0 -0.0074940852450528454 0.0048562640158266845 0 -0.0062979500667242382 0.0057682540667285285 0 -0.0066276201001933838 0.0041828276171943304 0 -0.0074940852450528454 0.0048562640158266845 0 -0.0078828443420960841 0.0035449013678352293 0 -0.0072591415376071925 0.0030673760323224998 0 -0.0066276201001933838 0.0041828276171943304 0 -0.0078828443420960841 0.0035449013678352293 0 -0.0074940852450528454 0.0048562640158266845 0 -0.0078828443420960841 0.0035449013678352293 0 -0.0092730157626916346 0.0042913672834814613 0 -0.0074940852450528454 0.0048562640158266845 0 -0.0092730157626916346 0.0042913672834814613 0 -0.0078242073325223774 0.0067775748681502268 0 0.0014433470065955717 0.0065392761598851261 0 0.00068841190665504303 0.0090615290486782633 0 0.0066796698669914639 0.01649119857123138 0 0.0056167917777032806 0.014466063612317878 0 0.0068777733695702227 0.014370097742079714 0 -0.0074940852450528454 0.0048562640158266845 0 -0.0078242073325223774 0.0067775748681502268 0 -0.0062979500667242382 0.0057682540667285285 0 -0.0078242073325223774 0.0067775748681502268 0 -0.0062979500667242382 0.0057682540667285285 0 -0.0059367993117219195 0.0073845619325908678 0 0.013386237074849476 0.0053452986903294846 0 0.013797798347942883 0.005329434551745873 0 0.013765933487829611 0.0050462594880971408 0 0.0062029310426177106 0.0037975640700484629 0 0.0075010109069350338 0.0036459852064898699 0 0.013386237074849476 0.0053452986903294846 0 0.013721435669729691 0.005497228883673007 0 0.013797798347942883 0.005329434551745873 0 0.011762653172660373 0.0058596329294550607 0 0.012892370904163807 0.0060369448696693806 0 0.012660548462645549 0.0047681204481402634 0 0.0066796698669914639 0.01649119857123138 0 0.0079966829644730793 0.014824870052632146 0 0.0068777733695702227 0.014370097742079714 0 0.0014433470065955717 0.0065392761598851261 0 0.0067748405701943803 0.0074079953030050331 0 0.012892370904163807 0.0060369448696693806 0 0.012660548462645549 0.0047681204481402634 0 0.013354403724899872 0.0048571996233986491 0 0.013386237074849476 0.0053452986903294846 0 0.013354403724899872 0.0048571996233986491 0 0.013765933487829611 0.0050462594880971408 0 0.012660548462645549 0.0047681204481402634 0 0.013354403724899872 0.0048571996233986491 0 0.013292179032173012 0.0044451618295092872 0 0.013354403724899872 0.0048571996233986491 0 0.013563213860870218 0.0044732417751448773 0 0.013292179032173012 0.0044451618295092872 0 0.013354403724899872 0.0048571996233986491 0 0.013563213860870218 0.0044732417751448773 0 0.013651366524606807 0.0047601980323098399 0 0.013354403724899872 0.0048571996233986491 0 0.013651366524606807 0.0047601980323098399 0 0.013765933487829611 0.0050462594880971408 0 0.0079966829644730793 0.014824870052632146 0 0.0093915316409417249 0.013161141605837388 0 0.0092437810062204386 0.013234524196187475 0 0.012660548462645549 0.0047681204481402634 0 0.013373349736876847 0.0038978540053740724 0 0.013292179032173012 0.0044451618295092872 0 0.0079966829644730793 0.014824870052632146 0 0.0092437810062204386 0.013234524196187475 0 0.0077848444179986443 0.013332895345568158 0 0.0067748405701943803 0.0074079953030050331 0 0.010097592627457958 0.0074883505771517695 0 0.009403767144024959 0.013167337331224738 0 0.0092437810062204386 0.013234524196187475 0 0.0092976203546510892 0.012809879800260817 0 0.010097592627457958 0.0074883505771517695 0 0.010085500628857533 0.0075015047463992835 0 0.013373349736876847 0.0038978540053740724 0 0.01346486341607917 0.0042340009983126547 0 0.013713362051669047 0.0040728702508605712 0 0.01346486341607917 0.0042340009983126547 0 0.013563213860870218 0.0044732417751448773 0 0.013713362051669047 0.0040728702508605712 0 0.013373349736876847 0.0038978540053740724 0 0.01346486341607917 0.0042340009983126547 0 0.013292179032173012 0.0044451618295092872 0 0.01346486341607917 0.0042340009983126547 0 0.013563213860870218 0.0044732417751448773 0 0.013292179032173012 0.0044451618295092872 0 0.0092437810062204386 0.013234524196187475 0 0.0077848444179986443 0.013332895345568158 0 0.0088307101397558027 0.012560446876870265 0 0.0079966829644730793 0.014824870052632146 0 0.0077848444179986443 0.013332895345568158 0 0.0068777733695702227 0.014370097742079714 0 0.0077848444179986443 0.013332895345568158 0 0.0068777733695702227 0.014370097742079714 0 0.0063915921961944953 0.01298614002229887 0 0.00765466205542026 0.01222455378696358 0 0.0085623822304517778 0.011607105744397802 0 0.0066617865670810369 0.011357934045839915 0 0.00765466205542026 0.01222455378696358 0 0.0063915921961944953 0.01298614002229887 0 0.0066617865670810369 0.011357934045839915 0 0.0077848444179986443 0.013332895345568158 0 0.00765466205542026 0.01222455378696358 0 0.0063915921961944953 0.01298614002229887 0 0.0077848444179986443 0.013332895345568158 0 0.00765466205542026 0.01222455378696358 0 0.0088307101397558027 0.012560446876870265 0 0.0088307101397558027 0.012560446876870265 0 0.0085623822304517778 0.011607105744397802 0 0.009534388265024743 0.01221562160034197 0 0.00765466205542026 0.01222455378696358 0 0.0088307101397558027 0.012560446876870265 0 0.0085623822304517778 0.011607105744397802 0 0.0085623822304517778 0.011607105744397802 0 0.009534388265024743 0.01221562160034197 0 0.0098541090199265879 0.011379264339971804 0 0.009534388265024743 0.01221562160034197 0 0.0092976203546510892 0.012809879800260817 0 0.0097197079393860179 0.012846904539983625 0 0.0088307101397558027 0.012560446876870265 0 0.009534388265024743 0.01221562160034197 0 0.0092976203546510892 0.012809879800260817 0 0.0092437810062204386 0.013234524196187475 0 0.0088307101397558027 0.012560446876870265 0 0.0092976203546510892 0.012809879800260817 0 0.009403767144024959 0.013167337331224738 0 0.0092976203546510892 0.012809879800260817 0 0.0097197079393860179 0.012846904539983625 0 0.010097592627457958 0.0074883505771517695 0 0.010022006688557791 0.0076306459568897273 0 0.00068841190665504303 0.0090615290486782633 0 0.00031024761823158587 0.0094098347142866599 0 -0.0078242073325223774 0.0067775748681502268 0 -0.0059367993117219195 0.0073845619325908678 0 -0.006351111019677478 0.0094765788820566025 0 0.0056167917777032806 0.014466063612317878 0 0.0068777733695702227 0.014370097742079714 0 0.0063915921961944953 0.01298614002229887 0 0.0056167917777032806 0.014466063612317878 0 0.0063915921961944953 0.01298614002229887 0 0.0045182964521364843 0.01238458885483742 0 0.00031024761823158587 0.0094098347142866599 0 0.0044946824659058693 0.0096421566591204586 0 0.0063915921961944953 0.01298614002229887 0 0.0045182964521364843 0.01238458885483742 0 0.0066617865670810369 0.011357934045839915 0 0.0021626482758154413 0.013597848345755077 0 0.0056562155256326711 0.011885897007709688 0 0.0029759325297811666 0.011028093772886331 0 0.00031024761823158587 0.0094098347142866599 0 0.00010052426320036954 0.0092553435335984788 0 -0.0016368336975894505 0.0077154183360883576 0 -0.0015278788766719855 0.0077386674473768763 0 -0.001431893383655103 0.0078903232302187289 0 -0.0015278788766719855 0.0077386674473768763 0 -0.0018699898842884752 0.0076932448441430507 0 -0.0017330706194813822 0.0076577697664737664 0 0.00031024761823158587 0.0094098347142866599 0 -0.0011113909406294991 0.0093731366946855979 0 -0.0016368336975894505 0.0077154183360883576 0 -0.0015278788766719855 0.0077386674473768763 0 -0.0017330706194813822 0.0076577697664737664 0 -0.0018699898842884752 0.0076932448441430507 0 -0.0015276830305301357 0.0076319748193731862 0 -0.0012719832621486708 0.007870093556582157 0 -0.0015278788766719855 0.0077386674473768763 0 -0.0018699898842884752 0.0076932448441430507 0 -0.0012719832621486708 0.007870093556582157 0 -0.0023844956569190391 0.0066426984594159019 0 -0.0023625002334815483 0.0056831363100319854 0 -0.0018699898842884752 0.0076932448441430507 0 -0.0023833887630522422 0.0073142847349618786 0 -0.0017330706194813822 0.0076577697664737664 0 -0.0018699898842884752 0.0076932448441430507 0 -0.0023833887630522422 0.0073142847349618786 0 -0.0022644552358922101 0.00634006041685001 0 -0.0013371367129850985 0.0092424551191895611 0 -0.0011113909406294991 0.0093731366946855979 0 -0.0023833887630522422 0.0073142847349618786 0 -0.004544727946563876 0.0086003995998601597 0 -0.0046123075900217228 0.0063847171980552248 0 -0.0059367993117219195 0.0073845619325908678 0 -0.004544727946563876 0.0086003995998601597 0 -0.0046123075900217228 0.0063847171980552248 0 -0.0059367993117219195 0.0073845619325908678 0 -0.006351111019677478 0.0094765788820566025 0 -0.004544727946563876 0.0086003995998601597 0 -0.0062979500667242382 0.0057682540667285285 0 -0.0059367993117219195 0.0073845619325908678 0 -0.0046123075900217228 0.0063847171980552248 0 -0.0062979500667242382 0.0057682540667285285 0 -0.0046123075900217228 0.0063847171980552248 0 -0.0052184104043664489 0.0048911392742380239 0 -0.0046123075900217228 0.0063847171980552248 0 -0.0036704186066976699 0.0050038529639305773 0 -0.0052184104043664489 0.0048911392742380239 0 -0.0023833887630522422 0.0073142847349618786 0 -0.0046123075900217228 0.0063847171980552248 0 -0.0031867407626259901 0.0062915766044253666 0 -0.0023833887630522422 0.0073142847349618786 0 -0.0031867407626259901 0.0062915766044253666 0 -0.0022644552358922101 0.00634006041685001 0 -0.0031867407626259901 0.0062915766044253666 0 -0.0036704186066976699 0.0050038529639305773 0 -0.0022644552358922101 0.00634006041685001 0 -0.0046123075900217228 0.0063847171980552248 0 -0.0031867407626259901 0.0062915766044253666 0 -0.0036704186066976699 0.0050038529639305773 0 -0.0038773766996567315 0.0034200163518609055 0 -0.0021478136108029821 0.0031570609233995562 0 -0.0036704186066976699 0.0050038529639305773 0 -0.0021478136108029821 0.0031570609233995562 0 -0.0036704186066976699 0.0050038529639305773 0 -0.0022644552358922101 0.00634006041685001 0 -0.0038773766996567315 0.0034200163518609055 0 -0.0036704186066976699 0.0050038529639305773 0 -0.0046736997817283703 0.0040037488024506846 0 -0.0066276201001933838 0.0041828276171943304 0 -0.0056767304519484661 0.0036819771765287603 0 -0.0052184104043664489 0.0048911392742380239 0 -0.0046736997817283703 0.0040037488024506846 0 -0.0056767304519484661 0.0036819771765287603 0 -0.0052184104043664489 0.0048911392742380239 0 -0.0049435970977386133 0.0030502504764565392 0 -0.0046736997817283703 0.0040037488024506846 0 -0.0056767304519484661 0.0036819771765287603 0 -0.0036704186066976699 0.0050038529639305773 0 -0.0046736997817283703 0.0040037488024506846 0 -0.0052184104043664489 0.0048911392742380239 0 -0.0015437697580464691 0.003185365792315016 0 -0.0016390615255224273 0.0044362591081578443 0 -0.00051477657355108021 0.0038373536814832634 0 -0.0016390615255224273 0.0044362591081578443 0 -0.00051477657355108021 0.0038373536814832634 0 -0.00057442362028422894 0.0052552932386236428 0 -0.0025873210400209987 0.0034746036447713935 0 -0.0016390615255224273 0.0044362591081578443 0 -0.0025826472018745973 0.0060176069923527148 0 -0.0022077375758990255 0.0036770741889604864 0 -0.0023625002334815483 0.0056831363100319854 0 -0.0016390615255224273 0.0044362591081578443 0 -0.0025826472018745973 0.0060176069923527148 0 -0.0016077694963865729 0.0061053251643292117 0 -0.00084347274345497895 0.0046551954223355502 0 -0.00019016375939768081 0.0051067740280632979 0 -0.0016390615255224273 0.0044362591081578443 0 -0.0016077694963865729 0.0061053251643292117 0 -0.00080460307724026104 0.0065183319937149077 0 -0.0014703210114871067 0.0071398282444718455 0 -0.0011404863677462198 0.0071847266997009272 0 -0.00080460307724026104 0.0065183319937149077 0 -0.0016077694963865729 0.0061053251643292117 0 -0.0014703210114871067 0.0071398282444718455 0 -0.00080460307724026104 0.0065183319937149077 0 -0.0018699898842884752 0.0076932448441430507 0 -0.0025826472018745973 0.0060176069923527148 0 -0.0014703210114871067 0.0071398282444718455 0 -0.0025826472018745973 0.0060176069923527148 0 -0.0016077694963865729 0.0061053251643292117 0 -0.0014703210114871067 0.0071398282444718455 0 -0.0014703210114871067 0.0071398282444718455 0 -0.0015276830305301357 0.0076319748193731862 0 -0.0013712304356082758 0.0075191132935122276 0 -0.0018699898842884752 0.0076932448441430507 0 -0.0014703210114871067 0.0071398282444718455 0 -0.0015276830305301357 0.0076319748193731862 0 -0.0014703210114871067 0.0071398282444718455 0 -0.0011404863677462198 0.0071847266997009272 0 -0.0013712304356082758 0.0075191132935122276 0 -0.0011404863677462198 0.0071847266997009272 0 -0.0012297825793787162 0.0073625143723392893 0 -0.0013712304356082758 0.0075191132935122276 0 0.00047420570732980535 0.0064023981320827719 0 0.0013587698039073464 0.0051467692354389789 0 -0.00057442362028422894 0.0052552932386236428 0 -0.0011404863677462198 0.0071847266997009272 0 -0.0011250714930391736 0.0072909163545214579 0 -0.0012297825793787162 0.0073625143723392893 0 0.0011524169216946389 0.0053419127076663672 0 -0.00019016375939768081 0.0051067740280632979 0 -0.0011404863677462198 0.0071847266997009272 0 -0.0011250714930391736 0.0072909163545214579 0 -0.00080460307724026104 0.0065183319937149077 0 0.0011524169216946389 0.0053419127076663672 0 0.0036453548415825484 0.0046080246120102737 0 0.00047420570732980535 0.0064023981320827719 0 0.0021313537524840402 0.006563968791057832 0 0.0015391381078291959 0.0075971372123132151 0 0.0081814230414443464 0.0029705869678992433 0 0.006947469120595285 0.0025237616679716387 0 0.0072429948855241566 0.004442550966580013 0 0.0081814230414443464 0.0029705869678992433 0 0.006947469120595285 0.0025237616679716387 0 0.0082957395460630939 0.0020338938597203424 0 0.0039251360906519808 0.0042286898085065897 0 0.00356147207437007 0.0039206952776742595 0 0.0021313537524840402 0.006563968791057832 0 0.0013587698039073464 0.0051467692354389789 0 0.002747580244519366 0.0055113065784838742 0 0.00047420570732980535 0.0064023981320827719 0 0.0021313537524840402 0.006563968791057832 0 0.0013587698039073464 0.0051467692354389789 0 0.0013587698039073464 0.0051467692354389789 0 0.0023238485985119179 0.0046588308656572066 0 0.002747580244519366 0.0055113065784838742 0 0.0013587698039073464 0.0051467692354389789 0 0.0023238485985119179 0.0046588308656572066 0 0.001801286500449157 0.0035367668867085844 0 0.0023238485985119179 0.0046588308656572066 0 0.001801286500449157 0.0035367668867085844 0 0.0033905627706630201 0.0044183692589624176 0 0.0026113353549697318 0.0031899418509977887 0 0.0027790536012949367 0.0029591641680380442 0 0.0013587698039073464 0.0051467692354389789 0 0.001801286500449157 0.0035367668867085844 0 0.00051028997999315903 0.0041449461302808365 0 0.001801286500449157 0.0035367668867085844 0 0.00051028997999315903 0.0041449461302808365 0 0.00054011560510635074 0.0028836976191592015 0 0.00051028997999315903 0.0041449461302808365 0 -0.00051477657355108021 0.0038373536814832634 0 0.00054011560510635074 0.0028836976191592015 0 0.0013587698039073464 0.0051467692354389789 0 0.00051028997999315903 0.0041449461302808365 0 -0.00057442362028422894 0.0052552932386236428 0 0.00051028997999315903 0.0041449461302808365 0 -0.00051477657355108021 0.0038373536814832634 0 -0.00057442362028422894 0.0052552932386236428 0 -0.00080560609240089591 0.0020081184358906041 0 -0.001018373517886808 0.0020342477865685463 0 -0.00095863981106365391 0.0018756111644000247 0 0.00013983552627898447 0.0025695739175501911 0 0.0010132430233307341 0.0028491598045319892 0 0.0010227178474760488 0.0030126424091506342 0 0.0028858151965282081 0.0040465346186145069 0 0.0019549815767947827 0.0028221399371693252 0 0.0028858151965282081 0.0040465346186145069 0 0.002751703266240428 0.0024766252243877298 0 0.0036188429209090146 0.0027422522987498236 0 0.0028858151965282081 0.0040465346186145069 0 0.0019549815767947827 0.0028221399371693252 0 0.002751703266240428 0.0024766252243877298 0 0.0019549815767947827 0.0028221399371693252 0 0.0019897157281464823 0.0020504365662008099 0 0.002751703266240428 0.0024766252243877298 0 0.0019897157281464823 0.0020504365662008099 0 0.002751703266240428 0.0024766252243877298 0 0.002477583529030593 0.0015830817579810779 0 0.002751703266240428 0.0024766252243877298 0 0.002477583529030593 0.0015830817579810779 0 0.0032828640785904548 0.0017508781187331745 0 0.002751703266240428 0.0024766252243877298 0 0.0036188429209090146 0.0027422522987498236 0 0.0032828640785904548 0.0017508781187331745 0 0.0036188429209090146 0.0027422522987498236 0 0.0044768712657792219 0.0020838788134621856 0 0.0045340743845982698 0.0036234000799024038 0 0.0036188429209090146 0.0027422522987498236 0 0.0044768712657792219 0.0020838788134621856 0 0.0032828640785904548 0.0017508781187331745 0 0.0028858151965282081 0.0040465346186145069 0 0.0036188429209090146 0.0027422522987498236 0 0.0045340743845982698 0.0036234000799024038 0 0.0028858151965282081 0.0040465346186145069 0 0.0045340743845982698 0.0036234000799024038 0 0.0046243771527575347 0.0050462726622240604 0 0.0010132430233307341 0.0028491598045319892 0 0.0018863440229661926 0.0030225272087358213 0 0.0045340743845982698 0.0036234000799024038 0 0.0057982130199571592 0.0044142864496671055 0 0.0046243771527575347 0.0050462726622240604 0 0.0045340743845982698 0.0036234000799024038 0 0.0057982130199571592 0.0044142864496671055 0 0.0057174416698546173 0.0030397417901104357 0 0.0044768712657792219 0.0020838788134621856 0 0.0045340743845982698 0.0036234000799024038 0 0.0057174416698546173 0.0030397417901104357 0 0.0044768712657792219 0.0020838788134621856 0 0.0057174416698546173 0.0030397417901104357 0 0.0053657065514567956 0.0012246932958707797 0 0.0057174416698546173 0.0030397417901104357 0 0.006947469120595285 0.0025237616679716387 0 0.0053657065514567956 0.0012246932958707797 0 0.0057174416698546173 0.0030397417901104357 0 0.006947469120595285 0.0025237616679716387 0 0.0072429948855241566 0.004442550966580013 0 0.0057982130199571592 0.0044142864496671055 0 0.0057174416698546173 0.0030397417901104357 0 0.0072429948855241566 0.004442550966580013 0 0.0023238485985119179 0.0046588308656572066 0 0.002747580244519366 0.0055113065784838742 0 0.0033905627706630201 0.0044183692589624176 0 0.00356147207437007 0.0039206952776742595 0 0.0027790536012949367 0.0029591641680380442 0 0.0057982130199571592 0.0044142864496671055 0 0.0072429948855241566 0.004442550966580013 0 0.0063343220394574459 0.0059918821448264941 0 0.0031171003707737193 0.0041779826628132507 0 0.003749562579146415 0.0030441790717507665 0 0.0029116961281459037 0.0033250427415823201 0 0.001801286500449157 0.0035367668867085844 0 0.0031171003707737193 0.0041779826628132507 0 0.0029116961281459037 0.0033250427415823201 0 0.0027790536012949367 0.0029591641680380442 0 0.0013710363371991149 0.0021993139578800271 0 -0.0014829838287805058 0.001752455510374394 0 -0.0012435086667889606 0.0016441577262753782 0 -0.0013420607739620977 0.0014944624600686939 0 -0.0014829838287805058 0.001752455510374394 0 -0.0012592956846734314 0.0018870608527166806 0 -0.0012435086667889606 0.0016441577262753782 0 0.0027790536012949367 0.0029591641680380442 0 0.0018863440229661926 0.0030225272087358213 0 0.0057982130199571592 0.0044142864496671055 0 0.0063343220394574459 0.0059918821448264941 0 0.0046243771527575347 0.0050462726622240604 0 -0.0012592956846734314 0.0018870608527166806 0 -0.0010979676286526946 0.0017729677916832893 0 -0.0012435086667889606 0.0016441577262753782 0 -0.001018373517886808 0.0020342477865685463 0 -0.0012592956846734314 0.0018870608527166806 0 -0.0010979676286526946 0.0017729677916832893 0 -0.0010979676286526946 0.0017729677916832893 0 -0.0012435086667889606 0.0016441577262753782 0 -0.0011063890647454247 0.0015603689074453555 0 -0.0011063890647454247 0.0015603689074453555 0 -0.00089778554024419336 0.0016990933564877938 0 -0.00097658350414369429 0.0014245904154929088 0 -0.00095943275414806883 0.0016101048626002902 0 -0.0015128643496661077 0.00089992566241172106 0 -0.00095828466659614233 0.0013496776856630418 0 -0.0009633548911896809 0.0015992834963393467 0 -0.0011802401698247328 0.00080764546146021071 0 -0.0010979676286526946 0.0017729677916832893 0 -0.0011063890647454247 0.0015603689074453555 0 -0.00089778554024419336 0.0016990933564877938 0 -0.00083556076790868147 0.0019244146624111118 0 -0.00095828466659614233 0.0013496776856630418 0 -0.0009633548911896809 0.0015992834963393467 0 -0.0010979676286526946 0.0017729677916832893 0 -0.00089778554024419336 0.0016990933564877938 0 -0.00095863981106365391 0.0018756111644000247 0 -0.001018373517886808 0.0020342477865685463 0 -0.0010979676286526946 0.0017729677916832893 0 -0.00095863981106365391 0.0018756111644000247 0 -0.00080560609240089591 0.0020081184358906041 0 -0.00089778554024419336 0.0016990933564877938 0 -0.00095863981106365391 0.0018756111644000247 0 -0.0028426983112208003 -0.0011593919631691439 0 -0.0022090239647304744 -0.0015594265364430834 0 -0.00228388525884035 -0.001934490347254341 0 -0.001088245553332811 0.0012905289299933117 0 -0.0011055968850002794 0.0012895072372055205 0 -0.0011263891014356158 0.0012116017860302271 0 -0.0011055968850002794 0.0012895072372055205 0 -0.0010449998624135304 0.0014178731673711309 0 -0.0011744686178831866 0.0014252029849153231 0 -0.0015802562855479318 0.00089334552253714423 0 -0.0016556434463639172 0.00071991204180851126 0 -0.0011055968850002794 0.0012895072372055205 0 -0.0010850090525507349 0.0013222061276648926 0 -0.0010932349483196379 0.0013332368970852353 0 -0.001088245553332811 0.0012905289299933117 0 -0.0011055968850002794 0.0012895072372055205 0 -0.0010850090525507349 0.0013222061276648926 0 -0.0023607335359267121 0.00022681204457876273 0 -0.0018829961651108769 0.00048719580300894357 0 -0.0015432354998292132 0.0011467828762221871 0 -0.0016349531376079532 0.00069614361424649891 0 -0.0016692259560734974 0.00083256003936364221 0 -0.001225033689465822 0.0012185937887832122 0 -0.0018829961651108769 0.00048719580300894357 0 -0.0016349531376079532 0.00069614361424649891 0 -0.0016692259560734974 0.00083256003936364221 0 -0.0016859463890087625 0.00076945325539750557 0 -0.0018829961651108769 0.00048719580300894357 0 -0.0016556434463639172 0.00071991204180851126 0 -0.0015128643496661077 0.00089992566241172106 0 -0.0016556434463639172 0.00071991204180851126 0 -0.001225033689465822 0.0012185937887832122 0 -0.0015128643496661077 0.00089992566241172106 0 -0.0011063890647454247 0.0015603689074453555 0 -0.00097658350414369429 0.0014245904154929088 0 -0.00098714994483178648 0.0013858090511220528 0 -0.0016421411301186591 0.00085881950762733018 0 -0.0016556434463639172 0.00071991204180851126 0 -0.0011744686178831866 0.0014252029849153231 0 -0.0012095987202335561 0.0012730226825297928 0 -0.0013420607739620977 0.0014944624600686939 0 -0.0012435086667889606 0.0016441577262753782 0 -0.0011063890647454247 0.0015603689074453555 0 -0.0011744686178831866 0.0014252029849153231 0 -0.0012435086667889606 0.0016441577262753782 0 -0.0011744686178831866 0.0014252029849153231 0 -0.0013420607739620977 0.0014944624600686939 0 -0.0011063890647454247 0.0015603689074453555 0 -0.0010449998624135304 0.0014178731673711309 0 -0.0011744686178831866 0.0014252029849153231 0 -0.0011055968850002794 0.0012895072372055205 0 -0.0011744686178831866 0.0014252029849153231 0 -0.0012095987202335561 0.0012730226825297928 0 -0.0011055968850002794 0.0012895072372055205 0 -0.0012095987202335561 0.0012730226825297928 0 -0.0011263891014356158 0.0012116017860302271 0 0.00025072782096824956 0.0010626201184637599 0 0.0013710363371991149 0.0021993139578800271 0 0.00437311340102232 0.0018527002953228633 0 0.0035361822607526991 0.0021655514148451616 0 0.0031765342550968065 0.0013506040446325364 0 0.00437311340102232 0.0018527002953228633 0 0.0035361822607526991 0.0021655514148451616 0 0.003749562579146415 0.0030441790717507665 0 0.0035361822607526991 0.0021655514148451616 0 0.003749562579146415 0.0030441790717507665 0 0.0028583166167166843 0.0024077557965553526 0 0.003749562579146415 0.0030441790717507665 0 0.0029116961281459037 0.0033250427415823201 0 0.0028583166167166843 0.0024077557965553526 0 0.0028583166167166843 0.0024077557965553526 0 0.0031765342550968065 0.0013506040446325364 0 0.0018325994326713862 0.0018533883887639877 0 0.0035361822607526991 0.0021655514148451616 0 0.0028583166167166843 0.0024077557965553526 0 0.0031765342550968065 0.0013506040446325364 0 0.0018246330868147891 0.0012714847818263413 0 0.0010969702723332029 0.00093629433625133413 0 0.0033175504478354756 0.00010364659567544224 0 0.0018960402647647335 0.0004440927962874432 0 0.0022803167063548384 -0.00073664035104914483 0 0.0031765342550968065 0.0013506040446325364 0 0.0033175504478354756 0.00010364659567544224 0 0.0018960402647647335 0.0004440927962874432 0 0.0033175504478354756 0.00010364659567544224 0 0.0040432569764638718 0.0008711131661701593 0 0.004217235567092574 0.00016847737415608214 0 0.0033175504478354756 0.00010364659567544224 0 0.004217235567092574 0.00016847737415608214 0 0.0039782506707425579 -0.00046538190286953988 0 0.00437311340102232 0.0018527002953228633 0 0.0031765342550968065 0.0013506040446325364 0 0.0040432569764638718 0.0008711131661701593 0 0.0031765342550968065 0.0013506040446325364 0 0.0033175504478354756 0.00010364659567544224 0 0.0040432569764638718 0.0008711131661701593 0 -0.0012095987202335561 0.0012730226825297928 0 -0.0011455905129206868 0.0011709892103023874 0 -0.0011263891014356158 0.0012116017860302271 0 0.00025072782096824956 0.0010626201184637599 0 -0.0018719162089917162 9.0133697471023698e-05 0 0.00437311340102232 0.0018527002953228633 0 0.0040432569764638718 0.0008711131661701593 0 0.0050249439445385685 0.00062519117195840507 0 0.004217235567092574 0.00016847737415608214 0 0.0050249439445385685 0.00062519117195840507 0 0.0046698603586572416 -0.00028103605389793052 0 0.0040432569764638718 0.0008711131661701593 0 0.004217235567092574 0.00016847737415608214 0 0.0050249439445385685 0.00062519117195840507 0 -0.0011535146689813226 0.0011531750022600736 0 -0.0011449524143808257 0.0011646458584613608 0 -0.001125653391197996 0.0011822200949730499 0 -0.0018719162089917162 9.0133697471023698e-05 0 -0.0076140253730303782 0.001257549765812717 0 -0.0011455905129206868 0.0011709892103023874 0 -0.0011449524143808257 0.0011646458584613608 0 -0.0011553187411786942 0.0011536258763896517 0 0.0050249439445385685 0.00062519117195840507 0 0.0056787974241979322 -0.00060565466900968192 0 0.0046698603586572416 -0.00028103605389793052 0 -0.0011455905129206868 0.0011709892103023874 0 -0.0011449524143808257 0.0011646458584613608 0 -0.001125653391197996 0.0011822200949730499 0 -0.0028426983112208003 -0.0011593919631691439 0 -0.0022090239647304744 -0.0015594265364430834 0 -0.0024153187844328451 -0.00065322684736642369 0 -0.00111691764318162 0.0012393668368792022 0 -0.001125653391197996 0.0011822200949730499 0 -0.0011263891014356158 0.0012116017860302271 0 -0.0023607335359267121 0.00022681204457876273 0 -0.0042807038135612794 0.00030784539838696795 0 -0.0011455905129206868 0.0011709892103023874 0 -0.001125653391197996 0.0011822200949730499 0 -0.0011263891014356158 0.0012116017860302271 0 -0.0023607335359267121 0.00022681204457876273 0 -0.0022339712818936091 0.00050381393844570763 0 0.00054011560510635074 0.0028836976191592015 0 0.0018325994326713862 0.0018533883887639877 0 0.0001295457340709664 0.0013889472071436824 0 -0.00089214819039893723 0.0025739508402134875 0 -0.0010216290624843903 0.001458857891324789 0 0.0001295457340709664 0.0013889472071436824 0 -0.00089214819039893723 0.0025739508402134875 0 0.00054011560510635074 0.0028836976191592015 0 0.0001295457340709664 0.0013889472071436824 0 -0.00089214819039893723 0.0025739508402134875 0 -0.00051477657355108021 0.0038373536814832634 0 0.00054011560510635074 0.0028836976191592015 0 0.001801286500449157 0.0035367668867085844 0 0.00054011560510635074 0.0028836976191592015 0 0.0018325994326713862 0.0018533883887639877 0 0.001801286500449157 0.0035367668867085844 0 0.0028583166167166843 0.0024077557965553526 0 0.0018325994326713862 0.0018533883887639877 0 0.001801286500449157 0.0035367668867085844 0 0.0029116961281459037 0.0033250427415823201 0 0.0028583166167166843 0.0024077557965553526 0 0.0018325994326713862 0.0018533883887639877 0 0.0011313127599213225 0.00057912930273709717 0 0.0001295457340709664 0.0013889472071436824 0 0.0031765342550968065 0.0013506040446325364 0 0.0018325994326713862 0.0018533883887639877 0 0.0022992010015123504 0.00037391604133311777 0 0.0018325994326713862 0.0018533883887639877 0 0.0022992010015123504 0.00037391604133311777 0 0.0011313127599213225 0.00057912930273709717 0 0.0010969702723332029 0.00093629433625133413 0 -0.00074968509588782875 0.00038967136259245114 0 0.0022992010015123504 0.00037391604133311777 0 0.0011313127599213225 0.00057912930273709717 0 0.001260771707701964 -0.00068170310300672292 0 0.0011313127599213225 0.00057912930273709717 0 0.00010058844679181965 -7.6043476999142269e-05 0 0.001260771707701964 -0.00068170310300672292 0 0.0011313127599213225 0.00057912930273709717 0 0.00010058844679181965 -7.6043476999142269e-05 0 0.0001295457340709664 0.0013889472071436824 0 -0.00097328244352911861 0.0006150408764107998 0 0.00010058844679181965 -7.6043476999142269e-05 0 0.0001295457340709664 0.0013889472071436824 0 -0.0010216290624843903 0.001458857891324789 0 -0.00097328244352911861 0.0006150408764107998 0 0.0001295457340709664 0.0013889472071436824 0 -0.00097328244352911861 0.0006150408764107998 0 0.00010058844679181965 -7.6043476999142269e-05 0 -0.0011745867468729825 -0.0007024054957609178 0 0.00010058844679181965 -7.6043476999142269e-05 0 0.00016960622021358837 -0.0016623044472582984 0 -0.0011745867468729825 -0.0007024054957609178 0 -0.0046150403328360165 -0.0005642582036642699 0 -0.0059060774384140568 0.000452490729068382 0 -0.010547588582791341 0.0019547734221629083 0 -0.010534079211031279 0.0019643611923309419 0 -0.010687451638493278 0.0020293129278553686 0 -0.010625813502106491 0.001936782095442629 0 -0.010547588582791341 0.0019547734221629083 0 -0.010687451638493278 0.0020293129278553686 0 -0.010625813502106491 0.001936782095442629 0 -0.010547588582791341 0.0019547734221629083 0 -0.010564120641123375 0.0019205141649067824 0 -0.010526531422677104 0.0019324258424515295 0 -0.010529199929432151 0.0019694865443988857 0 -0.010483832266789964 0.0019045880572305298 0 -0.010542329670357176 0.0019272909632815701 0 -0.010547588582791341 0.0019547734221629083 0 -0.010564120641123375 0.0019205141649067824 0 -0.010526531422677104 0.0019324258424515295 0 -0.010542329670357176 0.0019272909632815701 0 -0.010547588582791341 0.0019547734221629083 0 -0.010526531422677104 0.0019324258424515295 0 -0.010547588582791341 0.0019547734221629083 0 -0.010529199929432151 0.0019694865443988857 0 -0.0046562000999328598 -0.00057423798827671872 0 -0.0046150403328360165 -0.0005642582036642699 0 0.00010058844679181965 -7.6043476999142269e-05 0 0.00016960622021358837 -0.0016623044472582984 0 0.001260771707701964 -0.00068170310300672292 0 -0.0046150403328360165 -0.0005642582036642699 0 -0.00074968509588782875 0.00038967136259245114 0 0.00065549172559773252 -0.00054320938039377497 0 0.001461714676870171 -0.0015168414917019429 0 0.0022803167063548384 -0.00073664035104914483 0 0.0018960402647647335 0.0004440927962874432 0 0.00065549172559773252 -0.00054320938039377497 0 0.0022803167063548384 -0.00073664035104914483 0 0.001461714676870171 -0.0015168414917019429 0 0.00085128649305433253 -0.0026579341976652664 0 0.0025772032721439091 -0.0019600511268279275 0 0.001461714676870171 -0.0015168414917019429 0 0.0022803167063548384 -0.00073664035104914483 0 0.0025772032721439091 -0.0019600511268279275 0 0.001461714676870171 -0.0015168414917019429 0 0.00063627757003423464 -0.0015855680083749573 0 0.00085128649305433253 -0.0026579341976652664 0 -0.0005729436087272198 -0.0015765867028114842 0 0.00065549172559773252 -0.00054320938039377497 0 0.00063627757003423464 -0.0015855680083749573 0 -0.0005729436087272198 -0.0015765867028114842 0 0.00063627757003423464 -0.0015855680083749573 0 0.00085128649305433253 -0.0026579341976652664 0 0.00065549172559773252 -0.00054320938039377497 0 0.001461714676870171 -0.0015168414917019429 0 0.00063627757003423464 -0.0015855680083749573 0 -0.010181339798373622 0.00026570451509963598 0 -0.012622949855343967 0.00023761496855275192 0 -0.010382751690934318 0.001864371701705001 0 -0.010483832266789964 0.0019045880572305298 0 -0.010490411153765427 0.0018232599479827425 0 -0.019588079471453801 -0.001443594732266025 0 -0.020565240866157939 -0.00072555023132762572 0 -0.021467730397859763 -0.0011854260099444446 0 -0.019588079471453801 -0.001443594732266025 0 -0.021579304469058175 -0.0021893549760627425 0 -0.021467730397859763 -0.0011854260099444446 0 -0.010181339798373622 0.00026570451509963598 0 -0.010091125734688912 -0.00054101303597929877 0 -0.010181339798373622 0.00026570451509963598 0 -0.012565558364270455 0.0011775735901294593 0 -0.020565240866157939 -0.00072555023132762572 0 -0.019481100299763691 -0.00027752042455712862 0 -0.020900513194624045 0.00034785481845157174 0 -0.019634638811396495 -0.0014491551066375123 0 -0.020565240866157939 -0.00072555023132762572 0 -0.019481100299763691 -0.00027752042455712862 0 -0.019634638811396495 -0.0014491551066375123 0 -0.019481100299763691 -0.00027752042455712862 0 -0.018541944170127903 -0.0010378393216439487 0 -0.019481100299763691 -0.00027752042455712862 0 -0.018541944170127903 -0.0010378393216439487 0 -0.018203741144289513 0.00015947983430048782 0 -0.017469229230128964 -0.00062913248852238446 0 -0.018541944170127903 -0.0010378393216439487 0 -0.018203741144289513 0.00015947983430048782 0 -0.013314610153215429 0.00068281570159807578 0 -0.012622949855343967 0.00023761496855275192 0 -0.013314610153215429 0.00068281570159807578 0 -0.014124313082098687 0.0010165510493379453 0 -0.017316549822619005 -0.00082525669681047175 0 -0.017058766519021436 0.0008279840545062497 0 -0.015611209340998428 -0.00016265175727522824 0 -0.013314610153215429 0.00068281570159807578 0 -0.013607237473480823 0.00062274671245963413 0 -0.010625813502106491 0.001936782095442629 0 -0.010572560998780643 0.0018754518523366179 0 -0.010694162364977123 0.0019389099104711149 0 -0.010593675181657904 0.0017889673515521813 0 -0.010572560998780643 0.0018754518523366179 0 -0.010694162364977123 0.0019389099104711149 0 -0.013314610153215429 0.00068281570159807578 0 -0.012076618551828181 0.0014882965203777911 0 -0.010625813502106491 0.001936782095442629 0 -0.010572560998780643 0.0018754518523366179 0 -0.010564120641123375 0.0019205141649067824 0 -0.010572560998780643 0.0018754518523366179 0 -0.010564120641123375 0.0019205141649067824 0 -0.010531285965392148 0.0019006434633141896 0 -0.0046150403328360165 -0.0005642582036642699 0 -0.010181339798373622 0.00026570451509963598 0 -0.010529199929432151 0.0019694865443988857 0 -0.010382751690934318 0.001864371701705001 0 -0.010483832266789964 0.0019045880572305298 0 -0.010542329670357176 0.0019272909632815701 0 -0.010564120641123375 0.0019205141649067824 0 -0.010531285965392148 0.0019006434633141896 0 -0.010526531422677104 0.0019324258424515295 0 -0.010542329670357176 0.0019272909632815701 0 -0.010531285965392148 0.0019006434633141896 0 -0.010526531422677104 0.0019324258424515295 0 -0.010531285965392148 0.0019006434633141896 0 -0.010483832266789964 0.0019045880572305298 0 -0.010531285965392148 0.0019006434633141896 0 -0.010483832266789964 0.0019045880572305298 0 -0.010490411153765427 0.0018232599479827425 0 -0.010593675181657904 0.0017889673515521813 0 -0.010572560998780643 0.0018754518523366179 0 -0.010490411153765427 0.0018232599479827425 0 -0.010572560998780643 0.0018754518523366179 0 -0.010531285965392148 0.0019006434633141896 0 -0.010490411153765427 0.0018232599479827425 0 -0.026147595116542719 -0.0022334402176688996 0 -0.02539835591848949 -0.0022783939397413079 0 -0.024749894686396795 -0.0033650046942364999 0 -0.011790829319501784 0.0013203910646940682 0 -0.010726113983568899 0.00078798043672706226 0 -0.024847224413190278 -0.002242414517312523 0 -0.024749894686396795 -0.0033650046942364999 0 -0.024041128295383928 -0.0021953214363397305 0 -0.02539835591848949 -0.0022783939397413079 0 -0.024847224413190278 -0.002242414517312523 0 -0.025316141595383684 -0.0017504086014747302 0 -0.02539835591848949 -0.0022783939397413079 0 -0.024847224413190278 -0.002242414517312523 0 -0.024749894686396795 -0.0033650046942364999 0 -0.010486236356867571 0.00062928425893811295 0 -0.0097986136918138192 -0.00057599832905681552 0 -0.0087496318972564695 -0.00016745399131333312 0 0.0056787974241979322 -0.00060565466900968192 0 0.0051052750016202216 -0.00084150793749792339 0 0.0046698603586572416 -0.00028103605389793052 0 -0.0076140253730303782 0.001257549765812717 0 -0.010726113983568899 0.00078798043672706226 0 -0.0011535146689813226 0.0011531750022600736 0 -0.0011449524143808257 0.0011646458584613608 0 -0.0011553187411786942 0.0011536258763896517 0 0.0046698603586572416 -0.00028103605389793052 0 0.0041967796519624531 -0.0012486335110860054 0 0.0039782506707425579 -0.00046538190286953988 0 0.0051052750016202216 -0.00084150793749792339 0 0.0046698603586572416 -0.00028103605389793052 0 0.0041967796519624531 -0.0012486335110860054 0 0.004217235567092574 0.00016847737415608214 0 0.0046698603586572416 -0.00028103605389793052 0 0.0039782506707425579 -0.00046538190286953988 0 -0.010726113983568899 0.00078798043672706226 0 -0.010382433204860436 -0.00014328022791897855 0 -0.023561781629191963 -0.0029136185043364122 0 -0.024041128295383928 -0.0021953214363397305 0 -0.023106364543002939 -0.0015096844312004042 0 -0.024749894686396795 -0.0033650046942364999 0 -0.023561781629191963 -0.0029136185043364122 0 -0.024041128295383928 -0.0021953214363397305 0 -0.010382433204860436 -0.00014328022791897855 0 -0.010091125734688912 -0.00054101303597929877 0 0.0041967796519624531 -0.0012486335110860054 0 0.0032813689724069004 -0.00086282076590107741 0 0.0025772032721439091 -0.0019600511268279275 0 -0.023561781629191963 -0.0029136185043364122 0 -0.021579304469058175 -0.0021893549760627425 0 -0.023106364543002939 -0.0015096844312004042 0 0.0041967796519624531 -0.0012486335110860054 0 0.0032813689724069004 -0.00086282076590107741 0 0.0039782506707425579 -0.00046538190286953988 0 0.0033175504478354756 0.00010364659567544224 0 0.0032813689724069004 -0.00086282076590107741 0 0.0039782506707425579 -0.00046538190286953988 0 0.0033175504478354756 0.00010364659567544224 0 0.0032813689724069004 -0.00086282076590107741 0 0.0022803167063548384 -0.00073664035104914483 0 0.0032813689724069004 -0.00086282076590107741 0 0.0022803167063548384 -0.00073664035104914483 0 0.0025772032721439091 -0.0019600511268279275 0 -0.021467730397859763 -0.0011854260099444446 0 -0.022117739683352511 -0.00038904584351379307 0 -0.023106364543002939 -0.0015096844312004042 0 -0.021579304469058175 -0.0021893549760627425 0 -0.021467730397859763 -0.0011854260099444446 0 -0.023106364543002939 -0.0015096844312004042 0 -0.020565240866157939 -0.00072555023132762572 0 -0.021467730397859763 -0.0011854260099444446 0 -0.022117739683352511 -0.00038904584351379307 0 -0.020565240866157939 -0.00072555023132762572 0 -0.022117739683352511 -0.00038904584351379307 0 -0.020900513194624045 0.00034785481845157174 0 -0.022117739683352511 -0.00038904584351379307 0 -0.023274013527031807 -0.00047704697702404463 0 -0.023106364543002939 -0.0015096844312004042 0 -0.022117739683352511 -0.00038904584351379307 0 -0.022669045044938083 0.00027882217110326835 0 -0.02195921844714142 0.0005056136308404758 0 -0.022117739683352511 -0.00038904584351379307 0 -0.023274013527031807 -0.00047704697702404463 0 -0.022669045044938083 0.00027882217110326835 0 -0.023274013527031807 -0.00047704697702404463 0 -0.023546033352675796 0.00051711719915653186 0 -0.022669045044938083 0.00027882217110326835 0 -0.024041128295383928 -0.0021953214363397305 0 -0.023106364543002939 -0.0015096844312004042 0 -0.023891899197041086 -0.0011567114565563875 0 -0.024041128295383928 -0.0021953214363397305 0 -0.023891899197041086 -0.0011567114565563875 0 -0.024620767055988514 -0.0015409918254353282 0 -0.024847224413190278 -0.002242414517312523 0 -0.024041128295383928 -0.0021953214363397305 0 -0.024620767055988514 -0.0015409918254353282 0 -0.023891899197041086 -0.0011567114565563875 0 -0.024312704856656989 -0.0004909088255008842 0 -0.024620767055988514 -0.0015409918254353282 0 -0.023274013527031807 -0.00047704697702404463 0 -0.023106364543002939 -0.0015096844312004042 0 -0.023891899197041086 -0.0011567114565563875 0 -0.023274013527031807 -0.00047704697702404463 0 -0.023891899197041086 -0.0011567114565563875 0 -0.024312704856656989 -0.0004909088255008842 0 -0.023274013527031807 -0.00047704697702404463 0 -0.024312704856656989 -0.0004909088255008842 0 -0.023546033352675796 0.00051711719915653186 0 -0.024312704856656989 -0.0004909088255008842 0 -0.02505584296819589 -0.00027863109192680107 0 -0.024531231617327481 0.00070047727363467993 0 -0.024312704856656989 -0.0004909088255008842 0 -0.02505584296819589 -0.00027863109192680107 0 -0.025160038423759024 -0.0010731466980721223 0 -0.025700415406977924 -0.00053982905653305908 0 -0.02505584296819589 -0.00027863109192680107 0 -0.025508531335629966 0.00031389680036740297 0 -0.025700415406977924 -0.00053982905653305908 0 -0.02505584296819589 -0.00027863109192680107 0 -0.025160038423759024 -0.0010731466980721223 0 -0.025782507762310981 -0.0012414118080323177 0 -0.025700415406977924 -0.00053982905653305908 0 -0.025160038423759024 -0.0010731466980721223 0 -0.025782507762310981 -0.0012414118080323177 0 -0.025160038423759024 -0.0010731466980721223 0 -0.025316141595383684 -0.0017504086014747302 0 -0.024312704856656989 -0.0004909088255008842 0 -0.025160038423759024 -0.0010731466980721223 0 -0.024620767055988514 -0.0015409918254353282 0 -0.025160038423759024 -0.0010731466980721223 0 -0.024620767055988514 -0.0015409918254353282 0 -0.025316141595383684 -0.0017504086014747302 0 -0.024847224413190278 -0.002242414517312523 0 -0.024620767055988514 -0.0015409918254353282 0 -0.025316141595383684 -0.0017504086014747302 0 -0.025833996722497764 -0.0018007135175620349 0 -0.02539835591848949 -0.0022783939397413079 0 -0.025316141595383684 -0.0017504086014747302 0 -0.025276366768412013 0.0015296367059800234 0 -0.024531231617327481 0.00070047727363467993 0 -0.024342286509326686 0.0019501604134955653 0 -0.026223877033386422 0.0021828646786130339 0 -0.025276366768412013 0.0015296367059800234 0 -0.025022123416379303 0.003059401586479495 0 -0.025276366768412013 0.0015296367059800234 0 -0.024342286509326686 0.0019501604134955653 0 -0.025022123416379303 0.003059401586479495 0 -0.025276366768412013 0.0015296367059800234 0 -0.025508531335629966 0.00031389680036740297 0 -0.024531231617327481 0.00070047727363467993 0 -0.02505584296819589 -0.00027863109192680107 0 -0.025508531335629966 0.00031389680036740297 0 -0.024531231617327481 0.00070047727363467993 0 -0.024312704856656989 -0.0004909088255008842 0 -0.024531231617327481 0.00070047727363467993 0 -0.023546033352675796 0.00051711719915653186 0 -0.024531231617327481 0.00070047727363467993 0 -0.023546033352675796 0.00051711719915653186 0 -0.023662199153396232 0.0014209072160620076 0 -0.024342286509326686 0.0019501604134955653 0 -0.023662199153396232 0.0014209072160620076 0 -0.023302368374256303 0.0029091516515747117 0 -0.024531231617327481 0.00070047727363467993 0 -0.024342286509326686 0.0019501604134955653 0 -0.023662199153396232 0.0014209072160620076 0 -0.023880669076304307 3.5138813076814557e-05 0 -0.022484177450014683 0.0011654255641605224 0 -0.024277959344162599 0.0020596157778274204 0 -0.023070465099896825 0.0015915239523354649 0 -0.023596930039563202 0.0026311921966210364 0 -0.023662199153396232 0.0014209072160620076 0 -0.022824686860787525 0.001225086894422798 0 -0.023302368374256303 0.0029091516515747117 0 -0.023546033352675796 0.00051711719915653186 0 -0.023662199153396232 0.0014209072160620076 0 -0.022824686860787525 0.001225086894422798 0 -0.023222070803484804 0.0014051379722117851 0 -0.023070465099896825 0.0015915239523354649 0 -0.023546033352675796 0.00051711719915653186 0 -0.022669045044938083 0.00027882217110326835 0 -0.022556808308549475 0.0011741498773554101 0 -0.022669045044938083 0.00027882217110326835 0 -0.022556808308549475 0.0011741498773554101 0 -0.02195921844714142 0.0005056136308404758 0 -0.022117739683352511 -0.00038904584351379307 0 -0.02195921844714142 0.0005056136308404758 0 -0.020900513194624045 0.00034785481845157174 0 -0.022556808308549475 0.0011741498773554101 0 -0.02195921844714142 0.0005056136308404758 0 -0.021643625213616003 0.001149267891725759 0 -0.02195921844714142 0.0005056136308404758 0 -0.021643625213616003 0.001149267891725759 0 -0.020900513194624045 0.00034785481845157174 0 -0.023070465099896825 0.0015915239523354649 0 -0.022060670948328955 0.0019815594948292214 0 -0.021643625213616003 0.001149267891725759 0 -0.021287905508885076 0.0020565952784850454 0 -0.020718126929357681 0.0012513199377058432 0 -0.022556808308549475 0.0011741498773554101 0 -0.021643625213616003 0.001149267891725759 0 -0.021287905508885076 0.0020565952784850454 0 -0.022484177450014683 0.0011654255641605224 0 -0.022981296535438789 0.0027938624385339399 0 -0.024277959344162599 0.0020596157778274204 0 -0.022981296535438789 0.0027938624385339399 0 -0.024637191573358874 0.0040665663936640369 0 -0.022363380562423187 0.0043300888069536872 0 -0.023596930039563202 0.0026311921966210364 0 -0.024098702291528641 0.0041819242457861667 0 -0.022981296535438789 0.0027938624385339399 0 -0.024277959344162599 0.0020596157778274204 0 -0.024637191573358874 0.0040665663936640369 0 -0.024342286509326686 0.0019501604134955653 0 -0.023302368374256303 0.0029091516515747117 0 -0.025022123416379303 0.003059401586479495 0 -0.023302368374256303 0.0029091516515747117 0 -0.025022123416379303 0.003059401586479495 0 -0.023835632516109161 0.0045282853135622941 0 -0.025022123416379303 0.003059401586479495 0 -0.025821415211462997 0.004697869805884344 0 -0.023835632516109161 0.0045282853135622941 0 -0.026480811729161564 0.0033964251036621763 0 -0.025022123416379303 0.003059401586479495 0 -0.025821415211462997 0.004697869805884344 0 -0.018596381543264501 0.001438863522482301 0 -0.018769509883912659 0.0027051742424636371 0 -0.017300145650719766 0.0023311236367250352 0 -0.018596381543264501 0.001438863522482301 0 -0.017058766519021436 0.0008279840545062497 0 -0.017300145650719766 0.0023311236367250352 0 -0.017058766519021436 0.0008279840545062497 0 -0.017300145650719766 0.0023311236367250352 0 -0.015123918025585005 0.0018450083227736049 0 -0.017316549822619005 -0.00082525669681047175 0 -0.017058766519021436 0.0008279840545062497 0 -0.018203741144289513 0.00015947983430048782 0 -0.018596381543264501 0.001438863522482301 0 -0.018203741144289513 0.00015947983430048782 0 -0.019071324559747534 0.00048668407454622784 0 -0.018596381543264501 0.001438863522482301 0 -0.017058766519021436 0.0008279840545062497 0 -0.018203741144289513 0.00015947983430048782 0 -0.018596381543264501 0.001438863522482301 0 -0.019071324559747534 0.00048668407454622784 0 -0.019885557995626635 0.00088152733813883248 0 -0.019481100299763691 -0.00027752042455712862 0 -0.018203741144289513 0.00015947983430048782 0 -0.019071324559747534 0.00048668407454622784 0 -0.019481100299763691 -0.00027752042455712862 0 -0.019071324559747534 0.00048668407454622784 0 -0.019885557995626635 0.00088152733813883248 0 -0.019481100299763691 -0.00027752042455712862 0 -0.019885557995626635 0.00088152733813883248 0 -0.020900513194624045 0.00034785481845157174 0 -0.019885557995626635 0.00088152733813883248 0 -0.020900513194624045 0.00034785481845157174 0 -0.020718126929357681 0.0012513199377058432 0 -0.021643625213616003 0.001149267891725759 0 -0.020900513194624045 0.00034785481845157174 0 -0.020718126929357681 0.0012513199377058432 0 -0.021287905508885076 0.0020565952784850454 0 -0.020718126929357681 0.0012513199377058432 0 -0.019888072581406329 0.0018889576695140726 0 -0.019885557995626635 0.00088152733813883248 0 -0.020718126929357681 0.0012513199377058432 0 -0.019888072581406329 0.0018889576695140726 0 -0.018596381543264501 0.001438863522482301 0 -0.019888072581406329 0.0018889576695140726 0 -0.018769509883912659 0.0027051742424636371 0 -0.018596381543264501 0.001438863522482301 0 -0.019885557995626635 0.00088152733813883248 0 -0.019888072581406329 0.0018889576695140726 0 -0.020118592405669319 0.0029101664125911414 0 -0.019263063819001433 0.0036518625047019461 0 -0.018769509883912659 0.0027051742424636371 0 -0.019888072581406329 0.0018889576695140726 0 -0.020118592405669319 0.0029101664125911414 0 -0.018769509883912659 0.0027051742424636371 0 -0.021287905508885076 0.0020565952784850454 0 -0.019888072581406329 0.0018889576695140726 0 -0.020118592405669319 0.0029101664125911414 0 -0.022060670948328955 0.0019815594948292214 0 -0.020953051885832859 0.0026663689774829614 0 -0.022484177450014683 0.0011654255641605224 0 -0.022981296535438789 0.0027938624385339399 0 -0.021028765778901556 0.0022953523800865135 0 -0.022981296535438789 0.0027938624385339399 0 -0.021028765778901556 0.0022953523800865135 0 -0.022363380562423187 0.0043300888069536872 0 -0.021028765778901556 0.0022953523800865135 0 -0.022363380562423187 0.0043300888069536872 0 -0.020651938685780424 0.004592977094979976 0 -0.020953051885832859 0.0026663689774829614 0 -0.020361702886457448 0.003082054645114568 0 -0.021028765778901556 0.0022953523800865135 0 -0.019263063819001433 0.0036518625047019461 0 -0.020651938685780424 0.004592977094979976 0 -0.019263063819001433 0.0036518625047019461 0 -0.018769509883912659 0.0027051742424636371 0 -0.017509905629961502 0.0038379718024158745 0 -0.018769509883912659 0.0027051742424636371 0 -0.017300145650719766 0.0023311236367250352 0 -0.017509905629961502 0.0038379718024158745 0 -0.017300145650719766 0.0023311236367250352 0 -0.017509905629961502 0.0038379718024158745 0 -0.016189893887999126 0.0031140857647776929 0 -0.017509905629961502 0.0038379718024158745 0 -0.015630830873332786 0.0044215353844272789 0 -0.016189893887999126 0.0031140857647776929 0 -0.015630830873332786 0.0044215353844272789 0 -0.014925493320894863 0.0031734110127464485 0 -0.016189893887999126 0.0031140857647776929 0 -0.014396981811984774 0.0040062714661663057 0 -0.013828921899333256 0.004777588028822756 0 -0.015630830873332786 0.0044215353844272789 0 -0.014925493320894863 0.0031734110127464485 0 -0.014120008957193213 0.0046513744463574291 0 -0.014925493320894863 0.0031734110127464485 0 -0.015123918025585005 0.0018450083227736049 0 -0.014290940920567517 0.0021354367858310475 0 -0.014925493320894863 0.0031734110127464485 0 -0.013748461659369157 0.0024276279938927016 0 -0.014290940920567517 0.0021354367858310475 0 -0.014925493320894863 0.0031734110127464485 0 -0.016189893887999126 0.0031140857647776929 0 -0.015123918025585005 0.0018450083227736049 0 -0.017300145650719766 0.0023311236367250352 0 -0.016189893887999126 0.0031140857647776929 0 -0.015123918025585005 0.0018450083227736049 0 -0.013159891028926821 0.0033765819311557532 0 -0.011868997457480147 0.0041586519594817859 0 -0.012608276472388059 0.0050631823048393242 0 -0.013159891028926821 0.0033765819311557532 0 -0.012608276472388059 0.0050631823048393242 0 -0.01364825730724434 0.0047337805641025684 0 -0.014925493320894863 0.0031734110127464485 0 -0.013159891028926821 0.0033765819311557532 0 -0.01364825730724434 0.0047337805641025684 0 -0.014925493320894863 0.0031734110127464485 0 -0.013748461659369157 0.0024276279938927016 0 -0.013159891028926821 0.0033765819311557532 0 -0.013748461659369157 0.0024276279938927016 0 -0.013159891028926821 0.0033765819311557532 0 -0.012973889302783446 0.0024084227851484319 0 -0.013159891028926821 0.0033765819311557532 0 -0.012188077900392502 0.0021826896799255215 0 -0.011868997457480147 0.0041586519594817859 0 -0.011035276105276663 0.0041449893940125656 0 -0.011442063633728803 0.0048560796776566774 0 -0.013159891028926821 0.0033765819311557532 0 -0.012973889302783446 0.0024084227851484319 0 -0.012188077900392502 0.0021826896799255215 0 -0.010873165278004214 0.0039138544295764105 0 -0.011678224268714052 0.0040097536587568108 0 -0.011035276105276663 0.0041449893940125656 0 -0.011678224268714052 0.0040097536587568108 0 -0.011217345951968709 0.0040965666245699897 0 -0.011222848042842112 0.0040709543405865597 0 -0.011177333874243672 0.0040820477963165822 0 -0.012973889302783446 0.0024084227851484319 0 -0.012188077900392502 0.0021826896799255215 0 -0.01351510862804409 0.0017711736405661711 0 -0.010873165278004214 0.0039138544295764105 0 -0.011035276105276663 0.0041449893940125656 0 -0.0096353244810960161 0.0048135121734765758 0 -0.009599136078142629 0.0050024658886821611 0 -0.0094631647980541918 0.0048538346151237718 0 -0.01314872498355639 0.0013959196634135936 0 -0.01351510862804409 0.0017711736405661711 0 -0.013363224697928488 0.0012526440655813652 0 -0.013748461659369157 0.0024276279938927016 0 -0.012973889302783446 0.0024084227851484319 0 -0.01351510862804409 0.0017711736405661711 0 -0.013748461659369157 0.0024276279938927016 0 -0.01351510862804409 0.0017711736405661711 0 -0.014290940920567517 0.0021354367858310475 0 -0.01351510862804409 0.0017711736405661711 0 -0.013363224697928488 0.0012526440655813652 0 -0.013859258911943603 0.0015358549453939093 0 -0.01351510862804409 0.0017711736405661711 0 -0.014290940920567517 0.0021354367858310475 0 -0.013859258911943603 0.0015358549453939093 0 -0.013363224697928488 0.0012526440655813652 0 -0.013115914397718881 0.0014667055770381967 0 -0.013346169616530333 0.0013801920788982284 0 -0.013363224697928488 0.0012526440655813652 0 -0.013441759350965183 0.0009104082050669011 0 -0.013115914397718881 0.0014667055770381967 0 -0.013363224697928488 0.0012526440655813652 0 -0.013859258911943603 0.0015358549453939093 0 -0.013441759350965183 0.0009104082050669011 0 -0.01314872498355639 0.0013959196634135936 0 -0.013363224697928488 0.0012526440655813652 0 -0.013346169616530333 0.0013801920788982284 0 -0.010169393795711692 0.0049884317581050143 0 -0.010314599996113349 0.0043226392235295088 0 -0.0098255116441125761 0.0044424006884308757 0 -0.010873165278004214 0.0039138544295764105 0 -0.011282027956073836 0.0031453983919874969 0 -0.015123918025585005 0.0018450083227736049 0 -0.014290940920567517 0.0021354367858310475 0 -0.013859258911943603 0.0015358549453939093 0 -0.015123918025585005 0.0018450083227736049 0 -0.013859258911943603 0.0015358549453939093 0 -0.013441759350965183 0.0009104082050669011 0 -0.013575436253019711 0.00066086291418243257 0 -0.013607237473480823 0.00062274671245963413 0 -0.015123918025585005 0.0018450083227736049 0 -0.013441759350965183 0.0009104082050669011 0 -0.015611209340998428 -0.00016265175727522824 0 -0.017058766519021436 0.0008279840545062497 0 -0.015123918025585005 0.0018450083227736049 0 -0.015611209340998428 -0.00016265175727522824 0 -0.011933055198215671 0.0013714604556341588 0 -0.012533277854928766 0.0019041546839643553 0 -0.011982209302018447 0.0026091023453156778 0 -0.011126488798103495 0.0016908508540220521 0 -0.011933055198215671 0.0013714604556341588 0 -0.011982209302018447 0.0026091023453156778 0 -0.012309678461431257 0.0024248744314893625 0 -0.012533277854928766 0.0019041546839643553 0 -0.011982209302018447 0.0026091023453156778 0 -0.012309678461431257 0.0024248744314893625 0 -0.012619159311596255 0.0021588952593244643 0 -0.012350632762752722 0.0025803391582416902 0 -0.012309678461431257 0.0024248744314893625 0 -0.012533277854928766 0.0019041546839643553 0 -0.012619159311596255 0.0021588952593244643 0 -0.012533277854928766 0.0019041546839643553 0 -0.013115914397718881 0.0014667055770381967 0 -0.012619159311596255 0.0021588952593244643 0 -0.013441759350965183 0.0009104082050669011 0 -0.011933055198215671 0.0013714604556341588 0 -0.012533277854928766 0.0019041546839643553 0 -0.013441759350965183 0.0009104082050669011 0 -0.012533277854928766 0.0019041546839643553 0 -0.013115914397718881 0.0014667055770381967 0 -0.013115914397718881 0.0014667055770381967 0 -0.013346169616530333 0.0013801920788982284 0 -0.012975766289502526 0.0020112618406888838 0 -0.013115914397718881 0.0014667055770381967 0 -0.012619159311596255 0.0021588952593244643 0 -0.012975766289502526 0.0020112618406888838 0 -0.010314599996113349 0.0043226392235295088 0 -0.010156213972376127 0.0038670898652434227 0 -0.010462132430079003 0.0036560630397741863 0 -0.013346169616530333 0.0013801920788982284 0 -0.013158758758660254 0.0022379862057950207 0 -0.012975766289502526 0.0020112618406888838 0 -0.010314599996113349 0.0043226392235295088 0 -0.0098308631446427427 0.0039233574271567281 0 -0.0098255116441125761 0.0044424006884308757 0 -0.011282027956073836 0.0031453983919874969 0 -0.011414212080724384 0.0028628530259504617 0 -0.010314599996113349 0.0043226392235295088 0 -0.010156213972376127 0.0038670898652434227 0 -0.0098308631446427427 0.0039233574271567281 0 -0.010462132430079003 0.0036560630397741863 0 -0.010016590504760238 0.0035659976902395508 0 -0.0099873883637873768 0.0030658007922483772 0 -0.010156213972376127 0.0038670898652434227 0 -0.010016590504760238 0.0035659976902395508 0 -0.0098308631446427427 0.0039233574271567281 0 -0.010156213972376127 0.0038670898652434227 0 -0.010462132430079003 0.0036560630397741863 0 -0.010016590504760238 0.0035659976902395508 0 -0.012924584144729476 0.0023237647178837879 0 -0.012553546538064059 0.0024441097274610635 0 -0.011796370183711765 0.0029103133822499655 0 -0.012619159311596255 0.0021588952593244643 0 -0.012975766289502526 0.0020112618406888838 0 -0.012553546538064059 0.0024441097274610635 0 -0.012924584144729476 0.0023237647178837879 0 -0.012975766289502526 0.0020112618406888838 0 -0.012553546538064059 0.0024441097274610635 0 -0.011414212080724384 0.0028628530259504617 0 -0.011448153031051065 0.0028536176964494282 0 -0.012619159311596255 0.0021588952593244643 0 -0.012553546538064059 0.0024441097274610635 0 -0.012350632762752722 0.0025803391582416902 0 -0.011414212080724384 0.0028628530259504617 0 -0.01149317994334923 0.0027519298769015325 0 -0.011796370183711765 0.0029103133822499655 0 -0.011274008528358746 0.0026486149129805819 0 -0.012199314537646127 0.0027146115366589482 0 -0.012350632762752722 0.0025803391582416902 0 -0.011796370183711765 0.0029103133822499655 0 -0.012199314537646127 0.0027146115366589482 0 -0.012553546538064059 0.0024441097274610635 0 -0.012350632762752722 0.0025803391582416902 0 -0.011796370183711765 0.0029103133822499655 0 -0.011586302053109326 0.0038828914997565095 0 -0.011796370183711765 0.0029103133822499655 0 -0.010683449003412612 0.0029724225180369798 0 -0.011414212080724384 0.0028628530259504617 0 -0.010656778558632096 0.002671583098493488 0 -0.011796370183711765 0.0029103133822499655 0 -0.011274008528358746 0.0026486149129805819 0 -0.010683449003412612 0.0029724225180369798 0 -0.0097744666411688982 0.0020263372331628059 0 -0.01020472821249188 0.0023282058399583059 0 -0.010371350032643809 0.0019590229206878033 0 -0.011274008528358746 0.0026486149129805819 0 -0.010553850734446287 0.00252329914286736 0 -0.011274008528358746 0.0026486149129805819 0 -0.010553850734446287 0.00252329914286736 0 -0.010683449003412612 0.0029724225180369798 0 -0.010365052229747028 0.0019252848911582854 0 -0.011274008528358746 0.0026486149129805819 0 -0.012114445195402807 0.0025988053620408704 0 -0.011274008528358746 0.0026486149129805819 0 -0.012114445195402807 0.0025988053620408704 0 -0.012199314537646127 0.0027146115366589482 0 -0.010732982375785377 0.0019175570740737466 0 -0.010710372140146224 0.00204728401580379 0 -0.010687451638493278 0.0020293129278553686 0 -0.010710372140146224 0.00204728401580379 0 -0.010687451638493278 0.0020293129278553686 0 -0.010694162364977123 0.0019389099104711149 0 -0.010625813502106491 0.001936782095442629 0 -0.010687451638493278 0.0020293129278553686 0 -0.010694162364977123 0.0019389099104711149 0 -0.012114445195402807 0.0025988053620408704 0 -0.011982209302018447 0.0026091023453156778 0 -0.012199314537646127 0.0027146115366589482 0 -0.012309678461431257 0.0024248744314893625 0 -0.011982209302018447 0.0026091023453156778 0 -0.012199314537646127 0.0027146115366589482 0 -0.011612580542276374 0.0019017752771226767 0 -0.012076618551828181 0.0014882965203777911 0 -0.012309678461431257 0.0024248744314893625 0 -0.012350632762752722 0.0025803391582416902 0 -0.012199314537646127 0.0027146115366589482 0 -0.0086018171373321173 0.0030418054159362896 0 -0.0089543486967093959 0.0032552016386858673 0 -0.0087130289220507303 0.0035900053929522856 0 -0.0086018171373321173 0.0030418054159362896 0 -0.0089600576618157988 0.0026847062093760385 0 -0.0089543486967093959 0.0032552016386858673 0 -0.0086018171373321173 0.0030418054159362896 0 -0.0083507361776174061 0.0033192537186851807 0 -0.0087130289220507303 0.0035900053929522856 0 -0.0081344829346239305 0.0029070655296528939 0 -0.0079818027551139554 0.0034722910698343234 0 -0.00773042963130005 0.0031350321487973367 0 -0.0083507361776174061 0.0033192537186851807 0 -0.0081344829346239305 0.0029070655296528939 0 -0.0079818027551139554 0.0034722910698343234 0 -0.0086018171373321173 0.0030418054159362896 0 -0.0083507361776174061 0.0033192537186851807 0 -0.0081344829346239305 0.0029070655296528939 0 -0.0083309994712086159 0.0023080286157062617 0 -0.0081344829346239305 0.0029070655296528939 0 -0.0076998406980020809 0.0024306787270851463 0 -0.0081344829346239305 0.0029070655296528939 0 -0.0076998406980020809 0.0024306787270851463 0 -0.00773042963130005 0.0031350321487973367 0 -0.0083309994712086159 0.0023080286157062617 0 -0.0081344829346239305 0.0029070655296528939 0 -0.0085740318212132426 0.0026712093342919269 0 -0.0083309994712086159 0.0023080286157062617 0 -0.0087714386639510793 0.0022621423543186777 0 -0.0085740318212132426 0.0026712093342919269 0 -0.0086018171373321173 0.0030418054159362896 0 -0.0081344829346239305 0.0029070655296528939 0 -0.0085740318212132426 0.0026712093342919269 0 -0.0086018171373321173 0.0030418054159362896 0 -0.0085740318212132426 0.0026712093342919269 0 -0.0089600576618157988 0.0026847062093760385 0 -0.0087714386639510793 0.0022621423543186777 0 -0.0090939983291199109 0.0023689300902582488 0 -0.0089600576618157988 0.0026847062093760385 0 -0.0087714386639510793 0.0022621423543186777 0 -0.0085740318212132426 0.0026712093342919269 0 -0.0089600576618157988 0.0026847062093760385 0 -0.0090939983291199109 0.0023689300902582488 0 -0.0089600576618157988 0.0026847062093760385 0 -0.0095064256868725577 0.0024583098572493909 0 -0.0089600576618157988 0.0026847062093760385 0 -0.0095064256868725577 0.0024583098572493909 0 -0.0093335256618090091 0.0030767854258235612 0 -0.010018352461093267 0.0022764012005465186 0 -0.010656778558632096 0.002671583098493488 0 -0.0095064256868725577 0.0024583098572493909 0 -0.0099873883637873768 0.0030658007922483772 0 -0.0093335256618090091 0.0030767854258235612 0 -0.010553850734446287 0.00252329914286736 0 -0.0098735966700550497 0.0024684917716726253 0 -0.010683449003412612 0.0029724225180369798 0 -0.010371350032643809 0.0019590229206878033 0 -0.010553850734446287 0.00252329914286736 0 -0.0098735966700550497 0.0024684917716726253 0 -0.0099873883637873768 0.0030658007922483772 0 -0.0093335256618090091 0.0030767854258235612 0 -0.0096575321808296498 0.0034324301487304418 0 -0.010016590504760238 0.0035659976902395508 0 -0.0099873883637873768 0.0030658007922483772 0 -0.0096575321808296498 0.0034324301487304418 0 -0.0089543486967093959 0.0032552016386858673 0 -0.0093335256618090091 0.0030767854258235612 0 -0.0092722292805344081 0.0036706211852107324 0 -0.0089600576618157988 0.0026847062093760385 0 -0.0089543486967093959 0.0032552016386858673 0 -0.0093335256618090091 0.0030767854258235612 0 -0.0093335256618090091 0.0030767854258235612 0 -0.0092722292805344081 0.0036706211852107324 0 -0.0096575321808296498 0.0034324301487304418 0 -0.0089543486967093959 0.0032552016386858673 0 -0.0092722292805344081 0.0036706211852107324 0 -0.0087130289220507303 0.0035900053929522856 0 -0.0092722292805344081 0.0036706211852107324 0 -0.0089157099637214073 0.0040069827015881184 0 -0.0087130289220507303 0.0035900053929522856 0 -0.0092722292805344081 0.0036706211852107324 0 -0.0096575321808296498 0.0034324301487304418 0 -0.0098308631446427427 0.0039233574271567281 0 -0.010016590504760238 0.0035659976902395508 0 -0.0096575321808296498 0.0034324301487304418 0 -0.0098308631446427427 0.0039233574271567281 0 -0.0092722292805344081 0.0036706211852107324 0 -0.0098308631446427427 0.0039233574271567281 0 -0.0093534379719014352 0.0042353395043552922 0 -0.0098308631446427427 0.0039233574271567281 0 -0.0093534379719014352 0.0042353395043552922 0 -0.0098255116441125761 0.0044424006884308757 0 -0.0093534379719014352 0.0042353395043552922 0 -0.0089157099637214073 0.0040069827015881184 0 -0.0087392345500842787 0.0044813234849576606 0 -0.0092722292805344081 0.0036706211852107324 0 -0.0093534379719014352 0.0042353395043552922 0 -0.0089157099637214073 0.0040069827015881184 0 -0.0089157099637214073 0.0040069827015881184 0 -0.0084267562654291844 0.0040700964149555149 0 -0.0087392345500842787 0.0044813234849576606 0 -0.0087130289220507303 0.0035900053929522856 0 -0.0083219566326161003 0.0036678452704591398 0 -0.0084267562654291844 0.0040700964149555149 0 -0.0089157099637214073 0.0040069827015881184 0 -0.0087130289220507303 0.0035900053929522856 0 -0.0084267562654291844 0.0040700964149555149 0 -0.0083507361776174061 0.0033192537186851807 0 -0.0087130289220507303 0.0035900053929522856 0 -0.0083219566326161003 0.0036678452704591398 0 -0.0079818027551139554 0.0034722910698343234 0 -0.0079750600193156107 0.0038027646923359695 0 -0.0076011862793751396 0.0036231055665428987 0 -0.0079818027551139554 0.0034722910698343234 0 -0.0083219566326161003 0.0036678452704591398 0 -0.0079750600193156107 0.0038027646923359695 0 -0.0083507361776174061 0.0033192537186851807 0 -0.0079818027551139554 0.0034722910698343234 0 -0.0083219566326161003 0.0036678452704591398 0 -0.0083219566326161003 0.0036678452704591398 0 -0.0079750600193156107 0.0038027646923359695 0 -0.0084267562654291844 0.0040700964149555149 0 -0.0084267562654291844 0.0040700964149555149 0 -0.008140708760348097 0.0042057816861980572 0 -0.0087392345500842787 0.0044813234849576606 0 -0.0087404740497409785 0.0040937555990098956 0 -0.0090589021829390222 0.0041316153388870833 0 -0.0068100374194956775 0.0046300522231205983 0 -0.0053882121919726026 0.0047632046868874489 0 -0.0084267562654291844 0.0040700964149555149 0 -0.008140708760348097 0.0042057816861980572 0 -0.0078348456404531194 0.0040341819992713033 0 -0.0079750600193156107 0.0038027646923359695 0 -0.0084267562654291844 0.0040700964149555149 0 -0.0075781448313444249 0.0041418209224557221 0 -0.008140708760348097 0.0042057816861980572 0 -0.0081834910628000926 0.0044770712911456701 0 -0.0088747231776975036 0.0044535441842745898 0 -0.008140708760348097 0.0042057816861980572 0 -0.0081834910628000926 0.0044770712911456701 0 -0.0078565568896185305 0.0043713016562901691 0 -0.0081834910628000926 0.0044770712911456701 0 -0.0083252456709618453 0.0047188582223945371 0 -0.0088747231776975036 0.0044535441842745898 0 -0.0081834910628000926 0.0044770712911456701 0 -0.0083252456709618453 0.0047188582223945371 0 -0.0077460066545376694 0.004656942797206025 0 -0.0083252456709618453 0.0047188582223945371 0 -0.0086984029489035782 0.0047608962460668159 0 -0.0084644619979289369 0.0049494408791553087 0 -0.0088747231776975036 0.0044535441842745898 0 -0.0086984029489035782 0.0047608962460668159 0 -0.0090118758461785811 0.004980128903839671 0 -0.0083252456709618453 0.0047188582223945371 0 -0.0088747231776975036 0.0044535441842745898 0 -0.0086984029489035782 0.0047608962460668159 0 -0.0086984029489035782 0.0047608962460668159 0 -0.0090118758461785811 0.004980128903839671 0 -0.0084644619979289369 0.0049494408791553087 0 -0.0090118758461785811 0.004980128903839671 0 -0.00904420184020438 0.0049399712512499657 0 -0.0090536477988235921 0.004984857578554003 0 -0.0086089704360573331 0.0050276413477178903 0 -0.0082691512280662592 0.0051041108914949979 0 -0.0090118758461785811 0.004980128903839671 0 -0.0091105766566717105 0.0050641880373767777 0 -0.0090536477988235921 0.004984857578554003 0 -0.0090118758461785811 0.004980128903839671 0 -0.0082109258093627461 0.0053042236169608768 0 -0.0084644619979289369 0.0049494408791553087 0 -0.0083252456709618453 0.0047188582223945371 0 -0.0084644619979289369 0.0049494408791553087 0 -0.0080648559427378488 0.0049814829337238012 0 -0.0082109258093627461 0.0053042236169608768 0 -0.0084644619979289369 0.0049494408791553087 0 -0.0080648559427378488 0.0049814829337238012 0 -0.010873165278004214 0.0039138544295764105 0 -0.0097419327540567754 0.0041065222026361895 0 -0.010169393795711692 0.0049884317581050143 0 -0.0098255116441125761 0.0044424006884308757 0 -0.0094573389423365205 0.004741264032774228 0 -0.0096353244810960161 0.0048135121734765758 0 -0.0093140930969176378 0.0046836058613524941 0 -0.0094631647980541918 0.0048538346151237718 0 -0.0093534379719014352 0.0042353395043552922 0 -0.0098255116441125761 0.0044424006884308757 0 -0.0094573389423365205 0.004741264032774228 0 -0.0093534379719014352 0.0042353395043552922 0 -0.0087392345500842787 0.0044813234849576606 0 -0.0094573389423365205 0.004741264032774228 0 -0.0090589021829390222 0.0041316153388870833 0 -0.0097419327540567754 0.0041065222026361895 0 -0.0088747231776975036 0.0044535441842745898 0 -0.0090118758461785811 0.004980128903839671 0 -0.0093140930969176378 0.0046836058613524941 0 -0.0090118758461785811 0.004980128903839671 0 -0.0093060996913210351 0.0049245733582737334 0 -0.0091105766566717105 0.0050641880373767777 0 -0.0090118758461785811 0.004980128903839671 0 -0.0093140930969176378 0.0046836058613524941 0 -0.0093060996913210351 0.0049245733582737334 0 -0.009599136078142629 0.0050024658886821611 0 -0.0093060996913210351 0.0049245733582737334 0 -0.0091105766566717105 0.0050641880373767777 0 -0.009599136078142629 0.0050024658886821611 0 -0.0093060996913210351 0.0049245733582737334 0 -0.0094631647980541918 0.0048538346151237718 0 -0.0093140930969176378 0.0046836058613524941 0 -0.0093060996913210351 0.0049245733582737334 0 -0.0094631647980541918 0.0048538346151237718 0 -0.01035272807047799 0.0046776476237144655 0 -0.010095111712386654 0.0049413379550349518 0 -0.010213963216156932 0.0052855813899778184 0 -0.01035272807047799 0.0046776476237144655 0 -0.010095111712386654 0.0049413379550349518 0 -0.0097473019052758646 0.0048181573292592067 0 -0.011035276105276663 0.0041449893940125656 0 -0.0096489780722475646 0.0046852023588885633 0 -0.010095111712386654 0.0049413379550349518 0 -0.0097473019052758646 0.0048181573292592067 0 -0.0098738231443487451 0.0051686726605270827 0 -0.0097473019052758646 0.0048181573292592067 0 -0.0098738231443487451 0.0051686726605270827 0 -0.0095175052934247609 0.0052318420070215808 0 -0.0098738231443487451 0.0051686726605270827 0 -0.0095175052934247609 0.0052318420070215808 0 -0.0097873561865993719 0.0055498875161688384 0 -0.0098738231443487451 0.0051686726605270827 0 -0.010213963216156932 0.0052855813899778184 0 -0.0097873561865993719 0.0055498875161688384 0 -0.010095111712386654 0.0049413379550349518 0 -0.0098738231443487451 0.0051686726605270827 0 -0.010213963216156932 0.0052855813899778184 0 -0.0090859370550118706 0.0050005635442573852 0 -0.0089297089047074944 0.0050168461465353214 0 -0.0089788946647942989 0.0051916111223489943 0 -0.00904420184020438 0.0049399712512499657 0 -0.0090859370550118706 0.0050005635442573852 0 -0.0089297089047074944 0.0050168461465353214 0 -0.00904420184020438 0.0049399712512499657 0 -0.0090859370550118706 0.0050005635442573852 0 -0.0090536477988235921 0.004984857578554003 0 -0.0091105766566717105 0.0050641880373767777 0 -0.0090859370550118706 0.0050005635442573852 0 -0.0090536477988235921 0.004984857578554003 0 -0.0096489780722475646 0.0046852023588885633 0 -0.0093228675994152296 0.0048153294445370479 0 -0.0097473019052758646 0.0048181573292592067 0 -0.0090859370550118706 0.0050005635442573852 0 -0.0095175052934247609 0.0052318420070215808 0 -0.0090859370550118706 0.0050005635442573852 0 -0.0095175052934247609 0.0052318420070215808 0 -0.0092076769416777459 0.00527141472061512 0 -0.0095175052934247609 0.0052318420070215808 0 -0.0092076769416777459 0.00527141472061512 0 -0.0093800337773512713 0.0055898774967532393 0 -0.0090859370550118706 0.0050005635442573852 0 -0.0092076769416777459 0.00527141472061512 0 -0.0089788946647942989 0.0051916111223489943 0 -0.0092076769416777459 0.00527141472061512 0 -0.0090692304083953533 0.0054428597274896687 0 -0.0089788946647942989 0.0051916111223489943 0 -0.0090692304083953533 0.0054428597274896687 0 -0.0093800337773512713 0.0055898774967532393 0 -0.009058200632727921 0.0057704442752045315 0 -0.0092076769416777459 0.00527141472061512 0 -0.0090692304083953533 0.0054428597274896687 0 -0.0093800337773512713 0.0055898774967532393 0 -0.0093800337773512713 0.0055898774967532393 0 -0.009557939403743403 0.0058444763325608586 0 -0.0097873561865993719 0.0055498875161688384 0 -0.0095175052934247609 0.0052318420070215808 0 -0.0093800337773512713 0.0055898774967532393 0 -0.0097873561865993719 0.0055498875161688384 0 -0.0093800337773512713 0.0055898774967532393 0 -0.009557939403743403 0.0058444763325608586 0 -0.0093485458218318905 0.0059472673154133552 0 -0.009557939403743403 0.0058444763325608586 0 -0.0093485458218318905 0.0059472673154133552 0 -0.0096563560687648528 0.0060614971962748626 0 -0.0093485458218318905 0.0059472673154133552 0 -0.009058200632727921 0.0057704442752045315 0 -0.0090763776033437084 0.0062146334599922142 0 -0.0093800337773512713 0.0055898774967532393 0 -0.0093485458218318905 0.0059472673154133552 0 -0.009058200632727921 0.0057704442752045315 0 -0.0093485458218318905 0.0059472673154133552 0 -0.0090763776033437084 0.0062146334599922142 0 -0.0094516769031696771 0.0062373762993763295 0 -0.0093485458218318905 0.0059472673154133552 0 -0.0094516769031696771 0.0062373762993763295 0 -0.0096563560687648528 0.0060614971962748626 0 -0.0094516769031696771 0.0062373762993763295 0 -0.0096902777356148856 0.0063646228886048654 0 -0.0096563560687648528 0.0060614971962748626 0 -0.0094516769031696771 0.0062373762993763295 0 -0.0094857529018676986 0.006597362920423437 0 -0.0096902777356148856 0.0063646228886048654 0 -0.0094857529018676986 0.006597362920423437 0 -0.0097636216924433614 0.0065888951863443653 0 -0.0096902777356148856 0.0063646228886048654 0 -0.02437363806829267 -0.0011681316047181351 0 -0.023961667183575709 -0.0015699219450396435 0 -0.024533697418636809 -0.0016003473866868596 0 -0.0090763776033437084 0.0062146334599922142 0 -0.0094516769031696771 0.0062373762993763295 0 -0.0094857529018676986 0.006597362920423437 0 -0.016766867733473013 0.0025844013196113795 0 -0.016997068270064093 0.0028355951538231458 0 -0.01186937004225061 0.0080461336677486658 0 -0.011479498956232185 0.0079746731617751886 0 -0.011780851274939523 0.0076495478179405361 0 -0.012495069017008932 0.0077825996127894575 0 -0.012189092293583699 0.0082881940608788059 0 -0.012748669725027053 0.0083435918960809916 0 -0.01186937004225061 0.0080461336677486658 0 -0.012495069017008932 0.0077825996127894575 0 -0.012189092293583699 0.0082881940608788059 0 -0.01186937004225061 0.0080461336677486658 0 -0.011780851274939523 0.0076495478179405361 0 -0.012495069017008932 0.0077825996127894575 0 -0.012189092293583699 0.0082881940608788059 0 -0.012748669725027053 0.0083435918960809916 0 -0.012188897719692796 0.0088088452769170406 0 -0.01186937004225061 0.0080461336677486658 0 -0.011479498956232185 0.0079746731617751886 0 -0.01170409711568781 0.0085325007555609629 0 -0.012189092293583699 0.0082881940608788059 0 -0.01170409711568781 0.0085325007555609629 0 -0.012188897719692796 0.0088088452769170406 0 -0.01186937004225061 0.0080461336677486658 0 -0.012189092293583699 0.0082881940608788059 0 -0.01170409711568781 0.0085325007555609629 0 -0.009982042467992492 0.0064214997166254376 0 -0.0097636216924433614 0.0065888951863443653 0 -0.0096902777356148856 0.0063646228886048654 0 -0.009982042467992492 0.0064214997166254376 0 -0.0096902777356148856 0.0063646228886048654 0 -0.0098137152374595527 0.0062148863999539434 0 -0.0096902777356148856 0.0063646228886048654 0 -0.0098137152374595527 0.0062148863999539434 0 -0.0096563560687648528 0.0060614971962748626 0 -0.009982042467992492 0.0064214997166254376 0 -0.0098137152374595527 0.0062148863999539434 0 -0.0098845855191170631 0.0060648222453883521 0 -0.0098137152374595527 0.0062148863999539434 0 -0.0096563560687648528 0.0060614971962748626 0 -0.0098845855191170631 0.0060648222453883521 0 -0.009982042467992492 0.0064214997166254376 0 -0.0098845855191170631 0.0060648222453883521 0 -0.010084729540119507 0.0058659281212995662 0 -0.013722722505588611 0.0070120532972718095 0 -0.012070068495600715 0.0060795457914962154 0 -0.011780851274939523 0.0076495478179405361 0 -0.011643644712573818 0.006065370547219652 0 -0.012611835299735906 0.0061641259221754969 0 -0.012316163815533894 0.0068260654402137137 0 -0.012885278608197697 0.0060562443917114251 0 -0.011479498956232185 0.0079746731617751886 0 -0.011780851274939523 0.0076495478179405361 0 -0.011643644712573818 0.006065370547219652 0 -0.011780851274939523 0.0076495478179405361 0 -0.012495069017008932 0.0077825996127894575 0 -0.013055100482572706 0.0061277619841259047 0 -0.009557939403743403 0.0058444763325608586 0 -0.0098027049267327936 0.0058669351728715038 0 -0.0097873561865993719 0.0055498875161688384 0 -0.010084729540119507 0.0058659281212995662 0 -0.0098027049267327936 0.0058669351728715038 0 -0.0097873561865993719 0.0055498875161688384 0 -0.0096563560687648528 0.0060614971962748626 0 -0.0098845855191170631 0.0060648222453883521 0 -0.0098027049267327936 0.0058669351728715038 0 -0.009557939403743403 0.0058444763325608586 0 -0.0096563560687648528 0.0060614971962748626 0 -0.0098027049267327936 0.0058669351728715038 0 -0.0098845855191170631 0.0060648222453883521 0 -0.010084729540119507 0.0058659281212995662 0 -0.0098027049267327936 0.0058669351728715038 0 -0.011868997457480147 0.0041586519594817859 0 -0.011643644712573818 0.006065370547219652 0 -0.012608276472388059 0.0050631823048393242 0 -0.011442063633728803 0.0048560796776566774 0 -0.012070068495600715 0.0060795457914962154 0 -0.010213963216156932 0.0052855813899778184 0 -0.010084729540119507 0.0058659281212995662 0 -0.0097873561865993719 0.0055498875161688384 0 -0.012608276472388059 0.0050631823048393242 0 -0.01364825730724434 0.0047337805641025684 0 -0.012611835299735906 0.0061641259221754969 0 -0.013828921899333256 0.004777588028822756 0 -0.012885278608197697 0.0060562443917114251 0 -0.014120008957193213 0.0046513744463574291 0 -0.01411599790219656 0.0060266558535157881 0 -0.015133559643597069 0.0057212157723799352 0 -0.01411599790219656 0.0060266558535157881 0 -0.015133559643597069 0.0057212157723799352 0 -0.014531333927218509 0.0068187223789650765 0 -0.014120008957193213 0.0046513744463574291 0 -0.01411599790219656 0.0060266558535157881 0 -0.013055100482572706 0.0061277619841259047 0 -0.011643644712573818 0.006065370547219652 0 -0.012608276472388059 0.0050631823048393242 0 -0.012611835299735906 0.0061641259221754969 0 -0.01411599790219656 0.0060266558535157881 0 -0.013055100482572706 0.0061277619841259047 0 -0.013746151274930004 0.0068433230800386746 0 -0.017509905629961502 0.0038379718024158745 0 -0.015630830873332786 0.0044215353844272789 0 -0.016753284895966652 0.0054183463482280593 0 -0.015630830873332786 0.0044215353844272789 0 -0.016753284895966652 0.0054183463482280593 0 -0.015133559643597069 0.0057212157723799352 0 -0.015630830873332786 0.0044215353844272789 0 -0.014120008957193213 0.0046513744463574291 0 -0.015133559643597069 0.0057212157723799352 0 -0.015133559643597069 0.0057212157723799352 0 -0.015953281998634099 0.00707590437222362 0 -0.014531333927218509 0.0068187223789650765 0 -0.016753284895966652 0.0054183463482280593 0 -0.015953281998634099 0.00707590437222362 0 -0.017487719559062514 0.0068544446066838146 0 -0.016753284895966652 0.0054183463482280593 0 -0.015133559643597069 0.0057212157723799352 0 -0.015953281998634099 0.00707590437222362 0 -0.015953281998634099 0.00707590437222362 0 -0.017487719559062514 0.0068544446066838146 0 -0.017205120467571645 0.008585886263545844 0 -0.015953281998634099 0.00707590437222362 0 -0.014854302875713186 0.0077144223516640662 0 -0.014531333927218509 0.0068187223789650765 0 -0.01551706539898254 0.0084197484187821803 0 -0.014854302875713186 0.0077144223516640662 0 -0.014396768694382434 0.0084228048878276437 0 -0.01551706539898254 0.0084197484187821803 0 -0.014396768694382434 0.0084228048878276437 0 -0.014863980473578491 0.0091684063494311754 0 -0.015953281998634099 0.00707590437222362 0 -0.01551706539898254 0.0084197484187821803 0 -0.014854302875713186 0.0077144223516640662 0 -0.015953281998634099 0.00707590437222362 0 -0.01551706539898254 0.0084197484187821803 0 -0.017205120467571645 0.008585886263545844 0 -0.012495069017008932 0.0077825996127894575 0 -0.013055100482572706 0.0061277619841259047 0 -0.013216855115779512 0.0075336307050743352 0 -0.013055100482572706 0.0061277619841259047 0 -0.013216855115779512 0.0075336307050743352 0 -0.013746151274930004 0.0068433230800386746 0 -0.013216855115779512 0.0075336307050743352 0 -0.013746151274930004 0.0068433230800386746 0 -0.013972401087277353 0.0077376577111221041 0 -0.01411599790219656 0.0060266558535157881 0 -0.013746151274930004 0.0068433230800386746 0 -0.014531333927218509 0.0068187223789650765 0 -0.014854302875713186 0.0077144223516640662 0 -0.014531333927218509 0.0068187223789650765 0 -0.013972401087277353 0.0077376577111221041 0 -0.013746151274930004 0.0068433230800386746 0 -0.014531333927218509 0.0068187223789650765 0 -0.013972401087277353 0.0077376577111221041 0 -0.013972401087277353 0.0077376577111221041 0 -0.014396768694382434 0.0084228048878276437 0 -0.013449054106423608 0.0083050938415864667 0 -0.014854302875713186 0.0077144223516640662 0 -0.013972401087277353 0.0077376577111221041 0 -0.014396768694382434 0.0084228048878276437 0 -0.014396768694382434 0.0084228048878276437 0 -0.013449054106423608 0.0083050938415864667 0 -0.013616488254282324 0.0089911355518682724 0 -0.013449054106423608 0.0083050938415864667 0 -0.013082121066469301 0.0088256709451876858 0 -0.013616488254282324 0.0089911355518682724 0 -0.013216855115779512 0.0075336307050743352 0 -0.013972401087277353 0.0077376577111221041 0 -0.013449054106423608 0.0083050938415864667 0 -0.013216855115779512 0.0075336307050743352 0 -0.013449054106423608 0.0083050938415864667 0 -0.012748669725027053 0.0083435918960809916 0 -0.012495069017008932 0.0077825996127894575 0 -0.013216855115779512 0.0075336307050743352 0 -0.012748669725027053 0.0083435918960809916 0 -0.013449054106423608 0.0083050938415864667 0 -0.012748669725027053 0.0083435918960809916 0 -0.013082121066469301 0.0088256709451876858 0 -0.012748669725027053 0.0083435918960809916 0 -0.012626550361869091 0.0089732261345007794 0 -0.013082121066469301 0.0088256709451876858 0 -0.012626550361869091 0.0089732261345007794 0 -0.013082121066469301 0.0088256709451876858 0 -0.012974532797628996 0.0095082313016654259 0 -0.012626550361869091 0.0089732261345007794 0 -0.012974532797628996 0.0095082313016654259 0 -0.012294692899005377 0.0095621484134661809 0 -0.012974532797628996 0.0095082313016654259 0 -0.013496565646363333 0.0096574392099657604 0 -0.013616488254282324 0.0089911355518682724 0 -0.013082121066469301 0.0088256709451876858 0 -0.012974532797628996 0.0095082313016654259 0 -0.013616488254282324 0.0089911355518682724 0 -0.017230927330629413 0.0090966624517749319 0 -0.017621860923511569 0.0091068255798259865 0 -0.014396768694382434 0.0084228048878276437 0 -0.014863980473578491 0.0091684063494311754 0 -0.014394288921214384 0.0096040274499118415 0 -0.014396768694382434 0.0084228048878276437 0 -0.013616488254282324 0.0089911355518682724 0 -0.014157491028750592 0.0096758724759530203 0 -0.017351160929919271 0.0092596177024199412 0 -0.017621860923511569 0.0091068255798259865 0 -0.013496565646363333 0.0096574392099657604 0 -0.013616488254282324 0.0089911355518682724 0 -0.014157491028750592 0.0096758724759530203 0 -0.014863980473578491 0.0091684063494311754 0 -0.014664073285154089 0.0094559466580320332 0 -0.014927249675949224 0.010180168559136308 0 -0.014664073285154089 0.0094559466580320332 0 -0.014927249675949224 0.010180168559136308 0 -0.01459958313194451 0.010634145378035921 0 -0.01950300405481141 0.0080938809748332813 0 -0.020116066967446129 0.0075530261378808491 0 -0.019661068817433239 0.0070896413586198602 0 -0.017621860923511569 0.0091068255798259865 0 -0.019461830168694745 0.008430251222493074 0 -0.013238437688450204 0.010448909967559416 0 -0.012345418422391846 0.01122408869939253 0 -0.012347440956048011 0.010365975942335869 0 -0.018203074527886214 0.0079948127667204133 0 -0.020365647980726841 0.0055722039540379862 0 -0.012974532797628996 0.0095082313016654259 0 -0.013238437688450204 0.010448909967559416 0 -0.012347440956048011 0.010365975942335869 0 -0.013496565646363333 0.0096574392099657604 0 -0.014157491028750592 0.0096758724759530203 0 -0.013238437688450204 0.010448909967559416 0 -0.017621860923511569 0.0091068255798259865 0 -0.018203074527886214 0.0079948127667204133 0 -0.012974532797628996 0.0095082313016654259 0 -0.013496565646363333 0.0096574392099657604 0 -0.013238437688450204 0.010448909967559416 0 -0.016569368850092209 0.0091124139441379499 0 -0.01795680906465303 0.0081811899245760444 0 -0.01551706539898254 0.0084197484187821803 0 -0.015758417775169137 0.0094517532089650937 0 -0.017205120467571645 0.008585886263545844 0 -0.016900885069258985 0.008836759398373268 0 -0.017733766529973764 0.0097364242369538043 0 -0.01866769885481943 0.0077622144649157291 0 -0.01551706539898254 0.0084197484187821803 0 -0.014863980473578491 0.0091684063494311754 0 -0.015758417775169137 0.0094517532089650937 0 -0.014927249675949224 0.010180168559136308 0 -0.016900885069258985 0.008836759398373268 0 -0.016566860539597002 0.010337102729197068 0 -0.014863980473578491 0.0091684063494311754 0 -0.014927249675949224 0.010180168559136308 0 -0.015758417775169137 0.0094517532089650937 0 -0.015825915746266513 0.009630982807630091 0 -0.016569368850092209 0.0091124139441379499 0 -0.016900885069258985 0.008836759398373268 0 -0.016566860539597002 0.010337102729197068 0 -0.017733766529973764 0.0097364242369538043 0 -0.017733766529973764 0.0097364242369538043 0 -0.017977457164635603 0.011218757176897737 0 -0.018954043016477521 0.009817632755232307 0 -0.016566860539597002 0.010337102729197068 0 -0.017977457164635603 0.011218757176897737 0 -0.016558280081496929 0.011649275291937478 0 -0.016566860539597002 0.010337102729197068 0 -0.017733766529973764 0.0097364242369538043 0 -0.017977457164635603 0.011218757176897737 0 -0.016566860539597002 0.010337102729197068 0 -0.016558280081496929 0.011649275291937478 0 -0.015587008911701315 0.01096684603864603 0 -0.014927249675949224 0.010180168559136308 0 -0.016566860539597002 0.010337102729197068 0 -0.015587008911701315 0.01096684603864603 0 -0.016558280081496929 0.011649275291937478 0 -0.015587008911701315 0.01096684603864603 0 -0.015458926594023795 0.011795721934706618 0 -0.016558280081496929 0.011649275291937478 0 -0.016311802396667498 0.012792204190742798 0 -0.017673407743482059 0.012667155390955129 0 -0.016558280081496929 0.011649275291937478 0 -0.016311802396667498 0.012792204190742798 0 -0.015458926594023795 0.011795721934706618 0 -0.017977457164635603 0.011218757176897737 0 -0.017673407743482059 0.012667155390955129 0 -0.018714467250544816 0.012514384498656512 0 -0.017977457164635603 0.011218757176897737 0 -0.016558280081496929 0.011649275291937478 0 -0.017673407743482059 0.012667155390955129 0 -0.02007826978939653 0.0069382273463079909 0 -0.019661068817433239 0.0070896413586198602 0 -0.019817515917388805 0.0060984077208732232 0 -0.022419085855248155 0.0063111170991673547 0 -0.020365647980726841 0.0055722039540379862 0 -0.02007826978939653 0.0069382273463079909 0 -0.019817515917388805 0.0060984077208732232 0 -0.020718781342351188 0.0070157949170230544 0 -0.020116066967446129 0.0075530261378808491 0 -0.02007826978939653 0.0069382273463079909 0 -0.020718781342351188 0.0070157949170230544 0 -0.020116066967446129 0.0075530261378808491 0 -0.02007826978939653 0.0069382273463079909 0 -0.019661068817433239 0.0070896413586198602 0 -0.019461830168694745 0.008430251222493074 0 -0.022419085855248155 0.0063111170991673547 0 -0.01459958313194451 0.010634145378035921 0 -0.015458926594023795 0.011795721934706618 0 -0.01437678218884763 0.012398612356936831 0 -0.014927249675949224 0.010180168559136308 0 -0.01459958313194451 0.010634145378035921 0 -0.015587008911701315 0.01096684603864603 0 -0.01459958313194451 0.010634145378035921 0 -0.015587008911701315 0.01096684603864603 0 -0.015458926594023795 0.011795721934706618 0 -0.016311802396667498 0.012792204190742798 0 -0.015458926594023795 0.011795721934706618 0 -0.01437678218884763 0.012398612356936831 0 -0.026785445267878055 0.0027796776531000349 0 -0.02707624385752563 0.0027719288746680345 0 -0.027048081523414463 0.0030401215117444925 0 -0.026785445267878055 0.0027796776531000349 0 -0.02707624385752563 0.0027719288746680345 0 -0.026942302806235524 0.002626414305599812 0 -0.02707624385752563 0.0027719288746680345 0 -0.027048081523414463 0.0030401215117444925 0 -0.0272306408055141 0.0028685943005582024 0 -0.02707624385752563 0.0027719288746680345 0 -0.02723534710400255 0.0026993981562166217 0 -0.027171417044990657 0.0025968325399179227 0 -0.02707624385752563 0.0027719288746680345 0 -0.0272306408055141 0.0028685943005582024 0 -0.02723534710400255 0.0026993981562166217 0 -0.020365647980726841 0.0055722039540379862 0 -0.022809866679127475 0.0034685895178145246 0 -0.020585027145118187 0.0041775488681454285 0 -0.02118111748122763 0.0043628125396394084 0 -0.021235306567672377 0.0036005061960763564 0 -0.026355894322425164 0.0020063648264227662 0 -0.026609211920502057 0.0019588399047681527 0 -0.026254322166631972 0.0023917937477747528 0 -0.02118111748122763 0.0043628125396394084 0 -0.021679197673806071 0.00397443211514682 0 -0.02146440935473044 0.0049166709077435519 0 -0.02118111748122763 0.0043628125396394084 0 -0.021679197673806071 0.00397443211514682 0 -0.021235306567672377 0.0036005061960763564 0 -0.022809866679127475 0.0034685895178145246 0 -0.024028116005171424 0.002180073036068268 0 -0.022023948702905922 0.0028942376265970438 0 -0.024028116005171424 0.002180073036068268 0 -0.021679197673806071 0.00397443211514682 0 -0.021235306567672377 0.0036005061960763564 0 -0.021896324853932895 0.003018858539482628 0 -0.0272306408055141 0.0028685943005582024 0 -0.02723534710400255 0.0026993981562166217 0 -0.027370866909950886 0.0027069762791516834 0 -0.026447998493904959 0.0016478700217257439 0 -0.026591274442785792 0.0016219794251401637 0 -0.026664817728038286 0.0017373098910083457 0 -0.026447998493904959 0.0016478700217257439 0 -0.026664817728038286 0.0017373098910083457 0 -0.026609211920502057 0.0019588399047681527 0 -0.026664817728038286 0.0017373098910083457 0 -0.026857286107151043 0.0019145200252829954 0 -0.02671016398177483 0.0014550014510561378 0 -0.026355894322425164 0.0020063648264227662 0 -0.026447998493904959 0.0016478700217257439 0 -0.026609211920502057 0.0019588399047681527 0 -0.026591274442785792 0.0016219794251401637 0 -0.026664817728038286 0.0017373098910083457 0 -0.02671016398177483 0.0014550014510561378 0 -0.026664817728038286 0.0017373098910083457 0 -0.026857286107151043 0.0019145200252829954 0 -0.026609211920502057 0.0019588399047681527 0 -0.026626631018312523 0.0018361278979477382 0 -0.026538824125796213 0.0017541182207929781 0 -0.026942754736208583 0.0017809762737351379 0 -0.026857286107151043 0.0019145200252829954 0 -0.026942541671274599 0.0016977272007569818 0 -0.026981794235956671 0.0017653671963960473 0 -0.026942754736208583 0.0017809762737351379 0 -0.026988784020009308 0.0018610218043049334 0 -0.026942754736208583 0.0017809762737351379 0 -0.026988784020009308 0.0018610218043049334 0 -0.026857286107151043 0.0019145200252829954 0 -0.026988784020009308 0.0018610218043049334 0 -0.026805438648995126 0.0020996721727583223 0 -0.027139340687476015 0.0018731735978267145 0 -0.026988784020009308 0.0018610218043049334 0 -0.026857286107151043 0.0019145200252829954 0 -0.026805438648995126 0.0020996721727583223 0 -0.024937105749800622 0.00079511202916886052 0 -0.026765425480308972 7.976590800697429e-05 0 -0.026805438648995126 0.0020996721727583223 0 -0.026609211920502057 0.0019588399047681527 0 -0.026254322166631972 0.0023917937477747528 0 -0.026857286107151043 0.0019145200252829954 0 -0.026805438648995126 0.0020996721727583223 0 -0.026609211920502057 0.0019588399047681527 0 -0.02413356851301774 -0.0023216062610702738 0 -0.02390210205430791 -0.0019613371535760729 0 -0.023552128064182162 -0.0020205708082764603 0 -0.024937105749800622 0.00079511202916886052 0 -0.019275963216642645 0.0039732149938493458 0 -0.02413356851301774 -0.0023216062610702738 0 -0.02432196613323136 -0.0019307426172966251 0 -0.024557785503029873 -0.0021868989827709506 0 -0.02413356851301774 -0.0023216062610702738 0 -0.02390210205430791 -0.0019613371535760729 0 -0.02432196613323136 -0.0019307426172966251 0 -0.023961667183575709 -0.0015699219450396435 0 -0.02432196613323136 -0.0019307426172966251 0 -0.024533697418636809 -0.0016003473866868596 0 -0.016997068270064093 0.0028355951538231458 0 -0.01847774451122431 0.0043816259021340941 0 -0.023961667183575709 -0.0015699219450396435 0 -0.02390210205430791 -0.0019613371535760729 0 -0.02432196613323136 -0.0019307426172966251 0 -0.023961667183575709 -0.0015699219450396435 0 -0.02390210205430791 -0.0019613371535760729 0 -0.023540314421078963 -0.0019657457361840504 0 -0.009982042467992492 0.0064214997166254376 0 -0.0097636216924433614 0.0065888951863443653 0 -0.0098947903581600282 0.0069718620882398049 0 -0.011479498956232185 0.0079746731617751886 0 -0.01170409711568781 0.0085325007555609629 0 -0.01111095642145574 0.0099941402167349706 0 -0.013722722505588611 0.0070120532972718095 0 -0.01847774451122431 0.0043816259021340941 0 -0.0094857529018676986 0.006597362920423437 0 -0.0097636216924433614 0.0065888951863443653 0 -0.0098947903581600282 0.0069718620882398049 0 -0.01170409711568781 0.0085325007555609629 0 -0.011734118804316669 0.0090562958961505919 0 -0.01111095642145574 0.0099941402167349706 0 -0.01170409711568781 0.0085325007555609629 0 -0.011734118804316669 0.0090562958961505919 0 -0.012188897719692796 0.0088088452769170406 0 -0.011734118804316669 0.0090562958961505919 0 -0.012188897719692796 0.0088088452769170406 0 -0.012052504804685496 0.0091781870060921554 0 -0.012626550361869091 0.0089732261345007794 0 -0.012052504804685496 0.0091781870060921554 0 -0.012294692899005377 0.0095621484134661809 0 -0.012748669725027053 0.0083435918960809916 0 -0.012626550361869091 0.0089732261345007794 0 -0.012188897719692796 0.0088088452769170406 0 -0.012626550361869091 0.0089732261345007794 0 -0.012188897719692796 0.0088088452769170406 0 -0.012052504804685496 0.0091781870060921554 0 -0.011734118804316669 0.0090562958961505919 0 -0.011778867224811784 0.0095320982858458653 0 -0.01111095642145574 0.0099941402167349706 0 -0.012052504804685496 0.0091781870060921554 0 -0.012294692899005377 0.0095621484134661809 0 -0.011778867224811784 0.0095320982858458653 0 -0.011734118804316669 0.0090562958961505919 0 -0.012052504804685496 0.0091781870060921554 0 -0.011778867224811784 0.0095320982858458653 0 -0.012294692899005377 0.0095621484134661809 0 -0.01196211933157397 0.0097586633575162361 0 -0.011778867224811784 0.0095320982858458653 0 -0.01196211933157397 0.0097586633575162361 0 -0.011778867224811784 0.0095320982858458653 0 -0.011611500472356134 0.0098948628600278934 0 -0.020585027145118187 0.0041775488681454285 0 -0.02118111748122763 0.0043628125396394084 0 -0.02136532282866084 0.0049672072664138662 0 -0.011611500472356134 0.0098948628600278934 0 -0.012347440956048011 0.010365975942335869 0 -0.011219263712470609 0.010095036995238123 0 -0.020365647980726841 0.0055722039540379862 0 -0.018676003143070347 0.0044159144160481325 0 -0.01196211933157397 0.0097586633575162361 0 -0.011611500472356134 0.0098948628600278934 0 -0.012347440956048011 0.010365975942335869 0 -0.012345418422391846 0.01122408869939253 0 -0.012347440956048011 0.010365975942335869 0 -0.011219263712470609 0.010095036995238123 0 -0.012974532797628996 0.0095082313016654259 0 -0.012294692899005377 0.0095621484134661809 0 -0.012347440956048011 0.010365975942335869 0 -0.012294692899005377 0.0095621484134661809 0 -0.01196211933157397 0.0097586633575162361 0 -0.012347440956048011 0.010365975942335869 0 -0.02118111748122763 0.0043628125396394084 0 -0.02146440935473044 0.0049166709077435519 0 -0.02136532282866084 0.0049672072664138662 0 -0.02390210205430791 -0.0019613371535760729 0 -0.023540314421078963 -0.0019657457361840504 0 -0.023552128064182162 -0.0020205708082764603 0 -0.022023948702905922 0.0028942376265970438 0 -0.019275963216642645 0.0039732149938493458 0 -0.011778867224811784 0.0095320982858458653 0 -0.011611500472356134 0.0098948628600278934 0 -0.01111095642145574 0.0099941402167349706 0 -0.01847774451122431 0.0043816259021340941 0 -0.018676003143070347 0.0044159144160481325 0 -0.018176628538300234 0.0047019505950298777 0 -0.018676003143070347 0.0044159144160481325 0 -0.011611500472356134 0.0098948628600278934 0 -0.01111095642145574 0.0099941402167349706 0 -0.011214880900829961 0.010096633020290284 0 -0.01847774451122431 0.0043816259021340941 0 -0.019275963216642645 0.0039732149938493458 0 -0.017698413878809407 0.0035231978571550935 0 -0.01683934245028585 0.0074917589591498397 0 -0.020019256371387142 0.0058689650074612966 0 -0.019275963216642645 0.0039732149938493458 0 -0.018676003143070347 0.0044159144160481325 0 -0.026133984769068998 0.0069154881520161427 0 -0.02624488081470951 0.0077651208118047496 0 -0.025878674900745829 0.0077169270113025372 0 -0.025878674900745829 0.0077169270113025372 0 -0.02518843737063604 0.0073972651904507108 0 -0.02573280010407877 0.0082505534078657246 0 -0.026133984769068998 0.0069154881520161427 0 -0.025878674900745829 0.0077169270113025372 0 -0.02518843737063604 0.0073972651904507108 0 -0.02624488081470951 0.0077651208118047496 0 -0.025878674900745829 0.0077169270113025372 0 -0.026082610782693801 0.0081483627200759062 0 -0.024707111708318651 0.0063359535337281156 0 -0.024507882817289644 0.0056068840966789109 0 -0.02518843737063604 0.0073972651904507108 0 -0.025529341446796038 0.0059250584227751087 0 -0.024427012466427419 0.006047628114697173 0 -0.02518843737063604 0.0073972651904507108 0 -0.024966471928847281 0.0058633600584976284 0 -0.024174825787943721 0.0070447676073775089 0 -0.026133984769068998 0.0069154881520161427 0 -0.02518843737063604 0.0073972651904507108 0 -0.025529341446796038 0.0059250584227751087 0 -0.025529341446796038 0.0059250584227751087 0 -0.025821415211462997 0.004697869805884344 0 -0.023835632516109161 0.0045282853135622941 0 -0.024507882817289644 0.0056068840966789109 0 -0.024098702291528641 0.0041819242457861667 0 -0.025529341446796038 0.0059250584227751087 0 -0.024427012466427419 0.006047628114697173 0 -0.023835632516109161 0.0045282853135622941 0 -0.024966471928847281 0.0058633600584976284 0 -0.024637191573358874 0.0040665663936640369 0 -0.023248225256292179 0.0059701288308201296 0 -0.024637191573358874 0.0040665663936640369 0 -0.022363380562423187 0.0043300888069536872 0 -0.023248225256292179 0.0059701288308201296 0 -0.023248225256292179 0.0059701288308201296 0 -0.024174825787943721 0.0070447676073775089 0 -0.022934583858240359 0.0074420363526686087 0 -0.024174825787943721 0.0070447676073775089 0 -0.022934583858240359 0.0074420363526686087 0 -0.025072412295766323 0.0087241844105726829 0 -0.02518843737063604 0.0073972651904507108 0 -0.024174825787943721 0.0070447676073775089 0 -0.025072412295766323 0.0087241844105726829 0 -0.024966471928847281 0.0058633600584976284 0 -0.023248225256292179 0.0059701288308201296 0 -0.024174825787943721 0.0070447676073775089 0 -0.022934583858240359 0.0074420363526686087 0 -0.0213686631234834 0.007711448550199132 0 -0.022836253916015153 0.0086172274687363049 0 -0.0213686631234834 0.007711448550199132 0 -0.020196982403122871 0.0068583154982687885 0 -0.02023234378633406 0.0086335832137197071 0 -0.020160761719194557 0.0066971939711549149 0 -0.019368240683971281 0.0072412870950512602 0 -0.0213686631234834 0.007711448550199132 0 -0.02117509864146204 0.0061265354197755318 0 -0.020196982403122871 0.0068583154982687885 0 -0.023248225256292179 0.0059701288308201296 0 -0.022934583858240359 0.0074420363526686087 0 -0.02117509864146204 0.0061265354197755318 0 -0.022934583858240359 0.0074420363526686087 0 -0.0213686631234834 0.007711448550199132 0 -0.02117509864146204 0.0061265354197755318 0 -0.022363380562423187 0.0043300888069536872 0 -0.023248225256292179 0.0059701288308201296 0 -0.02117509864146204 0.0061265354197755318 0 -0.022363380562423187 0.0043300888069536872 0 -0.020651938685780424 0.004592977094979976 0 -0.02117509864146204 0.0061265354197755318 0 -0.019263063819001433 0.0036518625047019461 0 -0.020651938685780424 0.004592977094979976 0 -0.018792458524411231 0.0054418635760175738 0 -0.02117509864146204 0.0061265354197755318 0 -0.018792458524411231 0.0054418635760175738 0 -0.018944061775540803 0.0075963258933349634 0 -0.020651938685780424 0.004592977094979976 0 -0.02117509864146204 0.0061265354197755318 0 -0.018792458524411231 0.0054418635760175738 0 -0.019263063819001433 0.0036518625047019461 0 -0.017509905629961502 0.0038379718024158745 0 -0.018792458524411231 0.0054418635760175738 0 -0.017509905629961502 0.0038379718024158745 0 -0.016753284895966652 0.0054183463482280593 0 -0.018792458524411231 0.0054418635760175738 0 -0.016753284895966652 0.0054183463482280593 0 -0.018792458524411231 0.0054418635760175738 0 -0.017487719559062514 0.0068544446066838146 0 -0.017487719559062514 0.0068544446066838146 0 -0.018944061775540803 0.0075963258933349634 0 -0.017205120467571645 0.008585886263545844 0 -0.018792458524411231 0.0054418635760175738 0 -0.017487719559062514 0.0068544446066838146 0 -0.018944061775540803 0.0075963258933349634 0 -0.020196982403122871 0.0068583154982687885 0 -0.01866769885481943 0.0077622144649157291 0 -0.02023234378633406 0.0086335832137197071 0 -0.019368240683971281 0.0072412870950512602 0 -0.01795680906465303 0.0081811899245760444 0 -0.017733766529973764 0.0097364242369538043 0 -0.01866769885481943 0.0077622144649157291 0 -0.018954043016477521 0.009817632755232307 0 -0.01866769885481943 0.0077622144649157291 0 -0.02023234378633406 0.0086335832137197071 0 -0.018954043016477521 0.009817632755232307 0 -0.02023234378633406 0.0086335832137197071 0 -0.018954043016477521 0.009817632755232307 0 -0.020470432480135858 0.01030142296960892 0 -0.023349678606326758 0.0096953159977946467 0 -0.024381981707769181 0.0098187462871719665 0 -0.017977457164635603 0.011218757176897737 0 -0.018954043016477521 0.009817632755232307 0 -0.019352394438850742 0.011635185379701152 0 -0.017977457164635603 0.011218757176897737 0 -0.019352394438850742 0.011635185379701152 0 -0.018714467250544816 0.012514384498656512 0 -0.019352394438850742 0.011635185379701152 0 -0.018714467250544816 0.012514384498656512 0 -0.019846317459832546 0.013320342246527039 0 -0.024381981707769181 0.0098187462871719665 0 -0.027382407916042757 0.0088236837042682589 0 -0.01938267433116447 0.011401782904754468 0 -0.020720888218524743 0.011846002306929948 0 -0.019858471238893449 0.012921649696739809 0 -0.025184140552052352 0.010845961496191721 0 -0.027382407916042757 0.0088236837042682589 0 -0.020720888218524743 0.011846002306929948 0 -0.020969761140906137 0.012762435719022441 0 -0.019906364264663579 0.012900362369817422 0 -0.018954043016477521 0.009817632755232307 0 -0.01938267433116447 0.011401782904754468 0 -0.020470432480135858 0.01030142296960892 0 -0.01938267433116447 0.011401782904754468 0 -0.020470432480135858 0.01030142296960892 0 -0.020720888218524743 0.011846002306929948 0 -0.020470432480135858 0.01030142296960892 0 -0.021438896470435349 0.010962572896827829 0 -0.020720888218524743 0.011846002306929948 0 -0.020720888218524743 0.011846002306929948 0 -0.021968733623233594 0.012441600753487346 0 -0.020969761140906137 0.012762435719022441 0 -0.021438896470435349 0.010962572896827829 0 -0.020720888218524743 0.011846002306929948 0 -0.021968733623233594 0.012441600753487346 0 -0.021968733623233594 0.012441600753487346 0 -0.022736360384121402 0.010903602008052137 0 -0.023333617529045336 0.012109589652525288 0 -0.021438896470435349 0.010962572896827829 0 -0.021968733623233594 0.012441600753487346 0 -0.022736360384121402 0.010903602008052137 0 -0.021438896470435349 0.010962572896827829 0 -0.022736360384121402 0.010903602008052137 0 -0.021735130274833994 0.0095550270519552515 0 -0.022736360384121402 0.010903602008052137 0 -0.021735130274833994 0.0095550270519552515 0 -0.023363118963002177 0.0097153997987906807 0 -0.021735130274833994 0.0095550270519552515 0 -0.022836253916015153 0.0086172274687363049 0 -0.023363118963002177 0.0097153997987906807 0 -0.02023234378633406 0.0086335832137197071 0 -0.020470432480135858 0.01030142296960892 0 -0.021735130274833994 0.0095550270519552515 0 -0.020470432480135858 0.01030142296960892 0 -0.021438896470435349 0.010962572896827829 0 -0.021735130274833994 0.0095550270519552515 0 -0.0213686631234834 0.007711448550199132 0 -0.02023234378633406 0.0086335832137197071 0 -0.021735130274833994 0.0095550270519552515 0 -0.0213686631234834 0.007711448550199132 0 -0.021735130274833994 0.0095550270519552515 0 -0.022836253916015153 0.0086172274687363049 0 -0.022934583858240359 0.0074420363526686087 0 -0.022836253916015153 0.0086172274687363049 0 -0.025072412295766323 0.0087241844105726829 0 -0.025866399908769856 0.008803381626471941 0 -0.02597824669256862 0.0090625451610593395 0 -0.025072412295766323 0.0087241844105726829 0 -0.023363118963002177 0.0097153997987906807 0 -0.024699049256191721 0.010767982807216475 0 -0.025072412295766323 0.0087241844105726829 0 -0.026719214759425066 0.0085659975915461616 0 -0.025937244880776398 0.0086427738453234426 0 -0.022836253916015153 0.0086172274687363049 0 -0.025072412295766323 0.0087241844105726829 0 -0.023363118963002177 0.0097153997987906807 0 -0.022736360384121402 0.010903602008052137 0 -0.023333617529045336 0.012109589652525288 0 -0.024699049256191721 0.010767982807216475 0 -0.022736360384121402 0.010903602008052137 0 -0.023363118963002177 0.0097153997987906807 0 -0.024699049256191721 0.010767982807216475 0 -0.023333617529045336 0.012109589652525288 0 -0.02444469211991598 0.012447570890928329 0 -0.024699049256191721 0.010767982807216475 0 -0.026208854672950376 0.0091697421107156899 0 -0.02597824669256862 0.0090625451610593395 0 -0.028320581504792136 0.0074697602038265153 0 -0.026719214759425066 0.0085659975915461616 0 -0.027134108404543913 0.0079130774038185473 0 -0.028320581504792136 0.0074697602038265153 0 -0.027134108404543913 0.0079130774038185473 0 -0.027530275754803085 0.0070734310586542176 0 -0.026719214759425066 0.0085659975915461616 0 -0.026415849399065022 0.0082436103628985725 0 -0.025937244880776398 0.0086427738453234426 0 -0.026719214759425066 0.0085659975915461616 0 -0.026415849399065022 0.0082436103628985725 0 -0.027134108404543913 0.0079130774038185473 0 -0.026415849399065022 0.0082436103628985725 0 -0.027134108404543913 0.0079130774038185473 0 -0.026769151255769116 0.0077373531081349209 0 -0.027134108404543913 0.0079130774038185473 0 -0.026769151255769116 0.0077373531081349209 0 -0.027530275754803085 0.0070734310586542176 0 -0.026415849399065022 0.0082436103628985725 0 -0.026769151255769116 0.0077373531081349209 0 -0.026044396499323573 0.0076159293317218648 0 -0.026002679378647638 0.0081688381814389935 0 -0.026415849399065022 0.0082436103628985725 0 -0.026044396499323573 0.0076159293317218648 0 -0.026415849399065022 0.0082436103628985725 0 -0.026054596670514463 0.0084578793616081061 0 -0.025937244880776398 0.0086427738453234426 0 -0.026002679378647638 0.0081688381814389935 0 -0.026415849399065022 0.0082436103628985725 0 -0.026054596670514463 0.0084578793616081061 0 -0.026075438651088877 0.008369608920615966 0 -0.026054596670514463 0.0084578793616081061 0 -0.025975649452401734 0.0084240080265625562 0 -0.026075438651088877 0.008369608920615966 0 -0.025975649452401734 0.0084240080265625562 0 -0.026082610782693801 0.0081483627200759062 0 -0.026054596670514463 0.0084578793616081061 0 -0.025975649452401734 0.0084240080265625562 0 -0.025937244880776398 0.0086427738453234426 0 -0.025072412295766323 0.0087241844105726829 0 -0.025937244880776398 0.0086427738453234426 0 -0.02573280010407877 0.0082505534078657246 0 -0.025975649452401734 0.0084240080265625562 0 -0.025937244880776398 0.0086427738453234426 0 -0.02573280010407877 0.0082505534078657246 0 -0.02518843737063604 0.0073972651904507108 0 -0.025072412295766323 0.0087241844105726829 0 -0.02573280010407877 0.0082505534078657246 0 -0.025878674900745829 0.0077169270113025372 0 -0.02573280010407877 0.0082505534078657246 0 -0.026082610782693801 0.0081483627200759062 0 -0.025975649452401734 0.0084240080265625562 0 -0.02573280010407877 0.0082505534078657246 0 -0.026082610782693801 0.0081483627200759062 0 -0.030764959441568495 0.0011422434055013504 0 -0.030622924978041331 0.00048649499007433363 0 -0.024256759892460327 0.00018266051188181657 0 -0.025918512312332057 0.0013916793670991851 0 -0.026933628420074421 -0.00048208378098102503 0 -0.025918512312332057 0.0013916793670991851 0 -0.027276218141766024 0.0015161826122930462 0 -0.026473689233367331 0.0026324665047230164 0 -0.024256759892460327 0.00018266051188181657 0 -0.025918512312332057 0.0013916793670991851 0 -0.025110819818058683 0.001729272905458327 0 -0.025918512312332057 0.0013916793670991851 0 -0.027276218141766024 0.0015161826122930462 0 -0.026933628420074421 -0.00048208378098102503 0 -0.028409467748867743 0.00072517031702775401 0 -0.027276218141766024 0.0015161826122930462 0 -0.026933628420074421 -0.00048208378098102503 0 -0.028409467748867743 0.00072517031702775401 0 -0.031093801392094188 -0.00093017853784830803 0 -0.026933628420074421 -0.00048208378098102503 0 -0.028409467748867743 0.00072517031702775401 0 -0.029768282413241604 0.00060673011019111078 0 -0.031093801392094188 -0.00093017853784830803 0 -0.029768282413241604 0.00060673011019111078 0 -0.028485992931288558 0.0018296983110774494 0 -0.02930912347764901 0.0017945818423914664 0 -0.028409467748867743 0.00072517031702775401 0 -0.029768282413241604 0.00060673011019111078 0 -0.028485992931288558 0.0018296983110774494 0 -0.028409467748867743 0.00072517031702775401 0 -0.028485992931288558 0.0018296983110774494 0 -0.027276218141766024 0.0015161826122930462 0 -0.028485992931288558 0.0018296983110774494 0 -0.027276218141766024 0.0015161826122930462 0 -0.027467405645754291 0.0026018701540771699 0 -0.028485992931288558 0.0018296983110774494 0 -0.027467405645754291 0.0026018701540771699 0 -0.02811871606109136 0.0032348228928114546 0 -0.027467405645754291 0.0026018701540771699 0 -0.027115649529498357 0.0037515663419956007 0 -0.026473689233367331 0.0026324665047230164 0 -0.028485992931288558 0.0018296983110774494 0 -0.02811871606109136 0.0032348228928114546 0 -0.029158012136240752 0.0026303860503848566 0 -0.028485992931288558 0.0018296983110774494 0 -0.029158012136240752 0.0026303860503848566 0 -0.02930912347764901 0.0017945818423914664 0 -0.02811871606109136 0.0032348228928114546 0 -0.027115649529498357 0.0037515663419956007 0 -0.027982868240665277 0.004679634677253801 0 -0.02811871606109136 0.0032348228928114546 0 -0.028982992195343896 0.0036870374021058393 0 -0.029158012136240752 0.0026303860503848566 0 -0.02811871606109136 0.0032348228928114546 0 -0.027982868240665277 0.004679634677253801 0 -0.028982992195343896 0.0036870374021058393 0 -0.027467405645754291 0.0026018701540771699 0 -0.02811871606109136 0.0032348228928114546 0 -0.027115649529498357 0.0037515663419956007 0 -0.027115649529498357 0.0037515663419956007 0 -0.026152876335755307 0.0035093575993216976 0 -0.026473689233367331 0.0026324665047230164 0 -0.027276218141766024 0.0015161826122930462 0 -0.027467405645754291 0.0026018701540771699 0 -0.026473689233367331 0.0026324665047230164 0 -0.026152876335755307 0.0035093575993216976 0 -0.026473689233367331 0.0026324665047230164 0 -0.025474231309297862 0.002700139726789555 0 -0.025918512312332057 0.0013916793670991851 0 -0.025110819818058683 0.001729272905458327 0 -0.025474231309297862 0.002700139726789555 0 -0.025918512312332057 0.0013916793670991851 0 -0.026473689233367331 0.0026324665047230164 0 -0.025474231309297862 0.002700139726789555 0 -0.024782028946046974 0.0026289973123969834 0 -0.025110819818058683 0.001729272905458327 0 -0.025474231309297862 0.002700139726789555 0 -0.024635750061186071 0.0030000466217132834 0 -0.025474231309297862 0.002700139726789555 0 -0.025340230811905996 0.0036350354359627767 0 -0.026152876335755307 0.0035093575993216976 0 -0.025474231309297862 0.002700139726789555 0 -0.025340230811905996 0.0036350354359627767 0 -0.024820601036815448 0.0043264525598360609 0 -0.025340230811905996 0.0036350354359627767 0 -0.026226891841390293 0.0046072749032973802 0 -0.026152876335755307 0.0035093575993216976 0 -0.025340230811905996 0.0036350354359627767 0 -0.026226891841390293 0.0046072749032973802 0 -0.027115649529498357 0.0037515663419956007 0 -0.026152876335755307 0.0035093575993216976 0 -0.026226891841390293 0.0046072749032973802 0 -0.02575291702268603 0.0047541421608864242 0 -0.025749915931073196 0.0057549196962110296 0 -0.026655366222378955 0.0060752550937374456 0 -0.02489645326194705 0.0054039429920076289 0 -0.02575291702268603 0.0047541421608864242 0 -0.025749915931073196 0.0057549196962110296 0 -0.02489645326194705 0.0054039429920076289 0 -0.025749915931073196 0.0057549196962110296 0 -0.025431247778386283 0.0069326849229038468 0 -0.025749915931073196 0.0057549196962110296 0 -0.025431247778386283 0.0069326849229038468 0 -0.026655366222378955 0.0060752550937374456 0 -0.026252257892178534 0.0061868511454404541 0 -0.026779340970181181 0.0064002540702262772 0 -0.025431247778386283 0.0069326849229038468 0 -0.027530275754803085 0.0070734310586542176 0 -0.026655366222378955 0.0060752550937374456 0 -0.026769151255769116 0.0077373531081349209 0 -0.026044396499323573 0.0076159293317218648 0 -0.027530275754803085 0.0070734310586542176 0 -0.027530275754803085 0.0070734310586542176 0 -0.026655366222378955 0.0060752550937374456 0 -0.028148477631593852 0.0060185994690166835 0 -0.027115649529498357 0.0037515663419956007 0 -0.026226891841390293 0.0046072749032973802 0 -0.027982868240665277 0.004679634677253801 0 -0.026799934493022124 0.0038253531735951457 0 -0.027039638377888385 0.0039395590011373572 0 -0.026655366222378955 0.0060752550937374456 0 -0.027982868240665277 0.004679634677253801 0 -0.028148477631593852 0.0060185994690166835 0 -0.02575291702268603 0.0047541421608864242 0 -0.026655366222378955 0.0060752550937374456 0 -0.027982868240665277 0.004679634677253801 0 -0.027982868240665277 0.004679634677253801 0 -0.0297697160488287 0.0049582951911188626 0 -0.028982992195343896 0.0036870374021058393 0 -0.027982868240665277 0.004679634677253801 0 -0.0297697160488287 0.0049582951911188626 0 -0.028148477631593852 0.0060185994690166835 0 -0.0297697160488287 0.0049582951911188626 0 -0.029701064252404204 0.0030928296259297851 0 -0.028982992195343896 0.0036870374021058393 0 -0.02444469211991598 0.012447570890928329 0 -0.024249273972660992 0.014080268525014008 0 -0.023654801468786624 0.0131455302243099 0 -0.028320581504792136 0.0074697602038265153 0 -0.0297697160488287 0.0049582951911188626 0 -0.028148477631593852 0.0060185994690166835 0 -0.026208854672950376 0.0091697421107156899 0 -0.026392168209465949 0.00858954154335719 0 -0.028320581504792136 0.0074697602038265153 0 -0.027530275754803085 0.0070734310586542176 0 -0.028148477631593852 0.0060185994690166835 0 -0.023333617529045336 0.012109589652525288 0 -0.023654801468786624 0.0131455302243099 0 -0.022954893552245396 0.013106713884288997 0 -0.023333617529045336 0.012109589652525288 0 -0.02444469211991598 0.012447570890928329 0 -0.023654801468786624 0.0131455302243099 0 -0.023654801468786624 0.0131455302243099 0 -0.023284030700183613 0.013960685281654757 0 -0.022954893552245396 0.013106713884288997 0 -0.024249273972660992 0.014080268525014008 0 -0.023654801468786624 0.0131455302243099 0 -0.023284030700183613 0.013960685281654757 0 -0.024249273972660992 0.014080268525014008 0 -0.023284030700183613 0.013960685281654757 0 -0.023591928025553006 0.014637150529569945 0 -0.023284030700183613 0.013960685281654757 0 -0.023591928025553006 0.014637150529569945 0 -0.022737205026680321 0.014783692913922846 0 -0.024249273972660992 0.014080268525014008 0 -0.023591928025553006 0.014637150529569945 0 -0.024101944946573511 0.015672904200487892 0 -0.032671810110372325 0.0015585728819402654 0 -0.031753652357044984 0.0015116301776731597 0 -0.033169176577019836 0.0023034640704672903 0 -0.026399454086876838 0.0064582031783117465 0 -0.027540358399582413 0.0079044516589276276 0 -0.023591928025553006 0.014637150529569945 0 -0.024101944946573511 0.015672904200487892 0 -0.022737205026680321 0.014783692913922846 0 -0.0297697160488287 0.0049582951911188626 0 -0.029701064252404204 0.0030928296259297851 0 -0.030623163197012183 0.0022299815684541347 0 -0.026392168209465949 0.00858954154335719 0 -0.026399454086876838 0.0064582031783117465 0 -0.029701064252404204 0.0030928296259297851 0 -0.028982992195343896 0.0036870374021058393 0 -0.029158012136240752 0.0026303860503848566 0 -0.029701064252404204 0.0030928296259297851 0 -0.029158012136240752 0.0026303860503848566 0 -0.029798693301466523 0.0020477289481527594 0 -0.029158012136240752 0.0026303860503848566 0 -0.029798693301466523 0.0020477289481527594 0 -0.02930912347764901 0.0017945818423914664 0 -0.029701064252404204 0.0030928296259297851 0 -0.029798693301466523 0.0020477289481527594 0 -0.030623163197012183 0.0022299815684541347 0 -0.03167729870326861 0.0010153664000189687 0 -0.031115185553490007 1.768166792287996e-05 0 -0.031353084438173362 -0.00076720373209293547 0 -0.026399454086876838 0.0064582031783117465 0 -0.02645237777242504 0.0062823482173279838 0 -0.029768282413241604 0.00060673011019111078 0 -0.031639283165624608 0.0014938730048988066 0 -0.03167729870326861 0.0010153664000189687 0 -0.029768282413241604 0.00060673011019111078 0 -0.03167729870326861 0.0010153664000189687 0 -0.031115185553490007 1.768166792287996e-05 0 -0.029768282413241604 0.00060673011019111078 0 -0.029798693301466523 0.0020477289481527594 0 -0.02930912347764901 0.0017945818423914664 0 -0.026780429433176937 0.0056797611993342836 0 -0.026399454086876838 0.0064582031783117465 0 -0.029768282413241604 0.00060673011019111078 0 -0.029798693301466523 0.0020477289481527594 0 -0.030623163197012183 0.0022299815684541347 0 -0.029768282413241604 0.00060673011019111078 0 -0.031115185553490007 1.768166792287996e-05 0 -0.031093801392094188 -0.00093017853784830803 0 -0.032922130480015126 0.00067648450438710921 0 -0.032917659724591493 0.00031156344847275557 0 -0.032671810110372325 0.0015585728819402654 0 -0.033142850243815053 0.0012972760950128309 0 -0.032884857456404536 0.0010706460233292192 0 -0.032671810110372325 0.0015585728819402654 0 -0.03167729870326861 0.0010153664000189687 0 -0.031353084438173362 -0.00076720373209293547 0 -0.032671810110372325 0.0015585728819402654 0 -0.032884857456404536 0.0010706460233292192 0 -0.032567707480876229 0.00096639238762401215 0 -0.032671810110372325 0.0015585728819402654 0 -0.031753652357044984 0.0015116301776731597 0 -0.03167729870326861 0.0010153664000189687 0 -0.033517682773663647 0.001531651121093639 0 -0.033142850243815053 0.0012972760950128309 0 -0.033220970808400176 0.0017677703154574244 0 -0.032671810110372325 0.0015585728819402654 0 -0.033142850243815053 0.0012972760950128309 0 -0.033220970808400176 0.0017677703154574244 0 -0.033142850243815053 0.0012972760950128309 0 -0.033467135991388411 0.0012046236174192764 0 -0.033202073214735325 0.0008960224338241589 0 -0.033517682773663647 0.001531651121093639 0 -0.033142850243815053 0.0012972760950128309 0 -0.033467135991388411 0.0012046236174192764 0 -0.033517682773663647 0.001531651121093639 0 -0.033467135991388411 0.0012046236174192764 0 -0.033746889681992923 0.0013338704578454315 0 -0.033467135991388411 0.0012046236174192764 0 -0.033746889681992923 0.0013338704578454315 0 -0.033729445315120267 0.0010087971457484685 0 -0.033746889681992923 0.0013338704578454315 0 -0.03413950435024013 0.0013316496412873011 0 -0.033729445315120267 0.0010087971457484685 0 -0.033746889681992923 0.0013338704578454315 0 -0.033914820461044701 0.0017055432909045445 0 -0.03413950435024013 0.0013316496412873011 0 -0.033517682773663647 0.001531651121093639 0 -0.033746889681992923 0.0013338704578454315 0 -0.033914820461044701 0.0017055432909045445 0 -0.033517682773663647 0.001531651121093639 0 -0.033914820461044701 0.0017055432909045445 0 -0.033750976429457978 0.0021009107402102105 0 -0.033914820461044701 0.0017055432909045445 0 -0.033750976429457978 0.0021009107402102105 0 -0.03436535545767766 0.0022604773802372431 0 -0.033750976429457978 0.0021009107402102105 0 -0.033220970808400176 0.0017677703154574244 0 -0.033169176577019836 0.0023034640704672903 0 -0.033517682773663647 0.001531651121093639 0 -0.033750976429457978 0.0021009107402102105 0 -0.033220970808400176 0.0017677703154574244 0 -0.032671810110372325 0.0015585728819402654 0 -0.033220970808400176 0.0017677703154574244 0 -0.033169176577019836 0.0023034640704672903 0 -0.023284030700183613 0.013960685281654757 0 -0.022737205026680321 0.014783692913922846 0 -0.022377650184536236 0.013770816686148995 0 -0.022737205026680321 0.014783692913922846 0 -0.022377650184536236 0.013770816686148995 0 -0.021310308458904793 0.013857465276736203 0 -0.027540358399582413 0.0079044516589276276 0 -0.027496728966962543 0.008359739210487346 0 -0.021968733623233594 0.012441600753487346 0 -0.023333617529045336 0.012109589652525288 0 -0.022954893552245396 0.013106713884288997 0 -0.021968733623233594 0.012441600753487346 0 -0.022377650184536236 0.013770816686148995 0 -0.022954893552245396 0.013106713884288997 0 -0.021968733623233594 0.012441600753487346 0 -0.022377650184536236 0.013770816686148995 0 -0.021310308458904793 0.013857465276736203 0 -0.023284030700183613 0.013960685281654757 0 -0.022377650184536236 0.013770816686148995 0 -0.022954893552245396 0.013106713884288997 0 -0.021968733623233594 0.012441600753487346 0 -0.020969761140906137 0.012762435719022441 0 -0.021310308458904793 0.013857465276736203 0 -0.020969761140906137 0.012762435719022441 0 -0.021310308458904793 0.013857465276736203 0 -0.019906364264663579 0.012900362369817422 0 -0.033750976429457978 0.0021009107402102105 0 -0.033826771031705331 0.0027241913470192076 0 -0.03436535545767766 0.0022604773802372431 0 -0.033750976429457978 0.0021009107402102105 0 -0.033169176577019836 0.0023034640704672903 0 -0.033826771031705331 0.0027241913470192076 0 -0.033826771031705331 0.0027241913470192076 0 -0.034506095901262024 0.0032241296768936623 0 -0.03436535545767766 0.0022604773802372431 0 -0.034388359045150203 0.0040827087578214289 0 -0.035018214752646423 0.0032992556980303658 0 -0.034205613715845989 0.0028033829552765199 0 -0.027382407916042757 0.0088236837042682589 0 -0.030682086621878494 0.003959753957851999 0 -0.027496728966962543 0.008359739210487346 0 -0.027382407916042757 0.0088236837042682589 0 -0.019846317459832546 0.013320342246527039 0 -0.0186015858724983 0.013511028079496222 0 -0.018808940495847498 0.014595885199182168 0 -0.027382407916042757 0.0088236837042682589 0 -0.02715336081107091 0.0075764441818946962 0 -0.017673407743482059 0.012667155390955129 0 -0.018714467250544816 0.012514384498656512 0 -0.0186015858724983 0.013511028079496222 0 -0.018714467250544816 0.012514384498656512 0 -0.019846317459832546 0.013320342246527039 0 -0.0186015858724983 0.013511028079496222 0 -0.0186015858724983 0.013511028079496222 0 -0.018808940495847498 0.014595885199182168 0 -0.01764828071544354 0.014124151675272537 0 -0.035018214752646423 0.0032992556980303658 0 -0.035060236068327401 0.0027388362046075953 0 -0.034205613715845989 0.0028033829552765199 0 -0.035018214752646423 0.0032992556980303658 0 -0.035060236068327401 0.0027388362046075953 0 -0.035560575483729741 0.0026021993760887842 0 -0.02715336081107091 0.0075764441818946962 0 -0.02789501149937779 0.0049213413177223607 0 -0.035060236068327401 0.0027388362046075953 0 -0.035197924661558196 0.0022304075426713013 0 -0.035560575483729741 0.0026021993760887842 0 -0.035197924661558196 0.0022304075426713013 0 -0.034686325476755132 0.0024054660947331022 0 -0.034495583636777918 0.0018461966603594406 0 -0.035060236068327401 0.0027388362046075953 0 -0.034686325476755132 0.0024054660947331022 0 -0.034205613715845989 0.0028033829552765199 0 -0.035060236068327401 0.0027388362046075953 0 -0.035197924661558196 0.0022304075426713013 0 -0.034686325476755132 0.0024054660947331022 0 -0.030682086621878494 0.003959753957851999 0 -0.03207001932335643 0.0022734504210758693 0 -0.033914820461044701 0.0017055432909045445 0 -0.03436535545767766 0.0022604773802372431 0 -0.03413950435024013 0.0013316496412873011 0 -0.034686325476755132 0.0024054660947331022 0 -0.034205613715845989 0.0028033829552765199 0 -0.034495583636777918 0.0018461966603594406 0 -0.034205613715845989 0.0028033829552765199 0 -0.034495583636777918 0.0018461966603594406 0 -0.034047996264646968 0.0016488928487815484 0 -0.034047996264646968 0.0016488928487815484 0 -0.034522301083830816 0.0015016038626185478 0 -0.034213331032510501 0.0011345850902207432 0 -0.034495583636777918 0.0018461966603594406 0 -0.034047996264646968 0.0016488928487815484 0 -0.034522301083830816 0.0015016038626185478 0 -0.030279190866136153 0.0044894052684034584 0 -0.031340359433706298 0.0042738466446950877 0 -0.035145827632275396 0.0022061947860445483 0 -0.034495583636777918 0.0018461966603594406 0 -0.034522301083830816 0.0015016038626185478 0 -0.030279190866136153 0.0044894052684034584 0 -0.031494584416651053 0.0045270409289093995 0 -0.035004398200374702 0.0020377200901995304 0 -0.034522301083830816 0.0015016038626185478 0 -0.034831022304048456 0.0015627503704662049 0 -0.035004398200374702 0.0020377200901995304 0 -0.034831022304048456 0.0015627503704662049 0 -0.035327243199662822 0.0021852313423310009 0 -0.032071919554438 0.0030091613591700264 0 -0.029340618326243351 0.0037503287915413926 0 -0.034600354431691314 0.00090533053451345941 0 -0.034689651906066508 0.00089913236267808274 0 -0.034668491287212805 0.00083336612653533634 0 -0.034600354431691314 0.00090533053451345941 0 -0.03462097859957957 0.00076504969884003029 0 -0.034318631163310374 0.00076871271275704128 0 -0.03462097859957957 0.00076504969884003029 0 -0.034659890536036984 0.00069242229771613326 0 -0.034693920943878881 0.00076316509157415505 0 -0.03462097859957957 0.00076504969884003029 0 -0.034693920943878881 0.00076316509157415505 0 -0.034668491287212805 0.00083336612653533634 0 -0.034600354431691314 0.00090533053451345941 0 -0.03462097859957957 0.00076504969884003029 0 -0.034668491287212805 0.00083336612653533634 0 -0.034522301083830816 0.0015016038626185478 0 -0.034831022304048456 0.0015627503704662049 0 -0.034318631163310374 0.00076871271275704128 0 -0.034522301083830816 0.0015016038626185478 0 -0.034213331032510501 0.0011345850902207432 0 -0.034318631163310374 0.00076871271275704128 0 -0.03462097859957957 0.00076504969884003029 0 -0.034318631163310374 0.00076871271275704128 0 -0.034566607079820476 0.00066793173234722212 0 -0.032071919554438 0.0030091613591700264 0 -0.032591301885401637 0.002529708726823766 0 -0.034213331032510501 0.0011345850902207432 0 -0.034318631163310374 0.00076871271275704128 0 -0.033968050635211647 0.00062098726667553607 0 -0.034318631163310374 0.00076871271275704128 0 -0.034566607079820476 0.00066793173234722212 0 -0.034374701425220644 0.00036024035630755714 0 -0.034318631163310374 0.00076871271275704128 0 -0.034374701425220644 0.00036024035630755714 0 -0.033968050635211647 0.00062098726667553607 0 -0.034566607079820476 0.00066793173234722212 0 -0.034374701425220644 0.00036024035630755714 0 -0.034712707817632256 0.00024538193047344317 0 -0.034566607079820476 0.00066793173234722212 0 -0.034712707817632256 0.00024538193047344317 0 -0.035031160124062828 6.2642633106815956e-05 0 -0.034566607079820476 0.00066793173234722212 0 -0.034659890536036984 0.00069242229771613326 0 -0.034684876208028681 0.00061015509503788016 0 -0.034639086978267987 0.00047331195431527488 0 -0.034730884096233386 0.00033256782235056566 0 -0.03462097859957957 0.00076504969884003029 0 -0.034566607079820476 0.00066793173234722212 0 -0.034659890536036984 0.00069242229771613326 0 -0.034712707817632256 0.00024538193047344317 0 -0.034839584589666711 -5.0454490375200348e-05 0 -0.035031160124062828 6.2642633106815956e-05 0 -0.034999834977324382 -9.308622579505346e-08 0 -0.034839584589666711 -5.0454490375200348e-05 0 -0.034999775002131958 4.411881362383771e-08 0 -0.034999834977324382 -9.308622579505346e-08 0 -0.034839584589666711 -5.0454490375200348e-05 0 -0.035031160124062828 6.2642633106815956e-05 0 -0.034839584589666711 -5.0454490375200348e-05 0 -0.034999775002131958 4.411881362383771e-08 0 -0.034990094934686577 -5.1566701559405534e-05 0 -0.034374701425220644 0.00036024035630755714 0 -0.034712707817632256 0.00024538193047344317 0 -0.034839584589666711 -5.0454490375200348e-05 0 -0.034542392842021048 1.3715054887249471e-05 0 -0.034453729242589944 4.2413233310496657e-05 0 -0.034374701425220644 0.00036024035630755714 0 -0.034839584589666711 -5.0454490375200348e-05 0 -0.034080292163645554 -3.407897496204331e-05 0 -0.034080292163645554 -3.407897496204331e-05 0 -0.03372223129240999 0.00037405206439670985 0 -0.034035198192904868 0.00033329981911994847 0 -0.034374701425220644 0.00036024035630755714 0 -0.034080292163645554 -3.407897496204331e-05 0 -0.034035198192904868 0.00033329981911994847 0 -0.034080292163645554 -3.407897496204331e-05 0 -0.033468439056983816 0.00010694005817359107 0 -0.03372223129240999 0.00037405206439670985 0 -0.034453729242589944 4.2413233310496657e-05 0 -0.034294554489449576 0.00010983911537750366 0 -0.034999775002131958 4.411881362383771e-08 0 -0.034990094934686577 -5.1566701559405534e-05 0 -0.035000162995421004 -5.7289627006222081e-08 0 -0.034990094934686577 -5.1566701559405534e-05 0 -0.035000162995421004 -5.7289627006222081e-08 0 -0.035019046054416456 -5.8561531888795524e-05 0 -0.034998798481124832 -5.604295161878572e-08 0 -0.034294554489449576 0.00010983911537750366 0 -0.035000046533162049 1.4550977623847478e-08 0 -0.035007381621843095 2.5780406126228242e-05 0 -0.034997689425624062 1.4989661324066359e-05 0 -0.034294554489449576 0.00010983911537750366 0 -0.033884732604669024 0.00012803395162817239 0 -0.0333472946957378 -7.7886427577251172e-05 0 -0.033270557258570546 0.00040667131262569893 0 -0.03279460581505067 0.00010508116386868569 0 -0.03337559333603414 0.00052294523072485982 0 -0.03372223129240999 0.00037405206439670985 0 -0.033618728322098439 0.00070042292227467311 0 -0.034294554489449576 0.00010983911537750366 0 -0.034047863613198247 0.00039996999621757297 0 -0.033468439056983816 0.00010694005817359107 0 -0.03337559333603414 0.00052294523072485982 0 -0.03372223129240999 0.00037405206439670985 0 -0.03372223129240999 0.00037405206439670985 0 -0.034035198192904868 0.00033329981911994847 0 -0.033968050635211647 0.00062098726667553607 0 -0.034374701425220644 0.00036024035630755714 0 -0.034035198192904868 0.00033329981911994847 0 -0.033968050635211647 0.00062098726667553607 0 -0.03372223129240999 0.00037405206439670985 0 -0.033968050635211647 0.00062098726667553607 0 -0.033618728322098439 0.00070042292227467311 0 -0.033968050635211647 0.00062098726667553607 0 -0.033618728322098439 0.00070042292227467311 0 -0.033729445315120267 0.0010087971457484685 0 -0.03413950435024013 0.0013316496412873011 0 -0.033968050635211647 0.00062098726667553607 0 -0.033729445315120267 0.0010087971457484685 0 -0.03207001932335643 0.0022734504210758693 0 -0.032430118702670721 0.001647660477740168 0 -0.034047996264646968 0.0016488928487815484 0 -0.034213331032510501 0.0011345850902207432 0 -0.033968050635211647 0.00062098726667553607 0 -0.033467135991388411 0.0012046236174192764 0 -0.033729445315120267 0.0010087971457484685 0 -0.033202073214735325 0.0008960224338241589 0 -0.033142850243815053 0.0012972760950128309 0 -0.033202073214735325 0.0008960224338241589 0 -0.032884857456404536 0.0010706460233292192 0 -0.033270557258570546 0.00040667131262569893 0 -0.033202073214735325 0.0008960224338241589 0 -0.03282325260506648 0.00058689993984784126 0 -0.034047863613198247 0.00039996999621757297 0 -0.033960780085751124 0.00054230983369325651 0 -0.03337559333603414 0.00052294523072485982 0 -0.033618728322098439 0.00070042292227467311 0 -0.033202073214735325 0.0008960224338241589 0 -0.033618728322098439 0.00070042292227467311 0 -0.033729445315120267 0.0010087971457484685 0 -0.033202073214735325 0.0008960224338241589 0 -0.033202073214735325 0.0008960224338241589 0 -0.032884857456404536 0.0010706460233292192 0 -0.03282325260506648 0.00058689993984784126 0 -0.032884857456404536 0.0010706460233292192 0 -0.032567707480876229 0.00096639238762401215 0 -0.03282325260506648 0.00058689993984784126 0 -0.032567707480876229 0.00096639238762401215 0 -0.032257675744776164 0.00028745004553416896 0 -0.03282325260506648 0.00058689993984784126 0 -0.031353084438173362 -0.00076720373209293547 0 -0.031265241821627952 0.00041445740234491213 0 -0.031807783619538628 -0.00031836174647126639 0 -0.031115185553490007 1.768166792287996e-05 0 -0.031353084438173362 -0.00076720373209293547 0 -0.031093801392094188 -0.00093017853784830803 0 -0.031353084438173362 -0.00076720373209293547 0 -0.031093801392094188 -0.00093017853784830803 0 -0.031807783619538628 -0.00031836174647126639 0 -0.032917659724591493 0.00031156344847275557 0 -0.033450209086622169 0.00016850065774501842 0 -0.033450209086622169 0.00016850065774501842 0 -0.033884732604669024 0.00012803395162817239 0 -0.032257675744776164 0.00028745004553416896 0 -0.03282325260506648 0.00058689993984784126 0 -0.03279460581505067 0.00010508116386868569 0 -0.033270557258570546 0.00040667131262569893 0 -0.03282325260506648 0.00058689993984784126 0 -0.03279460581505067 0.00010508116386868569 0 -0.035007381621843095 2.5780406126228242e-05 0 -0.034990923616992929 3.876285354286084e-05 0 -0.034997689425624062 1.4989661324066359e-05 0 -0.034990923616992929 3.876285354286084e-05 0 -0.034997689425624062 1.4989661324066359e-05 0 -0.034981779938176583 2.718395743497839e-05 0 -0.034999945749768266 -1.0274603007459347e-09 0 -0.034997689425624062 1.4989661324066359e-05 0 -0.034981779938176583 2.718395743497839e-05 0 -0.035000046533162049 1.4550977623847478e-08 0 -0.034999945749768266 -1.0274603007459347e-09 0 -0.034997689425624062 1.4989661324066359e-05 0 -0.034999945749768266 -1.0274603007459347e-09 0 -0.034951722195249918 3.0496446151165871e-05 0 -0.034925671538057035 -1.3366862501248357e-08 0 -0.034999945749768266 -1.0274603007459347e-09 0 -0.034981779938176583 2.718395743497839e-05 0 -0.034951722195249918 3.0496446151165871e-05 0 -0.033450209086622169 0.00016850065774501842 0 -0.03384851007974618 0.00014265034993608255 0 -0.034965729601385893 5.198943525361232e-05 0 -0.034981779938176583 2.718395743497839e-05 0 -0.034951722195249918 3.0496446151165871e-05 0 -0.034965729601385893 5.198943525361232e-05 0 -0.034990923616992929 3.876285354286084e-05 0 -0.034981779938176583 2.718395743497839e-05 0 -0.034088488011683397 2.4965450606188483e-05 0 -0.034197382880336892 -1.022937736810279e-05 0 -0.033947210930252783 -3.2206381322837228e-05 0 -0.034197382880336892 -1.022937736810279e-05 0 -0.034608298150019236 3.3208898523414775e-05 0 -0.034254805449541202 4.7997452816133481e-05 0 -0.034197382880336892 -1.022937736810279e-05 0 -0.034254805449541202 4.7997452816133481e-05 0 -0.033947210930252783 -3.2206381322837228e-05 0 -0.034197382880336892 -1.022937736810279e-05 0 -0.034608298150019236 3.3208898523414775e-05 0 -0.034924297748719871 3.3246866738500516e-07 0 -0.03384851007974618 0.00014265034993608255 0 -0.033975690013998007 0.0001108329774416471 0 -0.034608298150019236 3.3208898523414775e-05 0 -0.034924297748719871 3.3246866738500516e-07 0 -0.034713825421289701 7.2083581917077304e-05 0 -0.034999904209563441 1.1831952622398315e-07 0 -0.034924297748719871 3.3246866738500516e-07 0 -0.034713825421289701 7.2083581917077304e-05 0 -0.034608298150019236 3.3208898523414775e-05 0 -0.034713825421289701 7.2083581917077304e-05 0 -0.034254805449541202 4.7997452816133481e-05 0 -0.034891190440222888 5.9934590040885663e-05 0 -0.034713825421289701 7.2083581917077304e-05 0 -0.034254805449541202 4.7997452816133481e-05 0 -0.034771979156942884 -0.00036409905544888566 0 -0.034254805449541202 4.7997452816133481e-05 0 -0.034185279582829763 -0.00059485931384884458 0 -0.034254805449541202 4.7997452816133481e-05 0 -0.033468559358258244 -4.5162120274486631e-05 0 -0.034185279582829763 -0.00059485931384884458 0 -0.034088488011683397 2.4965450606188483e-05 0 -0.033947210930252783 -3.2206381322837228e-05 0 -0.033468559358258244 -4.5162120274486631e-05 0 -0.033450209086622169 0.00016850065774501842 0 -0.033430595040623463 0.00014713842788670255 0 -0.034254805449541202 4.7997452816133481e-05 0 -0.033947210930252783 -3.2206381322837228e-05 0 -0.033468559358258244 -4.5162120274486631e-05 0 -0.031265241821627952 0.00041445740234491213 0 -0.031807783619538628 -0.00031836174647126639 0 -0.033468559358258244 -4.5162120274486631e-05 0 -0.031807783619538628 -0.00031836174647126639 0 -0.033468559358258244 -4.5162120274486631e-05 0 -0.033569270959076268 -0.0014977938306035342 0 -0.030752174149387891 0.00026532229811548154 0 -0.030622924978041331 0.00048649499007433363 0 -0.031093801392094188 -0.00093017853784830803 0 -0.031807783619538628 -0.00031836174647126639 0 -0.033569270959076268 -0.0014977938306035342 0 -0.033468559358258244 -4.5162120274486631e-05 0 -0.034185279582829763 -0.00059485931384884458 0 -0.033569270959076268 -0.0014977938306035342 0 -0.03482224837371431 -0.0015600359160465962 0 -0.034185279582829763 -0.00059485931384884458 0 -0.033569270959076268 -0.0014977938306035342 0 -0.027309892659446118 0.0023893263544622276 0 -0.027202777492418683 0.0024119515045453945 0 -0.02727525094092648 0.0023248661164549335 0 -0.027309892659446118 0.0023893263544622276 0 -0.027202777492418683 0.0024119515045453945 0 -0.027247464397666378 0.0024755317950856514 0 -0.027309892659446118 0.0023893263544622276 0 -0.027399356036991746 0.0024227881849748743 0 -0.027335169042092756 0.002467701729120547 0 -0.027202777492418683 0.0024119515045453945 0 -0.027187514589922177 0.0023352246758992531 0 -0.027149081222517028 0.0023931380345250512 0 -0.027202777492418683 0.0024119515045453945 0 -0.027187514589922177 0.0023352246758992531 0 -0.02727525094092648 0.0023248661164549335 0 -0.027187514589922177 0.0023352246758992531 0 -0.02727525094092648 0.0023248661164549335 0 -0.027276251813022328 0.0022173182340203186 0 -0.027187514589922177 0.0023352246758992531 0 -0.027276251813022328 0.0022173182340203186 0 -0.027209502119574257 0.0021820827512047478 0 -0.027309892659446118 0.0023893263544622276 0 -0.02727525094092648 0.0023248661164549335 0 -0.027367600412497597 0.0022857355921764764 0 -0.02727525094092648 0.0023248661164549335 0 -0.027367600412497597 0.0022857355921764764 0 -0.027276251813022328 0.0022173182340203186 0 -0.028314459679737246 0.0011959596191519889 0 -0.028673034042939687 0.0012829576270390363 0 -0.029686940265335974 0.00074518499773287155 0 -0.029707041420791856 0.0006271599890144854 0 -0.029805487534623972 0.00085484119404696151 0 -0.027220819519572528 0.0019316898456889372 0 -0.027096228156327409 0.0017920848511615115 0 -0.0271815002585028 0.0020230281036087918 0 -0.026992006520097558 0.001752687973430559 0 -0.027096228156327409 0.0017920848511615115 0 -0.0271815002585028 0.0020230281036087918 0 -0.029708731690048892 0.0008383225958107657 0 -0.029686940265335974 0.00074518499773287155 0 -0.029805487534623972 0.00085484119404696151 0 -0.031499456887086455 0.00094831823815105397 0 -0.030693208250861585 0.0010459005688049474 0 -0.028051107253383115 0.0027939365140554413 0 -0.028128638796472778 0.0026094869264533418 0 -0.028514277701010268 0.0031013581599781972 0 -0.029708731690048892 0.0008383225958107657 0 -0.029686940265335974 0.00074518499773287155 0 -0.029575344001815267 0.00073965157973612924 0 -0.029553197879897748 0.0011985906774020286 0 -0.030693208250861585 0.0010459005688049474 0 -0.029686940265335974 0.00074518499773287155 0 -0.029636476589900342 0.00066589319746226516 0 -0.029575344001815267 0.00073965157973612924 0 -0.029686940265335974 0.00074518499773287155 0 -0.029636476589900342 0.00066589319746226516 0 -0.029707041420791856 0.0006271599890144854 0 -0.029636476589900342 0.00066589319746226516 0 -0.029707041420791856 0.0006271599890144854 0 -0.02963619868106928 0.00057730012835868023 0 -0.029636476589900342 0.00066589319746226516 0 -0.02963619868106928 0.00057730012835868023 0 -0.029572954474157923 0.00060631881476739624 0 -0.026749805021071944 0.0021275874892165473 0 -0.026306203273397378 0.0018329484386627188 0 -0.027309892659446118 0.0023893263544622276 0 -0.027367600412497597 0.0022857355921764764 0 -0.027399356036991746 0.0024227881849748743 0 -0.027220819519572528 0.0019316898456889372 0 -0.027096228156327409 0.0017920848511615115 0 -0.027107136573978285 0.0016894452655244017 0 -0.026992006520097558 0.001752687973430559 0 -0.027096228156327409 0.0017920848511615115 0 -0.027058639681650232 0.0017274961529040905 0 -0.026337747604816903 0.001811971990726738 0 -0.026306203273397378 0.0018329484386627188 0 -0.026306203273397378 0.0018329484386627188 0 -0.025403423200072901 0.0018876904776851096 0 -0.026585864663275699 0.0010367692088167669 0 -0.026522719936572944 0.0013360701095577402 0 -0.02671016398177483 0.0014550014510561378 0 -0.027399356036991746 0.0024227881849748743 0 -0.027383363331450465 0.0025411114472681882 0 -0.027335169042092756 0.002467701729120547 0 -0.027058639681650232 0.0017274961529040905 0 -0.026984622156664185 0.0017070462936679947 0 -0.026942541671274599 0.0016977272007569818 0 -0.026306203273397378 0.0018329484386627188 0 -0.026538824125796213 0.0017541182207929781 0 -0.026992006520097558 0.001752687973430559 0 -0.027058639681650232 0.0017274961529040905 0 -0.026984622156664185 0.0017070462936679947 0 -0.029707041420791856 0.0006271599890144854 0 -0.02963619868106928 0.00057730012835868023 0 -0.029625153652614918 0.00038699320624296707 0 -0.026992006520097558 0.001752687973430559 0 -0.026984622156664185 0.0017070462936679947 0 -0.0269812602370583 0.0016859970253383276 0 -0.028314459679737246 0.0011959596191519889 0 -0.027879267059856952 0.0010217262522184108 0 -0.02963619868106928 0.00057730012835868023 0 -0.029625153652614918 0.00038699320624296707 0 -0.029594107443885409 0.00052658398993184728 0 -0.026984622156664185 0.0017070462936679947 0 -0.026964123960101394 0.0017020096402295972 0 -0.0269812602370583 0.0016859970253383276 0 -0.026984622156664185 0.0017070462936679947 0 -0.026964123960101394 0.0017020096402295972 0 -0.026942541671274599 0.0016977272007569818 0 -0.026964123960101394 0.0017020096402295972 0 -0.026956636745790668 0.0017285635101093445 0 -0.026942541671274599 0.0016977272007569818 0 -0.026942754736208583 0.0017809762737351379 0 -0.026956636745790668 0.0017285635101093445 0 -0.026942541671274599 0.0016977272007569818 0 -0.026981794235956671 0.0017653671963960473 0 -0.026964123960101394 0.0017020096402295972 0 -0.0269812602370583 0.0016859970253383276 0 -0.026981794235956671 0.0017653671963960473 0 -0.026964123960101394 0.0017020096402295972 0 -0.026956636745790668 0.0017285635101093445 0 -0.026981794235956671 0.0017653671963960473 0 -0.026942754736208583 0.0017809762737351379 0 -0.026956636745790668 0.0017285635101093445 0 -0.02644671757884744 0.0016495699922251849 0 -0.026522719936572944 0.0013360701095577402 0 -0.026605171808204257 0.0015127611315673502 0 -0.024028116005171424 0.002180073036068268 0 -0.025403423200072901 0.0018876904776851096 0 -0.026522719936572944 0.0013360701095577402 0 -0.02671016398177483 0.0014550014510561378 0 -0.026605171808204257 0.0015127611315673502 0 -0.026591274442785792 0.0016219794251401637 0 -0.02671016398177483 0.0014550014510561378 0 -0.026605171808204257 0.0015127611315673502 0 -0.026447998493904959 0.0016478700217257439 0 -0.026591274442785792 0.0016219794251401637 0 -0.026605171808204257 0.0015127611315673502 0 -0.024028116005171424 0.002180073036068268 0 -0.02438375722550121 0.0019470154362111163 0 -0.027293511089708667 0.0025841337347546713 0 -0.027247464397666378 0.0024755317950856514 0 -0.027171417044990657 0.0025968325399179227 0 -0.02723534710400255 0.0026993981562166217 0 -0.027370866909950886 0.0027069762791516834 0 -0.027293511089708667 0.0025841337347546713 0 -0.027370866909950886 0.0027069762791516834 0 -0.027383363331450465 0.0025411114472681882 0 -0.027293511089708667 0.0025841337347546713 0 -0.02723534710400255 0.0026993981562166217 0 -0.027293511089708667 0.0025841337347546713 0 -0.027171417044990657 0.0025968325399179227 0 -0.027293511089708667 0.0025841337347546713 0 -0.027247464397666378 0.0024755317950856514 0 -0.027335169042092756 0.002467701729120547 0 -0.027383363331450465 0.0025411114472681882 0 -0.027293511089708667 0.0025841337347546713 0 -0.027335169042092756 0.002467701729120547 0 -0.027309892659446118 0.0023893263544622276 0 -0.027247464397666378 0.0024755317950856514 0 -0.027335169042092756 0.002467701729120547 0 -0.027247464397666378 0.0024755317950856514 0 -0.027160951994422061 0.0024896494322055973 0 -0.027171417044990657 0.0025968325399179227 0 -0.027202777492418683 0.0024119515045453945 0 -0.027160951994422061 0.0024896494322055973 0 -0.027147909283886783 0.0024380444201055791 0 -0.027202777492418683 0.0024119515045453945 0 -0.027247464397666378 0.0024755317950856514 0 -0.027160951994422061 0.0024896494322055973 0 -0.02707624385752563 0.0027719288746680345 0 -0.027171417044990657 0.0025968325399179227 0 -0.026942302806235524 0.002626414305599812 0 -0.027171417044990657 0.0025968325399179227 0 -0.026942302806235524 0.002626414305599812 0 -0.026832947510543863 0.0024354331072247836 0 -0.022419085855248155 0.0063111170991673547 0 -0.025584770811277985 0.0033918627305233521 0 -0.027160951994422061 0.0024896494322055973 0 -0.027171417044990657 0.0025968325399179227 0 -0.027107775442553352 0.0024939290818588328 0 -0.02625001873037739 0.0033881210706188823 0 -0.025584770811277985 0.0033918627305233521 0 -0.026785445267878055 0.0027796776531000349 0 -0.026942302806235524 0.002626414305599812 0 -0.026832947510543863 0.0024354331072247836 0 -0.024922770110209876 0.0031228034153324646 0 -0.02472252342189523 0.0045297856809609028 0 -0.026187226935547935 0.0043731659561102474 0 -0.022419085855248155 0.0063111170991673547 0 -0.023931102403902928 0.0065789193889525914 0 -0.016311802396667498 0.012792204190742798 0 -0.01437678218884763 0.012398612356936831 0 -0.016137392031819502 0.014099303153671148 0 -0.02472252342189523 0.0045297856809609028 0 -0.026187226935547935 0.0043731659561102474 0 -0.026187371281968953 0.0046788867331016889 0 -0.025584770811277985 0.0033918627305233521 0 -0.026926769513856606 0.0035113437319358935 0 -0.02472252342189523 0.0045297856809609028 0 -0.026187371281968953 0.0046788867331016889 0 -0.02594256395236258 0.0051321291210088505 0 -0.027106864999291533 0.0024421801974794585 0 -0.027116740561004101 0.0024701633455536305 0 -0.027090075032056883 0.0024470128176591272 0 -0.027106864999291533 0.0024421801974794585 0 -0.027118128712251936 0.0024618049671103859 0 -0.027125035585293184 0.0024285694064664111 0 -0.027118128712251936 0.0024618049671103859 0 -0.027147909283886783 0.0024380444201055791 0 -0.027125035585293184 0.0024285694064664111 0 -0.027160951994422061 0.0024896494322055973 0 -0.027118128712251936 0.0024618049671103859 0 -0.027147909283886783 0.0024380444201055791 0 -0.027160951994422061 0.0024896494322055973 0 -0.027118128712251936 0.0024618049671103859 0 -0.027107775442553352 0.0024939290818588328 0 -0.027106864999291533 0.0024421801974794585 0 -0.027118128712251936 0.0024618049671103859 0 -0.027116740561004101 0.0024701633455536305 0 -0.02561470002573488 0.0033300068147744666 0 -0.025584770811277985 0.0033918627305233521 0 -0.017673407743482059 0.012667155390955129 0 -0.0186015858724983 0.013511028079496222 0 -0.01764828071544354 0.014124151675272537 0 -0.016311802396667498 0.012792204190742798 0 -0.017673407743482059 0.012667155390955129 0 -0.01764828071544354 0.014124151675272537 0 -0.016311802396667498 0.012792204190742798 0 -0.01764828071544354 0.014124151675272537 0 -0.016137392031819502 0.014099303153671148 0 -0.026187371281968953 0.0046788867331016889 0 -0.02594256395236258 0.0051321291210088505 0 -0.027164134832928313 0.0057215592007421254 0 -0.026187226935547935 0.0043731659561102474 0 -0.026187371281968953 0.0046788867331016889 0 -0.027489408191714446 0.0056567892238144919 0 -0.028255628380216297 0.0038147295708630389 0 -0.028885728346234412 0.0037239234862154929 0 -0.018808940495847498 0.014595885199182168 0 -0.01764828071544354 0.014124151675272537 0 -0.017868594378510631 0.015762617797124484 0 -0.023931102403902928 0.0065789193889525914 0 -0.02789501149937779 0.0049213413177223607 0 -0.01764828071544354 0.014124151675272537 0 -0.016137392031819502 0.014099303153671148 0 -0.017868594378510631 0.015762617797124484 0 -0.026187371281968953 0.0046788867331016889 0 -0.027489408191714446 0.0056567892238144919 0 -0.027191530681966926 0.005759048650611857 0 -0.029921955774125441 0.0048173856139605191 0 -0.027640681807033819 0.0025126470340083597 0 -0.026788208282518617 0.0035685992886751012 0 -0.030279190866136153 0.0044894052684034584 0 -0.02789501149937779 0.0049213413177223607 0 -0.030279190866136153 0.0044894052684034584 0 -0.029340618326243351 0.0037503287915413926 0 -0.027489408191714446 0.0056567892238144919 0 -0.027191530681966926 0.005759048650611857 0 -0.027307413253365907 0.0058851188711229125 0 -0.02789501149937779 0.0049213413177223607 0 -0.029340618326243351 0.0037503287915413926 0 -0.028885728346234412 0.0037239234862154929 0 -0.029340618326243351 0.0037503287915413926 0 -0.026928661426792115 0.0024088023792121368 0 -0.026897467807605758 0.0023837988332779782 0 -0.02704393771401124 0.0023842230099573244 0 -0.026926769513856606 0.0035113437319358935 0 -0.028885728346234412 0.0037239234862154929 0 -0.026897467807605758 0.0023837988332779782 0 -0.02704393771401124 0.0023842230099573244 0 -0.027062243596471289 0.0020834124472233172 0 -0.027090075032056883 0.0024470128176591272 0 -0.026928661426792115 0.0024088023792121368 0 -0.02704393771401124 0.0023842230099573244 0 -0.02704393771401124 0.0023842230099573244 0 -0.02709064784115436 0.002398743612900277 0 -0.027098035001370941 0.0023364543674077817 0 -0.027090075032056883 0.0024470128176591272 0 -0.02704393771401124 0.0023842230099573244 0 -0.02709064784115436 0.002398743612900277 0 -0.027062243596471289 0.0020834124472233172 0 -0.027455657698868662 0.0020882055839647495 0 -0.027359623291494103 0.0016926926380289847 0 -0.02704393771401124 0.0023842230099573244 0 -0.027062243596471289 0.0020834124472233172 0 -0.027455657698868662 0.0020882055839647495 0 -0.027746649078967487 0.0025149170101079993 0 -0.028107170759289639 0.0023561485127321282 0 -0.034689882466512598 0.00099865970766572945 0 -0.03477105294751176 0.00089848079385329593 0 -0.034689651906066508 0.00089913236267808274 0 -0.029340618326243351 0.0037503287915413926 0 -0.030492148284997033 0.0020818782325074604 0 -0.034600354431691314 0.00090533053451345941 0 -0.034689882466512598 0.00099865970766572945 0 -0.034689651906066508 0.00089913236267808274 0 -0.03477105294751176 0.00089848079385329593 0 -0.034689651906066508 0.00089913236267808274 0 -0.034724056015582087 0.00083595448080762567 0 -0.034689651906066508 0.00089913236267808274 0 -0.034668491287212805 0.00083336612653533634 0 -0.034724056015582087 0.00083595448080762567 0 -0.027149081222517028 0.0023931380345250512 0 -0.027115731705160163 0.0023919425903154812 0 -0.027139136064941404 0.0023455089883543936 0 -0.027187514589922177 0.0023352246758992531 0 -0.027149081222517028 0.0023931380345250512 0 -0.027139136064941404 0.0023455089883543936 0 -0.027202777492418683 0.0024119515045453945 0 -0.027147909283886783 0.0024380444201055791 0 -0.027149081222517028 0.0023931380345250512 0 -0.027147909283886783 0.0024380444201055791 0 -0.027149081222517028 0.0023931380345250512 0 -0.027125035585293184 0.0024285694064664111 0 -0.027149081222517028 0.0023931380345250512 0 -0.027125035585293184 0.0024285694064664111 0 -0.027115731705160163 0.0023919425903154812 0 -0.02709064784115436 0.002398743612900277 0 -0.027115731705160163 0.0023919425903154812 0 -0.027098035001370941 0.0023364543674077817 0 -0.027106864999291533 0.0024421801974794585 0 -0.02709064784115436 0.002398743612900277 0 -0.027115731705160163 0.0023919425903154812 0 -0.027106864999291533 0.0024421801974794585 0 -0.027125035585293184 0.0024285694064664111 0 -0.027115731705160163 0.0023919425903154812 0 -0.027106864999291533 0.0024421801974794585 0 -0.027090075032056883 0.0024470128176591272 0 -0.02709064784115436 0.002398743612900277 0 -0.027115731705160163 0.0023919425903154812 0 -0.027098035001370941 0.0023364543674077817 0 -0.027139136064941404 0.0023455089883543936 0 -0.028965180406846772 0.0015930176542630313 0 -0.029534019142292606 0.0016291334686292431 0 -0.027098035001370941 0.0023364543674077817 0 -0.027139136064941404 0.0023455089883543936 0 -0.02715469406514423 0.0022815560070197152 0 -0.027187514589922177 0.0023352246758992531 0 -0.027139136064941404 0.0023455089883543936 0 -0.02715469406514423 0.0022815560070197152 0 -0.029534019142292606 0.0016291334686292431 0 -0.030126057726794286 0.0014430543935324734 0 -0.027899289816573365 0.0016985117105390759 0 -0.027359623291494103 0.0016926926380289847 0 -0.027687346533004923 0.0012909573724866564 0 -0.028107170759289639 0.0023561485127321282 0 -0.029534019142292606 0.0016291334686292431 0 -0.027455657698868662 0.0020882055839647495 0 -0.027899289816573365 0.0016985117105390759 0 -0.027359623291494103 0.0016926926380289847 0 -0.034839497468194182 0.00078924020134174446 0 -0.034836493284218645 0.00067270311833522701 0 -0.03490018365981188 0.00069772348901177479 0 -0.030876277426772045 0.0013849801882821031 0 -0.030977078517596325 0.00099264163411855676 0 -0.034836493284218645 0.00067270311833522701 0 -0.03490018365981188 0.00069772348901177479 0 -0.034856975798047696 0.00061488007691557324 0 -0.0306408338818542 0.0011117304327401779 0 -0.030520823381371961 0.00088313342144725657 0 -0.030842092902973663 0.00092485415210506684 0 -0.030520823381371961 0.00088313342144725657 0 -0.030671326036351001 0.00069750129210056227 0 -0.030842092902973663 0.00092485415210506684 0 -0.030977078517596325 0.00099264163411855676 0 -0.031782987777015236 0.00064810285843887718 0 -0.029534019142292606 0.0016291334686292431 0 -0.030977078517596325 0.00099264163411855676 0 -0.034693920943878881 0.00076316509157415505 0 -0.034668491287212805 0.00083336612653533634 0 -0.034724056015582087 0.00083595448080762567 0 -0.034693920943878881 0.00076316509157415505 0 -0.034724056015582087 0.00083595448080762567 0 -0.034770206529661979 0.0007719833846529156 0 -0.030492148284997033 0.0020818782325074604 0 -0.030876277426772045 0.0013849801882821031 0 -0.03477105294751176 0.00089848079385329593 0 -0.034839497468194182 0.00078924020134174446 0 -0.034770206529661979 0.0007719833846529156 0 -0.03477105294751176 0.00089848079385329593 0 -0.034724056015582087 0.00083595448080762567 0 -0.034770206529661979 0.0007719833846529156 0 -0.034839497468194182 0.00078924020134174446 0 -0.034770206529661979 0.0007719833846529156 0 -0.03478348393984039 0.00069762246940409194 0 -0.034839497468194182 0.00078924020134174446 0 -0.034836493284218645 0.00067270311833522701 0 -0.03478348393984039 0.00069762246940409194 0 -0.034836493284218645 0.00067270311833522701 0 -0.03478348393984039 0.00069762246940409194 0 -0.034799864806071161 0.00064620461306739562 0 -0.03478348393984039 0.00069762246940409194 0 -0.03472268735056469 0.00068755128533347799 0 -0.034759911296967101 0.00062770714927616372 0 -0.034770206529661979 0.0007719833846529156 0 -0.03478348393984039 0.00069762246940409194 0 -0.03472268735056469 0.00068755128533347799 0 -0.034659890536036984 0.00069242229771613326 0 -0.03472268735056469 0.00068755128533347799 0 -0.034684876208028681 0.00061015509503788016 0 -0.034693920943878881 0.00076316509157415505 0 -0.034770206529661979 0.0007719833846529156 0 -0.03472268735056469 0.00068755128533347799 0 -0.034659890536036984 0.00069242229771613326 0 -0.034693920943878881 0.00076316509157415505 0 -0.03472268735056469 0.00068755128533347799 0 -0.034684876208028681 0.00061015509503788016 0 -0.034759911296967101 0.00062770714927616372 0 -0.034786111782235396 0.00056553049940582633 0 -0.03472268735056469 0.00068755128533347799 0 -0.034684876208028681 0.00061015509503788016 0 -0.034759911296967101 0.00062770714927616372 0 -0.034759911296967101 0.00062770714927616372 0 -0.034792579788539071 0.00061223424042023463 0 -0.034786111782235396 0.00056553049940582633 0 -0.03478348393984039 0.00069762246940409194 0 -0.034759911296967101 0.00062770714927616372 0 -0.034799864806071161 0.00064620461306739562 0 -0.034836493284218645 0.00067270311833522701 0 -0.034799864806071161 0.00064620461306739562 0 -0.034824495556883918 0.00061084246497284582 0 -0.034759911296967101 0.00062770714927616372 0 -0.034799864806071161 0.00064620461306739562 0 -0.034792579788539071 0.00061223424042023463 0 -0.034799864806071161 0.00064620461306739562 0 -0.034792579788539071 0.00061223424042023463 0 -0.034824495556883918 0.00061084246497284582 0 -0.034792579788539071 0.00061223424042023463 0 -0.034786111782235396 0.00056553049940582633 0 -0.034824495556883918 0.00061084246497284582 0 -0.034786111782235396 0.00056553049940582633 0 -0.034824495556883918 0.00061084246497284582 0 -0.034853498440826178 0.0006142392612317187 0 -0.034684876208028681 0.00061015509503788016 0 -0.034786111782235396 0.00056553049940582633 0 -0.034780934810300215 0.00050637477951573481 0 -0.034786111782235396 0.00056553049940582633 0 -0.034797886773205208 0.00050724788720896358 0 -0.034853498440826178 0.0006142392612317187 0 -0.034786111782235396 0.00056553049940582633 0 -0.034797886773205208 0.00050724788720896358 0 -0.034780934810300215 0.00050637477951573481 0 -0.034999960899934623 -7.299330896122129e-08 0 -0.035024508933493778 4.57693280805554e-05 0 -0.0349032960239209 7.2980690925696087e-08 0 -0.034825417435053803 0.00010044049711921443 0 -0.034805380445850229 0.00011605855303346622 0 -0.03499521876672157 2.6588752328302939e-06 0 -0.034825417435053803 0.00010044049711921443 0 -0.034999834977324382 -9.308622579505346e-08 0 -0.035031160124062828 6.2642633106815956e-05 0 -0.034903472074517071 7.7865944116287009e-08 0 -0.034730884096233386 0.00033256782235056566 0 -0.034805380445850229 0.00011605855303346622 0 -0.033196118502691427 0.00019704841324056217 0 -0.03351428050104862 0.00023299674226091418 0 -0.033323485853652357 0.00036481898386280887 0 -0.031782987777015236 0.00064810285843887718 0 -0.032771308756985362 0.00081563993702081115 0 -0.0331309502670794 0.00027753358429555768 0 -0.033323485853652357 0.00036481898386280887 0 -0.033122062644227186 0.00041781025082815741 0 -0.0331309502670794 0.00027753358429555768 0 -0.033196118502691427 0.00019704841324056217 0 -0.033323485853652357 0.00036481898386280887 0 -0.031834769642539104 0.00060324700704222022 0 -0.031782987777015236 0.00064810285843887718 0 -0.030977078517596325 0.00099264163411855676 0 -0.032771308756985362 0.00081563993702081115 0 -0.031585078320762176 0.00054820922576892777 0 -0.031614649271073714 0.00051148516213645313 0 -0.031564970081698285 0.0005066855370191171 0 -0.034836493284218645 0.00067270311833522701 0 -0.034824495556883918 0.00061084246497284582 0 -0.034856975798047696 0.00061488007691557324 0 -0.032887375640641897 0.00082236799683393523 0 -0.032771308756985362 0.00081563993702081115 0 -0.033713499248469177 0.00059613204326364752 0 -0.033321511923487451 0.00057434963948387583 0 -0.033323485853652357 0.00036481898386280887 0 -0.03499999950771198 4.8008529217141699e-10 0 -0.034999949189259201 8.63642989617314e-08 0 -0.034999998887264634 7.2355920913286794e-10 0 -0.034825417435053803 0.00010044049711921443 0 -0.034396262179389542 6.4586284251623278e-05 0 -0.034999949189259201 8.63642989617314e-08 0 -0.034999998887264634 7.2355920913286794e-10 0 -0.034999858308748584 6.8640643086582743e-08 0 -0.033713499248469177 0.00059613204326364752 0 -0.03351428050104862 0.00023299674226091418 0 -0.033323485853652357 0.00036481898386280887 0 -0.034825417435053803 0.00010044049711921443 0 -0.032771308756985362 0.00081563993702081115 0 -0.034999998887264634 7.2355920913286794e-10 0 -0.034999858308748584 6.8640643086582743e-08 0 -0.034999998835586889 -1.6999423455572131e-09 0 -0.034396262179389542 6.4586284251623278e-05 0 -0.034492530819307934 -4.8203253561703073e-05 0 -0.033321511923487451 0.00057434963948387583 0 -0.033122062644227186 0.00041781025082815741 0 -0.032931229270693259 0.00055160815319351276 0 -0.033321511923487451 0.00057434963948387583 0 -0.033323485853652357 0.00036481898386280887 0 -0.033122062644227186 0.00041781025082815741 0 -0.034999858308748584 6.8640643086582743e-08 0 -0.034999998835586889 -1.6999423455572131e-09 0 -0.034999755317089105 -2.6651748812925572e-07 0 -0.032931229270693259 0.00055160815319351276 0 -0.032648393826165203 0.00023776697749889982 0 -0.03290333047173833 0.00032041091909861268 0 -0.034996623951101653 8.0440385694095004e-07 0 -0.034492530819307934 -4.8203253561703073e-05 0 -0.035000146374811442 2.324138693598798e-08 0 -0.034999843633426002 -2.385228831762372e-08 0 -0.034982565878443984 -8.6337169030570746e-05 0 -0.033122062644227186 0.00041781025082815741 0 -0.032931229270693259 0.00055160815319351276 0 -0.03290333047173833 0.00032041091909861268 0 -0.034999843633426002 -2.385228831762372e-08 0 -0.034982565878443984 -8.6337169030570746e-05 0 -0.034400838091395498 -0.0003033017991226885 0 -0.034982565878443984 -8.6337169030570746e-05 0 -0.034606420251102658 -0.00049569217301157376 0 -0.034400838091395498 -0.0003033017991226885 0 -0.03499919398495599 2.240155397558762e-07 0 -0.033880283296847877 -0.00015580466992627518 0 -0.034999998533608183 2.2192839590513257e-09 0 -0.034998743942471329 -4.1494186880927617e-07 0 -0.034999998048196639 -2.0040028190099031e-09 0 -0.034492530819307934 -4.8203253561703073e-05 0 -0.032918117922108484 0.00013516928028198288 0 -0.032918117922108484 0.00013516928028198288 0 -0.033880283296847877 -0.00015580466992627518 0 -0.032648393826165203 0.00023776697749889982 0 -0.032749992807628005 0.00014355081380471718 0 -0.03290333047173833 0.00032041091909861268 0 -0.032918117922108484 0.00013516928028198288 0 -0.031768725202129526 0.00057718751282120147 0 -0.032849246240728339 0.00074159961769404306 0 -0.03337860356015427 0.00025052486543556643 0 -0.032299763458937474 0.00012627823741046473 0 -0.027312400042742883 0.0019796129387036321 0 -0.027380120270870473 0.002065073097662822 0 -0.027538886637877381 0.0019501456912887961 0 -0.031768725202129526 0.00057718751282120147 0 -0.032455673508310884 0.00018495323251340687 0 -0.032918117922108484 0.00013516928028198288 0 -0.032455673508310884 0.00018495323251340687 0 -0.033451177567478882 -9.4563283237099108e-05 0 -0.033543848296998788 8.8493718647011696e-06 0 -0.033567376770630535 -9.4711568874143479e-05 0 -0.0331309502670794 0.00027753358429555768 0 -0.033195584944424636 0.00019688195139525079 0 -0.032749992807628005 0.00014355081380471718 0 -0.0331309502670794 0.00027753358429555768 0 -0.032749992807628005 0.00014355081380471718 0 -0.03290333047173833 0.00032041091909861268 0 -0.031782987777015236 0.00064810285843887718 0 -0.031768725202129526 0.00057718751282120147 0 -0.0331309502670794 0.00027753358429555768 0 -0.033122062644227186 0.00041781025082815741 0 -0.03290333047173833 0.00032041091909861268 0 -0.030671326036351001 0.00069750129210056227 0 -0.031043440435547073 0.0007376555743276727 0 -0.030842092902973663 0.00092485415210506684 0 -0.027210407399150763 0.0020906451683828623 0 -0.027288273406627161 0.0021034539879340917 0 -0.027209502119574257 0.0021820827512047478 0 -0.027312400042742883 0.0019796129387036321 0 -0.027210407399150763 0.0020906451683828623 0 -0.027288273406627161 0.0021034539879340917 0 -0.031768725202129526 0.00057718751282120147 0 -0.030126057726794286 0.0014430543935324734 0 -0.02865930094043375 0.0014097562672580164 0 -0.028821716560262424 0.0012786818236010578 0 -0.027380120270870473 0.002065073097662822 0 -0.027327046576652164 0.0021211653192352701 0 -0.027260498410530021 0.0021076127946782161 0 -0.027380120270870473 0.002065073097662822 0 -0.027590592702301915 0.0024907822708888647 0 -0.027567200982773536 0.00215379017608052 0 -0.027312400042742883 0.0019796129387036321 0 -0.027380120270870473 0.002065073097662822 0 -0.027288273406627161 0.0021034539879340917 0 -0.027380120270870473 0.002065073097662822 0 -0.027567200982773536 0.00215379017608052 0 -0.027538886637877381 0.0019501456912887961 0 -0.027380120270870473 0.002065073097662822 0 -0.027288273406627161 0.0021034539879340917 0 -0.027327046576652164 0.0021211653192352701 0 -0.026749805021071944 0.0021275874892165473 0 -0.02687167170104619 0.002181026907889743 0 -0.027288273406627161 0.0021034539879340917 0 -0.027327046576652164 0.0021211653192352701 0 -0.027276251813022328 0.0022173182340203186 0 -0.027367600412497597 0.0022857355921764764 0 -0.027327046576652164 0.0021211653192352701 0 -0.027276251813022328 0.0022173182340203186 0 -0.027288273406627161 0.0021034539879340917 0 -0.027276251813022328 0.0022173182340203186 0 -0.027209502119574257 0.0021820827512047478 0 -0.027187514589922177 0.0023352246758992531 0 -0.027113477673541411 0.0021783547333350142 0 -0.027209502119574257 0.0021820827512047478 0 -0.027113477673541411 0.0021783547333350142 0 -0.027210407399150763 0.0020906451683828623 0 -0.027209502119574257 0.0021820827512047478 0 -0.034503718228136901 -5.2424628004984322e-06 0 -0.034595540879748671 -0.00010805724728619 0 -0.034664215778437021 -3.5535674604149998e-05 0 -0.034503718228136901 -5.2424628004984322e-06 0 -0.034411513646835104 -0.00011754516275399092 0 -0.034501641034647465 -0.00011294752029583924 0 -0.034503718228136901 -5.2424628004984322e-06 0 -0.034501641034647465 -0.00011294752029583924 0 -0.034595540879748671 -0.00010805724728619 0 -0.028051107253383115 0.0027939365140554413 0 -0.028128638796472778 0.0026094869264533418 0 -0.027590592702301915 0.0024907822708888647 0 -0.027220819519572528 0.0019316898456889372 0 -0.027327046576652164 0.0021211653192352701 0 -0.0271815002585028 0.0020230281036087918 0 -0.028128638796472778 0.0026094869264533418 0 -0.027590592702301915 0.0024907822708888647 0 -0.027747977819393106 0.0021317702881529974 0 -0.029553197879897748 0.0011985906774020286 0 -0.028821716560262424 0.0012786818236010578 0 -0.029708731690048892 0.0008383225958107657 0 -0.029805487534623972 0.00085484119404696151 0 -0.029841448944426561 0.00093704212864473562 0 -0.028673034042939687 0.0012829576270390363 0 -0.028821716560262424 0.0012786818236010578 0 -0.027327046576652164 0.0021211653192352701 0 -0.0271815002585028 0.0020230281036087918 0 -0.027260498410530021 0.0021076127946782161 0 -0.031499456887086455 0.00094831823815105397 0 -0.032195973422514262 0.00042886870217621827 0 -0.034356860814673561 -0.00017133457343525147 0 -0.034494932446512375 -0.00022726034256563538 0 -0.034279669858659691 -0.00025387330629820934 0 -0.034503718228136901 -5.2424628004984322e-06 0 -0.034411513646835104 -0.00011754516275399092 0 -0.0343561112354328 -0.00016546149824865237 0 -0.032288915529306572 0.00046559696945059286 0 -0.032195973422514262 0.00042886870217621827 0 -0.027590592702301915 0.0024907822708888647 0 -0.027567200982773536 0.00215379017608052 0 -0.027747977819393106 0.0021317702881529974 0 -0.032195973422514262 0.00042886870217621827 0 -0.032455673508310884 0.00018495323251340687 0 -0.027567200982773536 0.00215379017608052 0 -0.027747977819393106 0.0021317702881529974 0 -0.027538886637877381 0.0019501456912887961 0 -0.034411513646835104 -0.00011754516275399092 0 -0.034356860814673561 -0.00017133457343525147 0 -0.034494932446512375 -0.00022726034256563538 0 -0.034411513646835104 -0.00011754516275399092 0 -0.034494932446512375 -0.00022726034256563538 0 -0.034501641034647465 -0.00011294752029583924 0 -0.034494932446512375 -0.00022726034256563538 0 -0.034501641034647465 -0.00011294752029583924 0 -0.034595540879748671 -0.00010805724728619 0 -0.033851375005020487 4.3246382708567201e-05 0 -0.033873950924994477 -7.3813238728311838e-05 0 -0.034162467686661771 7.7483765693093826e-05 0 -0.033851375005020487 4.3246382708567201e-05 0 -0.033873950924994477 -7.3813238728311838e-05 0 -0.03368542534582275 -7.0316453100650433e-05 0 -0.034999053880271261 -3.867387351586245e-06 0 -0.034999312945732851 -1.0986426028039373e-06 0 -0.034996836803238542 -2.692533801750631e-06 0 -0.033873950924994477 -7.3813238728311838e-05 0 -0.03368542534582275 -7.0316453100650433e-05 0 -0.03358946436258245 -0.00022278329712380538 0 -0.034257337487533367 6.7595399949524863e-06 0 -0.033880283296847877 -0.00015580466992627518 0 -0.033851375005020487 4.3246382708567201e-05 0 -0.033543848296998788 8.8493718647011696e-06 0 -0.03368542534582275 -7.0316453100650433e-05 0 -0.034999053880271261 -3.867387351586245e-06 0 -0.034998902161960985 -1.0481869398023629e-06 0 -0.034999152238086445 -6.2310358916362909e-07 0 -0.033753449216248795 0.00012818399873040925 0 -0.032455673508310884 0.00018495323251340687 0 -0.033543848296998788 8.8493718647011696e-06 0 -0.03368542534582275 -7.0316453100650433e-05 0 -0.033567376770630535 -9.4711568874143479e-05 0 -0.03368542534582275 -7.0316453100650433e-05 0 -0.033567376770630535 -9.4711568874143479e-05 0 -0.03358946436258245 -0.00022278329712380538 0 -0.033451177567478882 -9.4563283237099108e-05 0 -0.033567376770630535 -9.4711568874143479e-05 0 -0.03358946436258245 -0.00022278329712380538 0 -0.034998743942471329 -4.1494186880927617e-07 0 -0.034999152238086445 -6.2310358916362909e-07 0 -0.034999998048196639 -2.0040028190099031e-09 0 -0.033880283296847877 -0.00015580466992627518 0 -0.033905963006627293 -0.00016806129275081548 0 -0.034999152238086445 -6.2310358916362909e-07 0 -0.034999998048196639 -2.0040028190099031e-09 0 -0.034999312945732851 -1.0986426028039373e-06 0 -0.034999312945732851 -1.0986426028039373e-06 0 -0.034999996894924688 -1.6917818050008526e-10 0 -0.034996836803238542 -2.692533801750631e-06 0 -0.034999998048196639 -2.0040028190099031e-09 0 -0.034999312945732851 -1.0986426028039373e-06 0 -0.034999996894924688 -1.6917818050008526e-10 0 -0.034999053880271261 -3.867387351586245e-06 0 -0.034999152238086445 -6.2310358916362909e-07 0 -0.034999312945732851 -1.0986426028039373e-06 0 -0.034999996894924688 -1.6917818050008526e-10 0 -0.034993821817935977 -9.6875703865341345e-07 0 -0.034996836803238542 -2.692533801750631e-06 0 -0.034993821817935977 -9.6875703865341345e-07 0 -0.034981680585474809 -3.8394899426942362e-06 0 -0.034999973305646831 3.0734541802437267e-09 0 -0.034999996894924688 -1.6917818050008526e-10 0 -0.034993821817935977 -9.6875703865341345e-07 0 -0.034999973305646831 3.0734541802437267e-09 0 -0.034993821817935977 -9.6875703865341345e-07 0 -0.034981680585474809 -3.8394899426942362e-06 0 -0.034990838304639428 -5.7842547563347089e-06 0 -0.034981680585474809 -3.8394899426942362e-06 0 -0.034985877610735995 -8.4708485410497116e-06 0 -0.034990838304639428 -5.7842547563347089e-06 0 -0.034999053880271261 -3.867387351586245e-06 0 -0.034996836803238542 -2.692533801750631e-06 0 -0.03499280815357908 -1.1031251468256881e-05 0 -0.034990838304639428 -5.7842547563347089e-06 0 -0.034996836803238542 -2.692533801750631e-06 0 -0.03499280815357908 -1.1031251468256881e-05 0 -0.034985877610735995 -8.4708485410497116e-06 0 -0.034990838304639428 -5.7842547563347089e-06 0 -0.03499280815357908 -1.1031251468256881e-05 0 -0.034257337487533367 6.7595399949524863e-06 0 -0.034382720648186919 8.9419291647017089e-05 0 -0.034993821817935977 -9.6875703865341345e-07 0 -0.034990838304639428 -5.7842547563347089e-06 0 -0.034996836803238542 -2.692533801750631e-06 0 -0.034999977707434946 -9.665393180412079e-09 0 -0.034976583270013614 -5.6801451712766949e-06 0 -0.03498832806113876 -5.9776173376337389e-06 0 -0.034981680585474809 -3.8394899426942362e-06 0 -0.034999973305646831 3.0734541802437267e-09 0 -0.034976583270013614 -5.6801451712766949e-06 0 -0.034999977707434946 -9.665393180412079e-09 0 -0.034999973305646831 3.0734541802437267e-09 0 -0.034976583270013614 -5.6801451712766949e-06 0 -0.034981680585474809 -3.8394899426942362e-06 0 -0.034976583270013614 -5.6801451712766949e-06 0 -0.034957456235213201 -9.9598513520060375e-06 0 -0.034976583270013614 -5.6801451712766949e-06 0 -0.034955021959572022 -1.1082101363042778e-05 0 -0.03498832806113876 -5.9776173376337389e-06 0 -0.034955021959572022 -1.1082101363042778e-05 0 -0.034981855902043918 -4.6424846489227224e-06 0 -0.03498832806113876 -5.9776173376337389e-06 0 -0.034955021959572022 -1.1082101363042778e-05 0 -0.034918889359789186 1.7247225923395991e-05 0 -0.034981855902043918 -4.6424846489227224e-06 0 -0.034976583270013614 -5.6801451712766949e-06 0 -0.034955021959572022 -1.1082101363042778e-05 0 -0.034957456235213201 -9.9598513520060375e-06 0 -0.034955021959572022 -1.1082101363042778e-05 0 -0.034957456235213201 -9.9598513520060375e-06 0 -0.034920414507207558 -1.9442017218056206e-05 0 -0.034957456235213201 -9.9598513520060375e-06 0 -0.034920414507207558 -1.9442017218056206e-05 0 -0.034974508893813337 -1.8418139449366668e-05 0 -0.034677973704247314 0.00011796575367879041 0 -0.034610774660474124 0.00011183235242605632 0 -0.034955021959572022 -1.1082101363042778e-05 0 -0.034920414507207558 -1.9442017218056206e-05 0 -0.034918889359789186 1.7247225923395991e-05 0 -0.034920414507207558 -1.9442017218056206e-05 0 -0.034877564785193153 2.5282947808011244e-05 0 -0.034795939619040941 -1.5234012702036251e-05 0 -0.034920414507207558 -1.9442017218056206e-05 0 -0.034877564785193153 2.5282947808011244e-05 0 -0.034918889359789186 1.7247225923395991e-05 0 -0.034877564785193153 2.5282947808011244e-05 0 -0.034918889359789186 1.7247225923395991e-05 0 -0.034896959397869402 5.3279285995699212e-05 0 -0.034918889359789186 1.7247225923395991e-05 0 -0.034930715497548129 3.0254235380676198e-05 0 -0.034936096030996767 1.3568051055342401e-05 0 -0.034918889359789186 1.7247225923395991e-05 0 -0.034930715497548129 3.0254235380676198e-05 0 -0.034918615228231052 5.17296686862187e-05 0 -0.034948373781430765 1.2473944608187919e-05 0 -0.034960247834175895 5.6473288341703412e-06 0 -0.034494932446512375 -0.00022726034256563538 0 -0.034595540879748671 -0.00010805724728619 0 -0.034684082725499561 -0.00019607726455114129 0 -0.033753449216248795 0.00012818399873040925 0 -0.034382720648186919 8.9419291647017089e-05 0 -0.034717407109670723 -0.0001052873225393496 0 -0.034595540879748671 -0.00010805724728619 0 -0.034684082725499561 -0.00019607726455114129 0 -0.034985877610735995 -8.4708485410497116e-06 0 -0.03499280815357908 -1.1031251468256881e-05 0 -0.034974508893813337 -1.8418139449366668e-05 0 -0.034382720648186919 8.9419291647017089e-05 0 -0.034610774660474124 0.00011183235242605632 0 -0.034981680585474809 -3.8394899426942362e-06 0 -0.034985877610735995 -8.4708485410497116e-06 0 -0.034974508893813337 -1.8418139449366668e-05 0 -0.034981680585474809 -3.8394899426942362e-06 0 -0.034957456235213201 -9.9598513520060375e-06 0 -0.034974508893813337 -1.8418139449366668e-05 0 -0.034717407109670723 -0.0001052873225393496 0 -0.034684082725499561 -0.00019607726455114129 0 -0.034804644204671879 -0.00011764268727164477 0 -0.034717407109670723 -0.0001052873225393496 0 -0.034804644204671879 -0.00011764268727164477 0 -0.034795939619040941 -1.5234012702036251e-05 0 -0.034920414507207558 -1.9442017218056206e-05 0 -0.034804644204671879 -0.00011764268727164477 0 -0.034795939619040941 -1.5234012702036251e-05 0 -0.034877564785193153 2.5282947808011244e-05 0 -0.034795939619040941 -1.5234012702036251e-05 0 -0.034811874679876016 4.8341298848560871e-05 0 -0.034795939619040941 -1.5234012702036251e-05 0 -0.034689272295401571 4.9594967769786353e-05 0 -0.034811874679876016 4.8341298848560871e-05 0 -0.034503718228136901 -5.2424628004984322e-06 0 -0.034664215778437021 -3.5535674604149998e-05 0 -0.034689272295401571 4.9594967769786353e-05 0 -0.034795939619040941 -1.5234012702036251e-05 0 -0.034664215778437021 -3.5535674604149998e-05 0 -0.034689272295401571 4.9594967769786353e-05 0 -0.034717407109670723 -0.0001052873225393496 0 -0.034795939619040941 -1.5234012702036251e-05 0 -0.034664215778437021 -3.5535674604149998e-05 0 -0.034717407109670723 -0.0001052873225393496 0 -0.034595540879748671 -0.00010805724728619 0 -0.034664215778437021 -3.5535674604149998e-05 0 -0.034503718228136901 -5.2424628004984322e-06 0 -0.034689272295401571 4.9594967769786353e-05 0 -0.034628938218995216 0.00012895240521162521 0 -0.034628938218995216 0.00012895240521162521 0 -0.034737677185264451 0.0001916784447705891 0 -0.034766795541123857 9.3599390666334145e-05 0 -0.034689272295401571 4.9594967769786353e-05 0 -0.034628938218995216 0.00012895240521162521 0 -0.034766795541123857 9.3599390666334145e-05 0 -0.029636476589900342 0.00066589319746226516 0 -0.029575344001815267 0.00073965157973612924 0 -0.029572954474157923 0.00060631881476739624 0 -0.029791376181789068 0.00097262653983889167 0 -0.029563228364800149 0.00066486125187154867 0 -0.02955071344114318 0.00080025051705155778 0 -0.029575344001815267 0.00073965157973612924 0 -0.029458631010926297 0.00058112597042011193 0 -0.029572954474157923 0.00060631881476739624 0 -0.030693208250861585 0.0010459005688049474 0 -0.030054046046591513 0.0005863779728412853 0 -0.030693208250861585 0.0010459005688049474 0 -0.031690888896431846 0.00078303867258973858 0 -0.029458631010926297 0.00058112597042011193 0 -0.029572954474157923 0.00060631881476739624 0 -0.029522255885038744 0.00052678518322562108 0 -0.02963619868106928 0.00057730012835868023 0 -0.029572954474157923 0.00060631881476739624 0 -0.029594107443885409 0.00052658398993184728 0 -0.03482647430343893 0.00026390463705587883 0 -0.034737677185264451 0.0001916784447705891 0 -0.034766795541123857 9.3599390666334145e-05 0 -0.032463463270996903 0.00049260165265718747 0 -0.033043417626498005 0.0006343901436518237 0 -0.034840434127107973 0.00012457260547689723 0 -0.034833372775957078 0.00010019299500235851 0 -0.034766795541123857 9.3599390666334145e-05 0 -0.029563228364800149 0.00066486125187154867 0 -0.029336080442125864 0.00063183042999620856 0 -0.02955071344114318 0.00080025051705155778 0 -0.032463463270996903 0.00049260165265718747 0 -0.031690888896431846 0.00078303867258973858 0 -0.034833372775957078 0.00010019299500235851 0 -0.034829097606759847 7.7780482267860362e-05 0 -0.034766795541123857 9.3599390666334145e-05 0 -0.034689272295401571 4.9594967769786353e-05 0 -0.034766795541123857 9.3599390666334145e-05 0 -0.034811874679876016 4.8341298848560871e-05 0 -0.034829097606759847 7.7780482267860362e-05 0 -0.034766795541123857 9.3599390666334145e-05 0 -0.034811874679876016 4.8341298848560871e-05 0 -0.034829097606759847 7.7780482267860362e-05 0 -0.034811874679876016 4.8341298848560871e-05 0 -0.03485704825108054 5.7691049269216047e-05 0 -0.034877564785193153 2.5282947808011244e-05 0 -0.03485704825108054 5.7691049269216047e-05 0 -0.034896959397869402 5.3279285995699212e-05 0 -0.03485704825108054 5.7691049269216047e-05 0 -0.034896959397869402 5.3279285995699212e-05 0 -0.034863061106055811 8.000653427619843e-05 0 -0.034877564785193153 2.5282947808011244e-05 0 -0.034811874679876016 4.8341298848560871e-05 0 -0.03485704825108054 5.7691049269216047e-05 0 -0.034896959397869402 5.3279285995699212e-05 0 -0.034863061106055811 8.000653427619843e-05 0 -0.034885555131310066 8.5672985769751731e-05 0 -0.034829097606759847 7.7780482267860362e-05 0 -0.03485704825108054 5.7691049269216047e-05 0 -0.034863061106055811 8.000653427619843e-05 0 -0.034833372775957078 0.00010019299500235851 0 -0.034829097606759847 7.7780482267860362e-05 0 -0.034863061106055811 8.000653427619843e-05 0 -0.034896959397869402 5.3279285995699212e-05 0 -0.034918615228231052 5.17296686862187e-05 0 -0.034903149903259628 6.8011090094145275e-05 0 -0.034918889359789186 1.7247225923395991e-05 0 -0.034896959397869402 5.3279285995699212e-05 0 -0.034918615228231052 5.17296686862187e-05 0 -0.034896959397869402 5.3279285995699212e-05 0 -0.034903149903259628 6.8011090094145275e-05 0 -0.034885555131310066 8.5672985769751731e-05 0 -0.034918615228231052 5.17296686862187e-05 0 -0.034910778738379292 8.2065496690561531e-05 0 -0.034937767928431798 5.3235486064978273e-05 0 -0.034918615228231052 5.17296686862187e-05 0 -0.034903149903259628 6.8011090094145275e-05 0 -0.034910778738379292 8.2065496690561531e-05 0 -0.034910778738379292 8.2065496690561531e-05 0 -0.034881383269835989 0.00010902944547343367 0 -0.034902666993181772 0.00011946861284858698 0 -0.034903149903259628 6.8011090094145275e-05 0 -0.034910778738379292 8.2065496690561531e-05 0 -0.034885555131310066 8.5672985769751731e-05 0 -0.034910778738379292 8.2065496690561531e-05 0 -0.034881383269835989 0.00010902944547343367 0 -0.034885555131310066 8.5672985769751731e-05 0 -0.034833372775957078 0.00010019299500235851 0 -0.034863061106055811 8.000653427619843e-05 0 -0.03485750654359461 0.00011016290626064916 0 -0.034863061106055811 8.000653427619843e-05 0 -0.034885555131310066 8.5672985769751731e-05 0 -0.03485750654359461 0.00011016290626064916 0 -0.034881383269835989 0.00010902944547343367 0 -0.03485750654359461 0.00011016290626064916 0 -0.034864067716802283 0.00011684079362778564 0 -0.034881383269835989 0.00010902944547343367 0 -0.034885555131310066 8.5672985769751731e-05 0 -0.03485750654359461 0.00011016290626064916 0 -0.03485750654359461 0.00011016290626064916 0 -0.034849231912743778 0.00012339421669656592 0 -0.034864067716802283 0.00011684079362778564 0 -0.034840434127107973 0.00012457260547689723 0 -0.03485750654359461 0.00011016290626064916 0 -0.034849231912743778 0.00012339421669656592 0 -0.034840434127107973 0.00012457260547689723 0 -0.034833372775957078 0.00010019299500235851 0 -0.03485750654359461 0.00011016290626064916 0 -0.032463463270996903 0.00049260165265718747 0 -0.032573679000087667 0.00053600466963803716 0 -0.032463463270996903 0.00049260165265718747 0 -0.031731451489899969 0.0002331659676211014 0 -0.029336080442125864 0.00063183042999620856 0 -0.029238325281711563 0.00037497529741032824 0 -0.029352646163212863 0.00040770005642745081 0 -0.034839062779633445 0.00011829383663809225 0 -0.034849231912743778 0.00012339421669656592 0 -0.034853479876208245 0.00014287582315072438 0 -0.034849231912743778 0.00012339421669656592 0 -0.034864067716802283 0.00011684079362778564 0 -0.034869075883907093 0.00012824241772495769 0 -0.034881383269835989 0.00010902944547343367 0 -0.034864067716802283 0.00011684079362778564 0 -0.034869075883907093 0.00012824241772495769 0 -0.034849231912743778 0.00012339421669656592 0 -0.034869075883907093 0.00012824241772495769 0 -0.034853479876208245 0.00014287582315072438 0 -0.034881383269835989 0.00010902944547343367 0 -0.034869075883907093 0.00012824241772495769 0 -0.034902666993181772 0.00011946861284858698 0 -0.034869075883907093 0.00012824241772495769 0 -0.034902666993181772 0.00011946861284858698 0 -0.034879621347479947 0.00014764491003976007 0 -0.034902666993181772 0.00011946861284858698 0 -0.034879621347479947 0.00014764491003976007 0 -0.03490654985797214 0.00014480945274791991 0 -0.034879621347479947 0.00014764491003976007 0 -0.034862299732888923 0.00017187724344336241 0 -0.034884524337019628 0.00017292527029000838 0 -0.034879621347479947 0.00014764491003976007 0 -0.03490654985797214 0.00014480945274791991 0 -0.034884524337019628 0.00017292527029000838 0 -0.029238325281711563 0.00037497529741032824 0 -0.029254289485580925 0.00027983648387160456 0 -0.029173314630007274 0.00019991916936424556 0 -0.031731451489899969 0.0002331659676211014 0 -0.030796019350992482 -0.00024008445462629484 0 -0.034879621347479947 0.00014764491003976007 0 -0.034853479876208245 0.00014287582315072438 0 -0.034862299732888923 0.00017187724344336241 0 -0.029238325281711563 0.00037497529741032824 0 -0.029286532321400435 0.00032142026909896755 0 -0.029352646163212863 0.00040770005642745081 0 -0.029238325281711563 0.00037497529741032824 0 -0.029286532321400435 0.00032142026909896755 0 -0.029254289485580925 0.00027983648387160456 0 -0.034869075883907093 0.00012824241772495769 0 -0.034879621347479947 0.00014764491003976007 0 -0.034853479876208245 0.00014287582315072438 0 -0.029254289485580925 0.00027983648387160456 0 -0.029308452108793452 0.00026016571725459716 0 -0.029173314630007274 0.00019991916936424556 0 -0.029286532321400435 0.00032142026909896755 0 -0.029308452108793452 0.00026016571725459716 0 -0.029340988665716036 0.0003058974667596051 0 -0.029286532321400435 0.00032142026909896755 0 -0.029254289485580925 0.00027983648387160456 0 -0.029308452108793452 0.00026016571725459716 0 -0.029308452108793452 0.00026016571725459716 0 -0.029340988665716036 0.0003058974667596051 0 -0.029393627069663225 0.00028481606649910702 0 -0.029393627069663225 0.00028481606649910702 0 -0.029516812719881186 0.00026307546373366235 0 -0.029357396271763841 0.00021515647965565036 0 -0.029308452108793452 0.00026016571725459716 0 -0.029393627069663225 0.00028481606649910702 0 -0.029357396271763841 0.00021515647965565036 0 -0.029340988665716036 0.0003058974667596051 0 -0.029391288183081378 0.00034397552027639261 0 -0.029393627069663225 0.00028481606649910702 0 -0.029340988665716036 0.0003058974667596051 0 -0.029391288183081378 0.00034397552027639261 0 -0.029352646163212863 0.00040770005642745081 0 -0.029286532321400435 0.00032142026909896755 0 -0.029340988665716036 0.0003058974667596051 0 -0.029352646163212863 0.00040770005642745081 0 -0.029431748685188892 0.00039948246587096745 0 -0.029391288183081378 0.00034397552027639261 0 -0.029352646163212863 0.00040770005642745081 0 -0.029391288183081378 0.00034397552027639261 0 -0.029436493714961629 0.00032272467055798727 0 -0.029393627069663225 0.00028481606649910702 0 -0.029431748685188892 0.00039948246587096745 0 -0.029391288183081378 0.00034397552027639261 0 -0.029436493714961629 0.00032272467055798727 0 -0.029436493714961629 0.00032272467055798727 0 -0.029393627069663225 0.00028481606649910702 0 -0.029516812719881186 0.00026307546373366235 0 -0.029516812719881186 0.00026307546373366235 0 -0.029625153652614918 0.00038699320624296707 0 -0.029365396078561423 -0.00011059947170857468 0 -0.029516812719881186 0.00026307546373366235 0 -0.029625153652614918 0.00038699320624296707 0 -0.029542639955893141 0.0003949801843535382 0 -0.029625153652614918 0.00038699320624296707 0 -0.029542639955893141 0.0003949801843535382 0 -0.029555470688657517 0.00045721321931305707 0 -0.029516812719881186 0.00026307546373366235 0 -0.029542639955893141 0.0003949801843535382 0 -0.02948154107250622 0.00036656118706866465 0 -0.029436493714961629 0.00032272467055798727 0 -0.029516812719881186 0.00026307546373366235 0 -0.02948154107250622 0.00036656118706866465 0 -0.029542639955893141 0.0003949801843535382 0 -0.02948154107250622 0.00036656118706866465 0 -0.029496141364614373 0.00044322302677675699 0 -0.029431748685188892 0.00039948246587096745 0 -0.029436493714961629 0.00032272467055798727 0 -0.02948154107250622 0.00036656118706866465 0 -0.029431748685188892 0.00039948246587096745 0 -0.029496141364614373 0.00044322302677675699 0 -0.029450528322912464 0.00047177455105809857 0 -0.029431748685188892 0.00039948246587096745 0 -0.02948154107250622 0.00036656118706866465 0 -0.029496141364614373 0.00044322302677675699 0 -0.029496141364614373 0.00044322302677675699 0 -0.029555470688657517 0.00045721321931305707 0 -0.029522255885038744 0.00052678518322562108 0 -0.029496141364614373 0.00044322302677675699 0 -0.029522255885038744 0.00052678518322562108 0 -0.029450528322912464 0.00047177455105809857 0 -0.029625153652614918 0.00038699320624296707 0 -0.029555470688657517 0.00045721321931305707 0 -0.029594107443885409 0.00052658398993184728 0 -0.029542639955893141 0.0003949801843535382 0 -0.029496141364614373 0.00044322302677675699 0 -0.029555470688657517 0.00045721321931305707 0 -0.029572954474157923 0.00060631881476739624 0 -0.029594107443885409 0.00052658398993184728 0 -0.029522255885038744 0.00052678518322562108 0 -0.029555470688657517 0.00045721321931305707 0 -0.029594107443885409 0.00052658398993184728 0 -0.029522255885038744 0.00052678518322562108 0 -0.029458631010926297 0.00058112597042011193 0 -0.029522255885038744 0.00052678518322562108 0 -0.029450528322912464 0.00047177455105809857 0 -0.030054046046591513 0.0005863779728412853 0 -0.029864621894222492 0.00045032055622772315 0 -0.029563228364800149 0.00066486125187154867 0 -0.029336080442125864 0.00063183042999620856 0 -0.029352646163212863 0.00040770005642745081 0 -0.029458631010926297 0.00058112597042011193 0 -0.029352646163212863 0.00040770005642745081 0 -0.029450528322912464 0.00047177455105809857 0 -0.029431748685188892 0.00039948246587096745 0 -0.029352646163212863 0.00040770005642745081 0 -0.029450528322912464 0.00047177455105809857 0 -0.034010186681569646 -0.0019574848612621625 0 -0.034014484554457887 -0.0019560470361240983 0 -0.034012988711878016 -0.0019487869854460092 0 -0.034010186681569646 -0.0019574848612621625 0 -0.034007518383169448 -0.0019529211068383874 0 -0.034014484554457887 -0.0019560470361240983 0 -0.032331179923977549 -0.0021302022867947415 0 -0.033518666397684645 -0.0022923799478540242 0 -0.034036002839768278 -0.0022418814157060332 0 -0.033986077526002328 -0.0022108236014221397 0 -0.034001136161823299 -0.0022713229688425024 0 -0.034088045604538181 -0.002108913360716939 0 -0.034180892089422939 -0.0022458506952110508 0 -0.033986077526002328 -0.0022108236014221397 0 -0.033239932419808084 -0.0023456585759435394 0 -0.032331179923977549 -0.0021302022867947415 0 -0.034007518383169448 -0.0019529211068383874 0 -0.034014484554457887 -0.0019560470361240983 0 -0.033997589535563782 -0.0019496319259186745 0 -0.034929698926845935 0.00012423245142151397 0 -0.034964471332693869 0.00010982283368412425 0 -0.034934779077400051 0.00016233433791697151 0 -0.032331179923977549 -0.0021302022867947415 0 -0.031560793958053945 -0.0014559446941012043 0 -0.033301875464496269 -0.0012713993461346603 0 -0.031560793958053945 -0.0014559446941012043 0 -0.03490654985797214 0.00014480945274791991 0 -0.034884524337019628 0.00017292527029000838 0 -0.034934779077400051 0.00016233433791697151 0 -0.03490654985797214 0.00014480945274791991 0 -0.034929698926845935 0.00012423245142151397 0 -0.034934779077400051 0.00016233433791697151 0 -0.034902666993181772 0.00011946861284858698 0 -0.034929698926845935 0.00012423245142151397 0 -0.034935616118326809 8.8913075047435992e-05 0 -0.034902666993181772 0.00011946861284858698 0 -0.03490654985797214 0.00014480945274791991 0 -0.034929698926845935 0.00012423245142151397 0 -0.034929698926845935 0.00012423245142151397 0 -0.034964471332693869 0.00010982283368412425 0 -0.034935616118326809 8.8913075047435992e-05 0 -0.034964471332693869 0.00010982283368412425 0 -0.034935616118326809 8.8913075047435992e-05 0 -0.034959322317719595 5.601923419716121e-05 0 -0.034910778738379292 8.2065496690561531e-05 0 -0.034935616118326809 8.8913075047435992e-05 0 -0.034937767928431798 5.3235486064978273e-05 0 -0.034910778738379292 8.2065496690561531e-05 0 -0.034902666993181772 0.00011946861284858698 0 -0.034935616118326809 8.8913075047435992e-05 0 -0.034937767928431798 5.3235486064978273e-05 0 -0.034959322317719595 5.601923419716121e-05 0 -0.034945385295396481 2.8513928776658362e-05 0 -0.034935616118326809 8.8913075047435992e-05 0 -0.034937767928431798 5.3235486064978273e-05 0 -0.034959322317719595 5.601923419716121e-05 0 -0.034930715497548129 3.0254235380676198e-05 0 -0.034918615228231052 5.17296686862187e-05 0 -0.034937767928431798 5.3235486064978273e-05 0 -0.034959322317719595 5.601923419716121e-05 0 -0.034986847768402801 5.8174449603082468e-05 0 -0.03497890247832823 3.3836131527997972e-05 0 -0.034014484554457887 -0.0019560470361240983 0 -0.034033356321969264 -0.0019268472885751692 0 -0.034012988711878016 -0.0019487869854460092 0 -0.033301875464496269 -0.0012713993461346603 0 -0.034092156454988386 -0.001042634693876062 0 -0.034964471332693869 0.00010982283368412425 0 -0.034959322317719595 5.601923419716121e-05 0 -0.034986847768402801 5.8174449603082468e-05 0 -0.034010186681569646 -0.0019574848612621625 0 -0.034012988711878016 -0.0019487869854460092 0 -0.033989249399865792 -0.0019615674427142368 0 -0.033239932419808084 -0.0023456585759435394 0 -0.03343291294476812 -0.0023187536643333681 0 -0.034012988711878016 -0.0019487869854460092 0 -0.034005945294209326 -0.001928026133658396 0 -0.033989249399865792 -0.0019615674427142368 0 -0.034033356321969264 -0.0019268472885751692 0 -0.034012988711878016 -0.0019487869854460092 0 -0.034005945294209326 -0.001928026133658396 0 -0.034033356321969264 -0.0019268472885751692 0 -0.034005945294209326 -0.001928026133658396 0 -0.034006786610355492 -0.0018935636092304398 0 -0.034005945294209326 -0.001928026133658396 0 -0.034006786610355492 -0.0018935636092304398 0 -0.033978794498449816 -0.0019013148582416378 0 -0.034006786610355492 -0.0018935636092304398 0 -0.034026101495052655 -0.0018521249125856647 0 -0.033984969653180423 -0.0018624116099335744 0 -0.034033356321969264 -0.0019268472885751692 0 -0.034006786610355492 -0.0018935636092304398 0 -0.034026101495052655 -0.0018521249125856647 0 -0.034547410340929521 -0.00077466161248644888 0 -0.034544919819642493 -0.00077745262704300561 0 -0.034986847768402801 5.8174449603082468e-05 0 -0.034994104861312582 1.936951711098784e-05 0 -0.03497890247832823 3.3836131527997972e-05 0 -0.034986847768402801 5.8174449603082468e-05 0 -0.034994104861312582 1.936951711098784e-05 0 -0.034997996148947455 1.7061548136533238e-05 0 -0.034092156454988386 -0.001042634693876062 0 -0.034544919819642493 -0.00077745262704300561 0 -0.03497890247832823 3.3836131527997972e-05 0 -0.034977431328517807 2.3989358646315771e-05 0 -0.034985820641691485 2.0102939705166737e-05 0 -0.03497890247832823 3.3836131527997972e-05 0 -0.034977431328517807 2.3989358646315771e-05 0 -0.03496657661152467 2.8840902587270933e-05 0 -0.034994104861312582 1.936951711098784e-05 0 -0.03497890247832823 3.3836131527997972e-05 0 -0.034985820641691485 2.0102939705166737e-05 0 -0.034994104861312582 1.936951711098784e-05 0 -0.034985820641691485 2.0102939705166737e-05 0 -0.034992940409989869 1.4505485510085185e-05 0 -0.034985820641691485 2.0102939705166737e-05 0 -0.034988652610959715 1.2112011113026569e-05 0 -0.034992940409989869 1.4505485510085185e-05 0 -0.034985820641691485 2.0102939705166737e-05 0 -0.034988652610959715 1.2112011113026569e-05 0 -0.034982344622116877 1.573612723264523e-05 0 -0.034988652610959715 1.2112011113026569e-05 0 -0.034994472716743941 9.163674233829507e-06 0 -0.034992940409989869 1.4505485510085185e-05 0 -0.034982344622116877 1.573612723264523e-05 0 -0.034983111433292323 7.7942192531558838e-06 0 -0.034972869310436347 1.8713376380425218e-05 0 -0.034977431328517807 2.3989358646315771e-05 0 -0.034982344622116877 1.573612723264523e-05 0 -0.034972869310436347 1.8713376380425218e-05 0 -0.034977431328517807 2.3989358646315771e-05 0 -0.034985820641691485 2.0102939705166737e-05 0 -0.034982344622116877 1.573612723264523e-05 0 -0.034988652610959715 1.2112011113026569e-05 0 -0.034982344622116877 1.573612723264523e-05 0 -0.034983111433292323 7.7942192531558838e-06 0 -0.034988652610959715 1.2112011113026569e-05 0 -0.034983111433292323 7.7942192531558838e-06 0 -0.034991074757476447 7.7174346799577445e-06 0 -0.034988652610959715 1.2112011113026569e-05 0 -0.034991074757476447 7.7174346799577445e-06 0 -0.034994472716743941 9.163674233829507e-06 0 -0.034544919819642493 -0.00077745262704300561 0 -0.034538630452070597 -0.00078295418432163455 0 -0.034994472716743941 9.163674233829507e-06 0 -0.034995607195490656 1.2545907799835203e-05 0 -0.034997367558412894 5.1116555879107676e-06 0 -0.034991074757476447 7.7174346799577445e-06 0 -0.034994472716743941 9.163674233829507e-06 0 -0.034995084220090678 5.3615904586020689e-06 0 -0.034994472716743941 9.163674233829507e-06 0 -0.034997367558412894 5.1116555879107676e-06 0 -0.034995084220090678 5.3615904586020689e-06 0 -0.034995607195490656 1.2545907799835203e-05 0 -0.034995324018576676 1.3750910356925982e-05 0 -0.035000088237619999 4.3084048012262044e-06 0 -0.034995607195490656 1.2545907799835203e-05 0 -0.034997367558412894 5.1116555879107676e-06 0 -0.035000088237619999 4.3084048012262044e-06 0 -0.034994104861312582 1.936951711098784e-05 0 -0.034992940409989869 1.4505485510085185e-05 0 -0.034995664981755395 1.6794821122504489e-05 0 -0.034995607195490656 1.2545907799835203e-05 0 -0.034992940409989869 1.4505485510085185e-05 0 -0.034995664981755395 1.6794821122504489e-05 0 -0.034544248510825958 -0.00076734933164411621 0 -0.034544919819642493 -0.00077745262704300561 0 -0.034994472716743941 9.163674233829507e-06 0 -0.034995607195490656 1.2545907799835203e-05 0 -0.034992940409989869 1.4505485510085185e-05 0 -0.034930715497548129 3.0254235380676198e-05 0 -0.034945385295396481 2.8513928776658362e-05 0 -0.034936096030996767 1.3568051055342401e-05 0 -0.034930715497548129 3.0254235380676198e-05 0 -0.034937767928431798 5.3235486064978273e-05 0 -0.034945385295396481 2.8513928776658362e-05 0 -0.034959322317719595 5.601923419716121e-05 0 -0.03497890247832823 3.3836131527997972e-05 0 -0.03496657661152467 2.8840902587270933e-05 0 -0.034959322317719595 5.601923419716121e-05 0 -0.034945385295396481 2.8513928776658362e-05 0 -0.03496657661152467 2.8840902587270933e-05 0 -0.034945385295396481 2.8513928776658362e-05 0 -0.03496657661152467 2.8840902587270933e-05 0 -0.034962164603659945 1.4330072618671881e-05 0 -0.034977431328517807 2.3989358646315771e-05 0 -0.03496657661152467 2.8840902587270933e-05 0 -0.034972869310436347 1.8713376380425218e-05 0 -0.03496657661152467 2.8840902587270933e-05 0 -0.034972869310436347 1.8713376380425218e-05 0 -0.034962164603659945 1.4330072618671881e-05 0 -0.034983111433292323 7.7942192531558838e-06 0 -0.034972869310436347 1.8713376380425218e-05 0 -0.034962164603659945 1.4330072618671881e-05 0 -0.034962164603659945 1.4330072618671881e-05 0 -0.034936096030996767 1.3568051055342401e-05 0 -0.034969070478157879 -3.6955869765432111e-06 0 -0.034945385295396481 2.8513928776658362e-05 0 -0.034962164603659945 1.4330072618671881e-05 0 -0.034936096030996767 1.3568051055342401e-05 0 -0.034981855902043918 -4.6424846489227224e-06 0 -0.03498832806113876 -5.9776173376337389e-06 0 -0.034994911477980679 -2.9366818308175614e-06 0 -0.034960247834175895 5.6473288341703412e-06 0 -0.034974795343483148 -1.1274688050868673e-06 0 -0.034983111433292323 7.7942192531558838e-06 0 -0.034962164603659945 1.4330072618671881e-05 0 -0.034969070478157879 -3.6955869765432111e-06 0 -0.03498832806113876 -5.9776173376337389e-06 0 -0.034994911477980679 -2.9366818308175614e-06 0 -0.034999993886549959 -4.9150209699105349e-09 0 -0.034974795343483148 -1.1274688050868673e-06 0 -0.03498108859646553 -3.2467645145575516e-06 0 -0.034994911477980679 -2.9366818308175614e-06 0 -0.034999993886549959 -4.9150209699105349e-09 0 -0.034998725484245992 -1.2736233706229854e-06 0 -0.034999977707434946 -9.665393180412079e-09 0 -0.03498832806113876 -5.9776173376337389e-06 0 -0.034999993886549959 -4.9150209699105349e-09 0 -0.034996752394357712 2.3711975135624053e-06 0 -0.034997076559517802 -3.0304899620875764e-07 0 -0.03499959105183633 9.5229547750815135e-07 0 -0.034996752394357712 2.3711975135624053e-06 0 -0.034992590027879855 3.2410980930874379e-06 0 -0.034997076559517802 -3.0304899620875764e-07 0 -0.034996752394357712 2.3711975135624053e-06 0 -0.034997367558412894 5.1116555879107676e-06 0 -0.03499959105183633 9.5229547750815135e-07 0 -0.034996752394357712 2.3711975135624053e-06 0 -0.034995084220090678 5.3615904586020689e-06 0 -0.034992590027879855 3.2410980930874379e-06 0 -0.034991074757476447 7.7174346799577445e-06 0 -0.034995084220090678 5.3615904586020689e-06 0 -0.034992590027879855 3.2410980930874379e-06 0 -0.034996752394357712 2.3711975135624053e-06 0 -0.034997367558412894 5.1116555879107676e-06 0 -0.034995084220090678 5.3615904586020689e-06 0 -0.034983111433292323 7.7942192531558838e-06 0 -0.034992590027879855 3.2410980930874379e-06 0 -0.034989148542966551 -4.8190014080538719e-08 0 -0.034983111433292323 7.7942192531558838e-06 0 -0.034969070478157879 -3.6955869765432111e-06 0 -0.034989148542966551 -4.8190014080538719e-08 0 -0.034983111433292323 7.7942192531558838e-06 0 -0.034991074757476447 7.7174346799577445e-06 0 -0.034992590027879855 3.2410980930874379e-06 0 -0.034992590027879855 3.2410980930874379e-06 0 -0.034989148542966551 -4.8190014080538719e-08 0 -0.034997076559517802 -3.0304899620875764e-07 0 -0.034989148542966551 -4.8190014080538719e-08 0 -0.034998725484245992 -1.2736233706229854e-06 0 -0.034997076559517802 -3.0304899620875764e-07 0 -0.034969070478157879 -3.6955869765432111e-06 0 -0.034989148542966551 -4.8190014080538719e-08 0 -0.034998725484245992 -1.2736233706229854e-06 0 -0.034999993886549959 -4.9150209699105349e-09 0 -0.034998725484245992 -1.2736233706229854e-06 0 -0.034999990282065796 -3.4784502961299758e-09 0 -0.034998725484245992 -1.2736233706229854e-06 0 -0.034999990282065796 -3.4784502961299758e-09 0 -0.034997076559517802 -3.0304899620875764e-07 0 -0.034999990282065796 -3.4784502961299758e-09 0 -0.034997076559517802 -3.0304899620875764e-07 0 -0.03499959105183633 9.5229547750815135e-07 0 -0.034999990282065796 -3.4784502961299758e-09 0 -0.03499959105183633 9.5229547750815135e-07 0 -0.035000002805413995 1.7529018478797196e-09 0 -0.034997367558412894 5.1116555879107676e-06 0 -0.03499959105183633 9.5229547750815135e-07 0 -0.035000088237619999 4.3084048012262044e-06 0 -0.03499959105183633 9.5229547750815135e-07 0 -0.03500079341435542 7.7183953016183443e-07 0 -0.035000088237619999 4.3084048012262044e-06 0 -0.03455974987228403 -0.00072026166245883045 0 -0.034538630452070597 -0.00078295418432163455 0 -0.03499959105183633 9.5229547750815135e-07 0 -0.035000002805413995 1.7529018478797196e-09 0 -0.03500079341435542 7.7183953016183443e-07 0 -0.035000002805413995 1.7529018478797196e-09 0 -0.035000000194866938 -9.8133905500434277e-10 0 -0.03500079341435542 7.7183953016183443e-07 0 -0.034999141112271266 -7.3681495888061201e-07 0 -0.03455974987228403 -0.00072026166245883045 0 -0.034999999939504395 -1.8726979908312519e-09 0 -0.034999280528363708 -4.1720866828289158e-06 0 -0.035006068356863304 -1.618240858430834e-05 0 -0.034472047822341624 -0.00053625646487381624 0 -0.034821201238438272 -0.00025082365710007412 0 -0.034999379027556538 -2.0161204971292384e-06 0 -0.034999999939504395 -1.8726979908312519e-09 0 -0.034999997458555789 -2.5802596965841393e-09 0 -0.034999379027556538 -2.0161204971292384e-06 0 -0.034998818998528254 -4.2640931960673974e-06 0 -0.03499950020613668 -1.0456068391627916e-06 0 -0.034999379027556538 -2.0161204971292384e-06 0 -0.034999999939504395 -1.8726979908312519e-09 0 -0.034999280528363708 -4.1720866828289158e-06 0 -0.034500119882913745 -0.00046777052814239598 0 -0.034472047822341624 -0.00053625646487381624 0 -0.034999379027556538 -2.0161204971292384e-06 0 -0.034999280528363708 -4.1720866828289158e-06 0 -0.034998818998528254 -4.2640931960673974e-06 0 -0.035291599298244034 -4.2481712404739213e-05 0 -0.035267554729612731 -0.00054438812619624023 0 -0.03501811032524145 -0.00021058850911528847 0 -0.034472047822341624 -0.00053625646487381624 0 -0.034316748493216587 -0.001115417713184008 0 -0.034999280528363708 -4.1720866828289158e-06 0 -0.034997162165198353 -9.9784331365919159e-06 0 -0.035006068356863304 -1.618240858430834e-05 0 -0.034472047822341624 -0.00053625646487381624 0 -0.03455974987228403 -0.00072026166245883045 0 -0.03375412067237607 -0.0016155573239681265 0 -0.033852902036822903 -0.0016641645465788348 0 -0.033819225637053814 -0.0017609533141763913 0 -0.03375412067237607 -0.0016155573239681265 0 -0.033819225637053814 -0.0017609533141763913 0 -0.033719155076252991 -0.0017671590381864242 0 -0.033719155076252991 -0.0017671590381864242 0 -0.033764390876470263 -0.001853819914185341 0 -0.033686832853426746 -0.0019138743058503529 0 -0.034316748493216587 -0.001115417713184008 0 -0.034077815120100607 -0.0014936153848287121 0 -0.033819225637053814 -0.0017609533141763913 0 -0.033719155076252991 -0.0017671590381864242 0 -0.033764390876470263 -0.001853819914185341 0 -0.033819225637053814 -0.0017609533141763913 0 -0.033764390876470263 -0.001853819914185341 0 -0.033841726557206533 -0.0018607225539887689 0 -0.033841726557206533 -0.0018607225539887689 0 -0.033913751991686177 -0.0018685224236482242 0 -0.033919536401092756 -0.0017810725609470682 0 -0.033819225637053814 -0.0017609533141763913 0 -0.033841726557206533 -0.0018607225539887689 0 -0.033919536401092756 -0.0017810725609470682 0 -0.034407185890133231 -0.0013692688330940871 0 -0.03435193549245457 -0.001535102453899539 0 -0.034006786610355492 -0.0018935636092304398 0 -0.033984969653180423 -0.0018624116099335744 0 -0.033978794498449816 -0.0019013148582416378 0 -0.033913751991686177 -0.0018685224236482242 0 -0.033919536401092756 -0.0017810725609470682 0 -0.033978794498449816 -0.0019013148582416378 0 -0.033984969653180423 -0.0018624116099335744 0 -0.033946457629828466 -0.0018477315555104402 0 -0.033978794498449816 -0.0019013148582416378 0 -0.034026101495052655 -0.0018521249125856647 0 -0.033984969653180423 -0.0018624116099335744 0 -0.033971474958794039 -0.0018199549249495802 0 -0.033984969653180423 -0.0018624116099335744 0 -0.033971474958794039 -0.0018199549249495802 0 -0.033946457629828466 -0.0018477315555104402 0 -0.033852902036822903 -0.0016641645465788348 0 -0.033819225637053814 -0.0017609533141763913 0 -0.033919536401092756 -0.0017810725609470682 0 -0.033913895144785308 -0.0017861219114404297 0 -0.033971474958794039 -0.0018199549249495802 0 -0.033946457629828466 -0.0018477315555104402 0 -0.03455974987228403 -0.00072026166245883045 0 -0.034407185890133231 -0.0013692688330940871 0 -0.034521782174451836 -0.00014949879921165432 0 -0.034352685230637038 -0.00019318331006756693 0 -0.03420307791571852 -7.7586342682405549e-05 0 -0.03442973001577708 -0.00024926753910815922 0 -0.034352685230637038 -0.00019318331006756693 0 -0.034294017933018478 -0.00025790172051274197 0 -0.03442973001577708 -0.00024926753910815922 0 -0.034521782174451836 -0.00014949879921165432 0 -0.034352685230637038 -0.00019318331006756693 0 -0.034744969439801744 -3.3557034592554391e-05 0 -0.034700219754776843 -4.5575667842032418e-05 0 -0.034999730485488031 -9.8969398174811393e-08 0 -0.034832063092878007 9.7121327717900286e-06 0 -0.035019084674908482 1.1976168351790914e-05 0 -0.034521782174451836 -0.00014949879921165432 0 -0.034832063092878007 9.7121327717900286e-06 0 -0.03420307791571852 -7.7586342682405549e-05 0 -0.034999730485488031 -9.8969398174811393e-08 0 -0.034832063092878007 9.7121327717900286e-06 0 -0.034999288960122034 1.4024277081513766e-07 0 -0.034832063092878007 9.7121327717900286e-06 0 -0.034647529027610618 -0.00014203984063855023 0 -0.034854910810848606 -4.0433089344448653e-05 0 -0.034521782174451836 -0.00014949879921165432 0 -0.034832063092878007 9.7121327717900286e-06 0 -0.034647529027610618 -0.00014203984063855023 0 -0.03442973001577708 -0.00024926753910815922 0 -0.034521782174451836 -0.00014949879921165432 0 -0.034647529027610618 -0.00014203984063855023 0 -0.03442973001577708 -0.00024926753910815922 0 -0.034647529027610618 -0.00014203984063855023 0 -0.034418006436539493 -0.00029196355755264973 0 -0.034647529027610618 -0.00014203984063855023 0 -0.034751074840841757 -0.00017887681637860213 0 -0.034418006436539493 -0.00029196355755264973 0 -0.034751074840841757 -0.00017887681637860213 0 -0.034854910810848606 -4.0433089344448653e-05 0 -0.035004282807082752 3.5167972860415623e-05 0 -0.034647529027610618 -0.00014203984063855023 0 -0.034751074840841757 -0.00017887681637860213 0 -0.034854910810848606 -4.0433089344448653e-05 0 -0.034832063092878007 9.7121327717900286e-06 0 -0.034999288960122034 1.4024277081513766e-07 0 -0.034854910810848606 -4.0433089344448653e-05 0 -0.034999288960122034 1.4024277081513766e-07 0 -0.034854910810848606 -4.0433089344448653e-05 0 -0.035004282807082752 3.5167972860415623e-05 0 -0.034999647476884221 -6.3870104851012687e-07 0 -0.034821201238438272 -0.00025082365710007412 0 -0.035000000206817407 9.5159005037674007e-10 0 -0.034999997458555789 -2.5802596965841393e-09 0 -0.03499950020613668 -1.0456068391627916e-06 0 -0.034999379027556538 -2.0161204971292384e-06 0 -0.034999997458555789 -2.5802596965841393e-09 0 -0.03499950020613668 -1.0456068391627916e-06 0 -0.035291599298244034 -4.2481712404739213e-05 0 -0.035004282807082752 3.5167972860415623e-05 0 -0.03501811032524145 -0.00021058850911528847 0 -0.034751074840841757 -0.00017887681637860213 0 -0.035004282807082752 3.5167972860415623e-05 0 -0.03501811032524145 -0.00021058850911528847 0 -0.034751074840841757 -0.00017887681637860213 0 -0.03501811032524145 -0.00021058850911528847 0 -0.034764885086387011 -0.00046542995064728252 0 -0.035267554729612731 -0.00054438812619624023 0 -0.03501811032524145 -0.00021058850911528847 0 -0.034764885086387011 -0.00046542995064728252 0 -0.035267554729612731 -0.00054438812619624023 0 -0.034674462413768606 -0.0011717537698984995 0 -0.035129006558736318 -0.0013416020167519814 0 -0.035267554729612731 -0.00054438812619624023 0 -0.034764885086387011 -0.00046542995064728252 0 -0.034674462413768606 -0.0011717537698984995 0 -0.033891376828558119 -0.0012912918217874456 0 -0.033999834724370216 -0.0013660460590930771 0 -0.034360253435902058 -0.00064895002040134351 0 -0.033809979449257739 -0.0010164711571590418 0 -0.034674462413768606 -0.0011717537698984995 0 -0.034360253435902058 -0.00064895002040134351 0 -0.034764885086387011 -0.00046542995064728252 0 -0.034674462413768606 -0.0011717537698984995 0 -0.034360253435902058 -0.00064895002040134351 0 -0.034477711623506345 -0.00037659443885467125 0 -0.034144630600426079 -0.00039648630572638267 0 -0.034360253435902058 -0.00064895002040134351 0 -0.034764885086387011 -0.00046542995064728252 0 -0.034477711623506345 -0.00037659443885467125 0 -0.034751074840841757 -0.00017887681637860213 0 -0.034764885086387011 -0.00046542995064728252 0 -0.034477711623506345 -0.00037659443885467125 0 -0.034751074840841757 -0.00017887681637860213 0 -0.034477711623506345 -0.00037659443885467125 0 -0.034418006436539493 -0.00029196355755264973 0 -0.03442973001577708 -0.00024926753910815922 0 -0.034418006436539493 -0.00029196355755264973 0 -0.034303611730032262 -0.00035452525348226129 0 -0.034418006436539493 -0.00029196355755264973 0 -0.034144630600426079 -0.00039648630572638267 0 -0.034303611730032262 -0.00035452525348226129 0 -0.034477711623506345 -0.00037659443885467125 0 -0.034418006436539493 -0.00029196355755264973 0 -0.034144630600426079 -0.00039648630572638267 0 -0.034360253435902058 -0.00064895002040134351 0 -0.034144630600426079 -0.00039648630572638267 0 -0.033809979449257739 -0.0010164711571590418 0 -0.033809979449257739 -0.0010164711571590418 0 -0.032912934298779499 -0.0010026898425522369 0 -0.033279202476703629 -0.0012885493574302767 0 -0.033763716483450792 -0.00068717332683097506 0 -0.033625067462769644 -0.00081894794341282431 0 -0.034144630600426079 -0.00039648630572638267 0 -0.033809979449257739 -0.0010164711571590418 0 -0.032912934298779499 -0.0010026898425522369 0 -0.034296277164932061 -0.00032684427910448249 0 -0.034288388649253647 -0.00033362360509246839 0 -0.034257596221678045 -0.00034437240027098304 0 -0.034296277164932061 -0.00032684427910448249 0 -0.034288388649253647 -0.00033362360509246839 0 -0.034303611730032262 -0.00035452525348226129 0 -0.034144630600426079 -0.00039648630572638267 0 -0.034296277164932061 -0.00032684427910448249 0 -0.034303611730032262 -0.00035452525348226129 0 -0.034288388649253647 -0.00033362360509246839 0 -0.034303611730032262 -0.00035452525348226129 0 -0.034273379464380783 -0.00030916457389561984 0 -0.034303611730032262 -0.00035452525348226129 0 -0.034294017933018478 -0.00025790172051274197 0 -0.034273379464380783 -0.00030916457389561984 0 -0.03442973001577708 -0.00024926753910815922 0 -0.034303611730032262 -0.00035452525348226129 0 -0.034294017933018478 -0.00025790172051274197 0 -0.032888505166377702 -0.0015758451355291996 0 -0.032690994084142624 -0.0019564057432479558 0 -0.032390444862911448 -0.0019135755544218691 0 -0.032888505166377702 -0.0015758451355291996 0 -0.03307258937140993 -0.0018242718035887543 0 -0.032690994084142624 -0.0019564057432479558 0 -0.032912934298779499 -0.0010026898425522369 0 -0.032888505166377702 -0.0015758451355291996 0 -0.032372157650357718 -0.0014558738195353793 0 -0.032912934298779499 -0.0010026898425522369 0 -0.032888505166377702 -0.0015758451355291996 0 -0.033279202476703629 -0.0012885493574302767 0 -0.032888505166377702 -0.0015758451355291996 0 -0.033279202476703629 -0.0012885493574302767 0 -0.033428535277600993 -0.0014295706890088541 0 -0.033809979449257739 -0.0010164711571590418 0 -0.033279202476703629 -0.0012885493574302767 0 -0.033428535277600993 -0.0014295706890088541 0 -0.032888505166377702 -0.0015758451355291996 0 -0.033428535277600993 -0.0014295706890088541 0 -0.03307258937140993 -0.0018242718035887543 0 -0.033428535277600993 -0.0014295706890088541 0 -0.033434828558001999 -0.0017519781045148861 0 -0.03307258937140993 -0.0018242718035887543 0 -0.033428535277600993 -0.0014295706890088541 0 -0.033434828558001999 -0.0017519781045148861 0 -0.033641433756680487 -0.0014809739230500015 0 -0.033809979449257739 -0.0010164711571590418 0 -0.033428535277600993 -0.0014295706890088541 0 -0.033656467822148206 -0.0012483710860380097 0 -0.033428535277600993 -0.0014295706890088541 0 -0.033656467822148206 -0.0012483710860380097 0 -0.033641433756680487 -0.0014809739230500015 0 -0.033656467822148206 -0.0012483710860380097 0 -0.033857410554169257 -0.0013643492054666462 0 -0.033641433756680487 -0.0014809739230500015 0 -0.033999834724370216 -0.0013660460590930771 0 -0.034077815120100607 -0.0014936153848287121 0 -0.034077815120100607 -0.0014936153848287121 0 -0.033899910981749583 -0.001775753237217264 0 -0.033857410554169257 -0.0013643492054666462 0 -0.033641433756680487 -0.0014809739230500015 0 -0.033754250414166298 -0.0017038787554278911 0 -0.033434828558001999 -0.0017519781045148861 0 -0.033641433756680487 -0.0014809739230500015 0 -0.033754250414166298 -0.0017038787554278911 0 -0.033434828558001999 -0.0017519781045148861 0 -0.033754250414166298 -0.0017038787554278911 0 -0.033525634039277351 -0.0021254075980072762 0 -0.033899910981749583 -0.001775753237217264 0 -0.033835030116197866 -0.0018929625732593644 0 -0.033573043890887388 -0.0020071006644364771 0 -0.033525634039277351 -0.0021254075980072762 0 -0.033684213119393069 -0.0021053250354697017 0 -0.03321285412548082 -0.0020622002525744433 0 -0.032765276804813226 -0.0021934623524373057 0 -0.03328703322062191 -0.0025877589965461606 0 -0.033525634039277351 -0.0021254075980072762 0 -0.03321285412548082 -0.0020622002525744433 0 -0.03328703322062191 -0.0025877589965461606 0 -0.033434828558001999 -0.0017519781045148861 0 -0.03321285412548082 -0.0020622002525744433 0 -0.03307258937140993 -0.0018242718035887543 0 -0.033434828558001999 -0.0017519781045148861 0 -0.033525634039277351 -0.0021254075980072762 0 -0.03321285412548082 -0.0020622002525744433 0 -0.03307258937140993 -0.0018242718035887543 0 -0.032765276804813226 -0.0021934623524373057 0 -0.032690994084142624 -0.0019564057432479558 0 -0.03321285412548082 -0.0020622002525744433 0 -0.03307258937140993 -0.0018242718035887543 0 -0.032765276804813226 -0.0021934623524373057 0 -0.032390274156232392 -0.0023705632977357692 0 -0.032384983047815508 -0.0022168876746140455 0 -0.032156781227320443 -0.0024753796795173805 0 -0.032765276804813226 -0.0021934623524373057 0 -0.032390274156232392 -0.0023705632977357692 0 -0.032384983047815508 -0.0022168876746140455 0 -0.032765276804813226 -0.0021934623524373057 0 -0.032384983047815508 -0.0022168876746140455 0 -0.032690994084142624 -0.0019564057432479558 0 -0.032384983047815508 -0.0022168876746140455 0 -0.032690994084142624 -0.0019564057432479558 0 -0.032390444862911448 -0.0019135755544218691 0 -0.033934469559103363 -0.0020226890938305946 0 -0.03391359155160549 -0.0019278034644492333 0 -0.033812383087119487 -0.0019653394896113215 0 -0.03394682834389557 -0.0017778197413213031 0 -0.033929593030175696 -0.0016972327373567042 0 -0.033934469559103363 -0.0020226890938305946 0 -0.033777749147932391 -0.0019495821810414941 0 -0.033825826500082472 -0.0020855077177815871 0 -0.033934469559103363 -0.0020226890938305946 0 -0.033989249399865792 -0.0019615674427142368 0 -0.033980684426712801 -0.0020905682855356751 0 -0.033934469559103363 -0.0020226890938305946 0 -0.033989249399865792 -0.0019615674427142368 0 -0.03391359155160549 -0.0019278034644492333 0 -0.033989249399865792 -0.0019615674427142368 0 -0.033978794498449816 -0.0019013148582416378 0 -0.03391359155160549 -0.0019278034644492333 0 -0.034005945294209326 -0.001928026133658396 0 -0.033989249399865792 -0.0019615674427142368 0 -0.033978794498449816 -0.0019013148582416378 0 -0.033913751991686177 -0.0018685224236482242 0 -0.033978794498449816 -0.0019013148582416378 0 -0.03391359155160549 -0.0019278034644492333 0 -0.033841726557206533 -0.0018607225539887689 0 -0.033913751991686177 -0.0018685224236482242 0 -0.03391359155160549 -0.0019278034644492333 0 -0.033841726557206533 -0.0018607225539887689 0 -0.03391359155160549 -0.0019278034644492333 0 -0.033812383087119487 -0.0019653394896113215 0 -0.033764390876470263 -0.001853819914185341 0 -0.033841726557206533 -0.0018607225539887689 0 -0.033812383087119487 -0.0019653394896113215 0 -0.034077815120100607 -0.0014936153848287121 0 -0.033929593030175696 -0.0016972327373567042 0 -0.033764390876470263 -0.001853819914185341 0 -0.033686832853426746 -0.0019138743058503529 0 -0.033812383087119487 -0.0019653394896113215 0 -0.033573043890887388 -0.0020071006644364771 0 -0.033777749147932391 -0.0019495821810414941 0 -0.033684213119393069 -0.0021053250354697017 0 -0.033606070468962475 -0.0018748270390607955 0 -0.033573043890887388 -0.0020071006644364771 0 -0.033777749147932391 -0.0019495821810414941 0 -0.033825826500082472 -0.0020855077177815871 0 -0.033684213119393069 -0.0021053250354697017 0 -0.033812071183977048 -0.0022085768366506288 0 -0.033777749147932391 -0.0019495821810414941 0 -0.033825826500082472 -0.0020855077177815871 0 -0.033684213119393069 -0.0021053250354697017 0 -0.033684213119393069 -0.0021053250354697017 0 -0.033812071183977048 -0.0022085768366506288 0 -0.033695841085758391 -0.0024215990850889025 0 -0.033525634039277351 -0.0021254075980072762 0 -0.033684213119393069 -0.0021053250354697017 0 -0.033695841085758391 -0.0024215990850889025 0 -0.033909466315377973 -0.0021466787644457363 0 -0.033986077526002328 -0.0022108236014221397 0 -0.033879191928366803 -0.002328040938812388 0 -0.033812071183977048 -0.0022085768366506288 0 -0.033909466315377973 -0.0021466787644457363 0 -0.033879191928366803 -0.002328040938812388 0 -0.033825826500082472 -0.0020855077177815871 0 -0.033812071183977048 -0.0022085768366506288 0 -0.033909466315377973 -0.0021466787644457363 0 -0.033934469559103363 -0.0020226890938305946 0 -0.033825826500082472 -0.0020855077177815871 0 -0.033909466315377973 -0.0021466787644457363 0 -0.033909466315377973 -0.0021466787644457363 0 -0.033980684426712801 -0.0020905682855356751 0 -0.033986077526002328 -0.0022108236014221397 0 -0.034088045604538181 -0.002108913360716939 0 -0.033989249399865792 -0.0019615674427142368 0 -0.033980684426712801 -0.0020905682855356751 0 -0.034088045604538181 -0.002108913360716939 0 -0.033980684426712801 -0.0020905682855356751 0 -0.033986077526002328 -0.0022108236014221397 0 -0.033934469559103363 -0.0020226890938305946 0 -0.033909466315377973 -0.0021466787644457363 0 -0.033980684426712801 -0.0020905682855356751 0 -0.033986077526002328 -0.0022108236014221397 0 -0.033879191928366803 -0.002328040938812388 0 -0.034001136161823299 -0.0022713229688425024 0 -0.031357664300510506 -0.0025502583066908937 0 -0.030912066822528967 -0.0022851503124247112 0 -0.027814868479340751 -0.0027876994792167781 0 -0.02889176507791107 -0.0032286704225189841 0 -0.027676407342514687 -0.003228008170587009 0 -0.028247877429643669 -0.0025119510682113095 0 -0.028567629512989332 -0.0022249184324990845 0 -0.027814868479340751 -0.0027876994792167781 0 -0.028550100489144619 -0.0026060174386759172 0 -0.028636429355296547 -0.0018755388051488889 0 -0.027814868479340751 -0.0027876994792167781 0 -0.028091258191719221 -0.0023713919179877605 0 -0.027713929398110175 -0.0024899228484540977 0 -0.027814868479340751 -0.0027876994792167781 0 -0.028550100489144619 -0.0026060174386759172 0 -0.02889176507791107 -0.0032286704225189841 0 -0.028550100489144619 -0.0026060174386759172 0 -0.02889176507791107 -0.0032286704225189841 0 -0.029569324694988658 -0.0022276065838821913 0 -0.033812071183977048 -0.0022085768366506288 0 -0.033879191928366803 -0.002328040938812388 0 -0.033695841085758391 -0.0024215990850889025 0 -0.031357664300510506 -0.0025502583066908937 0 -0.03179831681490581 -0.0026560802514920515 0 -0.030135942359125437 -0.003118815581825266 0 -0.029569324694988658 -0.0022276065838821913 0 -0.030789139316668497 -0.0023484844780130619 0 -0.02889176507791107 -0.0032286704225189841 0 -0.030135942359125437 -0.003118815581825266 0 -0.029569324694988658 -0.0022276065838821913 0 -0.029569324694988658 -0.0022276065838821913 0 -0.029418990362978834 -0.0010411139839211041 0 -0.028636429355296547 -0.0018755388051488889 0 -0.029569324694988658 -0.0022276065838821913 0 -0.030789139316668497 -0.0023484844780130619 0 -0.03048077940747582 -0.0014564291339243345 0 -0.029164729839817601 -0.00182827889942105 0 -0.030002893157829915 -0.0019582214035451344 0 -0.029569324694988658 -0.0022276065838821913 0 -0.029418990362978834 -0.0010411139839211041 0 -0.03048077940747582 -0.0014564291339243345 0 -0.029280627509804279 -0.001871754487474582 0 -0.028779838991615167 -0.0019378786010155267 0 -0.029676492385426675 -0.0022629106995673332 0 -0.029280627509804279 -0.001871754487474582 0 -0.029676492385426675 -0.0022629106995673332 0 -0.029481845376495078 -0.001797135434537212 0 -0.029164729839817601 -0.00182827889942105 0 -0.029147643651014115 -0.0018248472484633197 0 -0.027831752317424185 -0.0019174786842971669 0 -0.028091258191719221 -0.0023713919179877605 0 -0.028111591469574378 -0.001900495687252198 0 -0.02840464908187447 -0.0019501848621845304 0 -0.028091258191719221 -0.0023713919179877605 0 -0.028111591469574378 -0.001900495687252198 0 -0.028485944967481705 -0.0019798345150538357 0 -0.02840464908187447 -0.0019501848621845304 0 -0.028091258191719221 -0.0023713919179877605 0 -0.029164729839817601 -0.00182827889942105 0 -0.028567629512989332 -0.0022249184324990845 0 -0.027831752317424185 -0.0019174786842971669 0 -0.027700738187772581 -0.0022300744371418018 0 -0.028091258191719221 -0.0023713919179877605 0 -0.027831752317424185 -0.0019174786842971669 0 -0.027700738187772581 -0.0022300744371418018 0 -0.027479162102294986 -0.0020397437854483592 0 -0.027700738187772581 -0.0022300744371418018 0 -0.028091258191719221 -0.0023713919179877605 0 -0.027713929398110175 -0.0024899228484540977 0 -0.028550100489144619 -0.0026060174386759172 0 -0.029569324694988658 -0.0022276065838821913 0 -0.028636429355296547 -0.0018755388051488889 0 -0.032232923786240819 -0.0026079539224189707 0 -0.031851802338753954 -0.0023719971412397255 0 -0.032156781227320443 -0.0024753796795173805 0 -0.031851802338753954 -0.0023719971412397255 0 -0.032156781227320443 -0.0024753796795173805 0 -0.031989052217995792 -0.0022492135027925085 0 -0.032390274156232392 -0.0023705632977357692 0 -0.032232923786240819 -0.0026079539224189707 0 -0.032156781227320443 -0.0024753796795173805 0 -0.032765276804813226 -0.0021934623524373057 0 -0.032390274156232392 -0.0023705632977357692 0 -0.032232923786240819 -0.0026079539224189707 0 -0.032765276804813226 -0.0021934623524373057 0 -0.032232923786240819 -0.0026079539224189707 0 -0.03328703322062191 -0.0025877589965461606 0 -0.032151291390882533 -0.0026764321882351504 0 -0.032084251031458601 -0.0026835826833754915 0 -0.032232923786240819 -0.0026079539224189707 0 -0.031685736915767898 -0.0024258174833346625 0 -0.031851802338753954 -0.0023719971412397255 0 -0.032232923786240819 -0.0026079539224189707 0 -0.031685736915767898 -0.0024258174833346625 0 -0.031229243715621233 -0.0029420471252375882 0 -0.031685736915767898 -0.0024258174833346625 0 -0.031229243715621233 -0.0029420471252375882 0 -0.030789139316668497 -0.0023484844780130619 0 -0.03179831681490581 -0.0026560802514920515 0 -0.032084251031458601 -0.0026835826833754915 0 -0.033525634039277351 -0.0021254075980072762 0 -0.033695841085758391 -0.0024215990850889025 0 -0.03328703322062191 -0.0025877589965461606 0 -0.030135942359125437 -0.003118815581825266 0 -0.031229243715621233 -0.0029420471252375882 0 -0.030789139316668497 -0.0023484844780130619 0 -0.030002893157829915 -0.0019582214035451344 0 -0.030804330069716793 -0.0021607434448979636 0 -0.030789139316668497 -0.0023484844780130619 0 -0.03048077940747582 -0.0014564291339243345 0 -0.031449281726678553 -0.0019242417596445831 0 -0.029676492385426675 -0.0022629106995673332 0 -0.030738286587882552 -0.0024484541722317116 0 -0.030236579397478192 -0.0017793638360986315 0 -0.029676492385426675 -0.0022629106995673332 0 -0.030236579397478192 -0.0017793638360986315 0 -0.029481845376495078 -0.001797135434537212 0 -0.030738286587882552 -0.0024484541722317116 0 -0.031221092654932774 -0.0019319837438758337 0 -0.030236579397478192 -0.0017793638360986315 0 -0.031685736915767898 -0.0024258174833346625 0 -0.030789139316668497 -0.0023484844780130619 0 -0.031449281726678553 -0.0019242417596445831 0 -0.031685736915767898 -0.0024258174833346625 0 -0.031449281726678553 -0.0019242417596445831 0 -0.031851802338753954 -0.0023719971412397255 0 -0.030804330069716793 -0.0021607434448979636 0 -0.031197574471177138 -0.0022702291769411305 0 -0.030738286587882552 -0.0024484541722317116 0 -0.031221092654932774 -0.0019319837438758337 0 -0.031851802338753954 -0.0023719971412397255 0 -0.031221092654932774 -0.0019319837438758337 0 -0.031729560260277824 -0.0019593851689238447 0 -0.031851802338753954 -0.0023719971412397255 0 -0.031221092654932774 -0.0019319837438758337 0 -0.031729560260277824 -0.0019593851689238447 0 -0.031446650697492876 -0.0016306007171090478 0 -0.031729560260277824 -0.0019593851689238447 0 -0.031851802338753954 -0.0023719971412397255 0 -0.031989052217995792 -0.0022492135027925085 0 -0.031489769570650528 -0.0013478402229207076 0 -0.031446650697492876 -0.0016306007171090478 0 -0.031686278237534199 -0.0016136289035469694 0 -0.031729560260277824 -0.0019593851689238447 0 -0.031446650697492876 -0.0016306007171090478 0 -0.031686278237534199 -0.0016136289035469694 0 -0.031489769570650528 -0.0013478402229207076 0 -0.031446650697492876 -0.0016306007171090478 0 -0.030740217815061761 -0.0012302557896700218 0 -0.031221092654932774 -0.0019319837438758337 0 -0.031446650697492876 -0.0016306007171090478 0 -0.030740217815061761 -0.0012302557896700218 0 -0.030915298111002611 -0.0013645980108983981 0 -0.030367889049613715 -0.0014072373137106373 0 -0.030636180548156387 -0.0014534068560509564 0 -0.029960935023749965 -0.0015017914244635294 0 -0.030185842195654979 -0.00098831095349563472 0 -0.029960935023749965 -0.0015017914244635294 0 -0.029644215281140997 -0.0013314028531469133 0 -0.029680527844393189 -0.0010221190134173446 0 -0.031221092654932774 -0.0019319837438758337 0 -0.030740217815061761 -0.0012302557896700218 0 -0.030236579397478192 -0.0017793638360986315 0 -0.030367889049613715 -0.0014072373137106373 0 -0.02999446400351934 -0.0014432819066978685 0 -0.030740217815061761 -0.0012302557896700218 0 -0.030236579397478192 -0.0017793638360986315 0 -0.02947454463461853 -0.0014490090781947515 0 -0.030236579397478192 -0.0017793638360986315 0 -0.029481845376495078 -0.001797135434537212 0 -0.02947454463461853 -0.0014490090781947515 0 -0.029644215281140997 -0.0013314028531469133 0 -0.02947454463461853 -0.0014490090781947515 0 -0.029345984683050223 -0.0013311038655331024 0 -0.029960935023749965 -0.0015017914244635294 0 -0.029644215281140997 -0.0013314028531469133 0 -0.02947454463461853 -0.0014490090781947515 0 -0.029644215281140997 -0.0013314028531469133 0 -0.029371799326650298 -0.0011093325811068237 0 -0.029345984683050223 -0.0013311038655331024 0 -0.029371799326650298 -0.0011093325811068237 0 -0.029680527844393189 -0.0010221190134173446 0 -0.029105560260221156 -0.00072966412869646124 0 -0.029644215281140997 -0.0013314028531469133 0 -0.029371799326650298 -0.0011093325811068237 0 -0.029680527844393189 -0.0010221190134173446 0 -0.029680527844393189 -0.0010221190134173446 0 -0.029786730251457637 -0.0004727085141308256 0 -0.029105560260221156 -0.00072966412869646124 0 -0.029786730251457637 -0.0004727085141308256 0 -0.029105560260221156 -0.00072966412869646124 0 -0.029034021753120184 0.00015423182483687337 0 -0.029680527844393189 -0.0010221190134173446 0 -0.029786730251457637 -0.0004727085141308256 0 -0.030185842195654979 -0.00098831095349563472 0 -0.029960935023749965 -0.0015017914244635294 0 -0.029680527844393189 -0.0010221190134173446 0 -0.030185842195654979 -0.00098831095349563472 0 -0.030636180548156387 -0.0014534068560509564 0 -0.030185842195654979 -0.00098831095349563472 0 -0.030587713911137879 -0.0009118764209471666 0 -0.030185842195654979 -0.00098831095349563472 0 -0.030418806435729879 -0.0005581536044502618 0 -0.030587713911137879 -0.0009118764209471666 0 -0.029786730251457637 -0.0004727085141308256 0 -0.030185842195654979 -0.00098831095349563472 0 -0.030418806435729879 -0.0005581536044502618 0 -0.030418806435729879 -0.0005581536044502618 0 -0.030744941804938055 -0.00067699191428701431 0 -0.030587713911137879 -0.0009118764209471666 0 -0.030744941804938055 -0.00067699191428701431 0 -0.030587713911137879 -0.0009118764209471666 0 -0.030948709260063781 -0.00093693365384512814 0 -0.030636180548156387 -0.0014534068560509564 0 -0.030587713911137879 -0.0009118764209471666 0 -0.030948709260063781 -0.00093693365384512814 0 -0.028383389243644506 -0.0014665890138530707 0 -0.028586956923567768 -0.0012164257351370044 0 -0.028030227505770288 -0.0011150334493765215 0 -0.028126813339767617 -0.0016523433607587279 0 -0.028383389243644506 -0.0014665890138530707 0 -0.028030227505770288 -0.0011150334493765215 0 -0.027703162672978853 -0.0015081545477828784 0 -0.028126813339767617 -0.0016523433607587279 0 -0.028030227505770288 -0.0011150334493765215 0 -0.027703162672978853 -0.0015081545477828784 0 -0.028030227505770288 -0.0011150334493765215 0 -0.027372571062642688 -0.0011542587558883775 0 -0.027831752317424185 -0.0019174786842971669 0 -0.027703162672978853 -0.0015081545477828784 0 -0.028126813339767617 -0.0016523433607587279 0 -0.027831752317424185 -0.0019174786842971669 0 -0.028111591469574378 -0.001900495687252198 0 -0.028126813339767617 -0.0016523433607587279 0 -0.02840464908187447 -0.0019501848621845304 0 -0.028111591469574378 -0.001900495687252198 0 -0.028126813339767617 -0.0016523433607587279 0 -0.028505295605126213 -0.001996264190497643 0 -0.02840464908187447 -0.0019501848621845304 0 -0.028558040984889142 -0.0017622574825471773 0 -0.028126813339767617 -0.0016523433607587279 0 -0.028558040984889142 -0.0017622574825471773 0 -0.028383389243644506 -0.0014665890138530707 0 -0.02840464908187447 -0.0019501848621845304 0 -0.028126813339767617 -0.0016523433607587279 0 -0.028558040984889142 -0.0017622574825471773 0 -0.029164729839817601 -0.00182827889942105 0 -0.029179418968928349 -0.00172172092895743 0 -0.029280627509804279 -0.001871754487474582 0 -0.028779838991615167 -0.0019378786010155267 0 -0.029192396717277441 -0.0015227332164094876 0 -0.028505295605126213 -0.001996264190497643 0 -0.028558040984889142 -0.0017622574825471773 0 -0.02885264507311586 -0.0017329847062411258 0 -0.028558040984889142 -0.0017622574825471773 0 -0.02885264507311586 -0.0017329847062411258 0 -0.028650385437654066 -0.0015374128279792257 0 -0.028558040984889142 -0.0017622574825471773 0 -0.028383389243644506 -0.0014665890138530707 0 -0.028650385437654066 -0.0015374128279792257 0 -0.029280627509804279 -0.001871754487474582 0 -0.029481845376495078 -0.001797135434537212 0 -0.029192396717277441 -0.0015227332164094876 0 -0.029192396717277441 -0.0015227332164094876 0 -0.02947454463461853 -0.0014490090781947515 0 -0.029345984683050223 -0.0013311038655331024 0 -0.029481845376495078 -0.001797135434537212 0 -0.029192396717277441 -0.0015227332164094876 0 -0.02947454463461853 -0.0014490090781947515 0 -0.029179418968928349 -0.00172172092895743 0 -0.029237568183273922 -0.0016320381447861606 0 -0.02885264507311586 -0.0017329847062411258 0 -0.029345984683050223 -0.0013311038655331024 0 -0.028884066849202361 -0.0013724133343817253 0 -0.029345984683050223 -0.0013311038655331024 0 -0.028884066849202361 -0.0013724133343817253 0 -0.028999669944792038 -0.001080042602076616 0 -0.028884066849202361 -0.0013724133343817253 0 -0.028586956923567768 -0.0012164257351370044 0 -0.028999669944792038 -0.001080042602076616 0 -0.029371799326650298 -0.0011093325811068237 0 -0.029345984683050223 -0.0013311038655331024 0 -0.028999669944792038 -0.001080042602076616 0 -0.028383389243644506 -0.0014665890138530707 0 -0.028650385437654066 -0.0015374128279792257 0 -0.028586956923567768 -0.0012164257351370044 0 -0.02885264507311586 -0.0017329847062411258 0 -0.028884066849202361 -0.0013724133343817253 0 -0.028650385437654066 -0.0015374128279792257 0 -0.028884066849202361 -0.0013724133343817253 0 -0.028650385437654066 -0.0015374128279792257 0 -0.028586956923567768 -0.0012164257351370044 0 -0.028586956923567768 -0.0012164257351370044 0 -0.02846024839987709 -0.00081180997126700306 0 -0.028999669944792038 -0.001080042602076616 0 -0.028586956923567768 -0.0012164257351370044 0 -0.02846024839987709 -0.00081180997126700306 0 -0.028030227505770288 -0.0011150334493765215 0 -0.02846024839987709 -0.00081180997126700306 0 -0.028999669944792038 -0.001080042602076616 0 -0.029105560260221156 -0.00072966412869646124 0 -0.029371799326650298 -0.0011093325811068237 0 -0.028999669944792038 -0.001080042602076616 0 -0.029105560260221156 -0.00072966412869646124 0 -0.02846024839987709 -0.00081180997126700306 0 -0.029105560260221156 -0.00072966412869646124 0 -0.028225302105326755 -0.00022022422211887696 0 -0.02846024839987709 -0.00081180997126700306 0 -0.027984261866254887 -0.00054762164095699764 0 -0.028225302105326755 -0.00022022422211887696 0 -0.02846024839987709 -0.00081180997126700306 0 -0.027984261866254887 -0.00054762164095699764 0 -0.028030227505770288 -0.0011150334493765215 0 -0.027984261866254887 -0.00054762164095699764 0 -0.028030227505770288 -0.0011150334493765215 0 -0.02751657832242109 -0.00059166989490145249 0 -0.028030227505770288 -0.0011150334493765215 0 -0.02751657832242109 -0.00059166989490145249 0 -0.027372571062642688 -0.0011542587558883775 0 -0.027984261866254887 -0.00054762164095699764 0 -0.02751657832242109 -0.00059166989490145249 0 -0.02777414209167561 -0.0001130962139142228 0 -0.02751657832242109 -0.00059166989490145249 0 -0.027165155052082064 -0.00044761833230294958 0 -0.026969601014930292 -0.00077583876453530501 0 -0.027165155052082064 -0.00044761833230294958 0 -0.026969601014930292 -0.00077583876453530501 0 -0.02686953784799646 -0.00030011464882072261 0 -0.026969601014930292 -0.00077583876453530501 0 -0.026915063631056509 -0.0012576617160815116 0 -0.026499405710433167 -0.00096158275642793179 0 -0.026969601014930292 -0.00077583876453530501 0 -0.027372571062642688 -0.0011542587558883775 0 -0.026915063631056509 -0.0012576617160815116 0 -0.02751657832242109 -0.00059166989490145249 0 -0.026969601014930292 -0.00077583876453530501 0 -0.027372571062642688 -0.0011542587558883775 0 -0.027703162672978853 -0.0015081545477828784 0 -0.027372571062642688 -0.0011542587558883775 0 -0.027125835642388015 -0.0017082489679873065 0 -0.027372571062642688 -0.0011542587558883775 0 -0.026915063631056509 -0.0012576617160815116 0 -0.027125835642388015 -0.0017082489679873065 0 -0.026915063631056509 -0.0012576617160815116 0 -0.027125835642388015 -0.0017082489679873065 0 -0.026498711520628136 -0.0014959797644411178 0 -0.027126694869816805 -0.0016408639632792771 0 -0.026533202555069375 -0.0014369728776528936 0 -0.027831752317424185 -0.0019174786842971669 0 -0.027703162672978853 -0.0015081545477828784 0 -0.027125835642388015 -0.0017082489679873065 0 -0.027449746619390075 -0.0017513898687016832 0 -0.027126694869816805 -0.0016408639632792771 0 -0.026204091931618628 -0.0014164719702070175 0 -0.026397271161047696 -0.0016979045219221748 0 -0.026072254885569066 -0.00189760840334236 0 -0.026204091931618628 -0.0014164719702070175 0 -0.026397271161047696 -0.0016979045219221748 0 -0.026627268813471126 -0.0013844999032163172 0 -0.027295234610314946 -0.0016547859979127112 0 -0.026627268813471126 -0.0013844999032163172 0 -0.026679597009150374 -0.0018084537607928103 0 -0.026397271161047696 -0.0016979045219221748 0 -0.026627268813471126 -0.0013844999032163172 0 -0.026679597009150374 -0.0018084537607928103 0 -0.026915063631056509 -0.0012576617160815116 0 -0.026498711520628136 -0.0014959797644411178 0 -0.026499405710433167 -0.00096158275642793179 0 -0.026498711520628136 -0.0014959797644411178 0 -0.025934391110166335 -0.0012004811005964194 0 -0.025786507928783817 -0.0012471206760821451 0 -0.026533202555069375 -0.0014369728776528936 0 -0.025903849624084908 -0.0012250598973877148 0 -0.026204091931618628 -0.0014164719702070175 0 -0.026627268813471126 -0.0013844999032163172 0 -0.025873133032220792 -0.0011150171708767904 0 -0.026498711520628136 -0.0014959797644411178 0 -0.026499405710433167 -0.00096158275642793179 0 -0.025934391110166335 -0.0012004811005964194 0 -0.026499405710433167 -0.00096158275642793179 0 -0.026164210804607436 -0.0006698600739623653 0 -0.025934391110166335 -0.0012004811005964194 0 -0.023451525525455715 -1.4956795264072732e-05 0 -0.023967096270675732 -0.00042891007400352028 0 -0.026969601014930292 -0.00077583876453530501 0 -0.02651581172896814 -0.00047304906936671237 0 -0.02686953784799646 -0.00030011464882072261 0 -0.026969601014930292 -0.00077583876453530501 0 -0.026499405710433167 -0.00096158275642793179 0 -0.02651581172896814 -0.00047304906936671237 0 -0.023451525525455715 -1.4956795264072732e-05 0 -0.021500234670227977 0.00093924833343088843 0 -0.02651581172896814 -0.00047304906936671237 0 -0.026164210804607436 -0.0006698600739623653 0 -0.026353496076715454 -0.00018511764540676113 0 -0.026499405710433167 -0.00096158275642793179 0 -0.02651581172896814 -0.00047304906936671237 0 -0.026164210804607436 -0.0006698600739623653 0 -0.025268299481334706 -0.00024822289050419478 0 -0.025656360719948236 -0.0007625253268084681 0 -0.025777834343428459 -0.00017390560954227844 0 -0.025980296548445778 -0.00049767545843262351 0 -0.025656360719948236 -0.0007625253268084681 0 -0.025777834343428459 -0.00017390560954227844 0 -0.025268299481334706 -0.00024822289050419478 0 -0.025245571302656217 -0.00064502378513843224 0 -0.025656360719948236 -0.0007625253268084681 0 -0.025245571302656217 -0.00064502378513843224 0 -0.025656360719948236 -0.0007625253268084681 0 -0.025076938032301519 -0.00093974966909087312 0 -0.025656360719948236 -0.0007625253268084681 0 -0.025076938032301519 -0.00093974966909087312 0 -0.025786507928783817 -0.0012471206760821451 0 -0.025980296548445778 -0.00049767545843262351 0 -0.025656360719948236 -0.0007625253268084681 0 -0.025934391110166335 -0.0012004811005964194 0 -0.0090692304083953533 0.0054428597274896687 0 -0.009058200632727921 0.0057704442752045315 0 -0.0087683380302082444 0.0054201332975420619 0 -0.009058200632727921 0.0057704442752045315 0 -0.0087683380302082444 0.0054201332975420619 0 -0.0086747579956059293 0.0058342270758002125 0 -0.0082366143146204961 0.0054500024391245508 0 -0.0087683380302082444 0.0054201332975420619 0 -0.0086747579956059293 0.0058342270758002125 0 -0.025268299481334706 -0.00024822289050419478 0 -0.025245571302656217 -0.00064502378513843224 0 -0.024803492977173394 -0.0007240978107958218 0 -0.016763861167940708 0.0025627124934258102 0 -0.016747153756323088 0.0025578306541379804 0 -0.024803492977173394 -0.0007240978107958218 0 -0.024799446783780005 -0.0010956304819386964 0 -0.025076938032301519 -0.00093974966909087312 0 -0.025245571302656217 -0.00064502378513843224 0 -0.024803492977173394 -0.0007240978107958218 0 -0.025076938032301519 -0.00093974966909087312 0 -0.009058200632727921 0.0057704442752045315 0 -0.0090763776033437084 0.0062146334599922142 0 -0.0086747579956059293 0.0058342270758002125 0 -0.02437363806829267 -0.0011681316047181351 0 -0.024803492977173394 -0.0007240978107958218 0 -0.024799446783780005 -0.0010956304819386964 0 -0.02437363806829267 -0.0011681316047181351 0 -0.024799446783780005 -0.0010956304819386964 0 -0.024738935009149532 -0.0013579198926098584 0 -0.016766867733473013 0.0025844013196113795 0 -0.016747153756323088 0.0025578306541379804 0 -0.024799446783780005 -0.0010956304819386964 0 -0.025019237858962318 -0.0012912922346135036 0 -0.024738935009149532 -0.0013579198926098584 0 -0.024799446783780005 -0.0010956304819386964 0 -0.025076938032301519 -0.00093974966909087312 0 -0.025019237858962318 -0.0012912922346135036 0 -0.025076938032301519 -0.00093974966909087312 0 -0.025019237858962318 -0.0012912922346135036 0 -0.025252594227985734 -0.0012272283603745255 0 -0.025019237858962318 -0.0012912922346135036 0 -0.024917248856460565 -0.0015981925487483814 0 -0.025337021854069362 -0.0015099939134387396 0 -0.024917248856460565 -0.0015981925487483814 0 -0.025337021854069362 -0.0015099939134387396 0 -0.025155847393644595 -0.0018594037964286135 0 -0.025019237858962318 -0.0012912922346135036 0 -0.024917248856460565 -0.0015981925487483814 0 -0.024738935009149532 -0.0013579198926098584 0 -0.024917248856460565 -0.0015981925487483814 0 -0.024533697418636809 -0.0016003473866868596 0 -0.024738935009149532 -0.0013579198926098584 0 -0.02437363806829267 -0.0011681316047181351 0 -0.024533697418636809 -0.0016003473866868596 0 -0.024738935009149532 -0.0013579198926098584 0 -0.025656360719948236 -0.0007625253268084681 0 -0.025934391110166335 -0.0012004811005964194 0 -0.025786507928783817 -0.0012471206760821451 0 -0.025873133032220792 -0.0011150171708767904 0 -0.025581631496005685 -0.0011574496417046391 0 -0.025738353836652194 -0.0013558970762498183 0 -0.025873133032220792 -0.0011150171708767904 0 -0.025738353836652194 -0.0013558970762498183 0 -0.025914956311763292 -0.0013673267711920253 0 -0.026204091931618628 -0.0014164719702070175 0 -0.025873133032220792 -0.0011150171708767904 0 -0.025914956311763292 -0.0013673267711920253 0 -0.025076938032301519 -0.00093974966909087312 0 -0.025873133032220792 -0.0011150171708767904 0 -0.025581631496005685 -0.0011574496417046391 0 -0.025538141180200306 -0.0011056974885629788 0 -0.025903849624084908 -0.0012250598973877148 0 -0.025076938032301519 -0.00093974966909087312 0 -0.025252594227985734 -0.0012272283603745255 0 -0.025581631496005685 -0.0011574496417046391 0 -0.025252594227985734 -0.0012272283603745255 0 -0.025581631496005685 -0.0011574496417046391 0 -0.025337021854069362 -0.0015099939134387396 0 -0.025581631496005685 -0.0011574496417046391 0 -0.025432900606930962 -0.0015785433563667473 0 -0.025738353836652194 -0.0013558970762498183 0 -0.026324300506691756 -0.0015211341779338635 0 -0.026429648202797647 -0.0015197761693749126 0 -0.025019237858962318 -0.0012912922346135036 0 -0.025252594227985734 -0.0012272283603745255 0 -0.025337021854069362 -0.0015099939134387396 0 -0.025432900606930962 -0.0015785433563667473 0 -0.025843327408856066 -0.0015740673807980393 0 -0.025631397600696586 -0.0019145241694343907 0 -0.026204091931618628 -0.0014164719702070175 0 -0.025843327408856066 -0.0015740673807980393 0 -0.026072254885569066 -0.00189760840334236 0 -0.025432900606930962 -0.0015785433563667473 0 -0.025843327408856066 -0.0015740673807980393 0 -0.025738353836652194 -0.0013558970762498183 0 -0.025843327408856066 -0.0015740673807980393 0 -0.025738353836652194 -0.0013558970762498183 0 -0.025914956311763292 -0.0013673267711920253 0 -0.026204091931618628 -0.0014164719702070175 0 -0.025843327408856066 -0.0015740673807980393 0 -0.025914956311763292 -0.0013673267711920253 0 -0.025830142468502612 -0.0021234360086016756 0 -0.025631397600696586 -0.0019145241694343907 0 -0.02561536738016933 -0.0023579728953916916 0 -0.026072254885569066 -0.00189760840334236 0 -0.025830142468502612 -0.0021234360086016756 0 -0.025631397600696586 -0.0019145241694343907 0 -0.025843327408856066 -0.0015740673807980393 0 -0.026072254885569066 -0.00189760840334236 0 -0.025631397600696586 -0.0019145241694343907 0 -0.026072254885569066 -0.00189760840334236 0 -0.026042064064845268 -0.0021916175232275662 0 -0.025830142468502612 -0.0021234360086016756 0 -0.025631397600696586 -0.0019145241694343907 0 -0.025255111867660135 -0.001983263190546555 0 -0.02561536738016933 -0.0023579728953916916 0 -0.025432900606930962 -0.0015785433563667473 0 -0.025631397600696586 -0.0019145241694343907 0 -0.025255111867660135 -0.001983263190546555 0 -0.026429648202797647 -0.0015197761693749126 0 -0.026920356415632642 -0.0012006606954544723 0 -0.026920356415632642 -0.0012006606954544723 0 -0.027746434909348243 -0.0011909510100511771 0 -0.028625320963129051 -0.00076279858393261024 0 -0.029154943823089325 -0.00061216914817129031 0 -0.028802974846018708 -0.00040633239513634012 0 -0.028925368448528548 -0.0010901320570665255 0 -0.028625320963129051 -0.00076279858393261024 0 -0.029154943823089325 -0.00061216914817129031 0 -0.028625320963129051 -0.00076279858393261024 0 -0.028574229451563501 -0.00045685161369297272 0 -0.028802974846018708 -0.00040633239513634012 0 -0.028625320963129051 -0.00076279858393261024 0 -0.02832225513727879 -0.0004361056970387524 0 -0.028574229451563501 -0.00045685161369297272 0 -0.027746434909348243 -0.0011909510100511771 0 -0.028880994642985786 -0.0012001862047038142 0 -0.02561536738016933 -0.0023579728953916916 0 -0.025911718912633341 -0.0023723789819609007 0 -0.025982287519094434 -0.0027328346397100405 0 -0.026076968584157787 -0.0025307051163726206 0 -0.025911718912633341 -0.0023723789819609007 0 -0.026135366372447465 -0.0023587433852879204 0 -0.026076968584157787 -0.0025307051163726206 0 -0.025911718912633341 -0.0023723789819609007 0 -0.025982287519094434 -0.0027328346397100405 0 -0.026042064064845268 -0.0021916175232275662 0 -0.025911718912633341 -0.0023723789819609007 0 -0.026135366372447465 -0.0023587433852879204 0 -0.026042064064845268 -0.0021916175232275662 0 -0.025830142468502612 -0.0021234360086016756 0 -0.025911718912633341 -0.0023723789819609007 0 -0.025830142468502612 -0.0021234360086016756 0 -0.02561536738016933 -0.0023579728953916916 0 -0.025911718912633341 -0.0023723789819609007 0 -0.024917248856460565 -0.0015981925487483814 0 -0.024533697418636809 -0.0016003473866868596 0 -0.024728678617980174 -0.0018977482209940112 0 -0.02432196613323136 -0.0019307426172966251 0 -0.024533697418636809 -0.0016003473866868596 0 -0.024728678617980174 -0.0018977482209940112 0 -0.024917248856460565 -0.0015981925487483814 0 -0.025092884392411387 -0.0017862653507315135 0 -0.024728678617980174 -0.0018977482209940112 0 -0.026665927003826907 -0.0011081815978410535 0 -0.026920356415632642 -0.0012006606954544723 0 -0.026920356415632642 -0.0012006606954544723 0 -0.026774748523807554 -0.00091895586852196165 0 -0.025092884392411387 -0.0017862653507315135 0 -0.024728678617980174 -0.0018977482209940112 0 -0.02489598581242149 -0.0021861176357063044 0 -0.024728678617980174 -0.0018977482209940112 0 -0.02489598581242149 -0.0021861176357063044 0 -0.024557785503029873 -0.0021868989827709506 0 -0.02432196613323136 -0.0019307426172966251 0 -0.024728678617980174 -0.0018977482209940112 0 -0.024557785503029873 -0.0021868989827709506 0 -0.02489598581242149 -0.0021861176357063044 0 -0.024557785503029873 -0.0021868989827709506 0 -0.024700819312877795 -0.0026009484365709288 0 -0.02413356851301774 -0.0023216062610702738 0 -0.024557785503029873 -0.0021868989827709506 0 -0.024700819312877795 -0.0026009484365709288 0 -0.026774748523807554 -0.00091895586852196165 0 -0.026765425480308972 7.976590800697429e-05 0 -0.029154943823089325 -0.00061216914817129031 0 -0.029039948383945528 -0.00022068517778579377 0 -0.028802974846018708 -0.00040633239513634012 0 -0.029154943823089325 -0.00061216914817129031 0 -0.029039948383945528 -0.00022068517778579377 0 -0.029378779696277231 -0.00013347293438927378 0 -0.029039948383945528 -0.00022068517778579377 0 -0.028981161268286051 -0.00011139062724255069 0 -0.028848510275391596 -0.00016506908375215387 0 -0.029516812719881186 0.00026307546373366235 0 -0.029339507419807544 0.00019102160345548864 0 -0.029357396271763841 0.00021515647965565036 0 -0.029516812719881186 0.00026307546373366235 0 -0.028981630847229083 2.4091273921876362e-05 0 -0.029201355728927028 -4.0926926071726717e-05 0 -0.029484387884686891 -0.00016935830333154227 0 -0.029375201621807089 -0.00036681840335688368 0 -0.029054509161750033 -8.4807540286598694e-05 0 -0.028981630847229083 2.4091273921876362e-05 0 -0.029201355728927028 -4.0926926071726717e-05 0 -0.029039948383945528 -0.00022068517778579377 0 -0.028981161268286051 -0.00011139062724255069 0 -0.029054509161750033 -8.4807540286598694e-05 0 -0.029039948383945528 -0.00022068517778579377 0 -0.029054509161750033 -8.4807540286598694e-05 0 -0.029201355728927028 -4.0926926071726717e-05 0 -0.028981161268286051 -0.00011139062724255069 0 -0.029054509161750033 -8.4807540286598694e-05 0 -0.028981630847229083 2.4091273921876362e-05 0 -0.029039948383945528 -0.00022068517778579377 0 -0.029201355728927028 -4.0926926071726717e-05 0 -0.029378779696277231 -0.00013347293438927378 0 -0.026999866792220495 -7.4489584737240689e-06 0 -0.026765425480308972 7.976590800697429e-05 0 -0.029516812719881186 0.00026307546373366235 0 -0.029201355728927028 -4.0926926071726717e-05 0 -0.029365396078561423 -0.00011059947170857468 0 -0.027879267059856952 0.0010217262522184108 0 -0.026765425480308972 7.976590800697429e-05 0 -0.026981794235956671 0.0017653671963960473 0 -0.0269812602370583 0.0016859970253383276 0 -0.027139340687476015 0.0018731735978267145 0 -0.026981794235956671 0.0017653671963960473 0 -0.026988784020009308 0.0018610218043049334 0 -0.027139340687476015 0.0018731735978267145 0 -0.028397236881447793 -0.00027537575075946107 0 -0.028574229451563501 -0.00045685161369297272 0 -0.028670390333063598 -0.00024796135554140995 0 -0.029797733228339944 -0.00077993989727671029 0 -0.029898633514451843 -0.00072751587421955957 0 -0.02989315260853756 -0.0008982803956796286 0 -0.029333856717517898 -0.00091254931750800136 0 -0.029099229242902289 -0.0011613771102564705 0 -0.028743487166392884 -0.0012919131895290103 0 -0.028863099730052629 -0.0010387166838276001 0 -0.028983018607290627 -0.0011675326555083054 0 -0.029333856717517898 -0.00091254931750800136 0 -0.028880994642985786 -0.0012001862047038142 0 -0.02599013849819759 -0.0027254145992311831 0 -0.026075116544505207 -0.0028173004203537939 0 -0.026165221644769813 -0.0026361046497888141 0 -0.028880994642985786 -0.0012001862047038142 0 -0.029099229242902289 -0.0011613771102564705 0 -0.028731214883872411 -0.0013979459227326664 0 -0.028880994642985786 -0.0012001862047038142 0 -0.026076968584157787 -0.0025307051163726206 0 -0.02599013849819759 -0.0027254145992311831 0 -0.026165221644769813 -0.0026361046497888141 0 -0.028397236881447793 -0.00027537575075946107 0 -0.02832225513727879 -0.0004361056970387524 0 -0.028574229451563501 -0.00045685161369297272 0 -0.028574229451563501 -0.00045685161369297272 0 -0.028802974846018708 -0.00040633239513634012 0 -0.028670390333063598 -0.00024796135554140995 0 -0.028981630847229083 2.4091273921876362e-05 0 -0.028397236881447793 -0.00027537575075946107 0 -0.028670390333063598 -0.00024796135554140995 0 -0.029039948383945528 -0.00022068517778579377 0 -0.028802974846018708 -0.00040633239513634012 0 -0.028848510275391596 -0.00016506908375215387 0 -0.028802974846018708 -0.00040633239513634012 0 -0.028670390333063598 -0.00024796135554140995 0 -0.028848510275391596 -0.00016506908375215387 0 -0.029339507419807544 0.00019102160345548864 0 -0.029244825869222356 0.00012905733400975312 0 -0.029294562383512829 0.00018403906215357722 0 -0.030155721860275358 -0.00019440101396620151 0 -0.030796019350992482 -0.00024008445462629484 0 -0.029375201621807089 -0.00036681840335688368 0 -0.029333856717517898 -0.00091254931750800136 0 -0.029357396271763841 0.00021515647965565036 0 -0.029294562383512829 0.00018403906215357722 0 -0.029272080695559734 0.00019797290436240425 0 -0.029308452108793452 0.00026016571725459716 0 -0.029357396271763841 0.00021515647965565036 0 -0.029173314630007274 0.00019991916936424556 0 -0.028981161268286051 -0.00011139062724255069 0 -0.028981630847229083 2.4091273921876362e-05 0 -0.028848510275391596 -0.00016506908375215387 0 -0.028981630847229083 2.4091273921876362e-05 0 -0.028670390333063598 -0.00024796135554140995 0 -0.028848510275391596 -0.00016506908375215387 0 -0.029339507419807544 0.00019102160345548864 0 -0.029357396271763841 0.00021515647965565036 0 -0.029294562383512829 0.00018403906215357722 0 -0.029294562383512829 0.00018403906215357722 0 -0.029272080695559734 0.00019797290436240425 0 -0.029268036478907019 0.00018801799342399095 0 -0.030487804945972551 -0.00036680526044549351 0 -0.030578291576161737 -0.00038981299309836598 0 -0.030796019350992482 -0.00024008445462629484 0 -0.031089092038300434 -0.00065097069679491925 0 -0.030578291576161737 -0.00038981299309836598 0 -0.031089092038300434 -0.00065097069679491925 0 -0.030405698801128995 -0.00064404874713060005 0 -0.030468083068416977 -0.00051260875884010936 0 -0.031030595742909468 -0.00062097570101724323 0 -0.030796019350992482 -0.00024008445462629484 0 -0.030578291576161737 -0.00038981299309836598 0 -0.029333856717517898 -0.00091254931750800136 0 -0.030578291576161737 -0.00038981299309836598 0 -0.029797733228339944 -0.00077993989727671029 0 -0.029699865353084172 -0.00098879014563007855 0 -0.02989315260853756 -0.0008982803956796286 0 -0.029244825869222356 0.00012905733400975312 0 -0.029294562383512829 0.00018403906215357722 0 -0.029269344949789469 0.00018722207063347543 0 -0.029699865353084172 -0.00098879014563007855 0 -0.02989315260853756 -0.0008982803956796286 0 -0.029865155142738842 -0.0010216561220920083 0 -0.029099229242902289 -0.0011613771102564705 0 -0.030467813022189375 -0.0011771620228765609 0 -0.02989315260853756 -0.0008982803956796286 0 -0.029865155142738842 -0.0010216561220920083 0 -0.030163417893285468 -0.0010121418256442149 0 -0.031157377229337247 -0.00080429700592102749 0 -0.030875793071784636 -0.00082011938419940592 0 -0.030854546305195581 -0.00079770359294687159 0 -0.02992445497009533 -0.0012058919816670289 0 -0.029892372210270801 -0.0010698363248011389 0 -0.029946443669068363 -0.0012050695865843976 0 -0.031157377229337247 -0.00080429700592102749 0 -0.030854546305195581 -0.00079770359294687159 0 -0.030787736996283524 -0.00074024718942790856 0 -0.029898633514451843 -0.00072751587421955957 0 -0.02989315260853756 -0.0008982803956796286 0 -0.030163417893285468 -0.0010121418256442149 0 -0.031089092038300434 -0.00065097069679491925 0 -0.031560793958053945 -0.0014559446941012043 0 -0.031089092038300434 -0.00065097069679491925 0 -0.030467813022189375 -0.0011771620228765609 0 -0.030467813022189375 -0.0011771620228765609 0 -0.030468473985157292 -0.0011764927241164572 0 -0.026394648325179914 -0.0026226589684586682 0 -0.026584528045220986 -0.0026771109148789282 0 -0.026653078564206949 -0.0032517385691258429 0 -0.029221862637693111 -0.001645461550596698 0 -0.030695759631577977 -0.0012470482227769206 0 -0.029826363269217344 -0.0011037452778577387 0 -0.02992445497009533 -0.0012058919816670289 0 -0.029892372210270801 -0.0010698363248011389 0 -0.02646527225983308 -0.0025915187444230593 0 -0.026584528045220986 -0.0026771109148789282 0 -0.026608656838270479 -0.0025345560377670138 0 -0.02646527225983308 -0.0025915187444230593 0 -0.026394648325179914 -0.0026226589684586682 0 -0.026584528045220986 -0.0026771109148789282 0 -0.029181563421035003 -0.0016645609629635349 0 -0.029221862637693111 -0.001645461550596698 0 -0.026075116544505207 -0.0028173004203537939 0 -0.026386604854902348 -0.0026577898646628724 0 -0.026165221644769813 -0.0026361046497888141 0 -0.029099229242902289 -0.0011613771102564705 0 -0.029221862637693111 -0.001645461550596698 0 -0.029443873622329458 -0.0015022985613552028 0 -0.030681500424732014 -0.0016805827651205701 0 -0.026584528045220986 -0.0026771109148789282 0 -0.026952736852197349 -0.0031837744469040215 0 -0.026947693678949027 -0.0027786039768290752 0 -0.026765787859679157 -0.0025999717841084218 0 -0.026584528045220986 -0.0026771109148789282 0 -0.026947693678949027 -0.0027786039768290752 0 -0.026765787859679157 -0.0025999717841084218 0 -0.026947693678949027 -0.0027786039768290752 0 -0.026941561069798673 -0.0025892601748697002 0 -0.026765787859679157 -0.0025999717841084218 0 -0.026584528045220986 -0.0026771109148789282 0 -0.026608656838270479 -0.0025345560377670138 0 -0.031072855754996642 -0.0015218641844738873 0 -0.031485487355432246 -0.0015978470458306937 0 -0.031229587666419457 -0.0017349324176513406 0 -0.026584528045220986 -0.0026771109148789282 0 -0.026653078564206949 -0.0032517385691258429 0 -0.027031236546402038 -0.0032358418598057051 0 -0.03087613998581951 -0.00082134924638259735 0 -0.030854546305195581 -0.00079770359294687159 0 -0.030818686383949394 -0.00082341826517115177 0 -0.030467813022189375 -0.0011771620228765609 0 -0.030695759631577977 -0.0012470482227769206 0 -0.030695759631577977 -0.0012470482227769206 0 -0.031560793958053945 -0.0014559446941012043 0 -0.030854546305195581 -0.00079770359294687159 0 -0.030818686383949394 -0.00082341826517115177 0 -0.030787736996283524 -0.00074024718942790856 0 -0.031531747836229557 -0.0017214219927695485 0 -0.031485487355432246 -0.0015978470458306937 0 -0.031229587666419457 -0.0017349324176513406 0 -0.030695759631577977 -0.0012470482227769206 0 -0.030681500424732014 -0.0016805827651205701 0 -0.030681500424732014 -0.0016805827651205701 0 -0.030912066822528967 -0.0022851503124247112 0 -0.032331179923977549 -0.0021302022867947415 0 -0.030681500424732014 -0.0016805827651205701 0 -0.026952736852197349 -0.0031837744469040215 0 -0.027300913263810844 -0.0029800710521386891 0 -0.026947693678949027 -0.0027786039768290752 0 -0.026952736852197349 -0.0031837744469040215 0 -0.027300913263810844 -0.0029800710521386891 0 -0.027676407342514687 -0.003228008170587009 0 -0.034036002839768278 -0.0022418814157060332 0 -0.03404231163396719 -0.002255113552257763 0 -0.034001136161823299 -0.0022713229688425024 0 -0.027300913263810844 -0.0029800710521386891 0 -0.027676407342514687 -0.003228008170587009 0 -0.027563031960504351 -0.002923533901842257 0 -0.027814868479340751 -0.0027876994792167781 0 -0.027676407342514687 -0.003228008170587009 0 -0.027563031960504351 -0.002923533901842257 0 -0.027814868479340751 -0.0027876994792167781 0 -0.027563031960504351 -0.002923533901842257 0 -0.027486839187558794 -0.0027148329047986209 0 -0.027300913263810844 -0.0029800710521386891 0 -0.027563031960504351 -0.002923533901842257 0 -0.027486839187558794 -0.0027148329047986209 0 -0.027486839187558794 -0.0027148329047986209 0 -0.027194610345899359 -0.0026082939262486761 0 -0.027395083928951718 -0.0023707271978426294 0 -0.027814868479340751 -0.0027876994792167781 0 -0.027486839187558794 -0.0027148329047986209 0 -0.027713929398110175 -0.0024899228484540977 0 -0.027300913263810844 -0.0029800710521386891 0 -0.026947693678949027 -0.0027786039768290752 0 -0.027194610345899359 -0.0026082939262486761 0 -0.027300913263810844 -0.0029800710521386891 0 -0.027486839187558794 -0.0027148329047986209 0 -0.027194610345899359 -0.0026082939262486761 0 -0.026947693678949027 -0.0027786039768290752 0 -0.027194610345899359 -0.0026082939262486761 0 -0.026941561069798673 -0.0025892601748697002 0 -0.027194610345899359 -0.0026082939262486761 0 -0.026941561069798673 -0.0025892601748697002 0 -0.027030308621039941 -0.0023705652828144861 0 -0.027194610345899359 -0.0026082939262486761 0 -0.027030308621039941 -0.0023705652828144861 0 -0.027395083928951718 -0.0023707271978426294 0 -0.027030308621039941 -0.0023705652828144861 0 -0.027395083928951718 -0.0023707271978426294 0 -0.027213279548845178 -0.0021083883366824463 0 -0.027486839187558794 -0.0027148329047986209 0 -0.027713929398110175 -0.0024899228484540977 0 -0.027395083928951718 -0.0023707271978426294 0 -0.027700738187772581 -0.0022300744371418018 0 -0.027395083928951718 -0.0023707271978426294 0 -0.027479162102294986 -0.0020397437854483592 0 -0.027700738187772581 -0.0022300744371418018 0 -0.027713929398110175 -0.0024899228484540977 0 -0.027395083928951718 -0.0023707271978426294 0 -0.027831752317424185 -0.0019174786842971669 0 -0.027295234610314946 -0.0016547859979127112 0 -0.027479162102294986 -0.0020397437854483592 0 -0.027295234610314946 -0.0016547859979127112 0 -0.027479162102294986 -0.0020397437854483592 0 -0.027213279548845178 -0.0021083883366824463 0 -0.027395083928951718 -0.0023707271978426294 0 -0.027479162102294986 -0.0020397437854483592 0 -0.027213279548845178 -0.0021083883366824463 0 -0.027295234610314946 -0.0016547859979127112 0 -0.027213279548845178 -0.0021083883366824463 0 -0.026854686619918338 -0.0021011737640285627 0 -0.027295234610314946 -0.0016547859979127112 0 -0.026854686619918338 -0.0021011737640285627 0 -0.026679597009150374 -0.0018084537607928103 0 -0.027030308621039941 -0.0023705652828144861 0 -0.027213279548845178 -0.0021083883366824463 0 -0.026854686619918338 -0.0021011737640285627 0 -0.026854686619918338 -0.0021011737640285627 0 -0.026593841956609413 -0.0021787063716056762 0 -0.026679597009150374 -0.0018084537607928103 0 -0.026593841956609413 -0.0021787063716056762 0 -0.026679597009150374 -0.0018084537607928103 0 -0.026399245257712048 -0.0019753472898712842 0 -0.026397271161047696 -0.0016979045219221748 0 -0.026679597009150374 -0.0018084537607928103 0 -0.026399245257712048 -0.0019753472898712842 0 -0.026397271161047696 -0.0016979045219221748 0 -0.026072254885569066 -0.00189760840334236 0 -0.026399245257712048 -0.0019753472898712842 0 -0.026072254885569066 -0.00189760840334236 0 -0.026399245257712048 -0.0019753472898712842 0 -0.026298614471369785 -0.0022125133719285957 0 -0.026072254885569066 -0.00189760840334236 0 -0.026042064064845268 -0.0021916175232275662 0 -0.026298614471369785 -0.0022125133719285957 0 -0.026593841956609413 -0.0021787063716056762 0 -0.026399245257712048 -0.0019753472898712842 0 -0.026298614471369785 -0.0022125133719285957 0 -0.026298614471369785 -0.0022125133719285957 0 -0.02630473178861235 -0.0024423322027213898 0 -0.026507677875744665 -0.0024030299178555148 0 -0.026593841956609413 -0.0021787063716056762 0 -0.026298614471369785 -0.0022125133719285957 0 -0.026507677875744665 -0.0024030299178555148 0 -0.026135366372447465 -0.0023587433852879204 0 -0.026298614471369785 -0.0022125133719285957 0 -0.02630473178861235 -0.0024423322027213898 0 -0.026042064064845268 -0.0021916175232275662 0 -0.026135366372447465 -0.0023587433852879204 0 -0.026298614471369785 -0.0022125133719285957 0 -0.026076968584157787 -0.0025307051163726206 0 -0.026135366372447465 -0.0023587433852879204 0 -0.02630473178861235 -0.0024423322027213898 0 -0.026076968584157787 -0.0025307051163726206 0 -0.026165221644769813 -0.0026361046497888141 0 -0.02630473178861235 -0.0024423322027213898 0 -0.026386604854902348 -0.0026577898646628724 0 -0.026165221644769813 -0.0026361046497888141 0 -0.02630473178861235 -0.0024423322027213898 0 -0.02646527225983308 -0.0025915187444230593 0 -0.02630473178861235 -0.0024423322027213898 0 -0.026507677875744665 -0.0024030299178555148 0 -0.02646527225983308 -0.0025915187444230593 0 -0.026394852568859862 -0.0026286544728817327 0 -0.02630473178861235 -0.0024423322027213898 0 -0.029221862637693111 -0.001645461550596698 0 -0.029136811451433545 -0.0016528935529710014 0 -0.02646527225983308 -0.0025915187444230593 0 -0.026507677875744665 -0.0024030299178555148 0 -0.026608656838270479 -0.0025345560377670138 0 -0.026507677875744665 -0.0024030299178555148 0 -0.026608656838270479 -0.0025345560377670138 0 -0.026746079867008919 -0.0024166883873875181 0 -0.026765787859679157 -0.0025999717841084218 0 -0.026608656838270479 -0.0025345560377670138 0 -0.026746079867008919 -0.0024166883873875181 0 -0.026765787859679157 -0.0025999717841084218 0 -0.026941561069798673 -0.0025892601748697002 0 -0.026746079867008919 -0.0024166883873875181 0 -0.026941561069798673 -0.0025892601748697002 0 -0.027030308621039941 -0.0023705652828144861 0 -0.026746079867008919 -0.0024166883873875181 0 -0.027030308621039941 -0.0023705652828144861 0 -0.026854686619918338 -0.0021011737640285627 0 -0.026746079867008919 -0.0024166883873875181 0 -0.026854686619918338 -0.0021011737640285627 0 -0.026593841956609413 -0.0021787063716056762 0 -0.026746079867008919 -0.0024166883873875181 0 -0.026593841956609413 -0.0021787063716056762 0 -0.026507677875744665 -0.0024030299178555148 0 -0.026746079867008919 -0.0024166883873875181 0 -0.027650033203311605 8.9959105445548842e-05 0 -0.029522170885036537 -2.4412769246409671e-07 0 -0.02548216498904075 1.5519969974514016e-06 0 -0.027650033203311605 8.9959105445548842e-05 0 -0.026698435614184186 0.00012742903692437705 0 -0.02651620391203691 0.00010060658093514404 0 -0.028721683558819062 0.0004355274703839235 0 -0.028327829234685641 0.00043909775466496718 0 -0.027650033203311605 8.9959105445548842e-05 0 -0.028440812844145711 9.8442833673174633e-05 0 -0.026698435614184186 0.00012742903692437705 0 -0.026684932626196131 0.00015984639620247887 0 -0.026626080246355193 0.0002502998490035382 0 -0.026698435614184186 0.00012742903692437705 0 -0.026684932626196131 0.00015984639620247887 0 -0.026626080246355193 0.0002502998490035382 0 -0.026801583598907022 0.00032951286534386147 0 -0.027650033203311605 8.9959105445548842e-05 0 -0.028440812844145711 9.8442833673174633e-05 0 -0.029473278778324258 9.121086402279804e-05 0 -0.028440812844145711 9.8442833673174633e-05 0 -0.030006374389156484 0.00017387570722672002 0 -0.029473278778324258 9.121086402279804e-05 0 -0.026639203870199694 0.00051080521641322363 0 -0.026817029787105612 0.00053887984333123625 0 -0.026801583598907022 0.00032951286534386147 0 -0.028721683558819062 0.0004355274703839235 0 -0.029797122828476481 0.00028847422905818479 0 -0.026626080246355193 0.0002502998490035382 0 -0.026639203870199694 0.00051080521641322363 0 -0.026801583598907022 0.00032951286534386147 0 -0.030006374389156484 0.00017387570722672002 0 -0.030730635111408836 4.40803032031638e-05 0 -0.030748353470554816 -0.00026592363346657265 0 -0.029797122828476481 0.00028847422905818479 0 -0.031738245522661822 -0.00034912897204766261 0 -0.026639203870199694 0.00051080521641322363 0 -0.026748144515772804 0.00068055915154040681 0 -0.026655908844940516 0.00085455588877657632 0 -0.026639203870199694 0.00051080521641322363 0 -0.026748144515772804 0.00068055915154040681 0 -0.026817029787105612 0.00053887984333123625 0 -0.030006374389156484 0.00017387570722672002 0 -0.030730635111408836 4.40803032031638e-05 0 -0.029473278778324258 9.121086402279804e-05 0 -0.029473278778324258 9.121086402279804e-05 0 -0.029522170885036537 -2.4412769246409671e-07 0 -0.031005661521071464 -6.1163914308107358e-05 0 -0.030730635111408836 4.40803032031638e-05 0 -0.029473278778324258 9.121086402279804e-05 0 -0.031005661521071464 -6.1163914308107358e-05 0 -0.027650033203311605 8.9959105445548842e-05 0 -0.029473278778324258 9.121086402279804e-05 0 -0.029522170885036537 -2.4412769246409671e-07 0 -0.029522170885036537 -2.4412769246409671e-07 0 -0.031005661521071464 -6.1163914308107358e-05 0 -0.033599026614741963 3.6555656444124696e-05 0 -0.029522170885036537 -2.4412769246409671e-07 0 -0.034997766549419752 1.3264573674378421e-07 0 -0.033599026614741963 3.6555656444124696e-05 0 -0.031005661521071464 -6.1163914308107358e-05 0 -0.033599026614741963 3.6555656444124696e-05 0 -0.031734516019563508 -0.00025214004092869748 0 -0.034997766549419752 1.3264573674378421e-07 0 -0.033599026614741963 3.6555656444124696e-05 0 -0.034996512497396867 2.8603316691247283e-07 0 -0.033599026614741963 3.6555656444124696e-05 0 -0.033750806464035041 9.5408123755891147e-05 0 -0.033004267896199785 -2.0257620952694285e-05 0 -0.033599026614741963 3.6555656444124696e-05 0 -0.034996512497396867 2.8603316691247283e-07 0 -0.033750806464035041 9.5408123755891147e-05 0 -0.034999974799869819 3.0133685398558427e-09 0 -0.034979685854641028 -6.86560234207063e-06 0 -0.034992844997648889 -3.3752586466638953e-06 0 -0.034997532709567292 5.7581079950510719e-07 0 -0.033635412493812883 0.00011920388489907435 0 -0.033750806464035041 9.5408123755891147e-05 0 -0.033004267896199785 -2.0257620952694285e-05 0 -0.033010912423661325 -0.00044311541430119166 0 -0.033635412493812883 0.00011920388489907435 0 -0.031738245522661822 -0.00034912897204766261 0 -0.034979685854641028 -6.86560234207063e-06 0 -0.034963399923917886 -2.6961308814038948e-05 0 -0.034980531421510155 -1.5021138510553798e-05 0 -0.034963399923917886 -2.6961308814038948e-05 0 -0.034975569812692751 -2.7030142478193242e-05 0 -0.034980531421510155 -1.5021138510553798e-05 0 -0.033599026614741963 3.6555656444124696e-05 0 -0.033004267896199785 -2.0257620952694285e-05 0 -0.031734516019563508 -0.00025214004092869748 0 -0.033004267896199785 -2.0257620952694285e-05 0 -0.031734516019563508 -0.00025214004092869748 0 -0.033010912423661325 -0.00044311541430119166 0 -0.03177214495569472 -0.00034399588818250838 0 -0.031738245522661822 -0.00034912897204766261 0 -0.030730635111408836 4.40803032031638e-05 0 -0.031734516019563508 -0.00025214004092869748 0 -0.030748353470554816 -0.00026592363346657265 0 -0.030730635111408836 4.40803032031638e-05 0 -0.031005661521071464 -6.1163914308107358e-05 0 -0.031734516019563508 -0.00025214004092869748 0 -0.026655908844940516 0.00085455588877657632 0 -0.026762104654161834 0.00081571144557326177 0 -0.026801013646889072 0.00086069546607329462 0 -0.031738245522661822 -0.00034912897204766261 0 -0.032148508004531312 -0.00013335318482892054 0 -0.026748144515772804 0.00068055915154040681 0 -0.026655908844940516 0.00085455588877657632 0 -0.026762104654161834 0.00081571144557326177 0 -0.027042213790634796 0.00081967202902894236 0 -0.026775849736292202 0.00088813541412304257 0 -0.027398719985106436 0.0009511364683578435 0 -0.032148508004531312 -0.00013335318482892054 0 -0.031553397241066025 0.00011542426506521775 0 -0.026882454785817109 0.00069874628526293587 0 -0.027042213790634796 0.00081967202902894236 0 -0.026775849736292202 0.00088813541412304257 0 -0.026748144515772804 0.00068055915154040681 0 -0.026762104654161834 0.00081571144557326177 0 -0.026882454785817109 0.00069874628526293587 0 -0.026762104654161834 0.00081571144557326177 0 -0.026882454785817109 0.00069874628526293587 0 -0.026775849736292202 0.00088813541412304257 0 -0.032060753820002549 -0.00017574655278387535 0 -0.032148508004531312 -0.00013335318482892054 0 -0.027042213790634796 0.00081967202902894236 0 -0.027398719985106436 0.0009511364683578435 0 -0.027312707319887972 3.5494188648023942e-05 0 -0.034923972396898331 -5.3508883965762699e-05 0 -0.034911309924269981 -1.7797308666360754e-05 0 -0.034956182438369891 -2.0554878866651896e-05 0 -0.032148508004531312 -0.00013335318482892054 0 -0.033818412082919691 0.00026464197626756432 0 -0.034865988634471518 -5.9555828132092199e-05 0 -0.034923972396898331 -5.3508883965762699e-05 0 -0.034911309924269981 -1.7797308666360754e-05 0 -0.034975569812692751 -2.7030142478193242e-05 0 -0.034991844873511271 -1.2114276940517092e-05 0 -0.034980531421510155 -1.5021138510553798e-05 0 -0.034979685854641028 -6.86560234207063e-06 0 -0.034980531421510155 -1.5021138510553798e-05 0 -0.034992844997648889 -3.3752586466638953e-06 0 -0.034991844873511271 -1.2114276940517092e-05 0 -0.034980531421510155 -1.5021138510553798e-05 0 -0.034992844997648889 -3.3752586466638953e-06 0 -0.034911309924269981 -1.7797308666360754e-05 0 -0.034956484286915633 3.1259760753692462e-06 0 -0.034956182438369891 -2.0554878866651896e-05 0 -0.033818412082919691 0.00026464197626756432 0 -0.034552843310343737 0.00017134073999161903 0 -0.034991844873511271 -1.2114276940517092e-05 0 -0.034992844997648889 -3.3752586466638953e-06 0 -0.034999544337686178 -2.5780628298745353e-06 0 -0.034999544337686178 -2.5780628298745353e-06 0 -0.03499999917451966 -1.0984779696374827e-09 0 -0.035000001467422548 -3.132917237353829e-10 0 -0.034992844997648889 -3.3752586466638953e-06 0 -0.034999544337686178 -2.5780628298745353e-06 0 -0.03499999917451966 -1.0984779696374827e-09 0 -0.034999974799869819 3.0133685398558427e-09 0 -0.034992844997648889 -3.3752586466638953e-06 0 -0.03499999917451966 -1.0984779696374827e-09 0 -0.034992697327680775 3.7029297434610453e-06 0 -0.034999894333135537 5.291927930256378e-08 0 -0.034983065246734515 -1.1200711640753992e-06 0 -0.034992697327680775 3.7029297434610453e-06 0 -0.034999894333135537 5.291927930256378e-08 0 -0.035000074382291663 -4.0592372730708341e-08 0 -0.034956484286915633 3.1259760753692462e-06 0 -0.034999894333135537 5.291927930256378e-08 0 -0.034983065246734515 -1.1200711640753992e-06 0 -0.034552843310343737 0.00017134073999161903 0 -0.034999143426000037 5.0366736720047389e-07 0 -0.034956484286915633 3.1259760753692462e-06 0 -0.034983065246734515 -1.1200711640753992e-06 0 -0.034956182438369891 -2.0554878866651896e-05 0 -0.034992697327680775 3.7029297434610453e-06 0 -0.034983065246734515 -1.1200711640753992e-06 0 -0.034988889111578179 1.2742619357503263e-05 0 -0.034983065246734515 -1.1200711640753992e-06 0 -0.034976684039565047 -2.1333625785274532e-05 0 -0.034956182438369891 -2.0554878866651896e-05 0 -0.034983065246734515 -1.1200711640753992e-06 0 -0.034976684039565047 -2.1333625785274532e-05 0 -0.034989152023267786 -1.1470813329715153e-05 0 -0.034923972396898331 -5.3508883965762699e-05 0 -0.034956182438369891 -2.0554878866651896e-05 0 -0.034961810740700129 -4.0577961696845708e-05 0 -0.034976684039565047 -2.1333625785274532e-05 0 -0.034956182438369891 -2.0554878866651896e-05 0 -0.034961810740700129 -4.0577961696845708e-05 0 -0.027398719985106436 0.0009511364683578435 0 -0.028250645984695465 0.00097359972079040177 0 -0.027841380725057673 0.00051413420595483291 0 -0.031553397241066025 0.00011542426506521775 0 -0.031663552829403523 0.00023617573977746878 0 -0.028250645984695465 0.00097359972079040177 0 -0.028300400254894546 0.00062508646421745285 0 -0.027841380725057673 0.00051413420595483291 0 -0.028250645984695465 0.00097359972079040177 0 -0.028300400254894546 0.00062508646421745285 0 -0.028874766612543953 0.00093684850679618759 0 -0.031663552829403523 0.00023617573977746878 0 -0.031895114693299184 0.00026856013001074554 0 -0.028250645984695465 0.00097359972079040177 0 -0.028874766612543953 0.00093684850679618759 0 -0.029065757923827051 0.00096500857258460056 0 -0.028300400254894546 0.00062508646421745285 0 -0.028874766612543953 0.00093684850679618759 0 -0.028228783761306258 7.6426243054110465e-05 0 -0.034976684039565047 -2.1333625785274532e-05 0 -0.034961810740700129 -4.0577961696845708e-05 0 -0.034983616070709635 -3.2684559887090887e-05 0 -0.028874766612543953 0.00093684850679618759 0 -0.028892640694098293 0.0002277665609755372 0 -0.028418354292593463 0.00023468499398968351 0 -0.028147959491697312 0.00082346331442792529 0 -0.027733078646469018 0.00056170595897514324 0 -0.028892640694098293 0.0002277665609755372 0 -0.028626920155282874 -0.00010031527331503485 0 -0.028749127069054799 -0.00044861728906541126 0 -0.030578110329578412 -5.4211459043115863e-05 0 -0.030169679428679756 -0.00029635182615378306 0 -0.028892640694098293 0.0002277665609755372 0 -0.028626920155282874 -0.00010031527331503485 0 -0.028418354292593463 0.00023468499398968351 0 -0.028917418293325035 0.00018186848090516575 0 -0.028749127069054799 -0.00044861728906541126 0 -0.028939559265758676 -0.00046001894018231603 0 -0.028626920155282874 -0.00010031527331503485 0 -0.028406056916065351 -0.00025507724566310806 0 -0.028566650042689865 -0.00032376907934418764 0 -0.028626920155282874 -0.00010031527331503485 0 -0.028749127069054799 -0.00044861728906541126 0 -0.028566650042689865 -0.00032376907934418764 0 -0.028406056916065351 -0.00025507724566310806 0 -0.028418354292593463 0.00023468499398968351 0 -0.027975960855208187 -0.0004082015632124944 0 -0.027733078646469018 0.00056170595897514324 0 -0.026831769669576948 0.00048170924021371028 0 -0.028626920155282874 -0.00010031527331503485 0 -0.028406056916065351 -0.00025507724566310806 0 -0.028418354292593463 0.00023468499398968351 0 -0.028228783761306258 7.6426243054110465e-05 0 -0.027841380725057673 0.00051413420595483291 0 -0.027312707319887972 3.5494188648023942e-05 0 -0.028300400254894546 0.00062508646421745285 0 -0.028228783761306258 7.6426243054110465e-05 0 -0.027841380725057673 0.00051413420595483291 0 -0.027398719985106436 0.0009511364683578435 0 -0.027841380725057673 0.00051413420595483291 0 -0.027312707319887972 3.5494188648023942e-05 0 -0.026964839713022423 0.00050800067723231351 0 -0.026979023203959798 0.00037147420819744588 0 -0.026882454785817109 0.00069874628526293587 0 -0.027042213790634796 0.00081967202902894236 0 -0.027002786450081494 0.00051817175509464208 0 -0.026882454785817109 0.00069874628526293587 0 -0.027002786450081494 0.00051817175509464208 0 -0.026817029787105612 0.00053887984333123625 0 -0.026748144515772804 0.00068055915154040681 0 -0.026882454785817109 0.00069874628526293587 0 -0.026817029787105612 0.00053887984333123625 0 -0.027002786450081494 0.00051817175509464208 0 -0.026817029787105612 0.00053887984333123625 0 -0.026801583598907022 0.00032951286534386147 0 -0.028228783761306258 7.6426243054110465e-05 0 -0.027312707319887972 3.5494188648023942e-05 0 -0.027612049195854162 -0.00076383927785744689 0 -0.027002786450081494 0.00051817175509464208 0 -0.027026092860395964 0.00031633744246529512 0 -0.026801583598907022 0.00032951286534386147 0 -0.026979023203959798 0.00037147420819744588 0 -0.026831769669576948 0.00048170924021371028 0 -0.026831769669576948 0.00048170924021371028 0 -0.026110425524039558 0.00092213790279900326 0 -0.027026092860395964 0.00031633744246529512 0 -0.026801583598907022 0.00032951286534386147 0 -0.026809604258434972 0.00013367562952296968 0 -0.026684932626196131 0.00015984639620247887 0 -0.026801583598907022 0.00032951286534386147 0 -0.026809604258434972 0.00013367562952296968 0 -0.025297862625826104 0.0029760171031555623 0 -0.02478878054651747 0.0022944715379816672 0 -0.025570079275980213 0.0022570539409588111 0 -0.028243136261300549 -0.0010891878016583141 0 -0.028431027253922502 -0.0007644394518992292 0 -0.02871039865095365 -0.0011132189189050181 0 -0.027975960855208187 -0.0004082015632124944 0 -0.028243136261300549 -0.0010891878016583141 0 -0.028431027253922502 -0.0007644394518992292 0 -0.026831769669576948 0.00048170924021371028 0 -0.027111080311241834 0.00035786192885083572 0 -0.02871039865095365 -0.0011132189189050181 0 -0.028663806282056344 -0.00065604540081745091 0 -0.028939559265758676 -0.00046001894018231603 0 -0.028431027253922502 -0.0007644394518992292 0 -0.02871039865095365 -0.0011132189189050181 0 -0.028663806282056344 -0.00065604540081745091 0 -0.028958073971122777 -0.0019788466200002185 0 -0.029938064602286759 -0.0017840240244801772 0 -0.030910231852182696 -0.0046126139112144414 0 -0.031328113565825072 -0.0035564278909679917 0 -0.031436075397408926 -0.0040632590078106337 0 -0.028663806282056344 -0.00065604540081745091 0 -0.028749127069054799 -0.00044861728906541126 0 -0.028485723510895976 -0.00049046758950738623 0 -0.028431027253922502 -0.0007644394518992292 0 -0.028663806282056344 -0.00065604540081745091 0 -0.028485723510895976 -0.00049046758950738623 0 -0.028663806282056344 -0.00065604540081745091 0 -0.028749127069054799 -0.00044861728906541126 0 -0.028939559265758676 -0.00046001894018231603 0 -0.028749127069054799 -0.00044861728906541126 0 -0.028566650042689865 -0.00032376907934418764 0 -0.028485723510895976 -0.00049046758950738623 0 -0.028406056916065351 -0.00025507724566310806 0 -0.028566650042689865 -0.00032376907934418764 0 -0.028485723510895976 -0.00049046758950738623 0 -0.027975960855208187 -0.0004082015632124944 0 -0.028431027253922502 -0.0007644394518992292 0 -0.028485723510895976 -0.00049046758950738623 0 -0.028406056916065351 -0.00025507724566310806 0 -0.027975960855208187 -0.0004082015632124944 0 -0.028485723510895976 -0.00049046758950738623 0 -0.032511160398379382 -0.0040271954743941801 0 -0.033112620748726194 -0.0035057167454124534 0 -0.03360982022462166 -0.0032084499867107994 0 -0.030949691520904293 -0.0046169530581490559 0 -0.030889490952068083 -0.0046038732815754727 0 -0.030867132740623134 -0.0046635015513439744 0 -0.031893647229472293 -0.0034960726928058143 0 -0.032814685060595851 -0.0024189815228922553 0 -0.032511160398379382 -0.0040271954743941801 0 -0.032407204186192307 -0.0035887566058663946 0 -0.031887033563794298 -0.0039314295029759258 0 -0.032511160398379382 -0.0040271954743941801 0 -0.033112620748726194 -0.0035057167454124534 0 -0.032407204186192307 -0.0035887566058663946 0 -0.030949691520904293 -0.0046169530581490559 0 -0.030889490952068083 -0.0046038732815754727 0 -0.030908176004220061 -0.0045565876365088733 0 -0.033112620748726194 -0.0035057167454124534 0 -0.032654612489434839 -0.0032680754376682758 0 -0.032966680518173551 -0.0030601472413830295 0 -0.033112620748726194 -0.0035057167454124534 0 -0.033282880908675878 -0.0031023531465783748 0 -0.032966680518173551 -0.0030601472413830295 0 -0.033112620748726194 -0.0035057167454124534 0 -0.032654612489434839 -0.0032680754376682758 0 -0.032407204186192307 -0.0035887566058663946 0 -0.032654612489434839 -0.0032680754376682758 0 -0.032407204186192307 -0.0035887566058663946 0 -0.032285622319324553 -0.0032604874976530961 0 -0.032285622319324553 -0.0032604874976530961 0 -0.031923773623799452 -0.0032804662748890196 0 -0.031969002140577546 -0.0035596036119302297 0 -0.031923773623799452 -0.0032804662748890196 0 -0.031969002140577546 -0.0035596036119302297 0 -0.031674126786838445 -0.0037006381052648823 0 -0.032407204186192307 -0.0035887566058663946 0 -0.032285622319324553 -0.0032604874976530961 0 -0.031969002140577546 -0.0035596036119302297 0 -0.031923773623799452 -0.0032804662748890196 0 -0.031328113565825072 -0.0035564278909679917 0 -0.031674126786838445 -0.0037006381052648823 0 -0.031328113565825072 -0.0035564278909679917 0 -0.031674126786838445 -0.0037006381052648823 0 -0.031436075397408926 -0.0040632590078106337 0 -0.031674126786838445 -0.0037006381052648823 0 -0.031887033563794298 -0.0039314295029759258 0 -0.031436075397408926 -0.0040632590078106337 0 -0.032407204186192307 -0.0035887566058663946 0 -0.031969002140577546 -0.0035596036119302297 0 -0.031887033563794298 -0.0039314295029759258 0 -0.031969002140577546 -0.0035596036119302297 0 -0.031674126786838445 -0.0037006381052648823 0 -0.031887033563794298 -0.0039314295029759258 0 -0.032511160398379382 -0.0040271954743941801 0 -0.031887033563794298 -0.0039314295029759258 0 -0.031172430476652174 -0.0045305542444490608 0 -0.031172430476652174 -0.0045305542444490608 0 -0.030935110856964456 -0.0045110581395677437 0 -0.030950798611318667 -0.0044824257321189886 0 -0.030949691520904293 -0.0046169530581490559 0 -0.031172430476652174 -0.0045305542444490608 0 -0.030935110856964456 -0.0045110581395677437 0 -0.031893647229472293 -0.0034960726928058143 0 -0.031616069892195002 -0.003805134719865281 0 -0.031887033563794298 -0.0039314295029759258 0 -0.031436075397408926 -0.0040632590078106337 0 -0.031172430476652174 -0.0045305542444490608 0 -0.030910231852182696 -0.0046126139112144414 0 -0.031436075397408926 -0.0040632590078106337 0 -0.031172430476652174 -0.0045305542444490608 0 -0.030935110856964456 -0.0045110581395677437 0 -0.030908176004220061 -0.0045565876365088733 0 -0.030870939127500052 -0.0045135793838010805 0 -0.030949691520904293 -0.0046169530581490559 0 -0.030935110856964456 -0.0045110581395677437 0 -0.030908176004220061 -0.0045565876365088733 0 -0.032524242572996374 -0.0021252659581073637 0 -0.032616404708037637 -0.002118303727163233 0 -0.032644937497206539 -0.0019744318616914795 0 -0.030889490952068083 -0.0046038732815754727 0 -0.030908176004220061 -0.0045565876365088733 0 -0.030870939127500052 -0.0045135793838010805 0 -0.033016523940108719 -0.0018337632087150699 0 -0.032987383542092096 -0.0018882024406288278 0 -0.032616404708037637 -0.002118303727163233 0 -0.032644937497206539 -0.0019744318616914795 0 -0.032747455108537375 -0.0021585589220716288 0 -0.032842555991204954 -0.0018965334553217284 0 -0.032580608684791214 -0.0017659747516883509 0 -0.032747455108537375 -0.0021585589220716288 0 -0.032842555991204954 -0.0018965334553217284 0 -0.032747455108537375 -0.0021585589220716288 0 -0.032874746940983413 -0.002183261891510615 0 -0.032580608684791214 -0.0017659747516883509 0 -0.03276204311482514 -0.0014439120348385354 0 -0.03238422546449931 -0.0013036401182267526 0 -0.032842555991204954 -0.0018965334553217284 0 -0.032969512178378513 -0.0015902680441084146 0 -0.032580608684791214 -0.0017659747516883509 0 -0.032969512178378513 -0.0015902680441084146 0 -0.032580608684791214 -0.0017659747516883509 0 -0.03276204311482514 -0.0014439120348385354 0 -0.032969512178378513 -0.0015902680441084146 0 -0.03276204311482514 -0.0014439120348385354 0 -0.032979888779418445 -0.0013279573956101599 0 -0.03207047914195104 -0.0031498877323979839 0 -0.033035515419365356 -0.0021364411436938981 0 -0.033016523940108719 -0.0018337632087150699 0 -0.033226702055488194 -0.0019025018222513779 0 -0.032644937497206539 -0.0019744318616914795 0 -0.032543959471415904 -0.0017954843659965486 0 -0.032564239548589571 -0.0017790906439811558 0 -0.032524242572996374 -0.0021252659581073637 0 -0.032644937497206539 -0.0019744318616914795 0 -0.032543959471415904 -0.0017954843659965486 0 -0.030889490952068083 -0.0046038732815754727 0 -0.030870939127500052 -0.0045135793838010805 0 -0.030854926752047124 -0.0046737458990347754 0 -0.030889490952068083 -0.0046038732815754727 0 -0.030867132740623134 -0.0046635015513439744 0 -0.030854926752047124 -0.0046737458990347754 0 -0.032813689860084837 -0.002458326691104656 0 -0.032814685060595851 -0.0024189815228922553 0 -0.033112620748726194 -0.0035057167454124534 0 -0.033520432559937426 -0.0032191271158336018 0 -0.033282880908675878 -0.0031023531465783748 0 -0.033282880908675878 -0.0031023531465783748 0 -0.033410418653415742 -0.0029270481312634739 0 -0.033501854624155288 -0.0030480731300701969 0 -0.033520432559937426 -0.0032191271158336018 0 -0.033282880908675878 -0.0031023531465783748 0 -0.033501854624155288 -0.0030480731300701969 0 -0.033282880908675878 -0.0031023531465783748 0 -0.033410418653415742 -0.0029270481312634739 0 -0.033186210313668862 -0.0028042572602685655 0 -0.033410418653415742 -0.0029270481312634739 0 -0.033639040742005334 -0.0028390265647012529 0 -0.033403277093079053 -0.0027698307088485307 0 -0.033410418653415742 -0.0029270481312634739 0 -0.033403277093079053 -0.0027698307088485307 0 -0.033186210313668862 -0.0028042572602685655 0 -0.033410418653415742 -0.0029270481312634739 0 -0.033639040742005334 -0.0028390265647012529 0 -0.033501854624155288 -0.0030480731300701969 0 -0.033266688106243836 -0.0019067020387249479 0 -0.033035515419365356 -0.0021364411436938981 0 -0.033639040742005334 -0.0028390265647012529 0 -0.033501854624155288 -0.0030480731300701969 0 -0.033639356780899014 -0.0031114449319102275 0 -0.03333226631639076 -0.0023433135087855281 0 -0.033418130592665206 -0.0011159832754221125 0 -0.032968604788301076 -0.0014838291429788621 0 -0.033035515419365356 -0.0021364411436938981 0 -0.033226702055488194 -0.0019025018222513779 0 -0.033520432559937426 -0.0032191271158336018 0 -0.033501854624155288 -0.0030480731300701969 0 -0.033639356780899014 -0.0031114449319102275 0 -0.032814685060595851 -0.0024189815228922553 0 -0.033035515419365356 -0.0021364411436938981 0 -0.033266688106243836 -0.0019067020387249479 0 -0.033226702055488194 -0.0019025018222513779 0 -0.033226702055488194 -0.0019025018222513779 0 -0.033908643515424948 -0.0010111879164814502 0 -0.035013720044102123 0.00053219289939197346 0 -0.034993355888424005 0.00046251617113458529 0 -0.034930469853856824 0.00046850992880302731 0 -0.035022906564791442 0.00051155204281885043 0 -0.035013720044102123 0.00053219289939197346 0 -0.034993355888424005 0.00046251617113458529 0 -0.033639040742005334 -0.0028390265647012529 0 -0.033336473739641298 -0.0025023828910406853 0 -0.033403277093079053 -0.0027698307088485307 0 -0.033336473739641298 -0.0025023828910406853 0 -0.033403277093079053 -0.0027698307088485307 0 -0.033186210313668862 -0.0028042572602685655 0 -0.03238422546449931 -0.0013036401182267526 0 -0.032853014534001294 -0.0010408041984323821 0 -0.03290278657023523 -0.00097383506046922115 0 -0.03238422546449931 -0.0013036401182267526 0 -0.032798266878351807 -0.0012478445104285698 0 -0.032853014534001294 -0.0010408041984323821 0 -0.033226702055488194 -0.0019025018222513779 0 -0.033662019340902571 -0.001073388595687305 0 -0.033237081565352496 -0.0015668998234146681 0 -0.033666364523801687 -0.0012089494895102255 0 -0.033860428539666573 -0.0011696911000224463 0 -0.032798266878351807 -0.0012478445104285698 0 -0.032979888779418445 -0.0013279573956101599 0 -0.033016049462632403 -0.0011080004917979681 0 -0.03276204311482514 -0.0014439120348385354 0 -0.032798266878351807 -0.0012478445104285698 0 -0.032979888779418445 -0.0013279573956101599 0 -0.03276204311482514 -0.0014439120348385354 0 -0.03238422546449931 -0.0013036401182267526 0 -0.032798266878351807 -0.0012478445104285698 0 -0.032798266878351807 -0.0012478445104285698 0 -0.032853014534001294 -0.0010408041984323821 0 -0.033016049462632403 -0.0011080004917979681 0 -0.033656017763273816 -0.0010771000009762183 0 -0.033662019340902571 -0.001073388595687305 0 -0.032853014534001294 -0.0010408041984323821 0 -0.032904518105229444 -0.00096995926964112838 0 -0.033016049462632403 -0.0011080004917979681 0 -0.034930469853856824 0.00046850992880302731 0 -0.034923833354859782 0.00035301902498398557 0 -0.034831793375439526 0.00040237374970429184 0 -0.034930469853856824 0.00046850992880302731 0 -0.034969517613187243 0.00040801857698682356 0 -0.034923833354859782 0.00035301902498398557 0 -0.033666364523801687 -0.0012089494895102255 0 -0.033860428539666573 -0.0011696911000224463 0 -0.034095521976546368 -0.00085155986350244489 0 -0.033908643515424948 -0.0010111879164814502 0 -0.034004415897049216 -0.0006804279829624682 0 -0.034993355888424005 0.00046251617113458529 0 -0.034930469853856824 0.00046850992880302731 0 -0.034969517613187243 0.00040801857698682356 0 -0.034969517613187243 0.00040801857698682356 0 -0.03502997039217693 0.00035758889197790467 0 -0.034923833354859782 0.00035301902498398557 0 -0.034923833354859782 0.00035301902498398557 0 -0.034862519174991127 0.00034027536379265043 0 -0.034831793375439526 0.00040237374970429184 0 -0.033266688106243836 -0.0019067020387249479 0 -0.034064478453832168 -0.00099769749335572636 0 -0.034993355888424005 0.00046251617113458529 0 -0.034969517613187243 0.00040801857698682356 0 -0.03502997039217693 0.00035758889197790467 0 -0.033639040742005334 -0.0028390265647012529 0 -0.033336473739641298 -0.0025023828910406853 0 -0.033242791559957713 -0.0018690449556084154 0 -0.035022906564791442 0.00051155204281885043 0 -0.034993355888424005 0.00046251617113458529 0 -0.03502997039217693 0.00035758889197790467 0 -0.033266688106243836 -0.0019067020387249479 0 -0.03344035507312855 -0.0019394036987225056 0 -0.034608823648010018 -0.0034919694073193581 0 -0.034715665413873199 -0.0021522846410590413 0 -0.034117802663631826 -0.0023272813209436589 0 -0.033242791559957713 -0.0018690449556084154 0 -0.032958775914260531 -0.0020130380467291396 0 -0.033073494306420939 -0.0022196827026105879 0 -0.033242791559957713 -0.0018690449556084154 0 -0.032860220027503051 -0.0018175607506367897 0 -0.032973585043315101 -0.0016066540262296705 0 -0.032860220027503051 -0.0018175607506367897 0 -0.032958775914260531 -0.0020130380467291396 0 -0.032662070383246554 -0.0021239191740332975 0 -0.033242791559957713 -0.0018690449556084154 0 -0.032860220027503051 -0.0018175607506367897 0 -0.032958775914260531 -0.0020130380467291396 0 -0.032958775914260531 -0.0020130380467291396 0 -0.032804177017743658 -0.0022529094999854181 0 -0.033073494306420939 -0.0022196827026105879 0 -0.032958775914260531 -0.0020130380467291396 0 -0.032662070383246554 -0.0021239191740332975 0 -0.032804177017743658 -0.0022529094999854181 0 -0.032662070383246554 -0.0021239191740332975 0 -0.032804177017743658 -0.0022529094999854181 0 -0.032483119014212386 -0.00238132864804068 0 -0.033336473739641298 -0.0025023828910406853 0 -0.033242791559957713 -0.0018690449556084154 0 -0.033073494306420939 -0.0022196827026105879 0 -0.032804177017743658 -0.0022529094999854181 0 -0.033073494306420939 -0.0022196827026105879 0 -0.03302193545476062 -0.0024981528405360362 0 -0.033336473739641298 -0.0025023828910406853 0 -0.033073494306420939 -0.0022196827026105879 0 -0.03302193545476062 -0.0024981528405360362 0 -0.033336473739641298 -0.0025023828910406853 0 -0.03302193545476062 -0.0024981528405360362 0 -0.033186210313668862 -0.0028042572602685655 0 -0.03302193545476062 -0.0024981528405360362 0 -0.033186210313668862 -0.0028042572602685655 0 -0.032923160018082299 -0.0027884085151255061 0 -0.032804177017743658 -0.0022529094999854181 0 -0.03302193545476062 -0.0024981528405360362 0 -0.032626111278253309 -0.002608484826222592 0 -0.032804177017743658 -0.0022529094999854181 0 -0.032626111278253309 -0.002608484826222592 0 -0.032483119014212386 -0.00238132864804068 0 -0.03302193545476062 -0.0024981528405360362 0 -0.032626111278253309 -0.002608484826222592 0 -0.032923160018082299 -0.0027884085151255061 0 -0.032626111278253309 -0.002608484826222592 0 -0.032640870112389725 -0.0029398260580303166 0 -0.032923160018082299 -0.0027884085151255061 0 -0.032640870112389725 -0.0029398260580303166 0 -0.032966680518173551 -0.0030601472413830295 0 -0.032923160018082299 -0.0027884085151255061 0 -0.032626111278253309 -0.002608484826222592 0 -0.032640870112389725 -0.0029398260580303166 0 -0.032271738902269954 -0.0029408827731375242 0 -0.032285622319324553 -0.0032604874976530961 0 -0.032640870112389725 -0.0029398260580303166 0 -0.032271738902269954 -0.0029408827731375242 0 -0.032654612489434839 -0.0032680754376682758 0 -0.032285622319324553 -0.0032604874976530961 0 -0.032640870112389725 -0.0029398260580303166 0 -0.032654612489434839 -0.0032680754376682758 0 -0.032640870112389725 -0.0029398260580303166 0 -0.032966680518173551 -0.0030601472413830295 0 -0.033282880908675878 -0.0031023531465783748 0 -0.032966680518173551 -0.0030601472413830295 0 -0.033186210313668862 -0.0028042572602685655 0 -0.032966680518173551 -0.0030601472413830295 0 -0.033186210313668862 -0.0028042572602685655 0 -0.032923160018082299 -0.0027884085151255061 0 -0.028917418293325035 0.00018186848090516575 0 -0.028939559265758676 -0.00046001894018231603 0 -0.029178753100062228 0.00017631653072912426 0 -0.029938064602286759 -0.0017840240244801772 0 -0.030930957788312421 -0.0010445913145601107 0 -0.031328113565825072 -0.0035564278909679917 0 -0.032141504858032598 -0.0028183638215679269 0 -0.032164649764202746 -0.0022094790830466545 0 -0.031923773623799452 -0.0032804662748890196 0 -0.031328113565825072 -0.0035564278909679917 0 -0.032141504858032598 -0.0028183638215679269 0 -0.031923773623799452 -0.0032804662748890196 0 -0.032271738902269954 -0.0029408827731375242 0 -0.032141504858032598 -0.0028183638215679269 0 -0.032285622319324553 -0.0032604874976530961 0 -0.031923773623799452 -0.0032804662748890196 0 -0.032271738902269954 -0.0029408827731375242 0 -0.032626111278253309 -0.002608484826222592 0 -0.032141504858032598 -0.0028183638215679269 0 -0.032483119014212386 -0.00238132864804068 0 -0.032141504858032598 -0.0028183638215679269 0 -0.032164649764202746 -0.0022094790830466545 0 -0.032483119014212386 -0.00238132864804068 0 -0.032626111278253309 -0.002608484826222592 0 -0.032271738902269954 -0.0029408827731375242 0 -0.032141504858032598 -0.0028183638215679269 0 -0.030578110329578412 -5.4211459043115863e-05 0 -0.031895114693299184 0.00026856013001074554 0 -0.028917418293325035 0.00018186848090516575 0 -0.029178753100062228 0.00017631653072912426 0 -0.029068519209903672 0.00081740025650542001 0 -0.030930957788312421 -0.0010445913145601107 0 -0.032245048082319774 0.00024407369384910548 0 -0.032860220027503051 -0.0018175607506367897 0 -0.032164649764202746 -0.0022094790830466545 0 -0.032973585043315101 -0.0016066540262296705 0 -0.032860220027503051 -0.0018175607506367897 0 -0.032662070383246554 -0.0021239191740332975 0 -0.032164649764202746 -0.0022094790830466545 0 -0.032662070383246554 -0.0021239191740332975 0 -0.032164649764202746 -0.0022094790830466545 0 -0.032483119014212386 -0.00238132864804068 0 -0.029178753100062228 0.00017631653072912426 0 -0.029068519209903672 0.00081740025650542001 0 -0.029404058221400735 0.00081742936883158826 0 -0.028874766612543953 0.00093684850679618759 0 -0.028892640694098293 0.0002277665609755372 0 -0.029065757923827051 0.00096500857258460056 0 -0.032164649764202746 -0.0022094790830466545 0 -0.032973585043315101 -0.0016066540262296705 0 -0.033070982578244881 -0.0013103717894664408 0 -0.031895114693299184 0.00026856013001074554 0 -0.032245048082319774 0.00024407369384910548 0 -0.034970893576402241 4.6144683570748275e-05 0 -0.034966020547853922 4.6003503757949743e-05 0 -0.034972090777029279 4.1803911492346674e-05 0 -0.034117802663631826 -0.0023272813209436589 0 -0.033508502840335803 -0.0010897044521254603 0 -0.034297699135879774 -0.0014589295515003862 0 -0.03344035507312855 -0.0019394036987225056 0 -0.033369073756020898 -0.0016213116349417444 0 -0.033242791559957713 -0.0018690449556084154 0 -0.033205854968063067 -0.0013234750259538415 0 -0.033508502840335803 -0.0010897044521254603 0 -0.033242791559957713 -0.0018690449556084154 0 -0.032973585043315101 -0.0016066540262296705 0 -0.033205854968063067 -0.0013234750259538415 0 -0.032973585043315101 -0.0016066540262296705 0 -0.033205854968063067 -0.0013234750259538415 0 -0.033070982578244881 -0.0013103717894664408 0 -0.032250757595686991 0.00024138227233465472 0 -0.032245048082319774 0.00024407369384910548 0 -0.033205854968063067 -0.0013234750259538415 0 -0.033100383377860421 -0.001339033248594576 0 -0.033508502840335803 -0.0010897044521254603 0 -0.033100383377860421 -0.001339033248594576 0 -0.033508502840335803 -0.0010897044521254603 0 -0.034122201955411519 -0.00035203407936546368 0 -0.032245048082319774 0.00024407369384910548 0 -0.033215837528669169 4.6046933351880632e-05 0 -0.034966020547853922 4.6003503757949743e-05 0 -0.034972090777029279 4.1803911492346674e-05 0 -0.034969330948795181 3.2156973792353288e-05 0 -0.034185675865328953 -0.00089355357658534333 0 -0.033508502840335803 -0.0010897044521254603 0 -0.034122201955411519 -0.00035203407936546368 0 -0.034185675865328953 -0.00089355357658534333 0 -0.033508502840335803 -0.0010897044521254603 0 -0.034297699135879774 -0.0014589295515003862 0 -0.034978286479781601 3.5883831440055214e-05 0 -0.034972090777029279 4.1803911492346674e-05 0 -0.034969330948795181 3.2156973792353288e-05 0 -0.034976684039565047 -2.1333625785274532e-05 0 -0.034983616070709635 -3.2684559887090887e-05 0 -0.034989152023267786 -1.1470813329715153e-05 0 -0.031895114693299184 0.00026856013001074554 0 -0.032737346213573895 0.00032786843427410169 0 -0.034970893576402241 4.6144683570748275e-05 0 -0.034978286479781601 3.5883831440055214e-05 0 -0.034972090777029279 4.1803911492346674e-05 0 -0.034983065246734515 -1.1200711640753992e-06 0 -0.034989152023267786 -1.1470813329715153e-05 0 -0.034988889111578179 1.2742619357503263e-05 0 -0.034978286479781601 3.5883831440055214e-05 0 -0.034988889111578179 1.2742619357503263e-05 0 -0.034969330948795181 3.2156973792353288e-05 0 -0.032737346213573895 0.00032786843427410169 0 -0.032993635849430492 0.0003308647339314815 0 -0.033215837528669169 4.6046933351880632e-05 0 -0.03355418183867255 7.9201355367648858e-05 0 -0.034969330948795181 3.2156973792353288e-05 0 -0.034971545982037222 1.9342336621528824e-05 0 -0.034931636221360238 2.0595668863526694e-05 0 -0.034988889111578179 1.2742619357503263e-05 0 -0.034969330948795181 3.2156973792353288e-05 0 -0.034971545982037222 1.9342336621528824e-05 0 -0.034988889111578179 1.2742619357503263e-05 0 -0.034981710062848989 6.6206413566910504e-06 0 -0.034971545982037222 1.9342336621528824e-05 0 -0.034981710062848989 6.6206413566910504e-06 0 -0.035000074382291663 -4.0592372730708341e-08 0 -0.034999651006700577 1.3393164554800024e-07 0 -0.034981710062848989 6.6206413566910504e-06 0 -0.034971545982037222 1.9342336621528824e-05 0 -0.034931636221360238 2.0595668863526694e-05 0 -0.034981710062848989 6.6206413566910504e-06 0 -0.034931636221360238 2.0595668863526694e-05 0 -0.034999651006700577 1.3393164554800024e-07 0 -0.034992697327680775 3.7029297434610453e-06 0 -0.034988889111578179 1.2742619357503263e-05 0 -0.035000074382291663 -4.0592372730708341e-08 0 -0.034988889111578179 1.2742619357503263e-05 0 -0.034981710062848989 6.6206413566910504e-06 0 -0.035000074382291663 -4.0592372730708341e-08 0 -0.034963899158094218 -2.2510944895138752e-05 0 -0.034999972094825527 -9.5762520052909888e-08 0 -0.03497415170066958 -3.2238939345824437e-05 0 -0.034963899158094218 -2.2510944895138752e-05 0 -0.034999972094825527 -9.5762520052909888e-08 0 -0.034934693719420457 -4.6055020101489008e-05 0 -0.034999972094825527 -9.5762520052909888e-08 0 -0.034999651006700577 1.3393164554800024e-07 0 -0.03497415170066958 -3.2238939345824437e-05 0 -0.034931636221360238 2.0595668863526694e-05 0 -0.034999651006700577 1.3393164554800024e-07 0 -0.03497415170066958 -3.2238939345824437e-05 0 -0.034551088777549761 -0.0002249250665200255 0 -0.034436705762294642 -0.00044888472310457809 0 -0.034122201955411519 -0.00035203407936546368 0 -0.034931636221360238 2.0595668863526694e-05 0 -0.03497415170066958 -3.2238939345824437e-05 0 -0.034122201955411519 -0.00035203407936546368 0 -0.03497415170066958 -3.2238939345824437e-05 0 -0.034772927904487959 -0.00080903345043014535 0 -0.03497415170066958 -3.2238939345824437e-05 0 -0.034941598250129567 5.9363460607481898e-05 0 -0.03503394575637795 0.00015737057749601964 0 -0.034963899158094218 -2.2510944895138752e-05 0 -0.03497415170066958 -3.2238939345824437e-05 0 -0.034941598250129567 5.9363460607481898e-05 0 -0.034963899158094218 -2.2510944895138752e-05 0 -0.034941598250129567 5.9363460607481898e-05 0 -0.034934693719420457 -4.6055020101489008e-05 0 -0.034941598250129567 5.9363460607481898e-05 0 -0.034881352397099427 0.000153832387808674 0 -0.03503394575637795 0.00015737057749601964 0 -0.034881352397099427 0.000153832387808674 0 -0.03503394575637795 0.00015737057749601964 0 -0.034889988941670107 0.0002510646175434651 0 -0.034185675865328953 -0.00089355357658534333 0 -0.034122201955411519 -0.00035203407936546368 0 -0.034772927904487959 -0.00080903345043014535 0 -0.034185675865328953 -0.00089355357658534333 0 -0.034772927904487959 -0.00080903345043014535 0 -0.034297699135879774 -0.0014589295515003862 0 -0.034064478453832168 -0.00099769749335572636 0 -0.034436705762294642 -0.00044888472310457809 0 -0.034715665413873199 -0.0021522846410590413 0 -0.034772927904487959 -0.00080903345043014535 0 -0.034297699135879774 -0.0014589295515003862 0 -0.03502997039217693 0.00035758889197790467 0 -0.03503394575637795 0.00015737057749601964 0 -0.034923833354859782 0.00035301902498398557 0 -0.034715665413873199 -0.0021522846410590413 0 -0.034117802663631826 -0.0023272813209436589 0 -0.034297699135879774 -0.0014589295515003862 0 -0.03503394575637795 0.00015737057749601964 0 -0.034889988941670107 0.0002510646175434651 0 -0.034923833354859782 0.00035301902498398557 0 -0.034889988941670107 0.0002510646175434651 0 -0.034923833354859782 0.00035301902498398557 0 -0.034862519174991127 0.00034027536379265043 0 -0.033982350041654827 -0.00064694139833761078 0 -0.034004415897049216 -0.0006804279829624682 0 -0.034230422665644876 -0.00026672814943093815 0 -0.034004415897049216 -0.0006804279829624682 0 -0.034810330505380717 0.00032003150711442849 0 -0.034714147886089119 0.00030159595001526848 0 -0.034831793375439526 0.00040237374970429184 0 -0.034862519174991127 0.00034027536379265043 0 -0.034810330505380717 0.00032003150711442849 0 -0.034831793375439526 0.00040237374970429184 0 -0.033907494140125449 -0.00042832388510618147 0 -0.033863509031082338 -0.00038552802079403219 0 -0.033717857383130441 -0.00058860236646213942 0 -0.034889988941670107 0.0002510646175434651 0 -0.034862519174991127 0.00034027536379265043 0 -0.034810330505380717 0.00032003150711442849 0 -0.034810330505380717 0.00032003150711442849 0 -0.034765962622137506 0.00027788664025826684 0 -0.034799126361939318 0.00023014602978078271 0 -0.034810330505380717 0.00032003150711442849 0 -0.034765962622137506 0.00027788664025826684 0 -0.034714147886089119 0.00030159595001526848 0 -0.034742414993898872 0.00025646568339524154 0 -0.034765962622137506 0.00027788664025826684 0 -0.034714147886089119 0.00030159595001526848 0 -0.034742414993898872 0.00025646568339524154 0 -0.034765962622137506 0.00027788664025826684 0 -0.034799126361939318 0.00023014602978078271 0 -0.034889988941670107 0.0002510646175434651 0 -0.034810330505380717 0.00032003150711442849 0 -0.034799126361939318 0.00023014602978078271 0 -0.033880800395965811 -0.00069701733154588468 0 -0.033767027748296978 -0.00081956221553140655 0 -0.033907494140125449 -0.00042832388510618147 0 -0.034055553883178935 -0.00040429559829711356 0 -0.033868361191708968 -0.00052922314630647431 0 -0.034055553883178935 -0.00040429559829711356 0 -0.033799492084030512 -0.00068385836415035817 0 -0.033478082830381402 -0.00062656529080037297 0 -0.033863509031082338 -0.00038552802079403219 0 -0.033941280376473433 -0.00037372600113510596 0 -0.033983924721971287 -0.00031979138653547094 0 -0.033907494140125449 -0.00042832388510618147 0 -0.033863509031082338 -0.00038552802079403219 0 -0.033941280376473433 -0.00037372600113510596 0 -0.033907494140125449 -0.00042832388510618147 0 -0.033941280376473433 -0.00037372600113510596 0 -0.034055553883178935 -0.00040429559829711356 0 -0.033941280376473433 -0.00037372600113510596 0 -0.033983924721971287 -0.00031979138653547094 0 -0.034055553883178935 -0.00040429559829711356 0 -0.033863509031082338 -0.00038552802079403219 0 -0.033983924721971287 -0.00031979138653547094 0 -0.034044575424261946 -0.00019556426856176464 0 -0.034714147886089119 0.00030159595001526848 0 -0.034683809726928763 0.00020350187952678124 0 -0.034507492455241637 0.00016536674323364511 0 -0.034230422665644876 -0.00026672814943093815 0 -0.034272856902806161 -0.00015402703599654653 0 -0.034742414993898872 0.00025646568339524154 0 -0.034714147886089119 0.00030159595001526848 0 -0.034683809726928763 0.00020350187952678124 0 -0.034683809726928763 0.00020350187952678124 0 -0.034671443177775652 0.00011674357621406917 0 -0.034507492455241637 0.00016536674323364511 0 -0.034881352397099427 0.000153832387808674 0 -0.034889988941670107 0.0002510646175434651 0 -0.034799126361939318 0.00023014602978078271 0 -0.034742414993898872 0.00025646568339524154 0 -0.034683809726928763 0.00020350187952678124 0 -0.034799126361939318 0.00023014602978078271 0 -0.034683809726928763 0.00020350187952678124 0 -0.034799126361939318 0.00023014602978078271 0 -0.034799334687014995 0.00012859548139731438 0 -0.034683809726928763 0.00020350187952678124 0 -0.034671443177775652 0.00011674357621406917 0 -0.034799334687014995 0.00012859548139731438 0 -0.034941598250129567 5.9363460607481898e-05 0 -0.034881352397099427 0.000153832387808674 0 -0.034799334687014995 0.00012859548139731438 0 -0.034881352397099427 0.000153832387808674 0 -0.034799126361939318 0.00023014602978078271 0 -0.034799334687014995 0.00012859548139731438 0 -0.034815028183709282 4.3922706059602099e-05 0 -0.034631287661621012 9.2912647483134766e-06 0 -0.034934693719420457 -4.6055020101489008e-05 0 -0.034941598250129567 5.9363460607481898e-05 0 -0.034799334687014995 0.00012859548139731438 0 -0.034815028183709282 4.3922706059602099e-05 0 -0.034941598250129567 5.9363460607481898e-05 0 -0.034815028183709282 4.3922706059602099e-05 0 -0.034934693719420457 -4.6055020101489008e-05 0 -0.034671443177775652 0.00011674357621406917 0 -0.034799334687014995 0.00012859548139731438 0 -0.034815028183709282 4.3922706059602099e-05 0 -0.034671443177775652 0.00011674357621406917 0 -0.034507492455241637 0.00016536674323364511 0 -0.034631287661621012 9.2912647483134766e-06 0 -0.034631287661621012 9.2912647483134766e-06 0 -0.034410511589121388 -0.00018686583947792859 0 -0.034934693719420457 -4.6055020101489008e-05 0 -0.034671443177775652 0.00011674357621406917 0 -0.034815028183709282 4.3922706059602099e-05 0 -0.034631287661621012 9.2912647483134766e-06 0 -0.034507492455241637 0.00016536674323364511 0 -0.034450866777457317 -2.7991084784047123e-05 0 -0.034631287661621012 9.2912647483134766e-06 0 -0.034450866777457317 -2.7991084784047123e-05 0 -0.034631287661621012 9.2912647483134766e-06 0 -0.034410511589121388 -0.00018686583947792859 0 -0.034999933030259112 5.6650176212018331e-09 0 -0.035005371854443162 -1.4012541438025395e-05 0 -0.034934693719420457 -4.6055020101489008e-05 0 -0.034732264527695386 -5.9689962854202582e-05 0 -0.034794864841743829 -5.8743146591254025e-05 0 -0.034999972094825527 -9.5762520052909888e-08 0 -0.034999933030259112 5.6650176212018331e-09 0 -0.034934693719420457 -4.6055020101489008e-05 0 -0.034999730485488031 -9.8969398174811393e-08 0 -0.03500014428211997 3.5890251877071789e-08 0 -0.035019084674908482 1.1976168351790914e-05 0 -0.034410511589121388 -0.00018686583947792859 0 -0.03420307791571852 -7.7586342682405549e-05 0 -0.034263983889360021 -0.00010712225380840235 0 -0.035005371854443162 -1.4012541438025395e-05 0 -0.03500014428211997 3.5890251877071789e-08 0 -0.035019084674908482 1.1976168351790914e-05 0 -0.034732264527695386 -5.9689962854202582e-05 0 -0.034700219754776843 -4.5575667842032418e-05 0 -0.034999933030259112 5.6650176212018331e-09 0 -0.035005371854443162 -1.4012541438025395e-05 0 -0.03500014428211997 3.5890251877071789e-08 0 -0.034272856902806161 -0.00015402703599654653 0 -0.034271030324093212 -0.00014350131394129219 0 -0.034507492455241637 0.00016536674323364511 0 -0.034450866777457317 -2.7991084784047123e-05 0 -0.034267265304981129 -0.00010672104480559138 0 -0.03402655184138817 -0.00020792404490103415 0 -0.033957500090733665 -0.00031921907627541885 0 -0.034410511589121388 -0.00018686583947792859 0 -0.034263983889360021 -0.00010712225380840235 0 -0.034267265304981129 -0.00010672104480559138 0 -0.034263983889360021 -0.00010712225380840235 0 -0.034267265304981129 -0.00010672104480559138 0 -0.034195597036586749 -0.00015847428699533128 0 -0.034044575424261946 -0.00019556426856176464 0 -0.034267265304981129 -0.00010672104480559138 0 -0.034195597036586749 -0.00015847428699533128 0 -0.034263983889360021 -0.00010712225380840235 0 -0.034257966491122435 -0.00022812163477588739 0 -0.034202472605607964 -0.00029852321441564678 0 -0.034263983889360021 -0.00010712225380840235 0 -0.034195597036586749 -0.00015847428699533128 0 -0.034177394529011022 -0.00023564116264899093 0 -0.034450866777457317 -2.7991084784047123e-05 0 -0.034410511589121388 -0.00018686583947792859 0 -0.034267265304981129 -0.00010672104480559138 0 -0.03420307791571852 -7.7586342682405549e-05 0 -0.034263983889360021 -0.00010712225380840235 0 -0.034259745852680788 -0.00017200115669373025 0 -0.034263983889360021 -0.00010712225380840235 0 -0.034257966491122435 -0.00022812163477588739 0 -0.034259745852680788 -0.00017200115669373025 0 -0.034352685230637038 -0.00019318331006756693 0 -0.03420307791571852 -7.7586342682405549e-05 0 -0.034259745852680788 -0.00017200115669373025 0 -0.034352685230637038 -0.00019318331006756693 0 -0.034259745852680788 -0.00017200115669373025 0 -0.034294017933018478 -0.00025790172051274197 0 -0.034257966491122435 -0.00022812163477588739 0 -0.034259745852680788 -0.00017200115669373025 0 -0.034294017933018478 -0.00025790172051274197 0 -0.034257966491122435 -0.00022812163477588739 0 -0.034294017933018478 -0.00025790172051274197 0 -0.034273379464380783 -0.00030916457389561984 0 -0.034257966491122435 -0.00022812163477588739 0 -0.034273379464380783 -0.00030916457389561984 0 -0.034202472605607964 -0.00029852321441564678 0 -0.034273379464380783 -0.00030916457389561984 0 -0.034202472605607964 -0.00029852321441564678 0 -0.034257596221678045 -0.00034437240027098304 0 -0.033983924721971287 -0.00031979138653547094 0 -0.034044575424261946 -0.00019556426856176464 0 -0.034177394529011022 -0.00023564116264899093 0 -0.033983924721971287 -0.00031979138653547094 0 -0.034177394529011022 -0.00023564116264899093 0 -0.034055553883178935 -0.00040429559829711356 0 -0.034044575424261946 -0.00019556426856176464 0 -0.034195597036586749 -0.00015847428699533128 0 -0.034177394529011022 -0.00023564116264899093 0 -0.033957500090733665 -0.00031921907627541885 0 -0.033737763907199105 -0.00063715927243920291 0 -0.034202472605607964 -0.00029852321441564678 0 -0.034257596221678045 -0.00034437240027098304 0 -0.034202882743519673 -0.00037893056628709939 0 -0.034177394529011022 -0.00023564116264899093 0 -0.034055553883178935 -0.00040429559829711356 0 -0.034100789650006694 -0.00063634955770904835 0 -0.034055553883178935 -0.00040429559829711356 0 -0.034100789650006694 -0.00063634955770904835 0 -0.033799492084030512 -0.00068385836415035817 0 -0.034288388649253647 -0.00033362360509246839 0 -0.034273379464380783 -0.00030916457389561984 0 -0.034257596221678045 -0.00034437240027098304 0 -0.034296277164932061 -0.00032684427910448249 0 -0.034257596221678045 -0.00034437240027098304 0 -0.03425211744074326 -0.00040845904543634708 0 -0.033625067462769644 -0.00081894794341282431 0 -0.033429456908727798 -0.0010646097789973451 0 -0.034257596221678045 -0.00034437240027098304 0 -0.03425211744074326 -0.00040845904543634708 0 -0.034202882743519673 -0.00037893056628709939 0 -0.032372157650357718 -0.0014558738195353793 0 -0.032043965300927901 -0.0018750132326792466 0 -0.032390444862911448 -0.0019135755544218691 0 -0.032888505166377702 -0.0015758451355291996 0 -0.032372157650357718 -0.0014558738195353793 0 -0.032390444862911448 -0.0019135755544218691 0 -0.033249997771999086 -0.0013997278310236968 0 -0.033737763907199105 -0.00063715927243920291 0 -0.033429456908727798 -0.0010646097789973451 0 -0.033249997771999086 -0.0013997278310236968 0 -0.03425211744074326 -0.00040845904543634708 0 -0.034187367553872409 -0.00047225170403343195 0 -0.034202882743519673 -0.00037893056628709939 0 -0.034013730253812519 -0.001297791215280796 0 -0.034100789650006694 -0.00063634955770904835 0 -0.033795296652126834 -0.0009341203016458913 0 -0.034100789650006694 -0.00063634955770904835 0 -0.033799492084030512 -0.00068385836415035817 0 -0.033795296652126834 -0.0009341203016458913 0 -0.033799492084030512 -0.00068385836415035817 0 -0.033478082830381402 -0.00062656529080037297 0 -0.033558754707903024 -0.00087469704133765695 0 -0.033799492084030512 -0.00068385836415035817 0 -0.033558754707903024 -0.00087469704133765695 0 -0.033795296652126834 -0.0009341203016458913 0 -0.033662019340902571 -0.001073388595687305 0 -0.033767027748296978 -0.00081956221553140655 0 -0.032904518105229444 -0.00096995926964112838 0 -0.033478082830381402 -0.00062656529080037297 0 -0.033287179227277267 -0.00094854611356614887 0 -0.033907494140125449 -0.00042832388510618147 0 -0.033868361191708968 -0.00052922314630647431 0 -0.033750288535867062 -0.0005604962089953583 0 -0.0336787358830151 -0.0006592750173997975 0 -0.033868361191708968 -0.00052922314630647431 0 -0.033750288535867062 -0.0005604962089953583 0 -0.033478082830381402 -0.00062656529080037297 0 -0.033558754707903024 -0.00087469704133765695 0 -0.033287179227277267 -0.00094854611356614887 0 -0.033662019340902571 -0.001073388595687305 0 -0.034004415897049216 -0.0006804279829624682 0 -0.033287179227277267 -0.00094854611356614887 0 -0.033016049462632403 -0.0011080004917979681 0 -0.033241853010321995 -0.0013320554354392842 0 -0.032904518105229444 -0.00096995926964112838 0 -0.033287179227277267 -0.00094854611356614887 0 -0.033016049462632403 -0.0011080004917979681 0 -0.033287179227277267 -0.00094854611356614887 0 -0.033241853010321995 -0.0013320554354392842 0 -0.033583546322856525 -0.0012132220572801768 0 -0.032979888779418445 -0.0013279573956101599 0 -0.033016049462632403 -0.0011080004917979681 0 -0.033241853010321995 -0.0013320554354392842 0 -0.034013730253812519 -0.001297791215280796 0 -0.033795296652126834 -0.0009341203016458913 0 -0.033583546322856525 -0.0012132220572801768 0 -0.033558754707903024 -0.00087469704133765695 0 -0.033795296652126834 -0.0009341203016458913 0 -0.033583546322856525 -0.0012132220572801768 0 -0.033558754707903024 -0.00087469704133765695 0 -0.033287179227277267 -0.00094854611356614887 0 -0.033583546322856525 -0.0012132220572801768 0 -0.03209399595040812 -0.0022410267031216513 0 -0.032147720575839367 -0.0022865438073749289 0 -0.032097053300722558 -0.0022194060423386475 0 -0.033249997771999086 -0.0013997278310236968 0 -0.032855832320162613 -0.0018783458297344073 0 -0.033241853010321995 -0.0013320554354392842 0 -0.033583546322856525 -0.0012132220572801768 0 -0.033458041642670112 -0.0017709699474760272 0 -0.034013730253812519 -0.001297791215280796 0 -0.033583546322856525 -0.0012132220572801768 0 -0.033458041642670112 -0.0017709699474760272 0 -0.032842555991204954 -0.0018965334553217284 0 -0.032969512178378513 -0.0015902680441084146 0 -0.033458041642670112 -0.0017709699474760272 0 -0.032969512178378513 -0.0015902680441084146 0 -0.033241853010321995 -0.0013320554354392842 0 -0.033458041642670112 -0.0017709699474760272 0 -0.032969512178378513 -0.0015902680441084146 0 -0.032979888779418445 -0.0013279573956101599 0 -0.033241853010321995 -0.0013320554354392842 0 -0.032147720575839367 -0.0022865438073749289 0 -0.03219976844385853 -0.0023205711738527087 0 -0.032292916722878623 -0.0023596472650260552 0 -0.032842555991204954 -0.0018965334553217284 0 -0.033458041642670112 -0.0017709699474760272 0 -0.032874746940983413 -0.002183261891510615 0 -0.032855832320162613 -0.0018783458297344073 0 -0.032663257125070365 -0.0021089189814365175 0 -0.032147720575839367 -0.0022865438073749289 0 -0.03219976844385853 -0.0023205711738527087 0 -0.032135422516736366 -0.0023122079936820539 0 -0.032147720575839367 -0.0022865438073749289 0 -0.032135422516736366 -0.0023122079936820539 0 -0.032097053300722558 -0.0022194060423386475 0 -0.032135422516736366 -0.0023122079936820539 0 -0.032162034031263151 -0.0023425052900947871 0 -0.032097053300722558 -0.0022194060423386475 0 -0.032162034031263151 -0.0023425052900947871 0 -0.032242623458159377 -0.0021673517915970194 0 -0.032097053300722558 -0.0022194060423386475 0 -0.032384983047815508 -0.0022168876746140455 0 -0.032162034031263151 -0.0023425052900947871 0 -0.032242623458159377 -0.0021673517915970194 0 -0.032384983047815508 -0.0022168876746140455 0 -0.032162034031263151 -0.0023425052900947871 0 -0.032156781227320443 -0.0024753796795173805 0 -0.032043965300927901 -0.0018750132326792466 0 -0.032390444862911448 -0.0019135755544218691 0 -0.032242623458159377 -0.0021673517915970194 0 -0.032384983047815508 -0.0022168876746140455 0 -0.032390444862911448 -0.0019135755544218691 0 -0.032242623458159377 -0.0021673517915970194 0 -0.032043965300927901 -0.0018750132326792466 0 -0.032242623458159377 -0.0021673517915970194 0 -0.032097053300722558 -0.0022194060423386475 0 -0.033249997771999086 -0.0013997278310236968 0 -0.033115551949586701 -0.00166412448623674 0 -0.032128890398680263 -0.0023383465567175204 0 -0.032156781227320443 -0.0024753796795173805 0 -0.031989052217995792 -0.0022492135027925085 0 -0.032162034031263151 -0.0023425052900947871 0 -0.032128890398680263 -0.0023383465567175204 0 -0.032156781227320443 -0.0024753796795173805 0 -0.032135422516736366 -0.0023122079936820539 0 -0.032162034031263151 -0.0023425052900947871 0 -0.032128890398680263 -0.0023383465567175204 0 -0.03219976844385853 -0.0023205711738527087 0 -0.032135422516736366 -0.0023122079936820539 0 -0.032186232654104224 -0.0023147572053191759 0 -0.032135422516736366 -0.0023122079936820539 0 -0.032128890398680263 -0.0023383465567175204 0 -0.032186232654104224 -0.0023147572053191759 0 -0.03219976844385853 -0.0023205711738527087 0 -0.032245934537375232 -0.0023207216258476324 0 -0.032292916722878623 -0.0023596472650260552 0 -0.032245934537375232 -0.0023207216258476324 0 -0.032327579133112093 -0.0022992072750199562 0 -0.032292916722878623 -0.0023596472650260552 0 -0.03219976844385853 -0.0023205711738527087 0 -0.032186232654104224 -0.0023147572053191759 0 -0.032245934537375232 -0.0023207216258476324 0 -0.032186232654104224 -0.0023147572053191759 0 -0.032245934537375232 -0.0023207216258476324 0 -0.032267715651440834 -0.0022855784249082621 0 -0.032186232654104224 -0.0023147572053191759 0 -0.032267715651440834 -0.0022855784249082621 0 -0.032217084502087177 -0.0022683582524131475 0 -0.032245934537375232 -0.0023207216258476324 0 -0.032267715651440834 -0.0022855784249082621 0 -0.032327579133112093 -0.0022992072750199562 0 -0.032267715651440834 -0.0022855784249082621 0 -0.032217084502087177 -0.0022683582524131475 0 -0.032320220326739729 -0.0022012714197017051 0 -0.032267715651440834 -0.0022855784249082621 0 -0.032320220326739729 -0.0022012714197017051 0 -0.03236454354829018 -0.0022561948109808597 0 -0.032267715651440834 -0.0022855784249082621 0 -0.03236454354829018 -0.0022561948109808597 0 -0.032327579133112093 -0.0022992072750199562 0 -0.032128890398680263 -0.0023383465567175204 0 -0.032186232654104224 -0.0023147572053191759 0 -0.032217084502087177 -0.0022683582524131475 0 -0.032128890398680263 -0.0023383465567175204 0 -0.032217084502087177 -0.0022683582524131475 0 -0.032197024080075742 -0.0021515919004218044 0 -0.032217084502087177 -0.0022683582524131475 0 -0.032197024080075742 -0.0021515919004218044 0 -0.032320220326739729 -0.0022012714197017051 0 -0.032197024080075742 -0.0021515919004218044 0 -0.032139381901906711 -0.0019675018269257253 0 -0.032072197204225127 -0.002140723485363951 0 -0.032108541220841127 -0.0020569877123526787 0 -0.032041599088804343 -0.0019462441817882667 0 -0.032320220326739729 -0.0022012714197017051 0 -0.032312973423427913 -0.0020586956872460809 0 -0.03239912051223573 -0.0021606366255753043 0 -0.032197024080075742 -0.0021515919004218044 0 -0.032320220326739729 -0.0022012714197017051 0 -0.032371706802217445 -0.0019404833216514236 0 -0.032197024080075742 -0.0021515919004218044 0 -0.032371706802217445 -0.0019404833216514236 0 -0.032139381901906711 -0.0019675018269257253 0 -0.032371706802217445 -0.0019404833216514236 0 -0.032139381901906711 -0.0019675018269257253 0 -0.03218036943738542 -0.0018082996467835156 0 -0.032139381901906711 -0.0019675018269257253 0 -0.031911475207306438 -0.0018902433300439069 0 -0.032072197204225127 -0.002140723485363951 0 -0.032139381901906711 -0.0019675018269257253 0 -0.031911475207306438 -0.0018902433300439069 0 -0.03218036943738542 -0.0018082996467835156 0 -0.032128890398680263 -0.0023383465567175204 0 -0.032197024080075742 -0.0021515919004218044 0 -0.032072197204225127 -0.002140723485363951 0 -0.032128890398680263 -0.0023383465567175204 0 -0.032072197204225127 -0.002140723485363951 0 -0.031989052217995792 -0.0022492135027925085 0 -0.031911475207306438 -0.0018902433300439069 0 -0.032072197204225127 -0.002140723485363951 0 -0.031989052217995792 -0.0022492135027925085 0 -0.031729560260277824 -0.0019593851689238447 0 -0.031911475207306438 -0.0018902433300439069 0 -0.031989052217995792 -0.0022492135027925085 0 -0.031729560260277824 -0.0019593851689238447 0 -0.031911475207306438 -0.0018902433300439069 0 -0.031686278237534199 -0.0016136289035469694 0 -0.031911475207306438 -0.0018902433300439069 0 -0.031686278237534199 -0.0016136289035469694 0 -0.031817470234436554 -0.0015277259420924793 0 -0.031911475207306438 -0.0018902433300439069 0 -0.031817470234436554 -0.0015277259420924793 0 -0.031908118454845112 -0.0015299251558806193 0 -0.031862088168787009 -0.0017561728748372457 0 -0.03191233262097623 -0.0016864696032022129 0 -0.031817470234436554 -0.0015277259420924793 0 -0.031831028791744022 -0.0014132492081208605 0 -0.031908118454845112 -0.0015299251558806193 0 -0.031817470234436554 -0.0015277259420924793 0 -0.031831028791744022 -0.0014132492081208605 0 -0.031716744435934599 -0.0012744661451192106 0 -0.031686278237534199 -0.0016136289035469694 0 -0.031817470234436554 -0.0015277259420924793 0 -0.031716744435934599 -0.0012744661451192106 0 -0.031686278237534199 -0.0016136289035469694 0 -0.031369453573155001 -0.0012520988437503011 0 -0.031440409027382758 -0.001344729258662924 0 -0.031369453573155001 -0.0012520988437503011 0 -0.031440409027382758 -0.001344729258662924 0 -0.031169566118794179 -0.0011582266128435804 0 -0.031831028791744022 -0.0014132492081208605 0 -0.031716744435934599 -0.0012744661451192106 0 -0.03180550861000489 -0.0012934309640475527 0 -0.031505602640820481 -0.0014110150953124555 0 -0.031543887695623794 -0.0012276514779608143 0 -0.031489769570650528 -0.0013478402229207076 0 -0.031686278237534199 -0.0016136289035469694 0 -0.031440409027382758 -0.001344729258662924 0 -0.030636180548156387 -0.0014534068560509564 0 -0.031440409027382758 -0.001344729258662924 0 -0.031169566118794179 -0.0011582266128435804 0 -0.030915298111002611 -0.0013645980108983981 0 -0.03118121829486795 -0.0013400800740469454 0 -0.030636180548156387 -0.0014534068560509564 0 -0.030948709260063781 -0.00093693365384512814 0 -0.031169566118794179 -0.0011582266128435804 0 -0.030948709260063781 -0.00093693365384512814 0 -0.031169566118794179 -0.0011582266128435804 0 -0.031223245560583274 -0.00090726099304277942 0 -0.031543887695623794 -0.0012276514779608143 0 -0.03164882535676692 -0.00087483384133673714 0 -0.031369453573155001 -0.0012520988437503011 0 -0.031223245560583274 -0.00090726099304277942 0 -0.031445696700982843 -0.00077637756329464896 0 -0.031369453573155001 -0.0012520988437503011 0 -0.031169566118794179 -0.0011582266128435804 0 -0.031223245560583274 -0.00090726099304277942 0 -0.031716744435934599 -0.0012744661451192106 0 -0.031796580469824365 -0.0011645483812758645 0 -0.03180550861000489 -0.0012934309640475527 0 -0.031223245560583274 -0.00090726099304277942 0 -0.031020199785975412 -0.00066015055007916394 0 -0.031445696700982843 -0.00077637756329464896 0 -0.030948709260063781 -0.00093693365384512814 0 -0.031223245560583274 -0.00090726099304277942 0 -0.031020199785975412 -0.00066015055007916394 0 -0.030744941804938055 -0.00067699191428701431 0 -0.030948709260063781 -0.00093693365384512814 0 -0.031020199785975412 -0.00066015055007916394 0 -0.03187538022131705 -0.0008623402168161518 0 -0.031841719792066056 -0.0010381034808910295 0 -0.031967649452533532 -0.0010173716165817399 0 -0.03187538022131705 -0.0008623402168161518 0 -0.031967649452533532 -0.0010173716165817399 0 -0.032004863846358297 -0.00090135746953125793 0 -0.031967649452533532 -0.0010173716165817399 0 -0.032004863846358297 -0.00090135746953125793 0 -0.032021815257207029 -0.00097514316775372057 0 -0.03187538022131705 -0.0008623402168161518 0 -0.032004863846358297 -0.00090135746953125793 0 -0.032025593229670787 -0.00076647081248884172 0 -0.03187538022131705 -0.0008623402168161518 0 -0.031698129124960214 -0.00091386929620067628 0 -0.031841719792066056 -0.0010381034808910295 0 -0.031841719792066056 -0.0010381034808910295 0 -0.031867104040999128 -0.0011694681419368654 0 -0.031912941217688735 -0.0011285020900007115 0 -0.031716744435934599 -0.0012744661451192106 0 -0.031698129124960214 -0.00091386929620067628 0 -0.031796580469824365 -0.0011645483812758645 0 -0.031841719792066056 -0.0010381034808910295 0 -0.031796580469824365 -0.0011645483812758645 0 -0.031867104040999128 -0.0011694681419368654 0 -0.031698129124960214 -0.00091386929620067628 0 -0.031841719792066056 -0.0010381034808910295 0 -0.031796580469824365 -0.0011645483812758645 0 -0.031796580469824365 -0.0011645483812758645 0 -0.03180550861000489 -0.0012934309640475527 0 -0.031865699527603056 -0.0012734370221463664 0 -0.031796580469824365 -0.0011645483812758645 0 -0.031867104040999128 -0.0011694681419368654 0 -0.031865699527603056 -0.0012734370221463664 0 -0.031867104040999128 -0.0011694681419368654 0 -0.031921589799027192 -0.0012376469815262615 0 -0.031865699527603056 -0.0012734370221463664 0 -0.031921589799027192 -0.0012376469815262615 0 -0.031964096298613236 -0.0011899124347611433 0 -0.031971957536955489 -0.0012583807001223777 0 -0.031964096298613236 -0.0011899124347611433 0 -0.032016193565312059 -0.0011595988326857179 0 -0.031971957536955489 -0.0012583807001223777 0 -0.031964096298613236 -0.0011899124347611433 0 -0.031912941217688735 -0.0011285020900007115 0 -0.031988989663433179 -0.001127834866355173 0 -0.031921589799027192 -0.0012376469815262615 0 -0.031964096298613236 -0.0011899124347611433 0 -0.031912941217688735 -0.0011285020900007115 0 -0.031867104040999128 -0.0011694681419368654 0 -0.031921589799027192 -0.0012376469815262615 0 -0.031912941217688735 -0.0011285020900007115 0 -0.031841719792066056 -0.0010381034808910295 0 -0.031912941217688735 -0.0011285020900007115 0 -0.031967649452533532 -0.0010173716165817399 0 -0.031967649452533532 -0.0010173716165817399 0 -0.031957685899753785 -0.0010800258224674872 0 -0.032032388418954991 -0.0010367396217745449 0 -0.031967649452533532 -0.0010173716165817399 0 -0.031988989663433179 -0.001127834866355173 0 -0.032018577924486195 -0.0011568265494274247 0 -0.031651495693209887 -0.0015771434250255775 0 -0.031643029510749696 -0.001627125336493002 0 -0.031912941217688735 -0.0011285020900007115 0 -0.031967649452533532 -0.0010173716165817399 0 -0.031988989663433179 -0.001127834866355173 0 -0.031643029510749696 -0.001627125336493002 0 -0.031514316946489047 -0.0017792390626882671 0 -0.031964096298613236 -0.0011899124347611433 0 -0.031988989663433179 -0.001127834866355173 0 -0.032016193565312059 -0.0011595988326857179 0 -0.031643056665667753 -0.0016254853642610409 0 -0.031643029510749696 -0.001627125336493002 0 -0.031643029510749696 -0.001627125336493002 0 -0.031792292318667953 -0.0016857255231350187 0 -0.031705673334758426 -0.0016400245311002399 0 -0.031704102877942134 -0.0019099711041142024 0 -0.031839792551038873 -0.001815992897696185 0 -0.031940692614485677 -0.0013477205064622046 0 -0.032028357413476136 -0.0013473240287953424 0 -0.031908118454845112 -0.0015299251558806193 0 -0.032016193565312059 -0.0011595988326857179 0 -0.031971957536955489 -0.0012583807001223777 0 -0.032028357413476136 -0.0013473240287953424 0 -0.031792292318667953 -0.0016857255231350187 0 -0.031514316946489047 -0.0017792390626882671 0 -0.031971957536955489 -0.0012583807001223777 0 -0.031940692614485677 -0.0013477205064622046 0 -0.032028357413476136 -0.0013473240287953424 0 -0.031921589799027192 -0.0012376469815262615 0 -0.031971957536955489 -0.0012583807001223777 0 -0.031940692614485677 -0.0013477205064622046 0 -0.03180550861000489 -0.0012934309640475527 0 -0.031865699527603056 -0.0012734370221463664 0 -0.031870880034962565 -0.0013754911526774884 0 -0.031921589799027192 -0.0012376469815262615 0 -0.031940692614485677 -0.0013477205064622046 0 -0.031865699527603056 -0.0012734370221463664 0 -0.031940692614485677 -0.0013477205064622046 0 -0.031865699527603056 -0.0012734370221463664 0 -0.031870880034962565 -0.0013754911526774884 0 -0.031940692614485677 -0.0013477205064622046 0 -0.031870880034962565 -0.0013754911526774884 0 -0.031908118454845112 -0.0015299251558806193 0 -0.031831028791744022 -0.0014132492081208605 0 -0.031870880034962565 -0.0013754911526774884 0 -0.031908118454845112 -0.0015299251558806193 0 -0.031831028791744022 -0.0014132492081208605 0 -0.03180550861000489 -0.0012934309640475527 0 -0.031870880034962565 -0.0013754911526774884 0 -0.032312973423427913 -0.0020586956872460809 0 -0.032308074921186807 -0.0018979939896800126 0 -0.032371260564144355 -0.00198972462337895 0 -0.032041599088804343 -0.0019462441817882667 0 -0.031792292318667953 -0.0016857255231350187 0 -0.031792292318667953 -0.0016857255231350187 0 -0.03191233262097623 -0.0016864696032022129 0 -0.032371706802217445 -0.0019404833216514236 0 -0.032375865999423659 -0.0016764006604932532 0 -0.03218036943738542 -0.0018082996467835156 0 -0.030951950026049314 -0.0020236123614279142 0 -0.031350968668629756 -0.001788369505123033 0 -0.032371260564144355 -0.00198972462337895 0 -0.032449037367838607 -0.0019880768340756116 0 -0.032414504653397548 -0.0020645371116606399 0 -0.032371260564144355 -0.00198972462337895 0 -0.032449037367838607 -0.0019880768340756116 0 -0.032360905731248717 -0.001917656248777192 0 -0.029761879739744583 -0.0011916458511827092 0 -0.02934049865786803 -0.0013000074988645815 0 -0.029390290519512148 -0.00071061405530826593 0 -0.029761879739744583 -0.0011916458511827092 0 -0.029583291648631199 -0.0016422863322683849 0 -0.02934049865786803 -0.0013000074988645815 0 -0.029761879739744583 -0.0011916458511827092 0 -0.029583291648631199 -0.0016422863322683849 0 -0.029847033925755509 -0.0017201769042549235 0 -0.029583291648631199 -0.0016422863322683849 0 -0.029254002526340483 -0.00192464817122846 0 -0.02934049865786803 -0.0013000074988645815 0 -0.029847033925755509 -0.0017201769042549235 0 -0.029659385448039099 -0.0019456791968008606 0 -0.029963924229495575 -0.002015128743608922 0 -0.029583291648631199 -0.0016422863322683849 0 -0.029847033925755509 -0.0017201769042549235 0 -0.029659385448039099 -0.0019456791968008606 0 -0.029583291648631199 -0.0016422863322683849 0 -0.029659385448039099 -0.0019456791968008606 0 -0.029254002526340483 -0.00192464817122846 0 -0.029761879739744583 -0.0011916458511827092 0 -0.029847033925755509 -0.0017201769042549235 0 -0.030146699580727292 -0.0016936580071874353 0 -0.032449037367838607 -0.0019880768340756116 0 -0.032374653065365327 -0.0018912233339396939 0 -0.032360905731248717 -0.001917656248777192 0 -0.03237476454102655 -0.0018908332560255462 0 -0.032360905731248717 -0.001917656248777192 0 -0.032354772824609829 -0.0018647826293962013 0 -0.032308074921186807 -0.0018979939896800126 0 -0.032371260564144355 -0.00198972462337895 0 -0.032360905731248717 -0.001917656248777192 0 -0.032308074921186807 -0.0018979939896800126 0 -0.032360905731248717 -0.001917656248777192 0 -0.032354772824609829 -0.0018647826293962013 0 -0.031350968668629756 -0.001788369505123033 0 -0.031366025049560042 -0.0017800550697081622 0 -0.029847033925755509 -0.0017201769042549235 0 -0.030146699580727292 -0.0016936580071874353 0 -0.029963924229495575 -0.002015128743608922 0 -0.031350968668629756 -0.001788369505123033 0 -0.031107197670889118 -0.0018671964830166061 0 -0.031514316946489047 -0.0017792390626882671 0 -0.031107197670889118 -0.0018671964830166061 0 -0.031159410372699217 -0.0018509707857083161 0 -0.031081252508276914 -0.0017484744046770387 0 -0.031295277808561894 -0.0016002348591402094 0 -0.031350968668629756 -0.001788369505123033 0 -0.031514316946489047 -0.0017792390626882671 0 -0.031957685899753785 -0.0010800258224674872 0 -0.032029063694051597 -0.0011910686121845489 0 -0.032039715659708583 -0.0011016104885439833 0 -0.032029063694051597 -0.0011910686121845489 0 -0.032039715659708583 -0.0011016104885439833 0 -0.032132006516267658 -0.0011307394869293722 0 -0.031957685899753785 -0.0010800258224674872 0 -0.032039715659708583 -0.0011016104885439833 0 -0.032032388418954991 -0.0010367396217745449 0 -0.032106347274162159 -0.0010122947777397133 0 -0.032132006516267658 -0.0011307394869293722 0 -0.032244257325593759 -0.00083895961785596454 0 -0.031967649452533532 -0.0010173716165817399 0 -0.032032388418954991 -0.0010367396217745449 0 -0.032021815257207029 -0.00097514316775372057 0 -0.032039715659708583 -0.0011016104885439833 0 -0.032032388418954991 -0.0010367396217745449 0 -0.032106347274162159 -0.0010122947777397133 0 -0.032032388418954991 -0.0010367396217745449 0 -0.032021815257207029 -0.00097514316775372057 0 -0.032091127371724593 -0.00093980976778892391 0 -0.032032388418954991 -0.0010367396217745449 0 -0.032106347274162159 -0.0010122947777397133 0 -0.032091127371724593 -0.00093980976778892391 0 -0.032039715659708583 -0.0011016104885439833 0 -0.032106347274162159 -0.0010122947777397133 0 -0.032132006516267658 -0.0011307394869293722 0 -0.031107197670889118 -0.0018671964830166061 0 -0.030560302848748579 -0.0020286990318306923 0 -0.031107197670889118 -0.0018671964830166061 0 -0.030629646367230569 -0.002117254407479095 0 -0.029659385448039099 -0.0019456791968008606 0 -0.029963924229495575 -0.002015128743608922 0 -0.029551282369318563 -0.0023401755627745287 0 -0.030481704674645001 -0.0016967551634194447 0 -0.029551282369318563 -0.0023401755627745287 0 -0.029887825628161505 -0.0028602746586431937 0 -0.029659385448039099 -0.0019456791968008606 0 -0.029551282369318563 -0.0023401755627745287 0 -0.029254002526340483 -0.00192464817122846 0 -0.029887825628161505 -0.0028602746586431937 0 -0.029034627885239563 -0.0031925755895079906 0 -0.029293952999255531 -0.0042592368523845315 0 -0.029887825628161505 -0.0028602746586431937 0 -0.029034627885239563 -0.0031925755895079906 0 -0.029282142958224306 -0.00259299187160098 0 -0.029551282369318563 -0.0023401755627745287 0 -0.029887825628161505 -0.0028602746586431937 0 -0.029282142958224306 -0.00259299187160098 0 -0.032244257325593759 -0.00083895961785596454 0 -0.032139916656830324 -0.00082723404375839723 0 -0.032224903579276272 -0.00082515176229230121 0 -0.032139916656830324 -0.00082723404375839723 0 -0.032004863846358297 -0.00090135746953125793 0 -0.032025593229670787 -0.00076647081248884172 0 -0.032139916656830324 -0.00082723404375839723 0 -0.032004863846358297 -0.00090135746953125793 0 -0.032091127371724593 -0.00093980976778892391 0 -0.032004863846358297 -0.00090135746953125793 0 -0.032021815257207029 -0.00097514316775372057 0 -0.032091127371724593 -0.00093980976778892391 0 -0.032106347274162159 -0.0010122947777397133 0 -0.032244257325593759 -0.00083895961785596454 0 -0.032091127371724593 -0.00093980976778892391 0 -0.032244257325593759 -0.00083895961785596454 0 -0.032139916656830324 -0.00082723404375839723 0 -0.032091127371724593 -0.00093980976778892391 0 -0.027448637125087126 -0.0024278021621561832 0 -0.028194421890414469 -0.0031085995647101854 0 -0.028653657710567614 -0.0022816204464795797 0 -0.027448637125087126 -0.0024278021621561832 0 -0.027231804272689172 -0.0033623106669557826 0 -0.028194421890414469 -0.0031085995647101854 0 -0.027231804272689172 -0.0033623106669557826 0 -0.028194421890414469 -0.0031085995647101854 0 -0.028147120754360988 -0.0039925254116919264 0 -0.028194421890414469 -0.0031085995647101854 0 -0.029034627885239563 -0.0031925755895079906 0 -0.028147120754360988 -0.0039925254116919264 0 -0.029034627885239563 -0.0031925755895079906 0 -0.029282142958224306 -0.00259299187160098 0 -0.028653657710567614 -0.0022816204464795797 0 -0.028194421890414469 -0.0031085995647101854 0 -0.029034627885239563 -0.0031925755895079906 0 -0.028653657710567614 -0.0022816204464795797 0 -0.028653657710567614 -0.0022816204464795797 0 -0.029089043251665996 -0.0020337161279277245 0 -0.029470503526048328 -0.0019265419305225275 0 -0.029282142958224306 -0.00259299187160098 0 -0.028653657710567614 -0.0022816204464795797 0 -0.029089043251665996 -0.0020337161279277245 0 -0.029551282369318563 -0.0023401755627745287 0 -0.029282142958224306 -0.00259299187160098 0 -0.029089043251665996 -0.0020337161279277245 0 -0.029551282369318563 -0.0023401755627745287 0 -0.029089043251665996 -0.0020337161279277245 0 -0.029254002526340483 -0.00192464817122846 0 -0.028749490914330961 -0.0019217258654000066 0 -0.028655186509177411 -0.0016019537106207182 0 -0.028653657710567614 -0.0022816204464795797 0 -0.02777444721075004 -0.00058464342929467981 0 -0.027111971335001147 -0.0014244024107554099 0 -0.027448637125087126 -0.0024278021621561832 0 -0.028653657710567614 -0.0022816204464795797 0 -0.027111971335001147 -0.0014244024107554099 0 -0.02777444721075004 -0.00058464342929467981 0 -0.027100726681977244 -0.00071863809203098381 0 -0.027111971335001147 -0.0014244024107554099 0 -0.029470503526048328 -0.0019265419305225275 0 -0.029289330248606107 -0.0019964910502629912 0 -0.029565925966697021 -0.0022964886768499968 0 -0.02777444721075004 -0.00058464342929467981 0 -0.027133547051165007 2.7702131055262874e-05 0 -0.027100726681977244 -0.00071863809203098381 0 -0.030113514180438724 -0.0020805940354920185 0 -0.030250307987875924 -0.0021656785649478466 0 -0.029254002526340483 -0.00192464817122846 0 -0.029289330248606107 -0.0019964910502629912 0 -0.029122426444609811 -0.0022426861866228259 0 -0.029089043251665996 -0.0020337161279277245 0 -0.029254002526340483 -0.00192464817122846 0 -0.029289330248606107 -0.0019964910502629912 0 -0.029089043251665996 -0.0020337161279277245 0 -0.029470503526048328 -0.0019265419305225275 0 -0.029289330248606107 -0.0019964910502629912 0 -0.029122426444609811 -0.0022426861866228259 0 -0.029429580040194872 -0.0026014045775062818 0 -0.029565925966697021 -0.0022964886768499968 0 -0.029289330248606107 -0.0019964910502629912 0 -0.029122426444609811 -0.0022426861866228259 0 -0.029565925966697021 -0.0022964886768499968 0 -0.030250307987875924 -0.0021656785649478466 0 -0.030696261857192084 -0.0026629946907600543 0 -0.029122426444609811 -0.0022426861866228259 0 -0.029429580040194872 -0.0026014045775062818 0 -0.029026407642974122 -0.0029744454846808706 0 -0.029429580040194872 -0.0026014045775062818 0 -0.029565925966697021 -0.0022964886768499968 0 -0.029825480719306262 -0.0026670008338228629 0 -0.029470503526048328 -0.0019265419305225275 0 -0.029565925966697021 -0.0022964886768499968 0 -0.030236164018268955 -0.0025079154615403484 0 -0.028655186509177411 -0.0016019537106207182 0 -0.028513211136610126 -0.0012393969000614395 0 -0.02777444721075004 -0.00058464342929467981 0 -0.027149046177508331 0.00063111641440592888 0 -0.027133547051165007 2.7702131055262874e-05 0 -0.029565925966697021 -0.0022964886768499968 0 -0.030236164018268955 -0.0025079154615403484 0 -0.029825480719306262 -0.0026670008338228629 0 -0.030236164018268955 -0.0025079154615403484 0 -0.029825480719306262 -0.0026670008338228629 0 -0.030167215999713979 -0.0030136266154856752 0 -0.029825480719306262 -0.0026670008338228629 0 -0.029734877902599835 -0.0030323145960310226 0 -0.030167215999713979 -0.0030136266154856752 0 -0.029734877902599835 -0.0030323145960310226 0 -0.030167215999713979 -0.0030136266154856752 0 -0.030219804551184056 -0.0034239360046348921 0 -0.030167215999713979 -0.0030136266154856752 0 -0.030219804551184056 -0.0034239360046348921 0 -0.0308477054019685 -0.0034509720481974157 0 -0.029734877902599835 -0.0030323145960310226 0 -0.030219804551184056 -0.0034239360046348921 0 -0.029735954551881289 -0.0038086530709626198 0 -0.030219804551184056 -0.0034239360046348921 0 -0.03053215385662494 -0.0039275549951665956 0 -0.0308477054019685 -0.0034509720481974157 0 -0.030219804551184056 -0.0034239360046348921 0 -0.03053215385662494 -0.0039275549951665956 0 -0.029735954551881289 -0.0038086530709626198 0 -0.030751531921166975 -0.0035018409703558005 0 -0.030696261857192084 -0.0026629946907600543 0 -0.030871097224826987 -0.0045207104575860158 0 -0.03090114468209014 -0.0045511979874865724 0 -0.030903712445291491 -0.0044794562454873142 0 -0.029734877902599835 -0.0030323145960310226 0 -0.029735954551881289 -0.0038086530709626198 0 -0.029026407642974122 -0.0029744454846808706 0 -0.029429580040194872 -0.0026014045775062818 0 -0.029734877902599835 -0.0030323145960310226 0 -0.029026407642974122 -0.0029744454846808706 0 -0.029429580040194872 -0.0026014045775062818 0 -0.029825480719306262 -0.0026670008338228629 0 -0.029734877902599835 -0.0030323145960310226 0 -0.030951950026049314 -0.0020236123614279142 0 -0.030696261857192084 -0.0026629946907600543 0 -0.032449037367838607 -0.0019880768340756116 0 -0.032523598018845773 -0.0020850017652624146 0 -0.032414504653397548 -0.0020645371116606399 0 -0.032523598018845773 -0.0020850017652624146 0 -0.032414504653397548 -0.0020645371116606399 0 -0.03239912051223573 -0.0021606366255753043 0 -0.032312973423427913 -0.0020586956872460809 0 -0.032371260564144355 -0.00198972462337895 0 -0.032414504653397548 -0.0020645371116606399 0 -0.032312973423427913 -0.0020586956872460809 0 -0.032414504653397548 -0.0020645371116606399 0 -0.03239912051223573 -0.0021606366255753043 0 -0.032523598018845773 -0.0020850017652624146 0 -0.03246031785632511 -0.0022193955241881225 0 -0.032499809605388341 -0.0022774544741981681 0 -0.032523598018845773 -0.0020850017652624146 0 -0.03239912051223573 -0.0021606366255753043 0 -0.03246031785632511 -0.0022193955241881225 0 -0.030696261857192084 -0.0026629946907600543 0 -0.031456707597136598 -0.00321631817738589 0 -0.032499809605388341 -0.0022774544741981681 0 -0.032510427474455796 -0.0022720882409707184 0 -0.032561950281079978 -0.0021997409262553558 0 -0.03246031785632511 -0.0022193955241881225 0 -0.032499809605388341 -0.0022774544741981681 0 -0.032510427474455796 -0.0022720882409707184 0 -0.03239912051223573 -0.0021606366255753043 0 -0.03246031785632511 -0.0022193955241881225 0 -0.03236454354829018 -0.0022561948109808597 0 -0.032320220326739729 -0.0022012714197017051 0 -0.03239912051223573 -0.0021606366255753043 0 -0.03236454354829018 -0.0022561948109808597 0 -0.032510427474455796 -0.0022720882409707184 0 -0.03236454354829018 -0.0022561948109808597 0 -0.032327579133112093 -0.0022992072750199562 0 -0.03246031785632511 -0.0022193955241881225 0 -0.032510427474455796 -0.0022720882409707184 0 -0.03236454354829018 -0.0022561948109808597 0 -0.032510427474455796 -0.0022720882409707184 0 -0.032327579133112093 -0.0022992072750199562 0 -0.032292916722878623 -0.0023596472650260552 0 -0.032603290893356764 -0.0021745235316638907 0 -0.032663257125070365 -0.0021089189814365175 0 -0.032510427474455796 -0.0022720882409707184 0 -0.032747455108537375 -0.0021585589220716288 0 -0.032874746940983413 -0.002183261891510615 0 -0.032616404708037637 -0.002118303727163233 0 -0.032747455108537375 -0.0021585589220716288 0 -0.032561950281079978 -0.0021997409262553558 0 -0.032524242572996374 -0.0021252659581073637 0 -0.032499809605388341 -0.0022774544741981681 0 -0.032561950281079978 -0.0021997409262553558 0 -0.032510427474455796 -0.0022720882409707184 0 -0.032747455108537375 -0.0021585589220716288 0 -0.032561950281079978 -0.0021997409262553558 0 -0.03207047914195104 -0.0031498877323979839 0 -0.031456707597136598 -0.00321631817738589 0 -0.032524242572996374 -0.0021252659581073637 0 -0.032616404708037637 -0.002118303727163233 0 -0.032561950281079978 -0.0021997409262553558 0 -0.030870939127500052 -0.0045135793838010805 0 -0.030903712445291491 -0.0044794562454873142 0 -0.030911338585713103 -0.0044699959264606218 0 -0.030935110856964456 -0.0045110581395677437 0 -0.030870939127500052 -0.0045135793838010805 0 -0.030911338585713103 -0.0044699959264606218 0 -0.030935110856964456 -0.0045110581395677437 0 -0.030911338585713103 -0.0044699959264606218 0 -0.030950798611318667 -0.0044824257321189886 0 -0.030911338585713103 -0.0044699959264606218 0 -0.030950798611318667 -0.0044824257321189886 0 -0.03075617169203634 -0.0044563545166667962 0 -0.031172430476652174 -0.0045305542444490608 0 -0.030950798611318667 -0.0044824257321189886 0 -0.030910690345615881 -0.0045413547744834887 0 -0.030950798611318667 -0.0044824257321189886 0 -0.03075617169203634 -0.0044563545166667962 0 -0.030910690345615881 -0.0045413547744834887 0 -0.030911338585713103 -0.0044699959264606218 0 -0.03075617169203634 -0.0044563545166667962 0 -0.030876427401721324 -0.0044837639796691791 0 -0.03053215385662494 -0.0039275549951665956 0 -0.029735954551881289 -0.0038086530709626198 0 -0.03075617169203634 -0.0044563545166667962 0 -0.030871097224826987 -0.0045207104575860158 0 -0.03075617169203634 -0.0044563545166667962 0 -0.030876427401721324 -0.0044837639796691791 0 -0.030751531921166975 -0.0035018409703558005 0 -0.030811330866496123 -0.0037797374428059621 0 -0.030871097224826987 -0.0045207104575860158 0 -0.030903712445291491 -0.0044794562454873142 0 -0.030876427401721324 -0.0044837639796691791 0 -0.030903712445291491 -0.0044794562454873142 0 -0.030911338585713103 -0.0044699959264606218 0 -0.030876427401721324 -0.0044837639796691791 0 -0.025857146641419471 0.0015193174552416363 0 -0.025297711884779396 0.0017451954479231798 0 -0.025340364326688385 0.0012166149413850647 0 -0.03053215385662494 -0.0039275549951665956 0 -0.03075617169203634 -0.0044563545166667962 0 -0.031156746768733718 -0.0043002090318122249 0 -0.028958073971122777 -0.0019788466200002185 0 -0.027814492146243534 -0.00069889063442237626 0 -0.030910231852182696 -0.0046126139112144414 0 -0.031156746768733718 -0.0043002090318122249 0 -0.030910690345615881 -0.0045413547744834887 0 -0.03075617169203634 -0.0044563545166667962 0 -0.031156746768733718 -0.0043002090318122249 0 -0.030910690345615881 -0.0045413547744834887 0 -0.030910231852182696 -0.0046126139112144414 0 -0.031172430476652174 -0.0045305542444490608 0 -0.030910690345615881 -0.0045413547744834887 0 -0.027111080311241834 0.00035786192885083572 0 -0.027814492146243534 -0.00069889063442237626 0 -0.028243136261300549 -0.0010891878016583141 0 -0.02871039865095365 -0.0011132189189050181 0 -0.028496779309260551 -0.0017521442929183571 0 -0.025570079275980213 0.0022570539409588111 0 -0.025857146641419471 0.0015193174552416363 0 -0.025297711884779396 0.0017451954479231798 0 -0.02478878054651747 0.0022944715379816672 0 -0.025570079275980213 0.0022570539409588111 0 -0.025297711884779396 0.0017451954479231798 0 -0.02478878054651747 0.0022944715379816672 0 -0.025297711884779396 0.0017451954479231798 0 -0.024798893436161505 0.0017564833133504759 0 -0.02478878054651747 0.0022944715379816672 0 -0.024798893436161505 0.0017564833133504759 0 -0.024244855318631454 0.0016033653870246389 0 -0.026110425524039558 0.00092213790279900326 0 -0.025425033199771213 0.00083219447189221613 0 -0.024914855621374559 0.001347305877675919 0 -0.024439833595179553 0.00089526964933825978 0 -0.024244855318631454 0.0016033653870246389 0 -0.024798893436161505 0.0017564833133504759 0 -0.024914855621374559 0.001347305877675919 0 -0.024244855318631454 0.0016033653870246389 0 -0.025297711884779396 0.0017451954479231798 0 -0.024914855621374559 0.001347305877675919 0 -0.025340364326688385 0.0012166149413850647 0 -0.025297711884779396 0.0017451954479231798 0 -0.024798893436161505 0.0017564833133504759 0 -0.024914855621374559 0.001347305877675919 0 -0.025340364326688385 0.0012166149413850647 0 -0.025037213641524263 0.00078444836511829094 0 -0.025591065934880218 0.00068249220921215686 0 -0.024914855621374559 0.001347305877675919 0 -0.025340364326688385 0.0012166149413850647 0 -0.025037213641524263 0.00078444836511829094 0 -0.024914855621374559 0.001347305877675919 0 -0.025037213641524263 0.00078444836511829094 0 -0.024439833595179553 0.00089526964933825978 0 -0.025037213641524263 0.00078444836511829094 0 -0.024439833595179553 0.00089526964933825978 0 -0.024579293164153776 0.00025498437374344899 0 -0.025037213641524263 0.00078444836511829094 0 -0.025161475333045646 0.00035874275779554545 0 -0.025591065934880218 0.00068249220921215686 0 -0.025037213641524263 0.00078444836511829094 0 -0.025161475333045646 0.00035874275779554545 0 -0.024579293164153776 0.00025498437374344899 0 -0.02585337139222485 0.0013651803310570619 0 -0.026246590031268856 0.0006944227092411776 0 -0.025958019695001375 0.00035944224934077125 0 -0.02585337139222485 0.0013651803310570619 0 -0.026584925115590678 0.00099755117130821322 0 -0.026246590031268856 0.0006944227092411776 0 -0.026323096681262734 0.0026973754997243111 0 -0.02585337139222485 0.0013651803310570619 0 -0.02671428991853661 0.0016628303938393822 0 -0.025857146641419471 0.0015193174552416363 0 -0.025340364326688385 0.0012166149413850647 0 -0.025591065934880218 0.00068249220921215686 0 -0.027814492146243534 -0.00069889063442237626 0 -0.026818078603069905 0.00039925758450077106 0 -0.027814492146243534 -0.00069889063442237626 0 -0.028297517959545881 -0.0010167112209858156 0 -0.03053215385662494 -0.0039275549951665956 0 -0.031156746768733718 -0.0043002090318122249 0 -0.0308477054019685 -0.0034509720481974157 0 -0.030236164018268955 -0.0025079154615403484 0 -0.030167215999713979 -0.0030136266154856752 0 -0.0308477054019685 -0.0034509720481974157 0 -0.028513211136610126 -0.0012393969000614395 0 -0.028297517959545881 -0.0010167112209858156 0 -0.02585337139222485 0.0013651803310570619 0 -0.02671428991853661 0.0016628303938393822 0 -0.026584925115590678 0.00099755117130821322 0 -0.027149046177508331 0.00063111641440592888 0 -0.02671428991853661 0.0016628303938393822 0 -0.026584925115590678 0.00099755117130821322 0 -0.027149046177508331 0.00063111641440592888 0 -0.026584925115590678 0.00099755117130821322 0 -0.026523250151552678 0.00037587753157250069 0 -0.027149046177508331 0.00063111641440592888 0 -0.026523250151552678 0.00037587753157250069 0 -0.027133547051165007 2.7702131055262874e-05 0 -0.026523250151552678 0.00037587753157250069 0 -0.027133547051165007 2.7702131055262874e-05 0 -0.025623514696170122 -0.00041180112918730153 0 -0.026584925115590678 0.00099755117130821322 0 -0.026523250151552678 0.00037587753157250069 0 -0.026246590031268856 0.0006944227092411776 0 -0.02585337139222485 0.0013651803310570619 0 -0.025958019695001375 0.00035944224934077125 0 -0.025365568955895895 -0.00016120460443928424 0 -0.026818078603069905 0.00039925758450077106 0 -0.026366010848175667 0.00010954400583956088 0 -0.026523250151552678 0.00037587753157250069 0 -0.025958019695001375 0.00035944224934077125 0 -0.025623514696170122 -0.00041180112918730153 0 -0.026523250151552678 0.00037587753157250069 0 -0.026246590031268856 0.0006944227092411776 0 -0.025958019695001375 0.00035944224934077125 0 -0.025958019695001375 0.00035944224934077125 0 -0.025623514696170122 -0.00041180112918730153 0 -0.025365568955895895 -0.00016120460443928424 0 -0.025008438127930549 -0.00036377683296596298 0 -0.025982573552022499 -0.00064124505811461038 0 -0.025378712730553633 -0.0013322254515662321 0 -0.026387989143798574 -0.00094743030071654398 0 -0.025982573552022499 -0.00064124505811461038 0 -0.025378712730553633 -0.0013322254515662321 0 -0.025008438127930549 -0.00036377683296596298 0 -0.025378712730553633 -0.0013322254515662321 0 -0.024278635298592668 -0.0012813326212874113 0 -0.026034363515634339 -2.2740777650299877e-05 0 -0.025099499925809534 -0.0001894306619717201 0 -0.027133547051165007 2.7702131055262874e-05 0 -0.025008438127930549 -0.00036377683296596298 0 -0.025982573552022499 -0.00064124505811461038 0 -0.027133547051165007 2.7702131055262874e-05 0 -0.026387989143798574 -0.00094743030071654398 0 -0.027100726681977244 -0.00071863809203098381 0 -0.027133547051165007 2.7702131055262874e-05 0 -0.026387989143798574 -0.00094743030071654398 0 -0.025982573552022499 -0.00064124505811461038 0 -0.026387989143798574 -0.00094743030071654398 0 -0.027100726681977244 -0.00071863809203098381 0 -0.027111971335001147 -0.0014244024107554099 0 -0.026387989143798574 -0.00094743030071654398 0 -0.027111971335001147 -0.0014244024107554099 0 -0.02638887743089675 -0.0021716983210261966 0 -0.026387989143798574 -0.00094743030071654398 0 -0.02638887743089675 -0.0021716983210261966 0 -0.025378712730553633 -0.0013322254515662321 0 -0.027448637125087126 -0.0024278021621561832 0 -0.027111971335001147 -0.0014244024107554099 0 -0.02638887743089675 -0.0021716983210261966 0 -0.025378712730553633 -0.0013322254515662321 0 -0.025393590040109888 -0.0025258157509201388 0 -0.024510153333459107 -0.0021615445360329455 0 -0.02638887743089675 -0.0021716983210261966 0 -0.025378712730553633 -0.0013322254515662321 0 -0.025393590040109888 -0.0025258157509201388 0 -0.025393590040109888 -0.0025258157509201388 0 -0.026023751280516771 -0.0033935525950197086 0 -0.024674980230912594 -0.0035605688940007333 0 -0.025393590040109888 -0.0025258157509201388 0 -0.024510153333459107 -0.0021615445360329455 0 -0.024674980230912594 -0.0035605688940007333 0 -0.027231804272689172 -0.0033623106669557826 0 -0.02638887743089675 -0.0021716983210261966 0 -0.026023751280516771 -0.0033935525950197086 0 -0.02638887743089675 -0.0021716983210261966 0 -0.025393590040109888 -0.0025258157509201388 0 -0.026023751280516771 -0.0033935525950197086 0 -0.027448637125087126 -0.0024278021621561832 0 -0.027231804272689172 -0.0033623106669557826 0 -0.02638887743089675 -0.0021716983210261966 0 -0.023546238300545277 -0.0029399176717207981 0 -0.022178866187234001 -0.0024815204561563125 0 -0.022681696471542646 -0.0041382944590307958 0 -0.023546238300545277 -0.0029399176717207981 0 -0.023516800937019487 -0.0018645731313673207 0 -0.022178866187234001 -0.0024815204561563125 0 -0.023546238300545277 -0.0029399176717207981 0 -0.024510153333459107 -0.0021615445360329455 0 -0.024674980230912594 -0.0035605688940007333 0 -0.023546238300545277 -0.0029399176717207981 0 -0.024510153333459107 -0.0021615445360329455 0 -0.023516800937019487 -0.0018645731313673207 0 -0.024278635298592668 -0.0012813326212874113 0 -0.023516800937019487 -0.0018645731313673207 0 -0.022875514039983169 -0.00091612907870235898 0 -0.024510153333459107 -0.0021615445360329455 0 -0.024278635298592668 -0.0012813326212874113 0 -0.023516800937019487 -0.0018645731313673207 0 -0.025378712730553633 -0.0013322254515662321 0 -0.024510153333459107 -0.0021615445360329455 0 -0.024278635298592668 -0.0012813326212874113 0 -0.023516800937019487 -0.0018645731313673207 0 -0.022875514039983169 -0.00091612907870235898 0 -0.022178866187234001 -0.0024815204561563125 0 -0.024584142874854085 -0.00069007372401054025 0 -0.024768722511129843 -0.0001335570717162985 0 -0.024100805253120812 -0.00049097576672875042 0 -0.025099499925809534 -0.0001894306619717201 0 -0.023347687943056691 -0.00037718832177061599 0 -0.025008438127930549 -0.00036377683296596298 0 -0.024278635298592668 -0.0012813326212874113 0 -0.022875514039983169 -0.00091612907870235898 0 -0.024584142874854085 -0.00069007372401054025 0 -0.025365568955895895 -0.00016120460443928424 0 -0.024768722511129843 -0.0001335570717162985 0 -0.025623514696170122 -0.00041180112918730153 0 -0.024584142874854085 -0.00069007372401054025 0 -0.025365568955895895 -0.00016120460443928424 0 -0.025161475333045646 0.00035874275779554545 0 -0.025591065934880218 0.00068249220921215686 0 -0.025365568955895895 -0.00016120460443928424 0 -0.025161475333045646 0.00035874275779554545 0 -0.025365568955895895 -0.00016120460443928424 0 -0.024768722511129843 -0.0001335570717162985 0 -0.025161475333045646 0.00035874275779554545 0 -0.024768722511129843 -0.0001335570717162985 0 -0.024579293164153776 0.00025498437374344899 0 -0.024768722511129843 -0.0001335570717162985 0 -0.024579293164153776 0.00025498437374344899 0 -0.024100805253120812 -0.00049097576672875042 0 -0.024579293164153776 0.00025498437374344899 0 -0.023913744194007526 -0.00018726201653339851 0 -0.023975607031729872 0.00039357516550410381 0 -0.023746945223999422 0.00036455990258662868 0 -0.023303412627458588 0.00026388177924785791 0 -0.024579293164153776 0.00025498437374344899 0 -0.023777915567362643 -6.6548119289028173e-05 0 -0.024100805253120812 -0.00049097576672875042 0 -0.023913744194007526 -0.00018726201653339851 0 -0.023089537215165268 -0.00066122503862846174 0 -0.02300741100869436 1.4609537639378234e-05 0 -0.023913744194007526 -0.00018726201653339851 0 -0.02300741100869436 1.4609537639378234e-05 0 -0.023975607031729872 0.00039357516550410381 0 -0.02357760727539816 -0.00067182122420224896 0 -0.023230943742847301 -0.00081613661175080113 0 -0.022934707411865967 -0.00044408775376204434 0 -0.023303412627458588 0.00026388177924785791 0 -0.022197511009109924 0.00013343205060513039 0 -0.023777915567362643 -6.6548119289028173e-05 0 -0.02357760727539816 -0.00067182122420224896 0 -0.022934707411865967 -0.00044408775376204434 0 -0.02357760727539816 -0.00067182122420224896 0 -0.023230943742847301 -0.00081613661175080113 0 -0.023544051495753823 -0.0010220157701707161 0 -0.024584142874854085 -0.00069007372401054025 0 -0.024100805253120812 -0.00049097576672875042 0 -0.023548921689426478 -0.00098758616335528431 0 -0.023777915567362643 -6.6548119289028173e-05 0 -0.02357760727539816 -0.00067182122420224896 0 -0.024100805253120812 -0.00049097576672875042 0 -0.02357760727539816 -0.00067182122420224896 0 -0.024100805253120812 -0.00049097576672875042 0 -0.023548921689426478 -0.00098758616335528431 0 -0.023347687943056691 -0.00037718832177061599 0 -0.020327182711376103 -0.00051192777976957532 0 -0.022875514039983169 -0.00091612907870235898 0 -0.020811223648515634 -0.0014651143671891484 0 -0.022178866187234001 -0.0024815204561563125 0 -0.020417929313183435 -0.00051620851411409536 0 -0.020327182711376103 -0.00051192777976957532 0 -0.023230943742847301 -0.00081613661175080113 0 -0.023544051495753823 -0.0010220157701707161 0 -0.022897188220790583 -0.00096373853848353674 0 -0.020327182711376103 -0.00051192777976957532 0 -0.018894309189965767 -0.0015316655181842969 0 -0.016127429925192886 -0.00063420043506421156 0 -0.016176681413345592 -3.2301517004063599e-05 0 -0.016449309536906098 -0.00034709559368702924 0 -0.016176681413345592 -3.2301517004063599e-05 0 -0.016559415987043087 1.7207781273458853e-06 0 -0.016449309536906098 -0.00034709559368702924 0 -0.020646113805333589 -0.0032065985115809184 0 -0.022178866187234001 -0.0024815204561563125 0 -0.021452048061943209 -0.0041037104871784469 0 -0.020811223648515634 -0.0014651143671891484 0 -0.020646113805333589 -0.0032065985115809184 0 -0.022178866187234001 -0.0024815204561563125 0 -0.01776482406593697 -3.6855333469497437e-05 0 -0.017778132396902135 6.8299253710611141e-07 0 -0.018372779103839196 -6.6866565947703706e-05 0 -0.01776482406593697 -3.6855333469497437e-05 0 -0.017237232155373518 1.5717681511165571e-05 0 -0.017549131814718691 -0.00015457241665181118 0 -0.01776482406593697 -3.6855333469497437e-05 0 -0.017778132396902135 6.8299253710611141e-07 0 -0.017237232155373518 1.5717681511165571e-05 0 -0.019141695799126533 0.00023567448034784655 0 -0.019728595008954658 -0.00019688349926941037 0 -0.016559415987043087 1.7207781273458853e-06 0 -0.016817707354136985 -0.00037418792802708189 0 -0.016449309536906098 -0.00034709559368702924 0 -0.017237232155373518 1.5717681511165571e-05 0 -0.016559415987043087 1.7207781273458853e-06 0 -0.017549131814718691 -0.00015457241665181118 0 -0.016127429925192886 -0.00063420043506421156 0 -0.016449309536906098 -0.00034709559368702924 0 -0.016863660147858037 -0.00044304390839357315 0 -0.020327182711376103 -0.00051192777976957532 0 -0.01997124398651141 -0.00037994961725764287 0 -0.023544051495753823 -0.0010220157701707161 0 -0.022897188220790583 -0.00096373853848353674 0 -0.022378450916142937 -0.0013357866760153787 0 -0.016817707354136985 -0.00037418792802708189 0 -0.016449309536906098 -0.00034709559368702924 0 -0.016863660147858037 -0.00044304390839357315 0 -0.023230943742847301 -0.00081613661175080113 0 -0.022897188220790583 -0.00096373853848353674 0 -0.022870327610998737 -0.00077192934151285215 0 -0.022897188220790583 -0.00096373853848353674 0 -0.022513050901895131 -0.00090020860071665198 0 -0.022870327610998737 -0.00077192934151285215 0 -0.022897188220790583 -0.00096373853848353674 0 -0.022513050901895131 -0.00090020860071665198 0 -0.022378450916142937 -0.0013357866760153787 0 -0.01997124398651141 -0.00037994961725764287 0 -0.020104492534705923 -1.5142445612440732e-05 0 -0.017773644030136811 -0.00015513922234364867 0 -0.018372779103839196 -6.6866565947703706e-05 0 -0.018636861224559372 -0.00052595770520283457 0 -0.022513050901895131 -0.00090020860071665198 0 -0.022378450916142937 -0.0013357866760153787 0 -0.022060244261713626 -0.00086673728297463344 0 -0.017778132396902135 6.8299253710611141e-07 0 -0.018372779103839196 -6.6866565947703706e-05 0 -0.019417511877860734 -1.7766277517888204e-06 0 -0.017549131814718691 -0.00015457241665181118 0 -0.017773644030136811 -0.00015513922234364867 0 -0.018372779103839196 -6.6866565947703706e-05 0 -0.01776482406593697 -3.6855333469497437e-05 0 -0.017549131814718691 -0.00015457241665181118 0 -0.018372779103839196 -6.6866565947703706e-05 0 -0.019728595008954658 -0.00019688349926941037 0 -0.01997124398651141 -0.00037994961725764287 0 -0.018372779103839196 -6.6866565947703706e-05 0 -0.018636861224559372 -0.00052595770520283457 0 -0.019417511877860734 -1.7766277517888204e-06 0 -0.020104492534705923 -1.5142445612440732e-05 0 -0.019422483854451875 -1.0709811403529671e-06 0 -0.019645566339982851 3.5181994244471033e-07 0 -0.019421059307541413 1.9244372742346114e-09 0 -0.02031173375699874 -5.0793339457857593e-10 0 -0.020977665341789985 -0.0011394527498267335 0 -0.020319444879971706 -3.0593284277763095e-06 0 -0.023089537215165268 -0.00066122503862846174 0 -0.020104492534705923 -1.5142445612440732e-05 0 -0.020312278902649222 -2.333510399696651e-07 0 -0.020319444879971706 -3.0593284277763095e-06 0 -0.023089537215165268 -0.00066122503862846174 0 -0.02300741100869436 1.4609537639378234e-05 0 -0.020104492534705923 -1.5142445612440732e-05 0 -0.022197511009109924 0.00013343205060513039 0 -0.022513050901895131 -0.00090020860071665198 0 -0.022060244261713626 -0.00086673728297463344 0 -0.022934707411865967 -0.00044408775376204434 0 -0.023230943742847301 -0.00081613661175080113 0 -0.022870327610998737 -0.00077192934151285215 0 -0.022934707411865967 -0.00044408775376204434 0 -0.022513050901895131 -0.00090020860071665198 0 -0.022870327610998737 -0.00077192934151285215 0 -0.022934707411865967 -0.00044408775376204434 0 -0.020319444879971706 -3.0593284277763095e-06 0 -0.02300741100869436 1.4609537639378234e-05 0 -0.02548216498904075 1.5519969974514016e-06 0 -0.02300741100869436 1.4609537639378234e-05 0 -0.025118427750936544 -2.6362253861571449e-05 0 -0.02548216498904075 1.5519969974514016e-06 0 -0.024251284040376072 0.00027494473232154005 0 -0.024710497219472698 0.00054082024893718664 0 -0.02300741100869436 1.4609537639378234e-05 0 -0.023975607031729872 0.00039357516550410381 0 -0.023653643641330779 0.00087117442531059084 0 -0.024439833595179553 0.00089526964933825978 0 -0.024579293164153776 0.00025498437374344899 0 -0.023975607031729872 0.00039357516550410381 0 -0.024439833595179553 0.00089526964933825978 0 -0.023975607031729872 0.00039357516550410381 0 -0.023653643641330779 0.00087117442531059084 0 -0.024710497219472698 0.00054082024893718664 0 -0.025425033199771213 0.00083219447189221613 0 -0.024439833595179553 0.00089526964933825978 0 -0.023653643641330779 0.00087117442531059084 0 -0.024244855318631454 0.0016033653870246389 0 -0.025118427750936544 -2.6362253861571449e-05 0 -0.025964094775300411 6.0090568296343458e-05 0 -0.026482648427201924 6.5154089400566275e-05 0 -0.026684932626196131 0.00015984639620247887 0 -0.026482648427201924 6.5154089400566275e-05 0 -0.026698435614184186 0.00012742903692437705 0 -0.026684932626196131 0.00015984639620247887 0 -0.026809604258434972 0.00013367562952296968 0 -0.026482648427201924 6.5154089400566275e-05 0 -0.025964094775300411 6.0090568296343458e-05 0 -0.026482648427201924 6.5154089400566275e-05 0 -0.026698435614184186 0.00012742903692437705 0 -0.025964094775300411 6.0090568296343458e-05 0 -0.026698435614184186 0.00012742903692437705 0 -0.02651620391203691 0.00010060658093514404 0 -0.025118427750936544 -2.6362253861571449e-05 0 -0.025964094775300411 6.0090568296343458e-05 0 -0.02548216498904075 1.5519969974514016e-06 0 -0.027650033203311605 8.9959105445548842e-05 0 -0.02651620391203691 0.00010060658093514404 0 -0.02548216498904075 1.5519969974514016e-06 0 -0.025964094775300411 6.0090568296343458e-05 0 -0.02651620391203691 0.00010060658093514404 0 -0.02548216498904075 1.5519969974514016e-06 0 -0.0079976642102676156 -0.00040004603303365685 0 -0.0082322517994215198 -0.00070987632115835514 0 -0.0079157350100133167 -0.0010892541730388341 0 -0.011509383658437325 -0.0016524831880863127 0 -0.01189247360624123 -0.0020928551597281359 0 -0.0083151617594385344 -0.00048074643955463715 0 -0.0087716707821725338 -0.00051023182643210579 0 -0.0082770680862291855 -0.00040895711699946057 0 -0.0087716707821725338 -0.00051023182643210579 0 -0.0093175362180467399 -0.00023558311556999448 0 -0.0082770680862291855 -0.00040895711699946057 0 -0.0083151617594385344 -0.00048074643955463715 0 -0.0079976642102676156 -0.00040004603303365685 0 -0.0082322517994215198 -0.00070987632115835514 0 -0.0083151617594385344 -0.00048074643955463715 0 -0.0079976642102676156 -0.00040004603303365685 0 -0.0082770680862291855 -0.00040895711699946057 0 -0.0082322517994215198 -0.00070987632115835514 0 -0.0085259969730526585 -0.0010093832196622291 0 -0.0079157350100133167 -0.0010892541730388341 0 -0.0082322517994215198 -0.00070987632115835514 0 -0.0087716707821725338 -0.00051023182643210579 0 -0.0085259969730526585 -0.0010093832196622291 0 -0.0083151617594385344 -0.00048074643955463715 0 -0.0082322517994215198 -0.00070987632115835514 0 -0.0087716707821725338 -0.00051023182643210579 0 -0.0087716707821725338 -0.00051023182643210579 0 -0.0091119165933419913 -0.00078145524166762571 0 -0.0085259969730526585 -0.0010093832196622291 0 -0.0087716707821725338 -0.00051023182643210579 0 -0.0091119165933419913 -0.00078145524166762571 0 -0.0094733915148654813 -0.00040629093266817871 0 -0.0091119165933419913 -0.00078145524166762571 0 -0.0094733915148654813 -0.00040629093266817871 0 -0.010528114434066331 -0.00031141904880232325 0 -0.0087716707821725338 -0.00051023182643210579 0 -0.0094733915148654813 -0.00040629093266817871 0 -0.0093175362180467399 -0.00023558311556999448 0 -0.0094733915148654813 -0.00040629093266817871 0 -0.010528114434066331 -0.00031141904880232325 0 -0.0093175362180467399 -0.00023558311556999448 0 -0.010817426365802112 -9.3966707946087114e-07 0 -0.0093175362180467399 -0.00023558311556999448 0 -0.0087792778776812162 -9.5222710317740906e-07 0 -0.010817426365802112 -9.3966707946087114e-07 0 -0.010528114434066331 -0.00031141904880232325 0 -0.0093175362180467399 -0.00023558311556999448 0 -0.0093175362180467399 -0.00023558311556999448 0 -0.0087792778776812162 -9.5222710317740906e-07 0 -0.0082495114459018807 -0.00037823796010213665 0 -0.0093175362180467399 -0.00023558311556999448 0 -0.0082495114459018807 -0.00037823796010213665 0 -0.0082770680862291855 -0.00040895711699946057 0 -0.0082495114459018807 -0.00037823796010213665 0 -0.0075682797398208632 -0.00074069988100665418 0 -0.0072285817402034458 -0.00062838648757983435 0 -0.0075682797398208632 -0.00074069988100665418 0 -0.0080812747165292433 -0.00041183728527988394 0 -0.0065676908140292261 -0.0015607515805755642 0 -0.0082495114459018807 -0.00037823796010213665 0 -0.0082770680862291855 -0.00040895711699946057 0 -0.0075682797398208632 -0.00074069988100665418 0 -0.0079976642102676156 -0.00040004603303365685 0 -0.0082770680862291855 -0.00040895711699946057 0 -0.0075682797398208632 -0.00074069988100665418 0 -0.0079976642102676156 -0.00040004603303365685 0 -0.0075682797398208632 -0.00074069988100665418 0 -0.0080812747165292433 -0.00041183728527988394 0 -0.0050529404623480649 -0.0030306715294489738 0 -0.0062427834935379692 -0.0057352785626129769 0 -0.0065676908140292261 -0.0015607515805755642 0 -0.0094285994175068773 -0.0034630257687043252 0 -0.009092746081742549 -0.0028047577100167313 0 -0.0050529404623480649 -0.0030306715294489738 0 -0.0050040890846758408 -0.0049063279361677287 0 -0.0041556756282459459 -0.0047316845717955353 0 -0.0050040890846758408 -0.0049063279361677287 0 -0.0041556756282459459 -0.0047316845717955353 0 -0.0046309919230058481 -0.0060448562738878034 0 -0.0050040890846758408 -0.0049063279361677287 0 -0.0062427834935379692 -0.0057352785626129769 0 -0.0046309919230058481 -0.0060448562738878034 0 -0.0050529404623480649 -0.0030306715294489738 0 -0.0050040890846758408 -0.0049063279361677287 0 -0.0062427834935379692 -0.0057352785626129769 0 -0.0050529404623480649 -0.0030306715294489738 0 -0.0041556756282459459 -0.0047316845717955353 0 -0.0028635067770196101 -0.0035133641944135145 0 -0.0041556756282459459 -0.0047316845717955353 0 -0.0026878353562732301 -0.0056972048090809472 0 -0.0037391527874072934 -0.0058500958809213771 0 -0.0041556756282459459 -0.0047316845717955353 0 -0.0037391527874072934 -0.0058500958809213771 0 -0.0046309919230058481 -0.0060448562738878034 0 -0.0026878353562732301 -0.0056972048090809472 0 -0.0013746042457172085 -0.0052374114883158591 0 -0.0028635067770196101 -0.0035133641944135145 0 -0.0041556756282459459 -0.0047316845717955353 0 -0.0026878353562732301 -0.0056972048090809472 0 -0.0028635067770196101 -0.0035133641944135145 0 -0.0026878353562732301 -0.0056972048090809472 0 -0.0035323395476511083 -0.0068957059430984034 0 -0.0023951658488663425 -0.0071091532443315298 0 -0.0035323395476511083 -0.0068957059430984034 0 -0.0046309919230058481 -0.0060448562738878034 0 -0.0046339368724178541 -0.0074182986782195016 0 -0.0026878353562732301 -0.0056972048090809472 0 -0.0037391527874072934 -0.0058500958809213771 0 -0.0035323395476511083 -0.0068957059430984034 0 -0.0037391527874072934 -0.0058500958809213771 0 -0.0035323395476511083 -0.0068957059430984034 0 -0.0046309919230058481 -0.0060448562738878034 0 -0.0035323395476511083 -0.0068957059430984034 0 -0.0046339368724178541 -0.0074182986782195016 0 -0.0034043438082064811 -0.0081896641437483649 0 -0.0023951658488663425 -0.0071091532443315298 0 -0.0034043438082064811 -0.0081896641437483649 0 -0.0017999997642673734 -0.0084173573090677144 0 -0.0035323395476511083 -0.0068957059430984034 0 -0.0023951658488663425 -0.0071091532443315298 0 -0.0034043438082064811 -0.0081896641437483649 0 -0.0080812747165292433 -0.00041183728527988394 0 -0.0080604473604416419 -0.00044183545054498344 0 -0.008082701720860206 -0.0004235502001320673 0 -0.0079976642102676156 -0.00040004603303365685 0 -0.0080812747165292433 -0.00041183728527988394 0 -0.008082701720860206 -0.0004235502001320673 0 -0.0094285994175068773 -0.0034630257687043252 0 -0.010577343476037296 -0.0046103251699823513 0 -0.0062427834935379692 -0.0057352785626129769 0 -0.0046339368724178541 -0.0074182986782195016 0 -0.0055965877001130362 -0.0086640494124032939 0 -0.0062427834935379692 -0.0057352785626129769 0 -0.0046309919230058481 -0.0060448562738878034 0 -0.0046339368724178541 -0.0074182986782195016 0 -0.0055965877001130362 -0.0086640494124032939 0 -0.0036373388274401962 -0.0097602199762433835 0 -0.0051233296595639211 -0.011383097441073881 0 -0.010577343476037296 -0.0046103251699823513 0 -0.013155780245166967 -0.0051624232137152549 0 -0.0080604473604416419 -0.00044183545054498344 0 -0.0081090923033148056 -0.00054091419380992902 0 -0.008082701720860206 -0.0004235502001320673 0 -0.0046339368724178541 -0.0074182986782195016 0 -0.0055965877001130362 -0.0086640494124032939 0 -0.004315653745787274 -0.0085155319757903216 0 -0.0055965877001130362 -0.0086640494124032939 0 -0.004315653745787274 -0.0085155319757903216 0 -0.0036373388274401962 -0.0097602199762433835 0 -0.0034043438082064811 -0.0081896641437483649 0 -0.0036373388274401962 -0.0097602199762433835 0 -0.0017999997642673734 -0.0084173573090677144 0 -0.0046339368724178541 -0.0074182986782195016 0 -0.004315653745787274 -0.0085155319757903216 0 -0.0034043438082064811 -0.0081896641437483649 0 -0.004315653745787274 -0.0085155319757903216 0 -0.0034043438082064811 -0.0081896641437483649 0 -0.0036373388274401962 -0.0097602199762433835 0 -0.013484880187790331 -0.0052957626214673618 0 -0.012279890989841785 -0.0073994505003974441 0 -0.02056487619893704 -0.0084718624372086635 0 -0.021938866477113263 -0.0074447285550695201 0 -0.022647044138100678 -0.0084852597849003099 0 -0.0036373388274401962 -0.0097602199762433835 0 -0.0048533699939973807 -0.011585797003268594 0 -0.0013990078366665118 -0.011443605682795869 0 -0.0080604473604416419 -0.00044183545054498344 0 -0.0081090923033148056 -0.00054091419380992902 0 -0.0080489731691333541 -0.00059873084726703193 0 -0.013126948339374651 -0.003521378178419003 0 -0.013155780245166967 -0.0051624232137152549 0 -0.013126948339374651 -0.003521378178419003 0 -0.014059116334192392 -0.0038648020756012315 0 -0.0036373388274401962 -0.0097602199762433835 0 -0.0051233296595639211 -0.011383097441073881 0 -0.0048533699939973807 -0.011585797003268594 0 -0.013155780245166967 -0.0051624232137152549 0 -0.013484880187790331 -0.0052957626214673618 0 -0.013586321863293139 -0.0045171100284827903 0 -0.013486218829742892 -0.0051737262552843666 0 -0.012746446726563276 -0.0051619297432089198 0 -0.013155780245166967 -0.0051624232137152549 0 -0.013444784780455493 -0.005131511712264245 0 -0.013444784780455493 -0.005131511712264245 0 -0.013484880187790331 -0.0052957626214673618 0 -0.013373483500698237 -0.0046378481297892245 0 -0.013938298410360711 -0.0042047563577428402 0 -0.013425189711560122 -0.004098495963889121 0 -0.013444784780455493 -0.005131511712264245 0 -0.014059116334192392 -0.0038648020756012315 0 -0.013938298410360711 -0.0042047563577428402 0 -0.013953061890240379 -0.0041076737068150631 0 -0.013425189711560122 -0.004098495963889121 0 -0.015606999242176484 -0.00068856565251420947 0 -0.014729911648687664 -0.00068055862662317419 0 -0.015249199227941204 -0.00017668780497327635 0 -0.014059116334192392 -0.0038648020756012315 0 -0.013387113619132827 -0.0017764970321265958 0 -0.011445626037444683 -0.00019022948960237783 0 -0.011629601671007832 -0.00020495679605997451 0 -0.01155057352151628 -9.5929080034177998e-05 0 -0.011462810327514728 -9.9866650740643468e-05 0 -0.011445626037444683 -0.00019022948960237783 0 -0.01155057352151628 -9.5929080034177998e-05 0 -0.013126948339374651 -0.003521378178419003 0 -0.01189247360624123 -0.0020928551597281359 0 -0.013126948339374651 -0.003521378178419003 0 -0.012319630393680768 -0.0030100219032813012 0 -0.007742088137288842 -0.0026350566882470676 0 -0.0087912770524662068 -0.0018436615115220917 0 -0.0079157350100133167 -0.0010892541730388341 0 -0.011462810327514728 -9.9866650740643468e-05 0 -0.01155057352151628 -9.5929080034177998e-05 0 -0.011558347438843425 -4.1270945080389147e-05 0 -0.01155057352151628 -9.5929080034177998e-05 0 -0.011558347438843425 -4.1270945080389147e-05 0 -0.011612668036759971 3.2569177021921528e-05 0 -0.0091119165933419913 -0.00078145524166762571 0 -0.0087912770524662068 -0.0018436615115220917 0 -0.0085259969730526585 -0.0010093832196622291 0 -0.0087912770524662068 -0.0018436615115220917 0 -0.0085259969730526585 -0.0010093832196622291 0 -0.0079157350100133167 -0.0010892541730388341 0 -0.010817426365802112 -9.3966707946087114e-07 0 -0.011612668036759971 3.2569177021921528e-05 0 -0.01285229794503414 -3.4098536522092277e-07 0 -0.010817426365802112 -9.3966707946087114e-07 0 -0.010528114434066331 -0.00031141904880232325 0 -0.011612668036759971 3.2569177021921528e-05 0 -0.010528114434066331 -0.00031141904880232325 0 -0.011558347438843425 -4.1270945080389147e-05 0 -0.011612668036759971 3.2569177021921528e-05 0 -0.012168985118784425 -0.0027612699667275173 0 -0.012319630393680768 -0.0030100219032813012 0 -0.0091119165933419913 -0.00078145524166762571 0 -0.010528114434066331 -0.00031141904880232325 0 -0.0087912770524662068 -0.0018436615115220917 0 -0.013387113619132827 -0.0017764970321265958 0 -0.012855573634679214 -5.2299841908343659e-06 0 -0.011629601671007832 -0.00020495679605997451 0 -0.011612668036759971 3.2569177021921528e-05 0 -0.01285229794503414 -3.4098536522092277e-07 0 -0.011629601671007832 -0.00020495679605997451 0 -0.01155057352151628 -9.5929080034177998e-05 0 -0.011612668036759971 3.2569177021921528e-05 0 -0.014729911648687664 -0.00068055862662317419 0 -0.012857491797203691 -2.1462976167470012e-06 0 -0.014693642801994838 3.9584013852239769e-05 0 -0.012857491797203691 -2.1462976167470012e-06 0 -0.014693642801994838 3.9584013852239769e-05 0 -0.014495970305728158 9.6128847202629922e-07 0 -0.015606999242176484 -0.00068856565251420947 0 -0.015249199227941204 -0.00017668780497327635 0 -0.015730642439013967 0.0001881953276097264 0 -0.014729911648687664 -0.00068055862662317419 0 -0.014693642801994838 3.9584013852239769e-05 0 -0.015249199227941204 -0.00017668780497327635 0 -0.014693642801994838 3.9584013852239769e-05 0 -0.015249199227941204 -0.00017668780497327635 0 -0.015387235626812394 0.00016368274209611073 0 -0.015249199227941204 -0.00017668780497327635 0 -0.015387235626812394 0.00016368274209611073 0 -0.015730642439013967 0.0001881953276097264 0 -0.014693642801994838 3.9584013852239769e-05 0 -0.015387235626812394 0.00016368274209611073 0 -0.015432388996760671 0.00020375349942558142 0 -0.015387235626812394 0.00016368274209611073 0 -0.015753094507592602 0.00029016219300742873 0 -0.015730642439013967 0.0001881953276097264 0 -0.015387235626812394 0.00016368274209611073 0 -0.015753094507592602 0.00029016219300742873 0 -0.015432388996760671 0.00020375349942558142 0 -0.014495970305728158 9.6128847202629922e-07 0 -0.015432388996760671 0.00020375349942558142 0 -0.016137335252956748 2.9504501199005228e-07 0 -0.014693642801994838 3.9584013852239769e-05 0 -0.014495970305728158 9.6128847202629922e-07 0 -0.015432388996760671 0.00020375349942558142 0 -0.015432388996760671 0.00020375349942558142 0 -0.016137335252956748 2.9504501199005228e-07 0 -0.016361117220923867 0.00022633510970881029 0 -0.015753094507592602 0.00029016219300742873 0 -0.016361117220923867 0.00022633510970881029 0 -0.015971299047488834 0.00032542577280771475 0 -0.015753094507592602 0.00029016219300742873 0 -0.015432388996760671 0.00020375349942558142 0 -0.016361117220923867 0.00022633510970881029 0 -0.017237232155373518 1.5717681511165571e-05 0 -0.016559415987043087 1.7207781273458853e-06 0 -0.016361117220923867 0.00022633510970881029 0 -0.016559415987043087 1.7207781273458853e-06 0 -0.016361117220923867 0.00022633510970881029 0 -0.015971299047488834 0.00032542577280771475 0 -0.017778132396902135 6.8299253710611141e-07 0 -0.016137335252956748 2.9504501199005228e-07 0 -0.016361117220923867 0.00022633510970881029 0 -0.017778132396902135 6.8299253710611141e-07 0 -0.017237232155373518 1.5717681511165571e-05 0 -0.016361117220923867 0.00022633510970881029 0 -0.022178866187234001 -0.0024815204561563125 0 -0.021452048061943209 -0.0041037104871784469 0 -0.022681696471542646 -0.0041382944590307958 0 -0.021452048061943209 -0.0041037104871784469 0 -0.021962744839637848 -0.0053487892399497056 0 -0.022681696471542646 -0.0041382944590307958 0 -0.018894309189965767 -0.0015316655181842969 0 -0.017725361615378969 -0.002269760289497034 0 -0.020646113805333589 -0.0032065985115809184 0 -0.021452048061943209 -0.0041037104871784469 0 -0.020478633882669298 -0.0049257066742025802 0 -0.016176681413345592 -3.2301517004063599e-05 0 -0.016559415987043087 1.7207781273458853e-06 0 -0.015971299047488834 0.00032542577280771475 0 -0.021452048061943209 -0.0041037104871784469 0 -0.020478633882669298 -0.0049257066742025802 0 -0.021962744839637848 -0.0053487892399497056 0 -0.020478633882669298 -0.0049257066742025802 0 -0.021962744839637848 -0.0053487892399497056 0 -0.021111367391318379 -0.0060477628822927692 0 -0.021962744839637848 -0.0053487892399497056 0 -0.021870984627273094 -0.0064604481560623277 0 -0.021111367391318379 -0.0060477628822927692 0 -0.021870984627273094 -0.0064604481560623277 0 -0.021111367391318379 -0.0060477628822927692 0 -0.020968495486001684 -0.0067841593080782778 0 -0.020478633882669298 -0.0049257066742025802 0 -0.021111367391318379 -0.0060477628822927692 0 -0.020313077902066462 -0.0066125166186749833 0 -0.015753094507592602 0.00029016219300742873 0 -0.015971299047488834 0.00032542577280771475 0 -0.015730642439013967 0.0001881953276097264 0 -0.017725361615378969 -0.002269760289497034 0 -0.016307662032423138 -0.0030852340711776997 0 -0.021111367391318379 -0.0060477628822927692 0 -0.020968495486001684 -0.0067841593080782778 0 -0.020313077902066462 -0.0066125166186749833 0 -0.020703500935288954 -0.0083401038711360849 0 -0.020833091794298344 -0.0083425605463874654 0 -0.020968495486001684 -0.0067841593080782778 0 -0.013444784780455493 -0.005131511712264245 0 -0.014611043604834093 -0.0058084300694299313 0 -0.020139809289846412 -0.0082050629667461007 0 -0.020968495486001684 -0.0067841593080782778 0 -0.020313077902066462 -0.0066125166186749833 0 -0.02071274647898232 -0.0082137512318884998 0 -0.020139809289846412 -0.0082050629667461007 0 -0.020968495486001684 -0.0067841593080782778 0 -0.014059116334192392 -0.0038648020756012315 0 -0.016307662032423138 -0.0030852340711776997 0 -0.013484880187790331 -0.0052957626214673618 0 -0.018026302266572904 -0.0047771609660903396 0 -0.020833091794298344 -0.0083425605463874654 0 -0.020968495486001684 -0.0067841593080782778 0 -0.022068078679453377 -0.0074213632982798742 0 -0.021870984627273094 -0.0064604481560623277 0 -0.020968495486001684 -0.0067841593080782778 0 -0.022068078679453377 -0.0074213632982798742 0 -0.018026302266572904 -0.0047771609660903396 0 -0.019415101764953781 -0.004597274246832532 0 -0.021938866477113263 -0.0074447285550695201 0 -0.023446793676614813 -0.0075701202116030533 0 -0.022647044138100678 -0.0084852597849003099 0 -0.021938866477113263 -0.0074447285550695201 0 -0.023446793676614813 -0.0075701202116030533 0 -0.023287355516114352 -0.0065141593035540034 0 -0.023446793676614813 -0.0075701202116030533 0 -0.023287355516114352 -0.0065141593035540034 0 -0.024666868167026172 -0.0069667057665200888 0 -0.023446793676614813 -0.0075701202116030533 0 -0.024666868167026172 -0.0069667057665200888 0 -0.024599614076790347 -0.0084363171079418244 0 -0.023287355516114352 -0.0065141593035540034 0 -0.02464269752066155 -0.0053923342441868664 0 -0.024666868167026172 -0.0069667057665200888 0 -0.021870984627273094 -0.0064604481560623277 0 -0.022068078679453377 -0.0074213632982798742 0 -0.023287355516114352 -0.0065141593035540034 0 -0.021962744839637848 -0.0053487892399497056 0 -0.021870984627273094 -0.0064604481560623277 0 -0.023287355516114352 -0.0065141593035540034 0 -0.021962744839637848 -0.0053487892399497056 0 -0.023287355516114352 -0.0065141593035540034 0 -0.023237579822163058 -0.0052310998760576157 0 -0.021962744839637848 -0.0053487892399497056 0 -0.023237579822163058 -0.0052310998760576157 0 -0.022681696471542646 -0.0041382944590307958 0 -0.023287355516114352 -0.0065141593035540034 0 -0.023237579822163058 -0.0052310998760576157 0 -0.02464269752066155 -0.0053923342441868664 0 -0.023237579822163058 -0.0052310998760576157 0 -0.02464269752066155 -0.0053923342441868664 0 -0.023808579618165075 -0.0043405761921188491 0 -0.023546238300545277 -0.0029399176717207981 0 -0.023808579618165075 -0.0043405761921188491 0 -0.024674980230912594 -0.0035605688940007333 0 -0.02464269752066155 -0.0053923342441868664 0 -0.023808579618165075 -0.0043405761921188491 0 -0.024674980230912594 -0.0035605688940007333 0 -0.023546238300545277 -0.0029399176717207981 0 -0.023808579618165075 -0.0043405761921188491 0 -0.022681696471542646 -0.0041382944590307958 0 -0.023237579822163058 -0.0052310998760576157 0 -0.023808579618165075 -0.0043405761921188491 0 -0.022681696471542646 -0.0041382944590307958 0 -0.026811030546393336 -0.0042628310110439461 0 -0.025603407235033453 -0.0043895565945186914 0 -0.026176593990495895 -0.005305857775631407 0 -0.026023751280516771 -0.0033935525950197086 0 -0.026811030546393336 -0.0042628310110439461 0 -0.025603407235033453 -0.0043895565945186914 0 -0.027231804272689172 -0.0033623106669557826 0 -0.026023751280516771 -0.0033935525950197086 0 -0.026811030546393336 -0.0042628310110439461 0 -0.026023751280516771 -0.0033935525950197086 0 -0.024674980230912594 -0.0035605688940007333 0 -0.025603407235033453 -0.0043895565945186914 0 -0.02464269752066155 -0.0053923342441868664 0 -0.024674980230912594 -0.0035605688940007333 0 -0.025603407235033453 -0.0043895565945186914 0 -0.02464269752066155 -0.0053923342441868664 0 -0.026176593990495895 -0.005305857775631407 0 -0.025941016405313096 -0.0064198144044482295 0 -0.02464269752066155 -0.0053923342441868664 0 -0.025603407235033453 -0.0043895565945186914 0 -0.026176593990495895 -0.005305857775631407 0 -0.026176593990495895 -0.005305857775631407 0 -0.026829265245226025 -0.0059033367715907031 0 -0.027509116520503914 -0.0049816510552406715 0 -0.026811030546393336 -0.0042628310110439461 0 -0.026176593990495895 -0.005305857775631407 0 -0.027509116520503914 -0.0049816510552406715 0 -0.026176593990495895 -0.005305857775631407 0 -0.026829265245226025 -0.0059033367715907031 0 -0.025941016405313096 -0.0064198144044482295 0 -0.026829265245226025 -0.0059033367715907031 0 -0.025941016405313096 -0.0064198144044482295 0 -0.027204561258572617 -0.0065480865056406863 0 -0.025941016405313096 -0.0064198144044482295 0 -0.026956454329469963 -0.0073911342333563869 0 -0.027204561258572617 -0.0065480865056406863 0 -0.02464269752066155 -0.0053923342441868664 0 -0.025941016405313096 -0.0064198144044482295 0 -0.024666868167026172 -0.0069667057665200888 0 -0.024666868167026172 -0.0069667057665200888 0 -0.025732726204140778 -0.0075092261215267174 0 -0.024599614076790347 -0.0084363171079418244 0 -0.025941016405313096 -0.0064198144044482295 0 -0.024666868167026172 -0.0069667057665200888 0 -0.025732726204140778 -0.0075092261215267174 0 -0.025941016405313096 -0.0064198144044482295 0 -0.025732726204140778 -0.0075092261215267174 0 -0.026956454329469963 -0.0073911342333563869 0 -0.025732726204140778 -0.0075092261215267174 0 -0.026418901824829283 -0.00834262346192584 0 -0.026956454329469963 -0.0073911342333563869 0 0.0043209844156610923 -0.010622286682723409 0 0.0034502585934912114 -0.0091932428338099888 0 0.0052306548768498379 -0.0092129655615214648 0 0.0034502585934912114 -0.0091932428338099888 0 0.0048602696390650834 -0.0079916900246158207 0 0.0036454036404441731 -0.0078200485409892911 0 0.0034502585934912114 -0.0091932428338099888 0 0.0048602696390650834 -0.0079916900246158207 0 0.0052306548768498379 -0.0092129655615214648 0 0.0034502585934912114 -0.0091932428338099888 0 0.0014951607554016492 -0.0093521710788961009 0 0.0022927797989669612 -0.0081881289179158382 0 0.0034502585934912114 -0.0091932428338099888 0 0.0017994251633896977 -0.01107773297958612 0 0.0014951607554016492 -0.0093521710788961009 0 0.0034502585934912114 -0.0091932428338099888 0 0.0036454036404441731 -0.0078200485409892911 0 0.0022927797989669612 -0.0081881289179158382 0 0.0043209844156610923 -0.010622286682723409 0 0.0034502585934912114 -0.0091932428338099888 0 0.0017994251633896977 -0.01107773297958612 0 -0.011228059980470575 -0.0078629545027124621 0 -0.011619260150787366 -0.008091459229807885 0 -0.025732726204140778 -0.0075092261215267174 0 -0.026418901824829283 -0.00834262346192584 0 -0.024599614076790347 -0.0084363171079418244 0 -0.011619260150787366 -0.008091459229807885 0 -0.012279890989841785 -0.0073994505003974441 0 0.0017994251633896977 -0.01107773297958612 0 -0.00048562570355622191 -0.009757271020064474 0 0.0014951607554016492 -0.0093521710788961009 0 -0.023446793676614813 -0.0075701202116030533 0 -0.024599614076790347 -0.0084363171079418244 0 -0.022647044138100678 -0.0084852597849003099 0 0.0017994251633896977 -0.01107773297958612 0 -0.0013990078366665118 -0.011443605682795869 0 -0.00048562570355622191 -0.009757271020064474 0 -0.0036373388274401962 -0.0097602199762433835 0 -0.0013990078366665118 -0.011443605682795869 0 -0.00048562570355622191 -0.009757271020064474 0 -0.0036373388274401962 -0.0097602199762433835 0 -0.00048562570355622191 -0.009757271020064474 0 -0.0017999997642673734 -0.0084173573090677144 0 -0.00048562570355622191 -0.009757271020064474 0 -0.0017999997642673734 -0.0084173573090677144 0 0.00038445529090603772 -0.0081444399994888769 0 -0.00048562570355622191 -0.009757271020064474 0 0.0014951607554016492 -0.0093521710788961009 0 0.00038445529090603772 -0.0081444399994888769 0 0.0014951607554016492 -0.0093521710788961009 0 0.00038445529090603772 -0.0081444399994888769 0 0.0022927797989669612 -0.0081881289179158382 0 0.00038445529090603772 -0.0081444399994888769 0 0.0015066746100833306 -0.0072877992294757797 0 0.0022927797989669612 -0.0081881289179158382 0 0.00038445529090603772 -0.0081444399994888769 0 0.00044309734487133797 -0.0069126561020123097 0 -0.0010262801801824858 -0.0067405873688753636 0 0.00038445529090603772 -0.0081444399994888769 0 0.00044309734487133797 -0.0069126561020123097 0 0.0015066746100833306 -0.0072877992294757797 0 0.00044309734487133797 -0.0069126561020123097 0 0.0015066746100833306 -0.0072877992294757797 0 0.0013662740545935278 -0.0062204374502059642 0 -0.0017999997642673734 -0.0084173573090677144 0 0.00038445529090603772 -0.0081444399994888769 0 -0.0010262801801824858 -0.0067405873688753636 0 -0.0023951658488663425 -0.0071091532443315298 0 -0.0017999997642673734 -0.0084173573090677144 0 -0.0010262801801824858 -0.0067405873688753636 0 0.00044309734487133797 -0.0069126561020123097 0 -0.0010262801801824858 -0.0067405873688753636 0 -3.7444977311621878e-05 -0.0055944412690710869 0 -0.0026878353562732301 -0.0056972048090809472 0 -0.0023951658488663425 -0.0071091532443315298 0 -0.0010262801801824858 -0.0067405873688753636 0 -0.0013746042457172085 -0.0052374114883158591 0 -0.00078952735042315896 -0.0039294235414515655 0 -0.0028635067770196101 -0.0035133641944135145 0 -0.0026878353562732301 -0.0056972048090809472 0 -0.0010262801801824858 -0.0067405873688753636 0 -0.0013746042457172085 -0.0052374114883158591 0 -0.0010262801801824858 -0.0067405873688753636 0 -0.0013746042457172085 -0.0052374114883158591 0 -3.7444977311621878e-05 -0.0055944412690710869 0 -0.0013746042457172085 -0.0052374114883158591 0 -3.7444977311621878e-05 -0.0055944412690710869 0 -0.00078952735042315896 -0.0039294235414515655 0 0.0013662740545935278 -0.0062204374502059642 0 -3.7444977311621878e-05 -0.0055944412690710869 0 0.0011635314447227066 -0.0046332972967191768 0 0.00044309734487133797 -0.0069126561020123097 0 0.0013662740545935278 -0.0062204374502059642 0 -3.7444977311621878e-05 -0.0055944412690710869 0 -3.7444977311621878e-05 -0.0055944412690710869 0 0.0011635314447227066 -0.0046332972967191768 0 -0.00078952735042315896 -0.0039294235414515655 0 0.0013662740545935278 -0.0062204374502059642 0 0.0011635314447227066 -0.0046332972967191768 0 0.0023915997744311216 -0.0059809164151502728 0 0.0038748502081538618 -0.0059928366841545252 0 0.004420070132247037 -0.0068687547529098112 0 0.0030102608414461873 -0.0069579331290500947 0 0.0011635314447227066 -0.0046332972967191768 0 0.0023915997744311216 -0.0059809164151502728 0 0.0038748502081538618 -0.0059928366841545252 0 0.0023915997744311216 -0.0059809164151502728 0 0.0038748502081538618 -0.0059928366841545252 0 0.0030102608414461873 -0.0069579331290500947 0 0.0013662740545935278 -0.0062204374502059642 0 0.0023915997744311216 -0.0059809164151502728 0 0.0030102608414461873 -0.0069579331290500947 0 0.0038748502081538618 -0.0059928366841545252 0 0.004420070132247037 -0.0068687547529098112 0 0.0050975742505089171 -0.0059108535762236198 0 0.0038748502081538618 -0.0059928366841545252 0 0.0050975742505089171 -0.0059108535762236198 0 0.0041195771021700616 -0.0061150340454441008 0 0.004420070132247037 -0.0068687547529098112 0 0.0036454036404441731 -0.0078200485409892911 0 0.0030102608414461873 -0.0069579331290500947 0 0.004420070132247037 -0.0068687547529098112 0 0.0048602696390650834 -0.0079916900246158207 0 0.0036454036404441731 -0.0078200485409892911 0 0.0036454036404441731 -0.0078200485409892911 0 0.0022927797989669612 -0.0081881289179158382 0 0.0030102608414461873 -0.0069579331290500947 0 0.0015066746100833306 -0.0072877992294757797 0 0.0022927797989669612 -0.0081881289179158382 0 0.0030102608414461873 -0.0069579331290500947 0 0.0015066746100833306 -0.0072877992294757797 0 0.0013662740545935278 -0.0062204374502059642 0 0.0030102608414461873 -0.0069579331290500947 0 0.0072577610165491142 -0.0073318019815208687 0 0.0064520794980424106 -0.0082056972893347225 0 0.0058009050906159664 -0.0070743823550722534 0 0.0072577610165491142 -0.0073318019815208687 0 0.0064520794980424106 -0.0082056972893347225 0 0.0075339557505839554 -0.0082029190557337209 0 0.004420070132247037 -0.0068687547529098112 0 0.0048602696390650834 -0.0079916900246158207 0 0.0058009050906159664 -0.0070743823550722534 0 0.0048602696390650834 -0.0079916900246158207 0 0.0064520794980424106 -0.0082056972893347225 0 0.0058009050906159664 -0.0070743823550722534 0 0.0058009050906159664 -0.0070743823550722534 0 0.0050975742505089171 -0.0059108535762236198 0 0.0069096887168537454 -0.0061725772118923885 0 0.0062646970718970773 -0.0066022566309253943 0 0.007064304204687448 -0.0067232300632974707 0 0.004420070132247037 -0.0068687547529098112 0 0.0058009050906159664 -0.0070743823550722534 0 0.0050975742505089171 -0.0059108535762236198 0 0.0072577610165491142 -0.0073318019815208687 0 0.0058009050906159664 -0.0070743823550722534 0 0.0069096887168537454 -0.0061725772118923885 0 0.007064304204687448 -0.0067232300632974707 0 0.0057946851699775901 -0.0064447317004174822 0 0.0072577610165491142 -0.0073318019815208687 0 0.0069096887168537454 -0.0061725772118923885 0 0.0086884375092187317 -0.006508056086223203 0 0.0092701194941093388 -0.0077111342626683373 0 0.010667248526942058 -0.0077068412503905103 0 0.0099028376214554074 -0.0066418753203076426 0 0.010692553628787342 -0.0068809832538697744 0 0.010700617872297296 -0.0068691230115501241 0 0.01063298502460781 -0.0068871518075276318 0 0.010692553628787342 -0.0068809832538697744 0 0.01063298502460781 -0.0068871518075276318 0 0.010831094798232974 -0.0067727732388097152 0 0.010692553628787342 -0.0068809832538697744 0 0.010700617872297296 -0.0068691230115501241 0 0.010682929783529225 -0.0069311955954477122 0 0.0057946851699775901 -0.0064447317004174822 0 0.0060756280627264504 -0.0065009433681314554 0 0.010461502286279083 -0.0070154260778105704 0 0.01063298502460781 -0.0068871518075276318 0 0.010420067294590083 -0.0069103849946467229 0 0.0057946851699775901 -0.0064447317004174822 0 0.0069127786655668487 -0.0066254529844746368 0 0.010420067294590083 -0.0069103849946467229 0 0.01030783579379034 -0.006796684999558429 0 0.010887101986703786 -0.0070733687720969055 0 0.010461502286279083 -0.0070154260778105704 0 0.010420067294590083 -0.0069103849946467229 0 0.010586997592926365 -0.006586757067677862 0 0.0057946851699775901 -0.0064447317004174822 0 -0.00048481928669217065 -0.005915596492294165 0 0.010420067294590083 -0.0069103849946467229 0 0.01030783579379034 -0.006796684999558429 0 0.010586997592926365 -0.006586757067677862 0 0.01030783579379034 -0.006796684999558429 0 0.0092438030645733832 -0.0060887824763120272 0 0.0083280884183000049 -0.0066291667912205168 0 0.0072577610165491142 -0.0073318019815208687 0 0.0086884375092187317 -0.006508056086223203 0 0.0079937508940987091 -0.007608820828315598 0 0.0086884375092187317 -0.006508056086223203 0 0.0079937508940987091 -0.007608820828315598 0 0.0084935465614097115 -0.0083911558062554608 0 0.0079937508940987091 -0.007608820828315598 0 0.0075339557505839554 -0.0082029190557337209 0 0.0084935465614097115 -0.0083911558062554608 0 0.0072577610165491142 -0.0073318019815208687 0 0.0079937508940987091 -0.007608820828315598 0 0.0075339557505839554 -0.0082029190557337209 0 -0.00048481928669217065 -0.005915596492294165 0 -0.011624959541337661 -0.0041580087026969687 0 0.0075339557505839554 -0.0082029190557337209 0 0.0084935465614097115 -0.0083911558062554608 0 0.0073910154818693655 -0.0092332983434541098 0 0.0084935465614097115 -0.0083911558062554608 0 0.0073910154818693655 -0.0092332983434541098 0 0.0082710645285382807 -0.010249537017642252 0 0.010586997592926365 -0.006586757067677862 0 0.0099335445471985043 -0.0048005583656629885 0 0.011030451135273225 -0.0033777020381871607 0 0.0092438030645733832 -0.0060887824763120272 0 0.0092848778746849759 -0.0054341181015129603 0 0.0083721206898163779 -0.0055245049699644338 0 0.01030783579379034 -0.006796684999558429 0 0.0092438030645733832 -0.0060887824763120272 0 0.0098948069438872105 -0.0060621290483197209 0 0.0092438030645733832 -0.0060887824763120272 0 0.0098948069438872105 -0.0060621290483197209 0 0.0092848778746849759 -0.0054341181015129603 0 0.010586997592926365 -0.006586757067677862 0 0.0098948069438872105 -0.0060621290483197209 0 0.0099335445471985043 -0.0048005583656629885 0 0.01030783579379034 -0.006796684999558429 0 0.010586997592926365 -0.006586757067677862 0 0.0098948069438872105 -0.0060621290483197209 0 0.0092848778746849759 -0.0054341181015129603 0 0.0084533263398058212 -0.0043986307668190958 0 0.0083721206898163779 -0.0055245049699644338 0 0.0099335445471985043 -0.0048005583656629885 0 0.0092848778746849759 -0.0054341181015129603 0 0.0084533263398058212 -0.0043986307668190958 0 0.0098948069438872105 -0.0060621290483197209 0 0.0099335445471985043 -0.0048005583656629885 0 0.0092848778746849759 -0.0054341181015129603 0 -0.01226150066870314 -0.0029099840297956083 0 -0.0099920004342605711 -0.0016997129847430772 0 0.0099335445471985043 -0.0048005583656629885 0 0.0094433969296795726 -0.0034056079723605954 0 0.0084533263398058212 -0.0043986307668190958 0 0.0099335445471985043 -0.0048005583656629885 0 0.0094433969296795726 -0.0034056079723605954 0 0.011030451135273225 -0.0033777020381871607 0 -0.01226150066870314 -0.0029099840297956083 0 -0.020474042796541754 -0.0040735697961975306 0 -0.01226150066870314 -0.0029099840297956083 0 -0.011624959541337661 -0.0041580087026969687 0 -0.015653258143557086 -0.0010938826450265482 0 -0.017024927238447948 -0.0011187430165535686 0 -0.017156001110410705 -0.0026017761487494707 0 -0.011624959541337661 -0.0041580087026969687 0 -0.011097480666997086 -0.0067262326154261445 0 -0.029462921203617303 -0.0081744908937147771 0 -0.028040534801814471 -0.0082243092137170067 0 -0.029168245299883756 -0.0075173129365064323 0 0.0073910154818693655 -0.0092332983434541098 0 0.0082710645285382807 -0.010249537017642252 0 0.006343503629415952 -0.010346288738006392 0 -0.011624959541337661 -0.0041580087026969687 0 -0.020474042796541754 -0.0040735697961975306 0 0.0064520794980424106 -0.0082056972893347225 0 0.0073910154818693655 -0.0092332983434541098 0 0.006343503629415952 -0.010346288738006392 0 0.0064520794980424106 -0.0082056972893347225 0 0.0075339557505839554 -0.0082029190557337209 0 0.0073910154818693655 -0.0092332983434541098 0 0.0048602696390650834 -0.0079916900246158207 0 0.0064520794980424106 -0.0082056972893347225 0 0.0052306548768498379 -0.0092129655615214648 0 0.0064520794980424106 -0.0082056972893347225 0 0.006343503629415952 -0.010346288738006392 0 0.0052306548768498379 -0.0092129655615214648 0 -0.011228059980470575 -0.0078629545027124621 0 -0.011097480666997086 -0.0067262326154261445 0 -0.026418901824829283 -0.00834262346192584 0 -0.028040534801814471 -0.0082243092137170067 0 -0.026956454329469963 -0.0073911342333563869 0 0.0043209844156610923 -0.010622286682723409 0 0.006343503629415952 -0.010346288738006392 0 0.0052306548768498379 -0.0092129655615214648 0 -0.028040534801814471 -0.0082243092137170067 0 -0.026956454329469963 -0.0073911342333563869 0 -0.027916882452952492 -0.0070773015686371905 0 -0.026956454329469963 -0.0073911342333563869 0 -0.027916882452952492 -0.0070773015686371905 0 -0.027204561258572617 -0.0065480865056406863 0 -0.028040534801814471 -0.0082243092137170067 0 -0.028466621621425901 -0.0073721020796113151 0 -0.029168245299883756 -0.0075173129365064323 0 -0.028040534801814471 -0.0082243092137170067 0 -0.028466621621425901 -0.0073721020796113151 0 -0.027916882452952492 -0.0070773015686371905 0 -0.028466621621425901 -0.0073721020796113151 0 -0.027916882452952492 -0.0070773015686371905 0 -0.028735200819241035 -0.0066747807328340078 0 -0.028735200819241035 -0.0066747807328340078 0 -0.027829367831730654 -0.0063135832232890515 0 -0.028049055353640048 -0.005907633693701164 0 -0.027916882452952492 -0.0070773015686371905 0 -0.028735200819241035 -0.0066747807328340078 0 -0.027829367831730654 -0.0063135832232890515 0 -0.027423483615340145 -0.0046138921489080739 0 -0.027454082887420499 -0.0044909580448974622 0 -0.032083148391223497 -0.0011698734044397231 0 -0.031982549540794117 -0.0010547854037352181 0 -0.032099962094853086 -0.0010279487841721602 0 -0.025549207128704378 -0.0050384878414499274 0 -0.027454082887420499 -0.0044909580448974622 0 -0.027916882452952492 -0.0070773015686371905 0 -0.027204561258572617 -0.0065480865056406863 0 -0.027829367831730654 -0.0063135832232890515 0 -0.027829367831730654 -0.0063135832232890515 0 -0.027497166304600223 -0.0057389387023828332 0 -0.028140986986950656 -0.0058055109430847828 0 -0.027204561258572617 -0.0065480865056406863 0 -0.027829367831730654 -0.0063135832232890515 0 -0.027497166304600223 -0.0057389387023828332 0 -0.026829265245226025 -0.0059033367715907031 0 -0.027204561258572617 -0.0065480865056406863 0 -0.027497166304600223 -0.0057389387023828332 0 -0.026829265245226025 -0.0059033367715907031 0 -0.027509116520503914 -0.0049816510552406715 0 -0.027497166304600223 -0.0057389387023828332 0 -0.027509116520503914 -0.0049816510552406715 0 -0.028454807642528591 -0.005895045068674022 0 -0.028356186559333949 -0.0047720279547777376 0 -0.027509116520503914 -0.0049816510552406715 0 -0.027497166304600223 -0.0057389387023828332 0 -0.028140986986950656 -0.0058055109430847828 0 -0.027593580286381036 -0.0046753473081917688 0 -0.027454082887420499 -0.0044909580448974622 0 -0.031982549540794117 -0.0010547854037352181 0 -0.032099962094853086 -0.0010279487841721602 0 -0.032147276729774167 -0.00086447443427543414 0 -0.027454082887420499 -0.0044909580448974622 0 -0.029534879221946333 -0.002731452099089138 0 -0.028454807642528591 -0.005895045068674022 0 -0.028356186559333949 -0.0047720279547777376 0 -0.029293952999255531 -0.0042592368523845315 0 -0.028356186559333949 -0.0047720279547777376 0 -0.029293952999255531 -0.0042592368523845315 0 -0.028147120754360988 -0.0039925254116919264 0 -0.029034627885239563 -0.0031925755895079906 0 -0.029293952999255531 -0.0042592368523845315 0 -0.028147120754360988 -0.0039925254116919264 0 -0.027231804272689172 -0.0033623106669557826 0 -0.026811030546393336 -0.0042628310110439461 0 -0.028147120754360988 -0.0039925254116919264 0 -0.026811030546393336 -0.0042628310110439461 0 -0.027509116520503914 -0.0049816510552406715 0 -0.028147120754360988 -0.0039925254116919264 0 -0.027509116520503914 -0.0049816510552406715 0 -0.028356186559333949 -0.0047720279547777376 0 -0.028147120754360988 -0.0039925254116919264 0 -0.032135373773717474 -0.00056203419556566955 0 -0.032025593229670787 -0.00076647081248884172 0 -0.031705409573773137 -0.00044372564775620432 0 -0.032135373773717474 -0.00056203419556566955 0 -0.032025593229670787 -0.00076647081248884172 0 -0.032142043089231721 -0.00074381034100550901 0 -0.032139916656830324 -0.00082723404375839723 0 -0.032025593229670787 -0.00076647081248884172 0 -0.032142043089231721 -0.00074381034100550901 0 -0.027564905093253704 -0.0013148641082012748 0 -0.026042683806060719 -0.0016926356785910241 0 -0.032139916656830324 -0.00082723404375839723 0 -0.032142043089231721 -0.00074381034100550901 0 -0.032224903579276272 -0.00082515176229230121 0 -0.030560302848748579 -0.0020286990318306923 0 -0.029534879221946333 -0.002731452099089138 0 -0.032135373773717474 -0.00056203419556566955 0 -0.032142043089231721 -0.00074381034100550901 0 -0.032224903579276272 -0.00082515176229230121 0 -0.032244257325593759 -0.00083895961785596454 0 -0.032147276729774167 -0.00086447443427543414 0 -0.032224903579276272 -0.00082515176229230121 0 -0.032135373773717474 -0.00056203419556566955 0 -0.032224903579276272 -0.00082515176229230121 0 -0.032292512805296908 -0.00027594051087397704 0 -0.032147276729774167 -0.00086447443427543414 0 -0.032224903579276272 -0.00082515176229230121 0 -0.032188224733867885 -0.0010263784589891348 0 -0.032099962094853086 -0.0010279487841721602 0 -0.032147276729774167 -0.00086447443427543414 0 -0.032188224733867885 -0.0010263784589891348 0 -0.032135373773717474 -0.00056203419556566955 0 -0.031986788934653031 -0.00022870715649000965 0 -0.031705409573773137 -0.00044372564775620432 0 -0.032135373773717474 -0.00056203419556566955 0 -0.032292512805296908 -0.00027594051087397704 0 -0.031986788934653031 -0.00022870715649000965 0 -0.031986788934653031 -0.00022870715649000965 0 -0.032059474098298443 5.1783239074643134e-05 0 -0.03178545433664387 0.00015247616645423179 0 -0.032292512805296908 -0.00027594051087397704 0 -0.031986788934653031 -0.00022870715649000965 0 -0.032059474098298443 5.1783239074643134e-05 0 -0.032292512805296908 -0.00027594051087397704 0 -0.032059474098298443 5.1783239074643134e-05 0 -0.032211016811107135 0.00025424298172424835 0 -0.026042683806060719 -0.0016926356785910241 0 -0.020474042796541754 -0.0040735697961975306 0 -0.032083148391223497 -0.0011698734044397231 0 -0.032188224733867885 -0.0010263784589891348 0 -0.032160591663029682 -0.0012947253946980766 0 -0.032083148391223497 -0.0011698734044397231 0 -0.032099962094853086 -0.0010279487841721602 0 -0.032188224733867885 -0.0010263784589891348 0 -0.028735200819241035 -0.0066747807328340078 0 -0.029427320782801861 -0.0074422221296145986 0 -0.029168245299883756 -0.0075173129365064323 0 -0.025549207128704378 -0.0050384878414499274 0 -0.020474042796541754 -0.0040735697961975306 0 -0.028466621621425901 -0.0073721020796113151 0 -0.028735200819241035 -0.0066747807328340078 0 -0.029168245299883756 -0.0075173129365064323 0 -0.029462921203617303 -0.0081744908937147771 0 -0.029415446175929602 -0.0074457332551371566 0 -0.029168245299883756 -0.0075173129365064323 0 -0.020474042796541754 -0.0040735697961975306 0 -0.02074366190906202 -0.0040509543423203932 0 -0.026188289253950173 -0.0020496931905408227 0 -0.025159415306863785 -0.0010435531928307685 0 -0.027089292832697686 -0.00052086431984023525 0 -0.032059474098298443 5.1783239074643134e-05 0 -0.032211016811107135 0.00025424298172424835 0 -0.03178545433664387 0.00015247616645423179 0 -0.020474042796541754 -0.0040735697961975306 0 -0.027763988878050611 -0.0013664349536650685 0 -0.03178545433664387 0.00015247616645423179 0 -0.031324512343588289 9.2143747604237741e-05 0 -0.031705409573773137 -0.00044372564775620432 0 -0.031986788934653031 -0.00022870715649000965 0 -0.03178545433664387 0.00015247616645423179 0 -0.031705409573773137 -0.00044372564775620432 0 -0.027089292832697686 -0.00052086431984023525 0 -0.028941996629395367 -9.296143315585921e-05 0 -0.028295291113290107 -0.0020015769198801323 0 -0.028941996629395367 -9.296143315585921e-05 0 -0.029638168725200743 -0.0010147838467968772 0 -0.028295291113290107 -0.0020015769198801323 0 -0.027763988878050611 -0.0013664349536650685 0 -0.029642650188392052 -0.00056158073622944145 0 -0.031324512343588289 9.2143747604237741e-05 0 -0.031705409573773137 -0.00044372564775620432 0 -0.031135932046148247 -0.00024653315186217237 0 -0.031705409573773137 -0.00044372564775620432 0 -0.031361515669941581 -0.00049049562039433874 0 -0.031135932046148247 -0.00024653315186217237 0 -0.031445696700982843 -0.00077637756329464896 0 -0.031705409573773137 -0.00044372564775620432 0 -0.031361515669941581 -0.00049049562039433874 0 -0.03164882535676692 -0.00087483384133673714 0 -0.031730682900738175 -0.00065818066576047601 0 -0.03187538022131705 -0.0008623402168161518 0 -0.031698129124960214 -0.00091386929620067628 0 -0.031705409573773137 -0.00044372564775620432 0 -0.03187538022131705 -0.0008623402168161518 0 -0.032025593229670787 -0.00076647081248884172 0 -0.031705409573773137 -0.00044372564775620432 0 -0.031020199785975412 -0.00066015055007916394 0 -0.031073785647379067 -0.00046597852219684965 0 -0.030734139086114918 -0.00038627216521561219 0 -0.031073785647379067 -0.00046597852219684965 0 -0.030814552922336653 -0.00025573107797660134 0 -0.030734139086114918 -0.00038627216521561219 0 -0.030744941804938055 -0.00067699191428701431 0 -0.031020199785975412 -0.00066015055007916394 0 -0.030734139086114918 -0.00038627216521561219 0 -0.031445696700982843 -0.00077637756329464896 0 -0.031361515669941581 -0.00049049562039433874 0 -0.031073785647379067 -0.00046597852219684965 0 -0.031020199785975412 -0.00066015055007916394 0 -0.031445696700982843 -0.00077637756329464896 0 -0.031073785647379067 -0.00046597852219684965 0 -0.031073785647379067 -0.00046597852219684965 0 -0.031135932046148247 -0.00024653315186217237 0 -0.030814552922336653 -0.00025573107797660134 0 -0.031361515669941581 -0.00049049562039433874 0 -0.031073785647379067 -0.00046597852219684965 0 -0.031135932046148247 -0.00024653315186217237 0 -0.030814552922336653 -0.00025573107797660134 0 -0.030724212224773097 -0.00017270458961662081 0 -0.030734139086114918 -0.00038627216521561219 0 -0.031135932046148247 -0.00024653315186217237 0 -0.030814552922336653 -0.00025573107797660134 0 -0.030642912514261579 -4.757981438402569e-05 0 -0.030814552922336653 -0.00025573107797660134 0 -0.030642912514261579 -4.757981438402569e-05 0 -0.030724212224773097 -0.00017270458961662081 0 -0.030642912514261579 -4.757981438402569e-05 0 -0.030475476735019637 -0.00066698654511131693 0 -0.030877133732257388 -0.00020513170236429181 0 -0.030642912514261579 -4.757981438402569e-05 0 -0.030111597388762984 -0.00057529445281664731 0 -0.030475476735019637 -0.00066698654511131693 0 -0.029642650188392052 -0.00056158073622944145 0 -0.030104997313876617 -0.00036839696351255864 0 -0.031324512343588289 9.2143747604237741e-05 0 -0.031135932046148247 -0.00024653315186217237 0 -0.030642912514261579 -4.757981438402569e-05 0 -0.028941996629395367 -9.296143315585921e-05 0 -0.030642912514261579 -4.757981438402569e-05 0 -0.030111597388762984 -0.00057529445281664731 0 -0.028941996629395367 -9.296143315585921e-05 0 -0.030111597388762984 -0.00057529445281664731 0 -0.029638168725200743 -0.0010147838467968772 0 -0.030111597388762984 -0.00057529445281664731 0 -0.029638168725200743 -0.0010147838467968772 0 -0.030173542767789614 -0.0011034861264307427 0 -0.029638168725200743 -0.0010147838467968772 0 -0.030173542767789614 -0.0011034861264307427 0 -0.030151048722775145 -0.0018244673768251091 0 -0.030475476735019637 -0.00066698654511131693 0 -0.030422047661214167 -0.0015945998373004123 0 -0.030877133732257388 -0.00020513170236429181 0 -0.022264789138827901 -0.0004444468983492087 0 -0.026486386094302709 0.00078464637215723673 0 -0.030475476735019637 -0.00066698654511131693 0 -0.030173542767789614 -0.0011034861264307427 0 -0.030422047661214167 -0.0015945998373004123 0 -0.022264789138827901 -0.0004444468983492087 0 -0.027841030199007959 0.0010116099553122023 0 -0.030111597388762984 -0.00057529445281664731 0 -0.030475476735019637 -0.00066698654511131693 0 -0.030173542767789614 -0.0011034861264307427 0 -0.018308863543719054 -0.0018039584328040951 0 -0.014921748088334644 -0.0017763425044471904 0 0.0026775249204114061 -0.0036690922170756067 0 0.0022764935482060783 -0.0047312845395007788 0 -5.6075819024201827e-05 -0.0038297116694595628 0 -0.027103125426743868 8.7127484045501033e-06 0 -0.027006075337040622 -6.2684866295520763e-05 0 -0.027578792155293734 -8.0213617527741781e-06 0 -0.030173542767789614 -0.0011034861264307427 0 -0.030422047661214167 -0.0015945998373004123 0 -0.030151048722775145 -0.0018244673768251091 0 -0.022264789138827901 -0.0004444468983492087 0 -0.018308863543719054 -0.0018039584328040951 0 0.0026775249204114061 -0.0036690922170756067 0 0.0022764935482060783 -0.0047312845395007788 0 0.0031546814406266336 -0.0039273661161722401 0 0.0022764935482060783 -0.0047312845395007788 0 0.0032709423162444046 -0.005594257612779349 0 0.0015535593584567204 -0.0066017594825807917 0 0.0022764935482060783 -0.0047312845395007788 0 0.0015535593584567204 -0.0066017594825807917 0 -5.6075819024201827e-05 -0.0038297116694595628 0 0.0032709423162444046 -0.005594257612779349 0 0.0048275319085706791 -0.0056967591475442841 0 0.0038381089561702552 -0.0067537662018324583 0 0.0022764935482060783 -0.0047312845395007788 0 0.0032709423162444046 -0.005594257612779349 0 0.0031598744697065259 -0.004765455975550943 0 0.0032709423162444046 -0.005594257612779349 0 0.0031598744697065259 -0.004765455975550943 0 0.0039376050523831181 -0.0049165767171138342 0 0.0032709423162444046 -0.005594257612779349 0 0.0039376050523831181 -0.0049165767171138342 0 0.0048275319085706791 -0.0056967591475442841 0 0.0039376050523831181 -0.0049165767171138342 0 0.0050287064914251271 -0.0046357799803636622 0 0.0048275319085706791 -0.0056967591475442841 0 -0.018308863543719054 -0.0018039584328040951 0 -0.012537467537631212 -0.0024171157775763766 0 0.0026091463486312984 -0.0035986184527823212 0 0.0031546814406266336 -0.0039273661161722401 0 0.0059731215271585005 -0.0034326915768782126 0 0.0039376050523831181 -0.0049165767171138342 0 0.0031546814406266336 -0.0039273661161722401 0 0.0050287064914251271 -0.0046357799803636622 0 -0.029638168725200743 -0.0010147838467968772 0 -0.030151048722775145 -0.0018244673768251091 0 -0.028295291113290107 -0.0020015769198801323 0 0.0022764935482060783 -0.0047312845395007788 0 0.0031598744697065259 -0.004765455975550943 0 0.0031546814406266336 -0.0039273661161722401 0 0.0031598744697065259 -0.004765455975550943 0 0.0039376050523831181 -0.0049165767171138342 0 0.0031546814406266336 -0.0039273661161722401 0 -0.018308863543719054 -0.0018039584328040951 0 -0.017600785151506163 -0.0021364091264130681 0 0.0031546814406266336 -0.0039273661161722401 0 0.0059731215271585005 -0.0034326915768782126 0 0.0050287064914251271 -0.0046357799803636622 0 0.0059731215271585005 -0.0034326915768782126 0 0.0067725725985876978 -0.0053437076355932521 0 0.0050287064914251271 -0.0046357799803636622 0 -0.01226150066870314 -0.0029099840297956083 0 -0.012537467537631212 -0.0024171157775763766 0 0.0094318286529494564 -0.0033892990987629671 0 0.0059731215271585005 -0.0034326915768782126 0 0.0084533263398058212 -0.0043986307668190958 0 0.0059731215271585005 -0.0034326915768782126 0 0.0084533263398058212 -0.0043986307668190958 0 0.0067725725985876978 -0.0053437076355932521 0 -0.026188289253950173 -0.0020496931905408227 0 -0.027089292832697686 -0.00052086431984023525 0 -0.028295291113290107 -0.0020015769198801323 0 0.0067725725985876978 -0.0053437076355932521 0 0.0056720033517019862 -0.006785039210437261 0 0.0083280884183000049 -0.0066291667912205168 0 0.0084533263398058212 -0.0043986307668190958 0 0.0067725725985876978 -0.0053437076355932521 0 0.0083721206898163779 -0.0055245049699644338 0 0.0067725725985876978 -0.0053437076355932521 0 0.0083721206898163779 -0.0055245049699644338 0 0.0083280884183000049 -0.0066291667912205168 0 0.0092438030645733832 -0.0060887824763120272 0 0.0083721206898163779 -0.0055245049699644338 0 0.0083280884183000049 -0.0066291667912205168 0 0.0067725725985876978 -0.0053437076355932521 0 0.0050287064914251271 -0.0046357799803636622 0 0.0048275319085706791 -0.0056967591475442841 0 0.0067725725985876978 -0.0053437076355932521 0 0.0048275319085706791 -0.0056967591475442841 0 0.0056720033517019862 -0.006785039210437261 0 0.008718573669523751 -0.0069153871135255642 0 0.0075200052918286556 -0.0069102045844468742 0 0.0048275319085706791 -0.0056967591475442841 0 0.0056720033517019862 -0.006785039210437261 0 0.0038381089561702552 -0.0067537662018324583 0 0.0056720033517019862 -0.006785039210437261 0 0.006815580646356522 -0.0077181660643315768 0 0.0037724083530705187 -0.0082303745895683685 0 0.0056720033517019862 -0.006785039210437261 0 0.006815580646356522 -0.0077181660643315768 0 0.0083280884183000049 -0.0066291667912205168 0 0.0094190338605130951 -0.00680417034362876 0 0.008718573669523751 -0.0069153871135255642 0 0.01063298502460781 -0.0068871518075276318 0 0.010420067294590083 -0.0069103849946467229 0 0.010887101986703786 -0.0070733687720969055 0 0.01030783579379034 -0.006796684999558429 0 0.006815580646356522 -0.0077181660643315768 0 0.0083280884183000049 -0.0066291667912205168 0 0.01063298502460781 -0.0068871518075276318 0 0.011023932308379966 -0.0067798810070706112 0 0.010831094798232974 -0.0067727732388097152 0 0.01063298502460781 -0.0068871518075276318 0 0.010887101986703786 -0.0070733687720969055 0 0.011023932308379966 -0.0067798810070706112 0 0.010887101986703786 -0.0070733687720969055 0 0.011023932308379966 -0.0067798810070706112 0 0.011351872152208477 -0.0069586391891971319 0 0.011023932308379966 -0.0067798810070706112 0 0.011351872152208477 -0.0069586391891971319 0 0.011315558665927379 -0.006658472464541744 0 0.0075200052918286556 -0.0069102045844468742 0 0.0063964657393340597 -0.0064936774223343765 0 0.011351872152208477 -0.0069586391891971319 0 0.011583350741319639 -0.0066232532739350413 0 0.011667006837901435 -0.0068302927881847527 0 0.0037724083530705187 -0.0082303745895683685 0 0.0015535593584567204 -0.0066017594825807917 0 0.0010909626146860555 -0.0087325349477405077 0 0.0032709423162444046 -0.005594257612779349 0 0.0015535593584567204 -0.0066017594825807917 0 0.0038381089561702552 -0.0067537662018324583 0 0.0037724083530705187 -0.0082303745895683685 0 0.0015535593584567204 -0.0066017594825807917 0 0.0038381089561702552 -0.0067537662018324583 0 0.0056720033517019862 -0.006785039210437261 0 0.0037724083530705187 -0.0082303745895683685 0 0.0038381089561702552 -0.0067537662018324583 0 0.011469532808662451 -0.0064928892578252706 0 0.011353827094602866 -0.0064245937807857131 0 0.011315558665927379 -0.006658472464541744 0 0.011469532808662451 -0.0064928892578252706 0 0.011353827094602866 -0.0064245937807857131 0 0.011482991740782461 -0.0063348952150278897 0 0.011469532808662451 -0.0064928892578252706 0 0.011600607795407017 -0.006416922268824476 0 0.011583350741319639 -0.0066232532739350413 0 0.011469532808662451 -0.0064928892578252706 0 0.011600607795407017 -0.006416922268824476 0 0.011482991740782461 -0.0063348952150278897 0 0.011600607795407017 -0.006416922268824476 0 0.011583350741319639 -0.0066232532739350413 0 0.011735421695004687 -0.0064663580319441619 0 0.011351872152208477 -0.0069586391891971319 0 0.011583350741319639 -0.0066232532739350413 0 0.011315558665927379 -0.006658472464541744 0 0.011469532808662451 -0.0064928892578252706 0 0.011583350741319639 -0.0066232532739350413 0 0.011315558665927379 -0.006658472464541744 0 0.011023932308379966 -0.0067798810070706112 0 0.011009000065129792 -0.0066223151121160189 0 0.011175438496624513 -0.0065524821866459583 0 0.011023932308379966 -0.0067798810070706112 0 0.011315558665927379 -0.006658472464541744 0 0.011175438496624513 -0.0065524821866459583 0 0.011023932308379966 -0.0067798810070706112 0 0.010831094798232974 -0.0067727732388097152 0 0.011009000065129792 -0.0066223151121160189 0 0.010831094798232974 -0.0067727732388097152 0 0.011009000065129792 -0.0066223151121160189 0 0.010899049622439346 -0.0065469124579483973 0 0.011009000065129792 -0.0066223151121160189 0 0.010899049622439346 -0.0065469124579483973 0 0.011094636276252959 -0.0064574618240376283 0 0.011009000065129792 -0.0066223151121160189 0 0.011094636276252959 -0.0064574618240376283 0 0.011175438496624513 -0.0065524821866459583 0 0.011094636276252959 -0.0064574618240376283 0 0.011257897137229916 -0.0063646119369214892 0 0.011186370125181515 -0.0063106400723974962 0 0.010899049622439346 -0.0065469124579483973 0 0.011094636276252959 -0.0064574618240376283 0 0.01099820891620778 -0.0063358886177379446 0 0.011353827094602866 -0.0064245937807857131 0 0.011315558665927379 -0.006658472464541744 0 0.011175438496624513 -0.0065524821866459583 0 0.011094636276252959 -0.0064574618240376283 0 0.011175438496624513 -0.0065524821866459583 0 0.011257897137229916 -0.0063646119369214892 0 0.011353827094602866 -0.0064245937807857131 0 0.011175438496624513 -0.0065524821866459583 0 0.011257897137229916 -0.0063646119369214892 0 0.011353827094602866 -0.0064245937807857131 0 0.011257897137229916 -0.0063646119369214892 0 0.011385339591373483 -0.0062675326759771026 0 0.011257897137229916 -0.0063646119369214892 0 0.011385339591373483 -0.0062675326759771026 0 0.011329641325658715 -0.0062209478716400875 0 0.011257897137229916 -0.0063646119369214892 0 0.011329641325658715 -0.0062209478716400875 0 0.011186370125181515 -0.0063106400723974962 0 0.011385339591373483 -0.0062675326759771026 0 0.011329641325658715 -0.0062209478716400875 0 0.01139255528624972 -0.0061648079981957409 0 0.01099820891620778 -0.0063358886177379446 0 0.011236338267575969 -0.0062334869187584433 0 0.010937100580704236 -0.0061795474096352204 0 0.01099820891620778 -0.0063358886177379446 0 0.011186370125181515 -0.0063106400723974962 0 0.011236338267575969 -0.0062334869187584433 0 0.011094636276252959 -0.0064574618240376283 0 0.01099820891620778 -0.0063358886177379446 0 0.011186370125181515 -0.0063106400723974962 0 0.011329641325658715 -0.0062209478716400875 0 0.011186370125181515 -0.0063106400723974962 0 0.011236338267575969 -0.0062334869187584433 0 0.011890529559511732 -0.0043613832088085381 0 0.011403095910404082 -0.0049623213558810317 0 0.011236338267575969 -0.0062334869187584433 0 0.011605423167822553 -0.0060963609976472004 0 0.010937100580704236 -0.0061795474096352204 0 0.011605423167822553 -0.0060963609976472004 0 0.011550204822405619 -0.0052654118004158363 0 0.010937100580704236 -0.0061795474096352204 0 0.011329641325658715 -0.0062209478716400875 0 0.011236338267575969 -0.0062334869187584433 0 0.011605423167822553 -0.0060963609976472004 0 0.012544270373486629 -0.0064536271979695079 0 0.01437233975400516 -0.0062099056037375894 0 0.013272336204675609 -0.0050646868246768352 0 0.011329641325658715 -0.0062209478716400875 0 0.011605423167822553 -0.0060963609976472004 0 0.01139255528624972 -0.0061648079981957409 0 0.012791949028122085 -0.0042193804954273172 0 0.012880294655991152 -0.0041707598024268346 0 0.011605423167822553 -0.0060963609976472004 0 0.012544270373486629 -0.0064536271979695079 0 0.012404825187378324 -0.0055620694577428543 0 0.011385339591373483 -0.0062675326759771026 0 0.01139255528624972 -0.0061648079981957409 0 0.011490502089191418 -0.0061958108577922603 0 0.012880294655991152 -0.0041707598024268346 0 0.013872992016450366 -0.0039452615640864349 0 0.012880294655991152 -0.0041707598024268346 0 0.012843684215478988 -0.0040396108891394174 0 0.013056735159660167 -0.0031817574148244742 0 0.013580362102793521 -0.0030925179427345405 0 0.013665717004874366 -0.0033262575772854295 0 0.011385339591373483 -0.0062675326759771026 0 0.011490502089191418 -0.0061958108577922603 0 0.011482991740782461 -0.0063348952150278897 0 0.011353827094602866 -0.0064245937807857131 0 0.011385339591373483 -0.0062675326759771026 0 0.011482991740782461 -0.0063348952150278897 0 0.011490502089191418 -0.0061958108577922603 0 0.011619933167423005 -0.006265761813578608 0 0.011758405141753697 -0.0062233547679202243 0 0.012843684215478988 -0.0040396108891394174 0 0.013133275579172252 -0.0035206671476882409 0 0.011600607795407017 -0.006416922268824476 0 0.011619933167423005 -0.006265761813578608 0 0.011716672678016859 -0.0063515636177381004 0 0.011600607795407017 -0.006416922268824476 0 0.011482991740782461 -0.0063348952150278897 0 0.011619933167423005 -0.006265761813578608 0 0.011490502089191418 -0.0061958108577922603 0 0.011482991740782461 -0.0063348952150278897 0 0.011619933167423005 -0.006265761813578608 0 0.013665717004874366 -0.0033262575772854295 0 0.014103666793312828 -0.0030049291457796196 0 0.014272947258090156 -0.0034708926147360665 0 0.013580362102793521 -0.0030925179427345405 0 0.013665717004874366 -0.0033262575772854295 0 0.014103666793312828 -0.0030049291457796196 0 0.013872992016450366 -0.0039452615640864349 0 0.014873849691135669 -0.0034215491012124597 0 0.01437233975400516 -0.0062099056037375894 0 0.014676943069352046 -0.0047260040375217988 0 0.015874359568713171 -0.0059749335987964699 0 0.014676943069352046 -0.0047260040375217988 0 0.015874359568713171 -0.0059749335987964699 0 0.01618471051248116 -0.0048611741020902618 0 0.01437233975400516 -0.0062099056037375894 0 0.014676943069352046 -0.0047260040375217988 0 0.013272336204675609 -0.0050646868246768352 0 0.014676943069352046 -0.0047260040375217988 0 0.012943158184870176 -0.0036453552017852945 0 0.013272336204675609 -0.0050646868246768352 0 0.014676943069352046 -0.0047260040375217988 0 0.014390457033790481 -0.0032769008412948486 0 0.012943158184870176 -0.0036453552017852945 0 0.014676943069352046 -0.0047260040375217988 0 0.015569409930057931 -0.0038625165370120241 0 0.014390457033790481 -0.0032769008412948486 0 0.014676943069352046 -0.0047260040375217988 0 0.015569409930057931 -0.0038625165370120241 0 0.01618471051248116 -0.0048611741020902618 0 0.015569409930057931 -0.0038625165370120241 0 0.014390457033790481 -0.0032769008412948486 0 0.01546204207141233 -0.0026984295751911751 0 0.014390457033790481 -0.0032769008412948486 0 0.013260678724174461 -0.0028915352434731845 0 0.014555622535373975 -0.0022326974562567239 0 0.014390457033790481 -0.0032769008412948486 0 0.01546204207141233 -0.0026984295751911751 0 0.014555622535373975 -0.0022326974562567239 0 0.01546204207141233 -0.0026984295751911751 0 0.015489397845182877 -0.0018850906044752822 0 0.014555622535373975 -0.0022326974562567239 0 0.012523311444500872 -0.0026275328807428074 0 0.013260678724174461 -0.0028915352434731845 0 0.013486040381135468 -0.0019058099291914443 0 0.013260678724174461 -0.0028915352434731845 0 0.013486040381135468 -0.0019058099291914443 0 0.014555622535373975 -0.0022326974562567239 0 0.014390457033790481 -0.0032769008412948486 0 0.013260678724174461 -0.0028915352434731845 0 0.012943158184870176 -0.0036453552017852945 0 0.012523311444500872 -0.0026275328807428074 0 0.013260678724174461 -0.0028915352434731845 0 0.012238049569330322 -0.003422855170645204 0 0.013260678724174461 -0.0028915352434731845 0 0.012943158184870176 -0.0036453552017852945 0 0.012238049569330322 -0.003422855170645204 0 0.012192104372293585 -0.0039970418940283355 0 0.011890529559511732 -0.0043613832088085381 0 0.012943158184870176 -0.0036453552017852945 0 0.012219139419041672 -0.0035654496826715387 0 0.012238049569330322 -0.003422855170645204 0 0.012943158184870176 -0.0036453552017852945 0 0.013272336204675609 -0.0050646868246768352 0 0.011550204822405619 -0.0052654118004158363 0 0.013272336204675609 -0.0050646868246768352 0 0.012404825187378324 -0.0055620694577428543 0 0.011550204822405619 -0.0052654118004158363 0 0.012544270373486629 -0.0064536271979695079 0 0.013272336204675609 -0.0050646868246768352 0 0.012404825187378324 -0.0055620694577428543 0 0.011605423167822553 -0.0060963609976472004 0 0.012404825187378324 -0.0055620694577428543 0 0.011550204822405619 -0.0052654118004158363 0 0.0118074040765736 -0.0034401388258386641 0 0.01183892237476673 -0.0034421397581852037 0 0.011123949415450585 -0.0033470214610688662 0 0.012219139419041672 -0.0035654496826715387 0 0.0118074040765736 -0.0034401388258386641 0 0.012238049569330322 -0.003422855170645204 0 0.010995942414963534 -0.00079010755373781685 0 0.0095639316156483165 -0.0026275822568537035 0 0.011123949415450585 -0.0033470214610688662 0 0.011528783251082468 -0.0022579654445628716 0 0.011446022709593733 -0.0028452643468547399 0 0.011528783251082468 -0.0022579654445628716 0 0.011731233900477473 -0.0015038672080884285 0 0.01183892237476673 -0.0034421397581852037 0 0.012238049569330322 -0.003422855170645204 0 0.011815997263224489 -0.0029696361162787586 0 0.0118074040765736 -0.0034401388258386641 0 0.01183892237476673 -0.0034421397581852037 0 0.012238049569330322 -0.003422855170645204 0 0.012523311444500872 -0.0026275328807428074 0 0.012238049569330322 -0.003422855170645204 0 0.011815997263224489 -0.0029696361162787586 0 0.010834494673203417 0.00043747429191517436 0 0.010795418191736376 0.00038720648055193399 0 0.009900568903079306 0.00030482430074531562 0 0.010995942414963534 -0.00079010755373781685 0 0.010834494673203417 0.00043747429191517436 0 0.009900568903079306 0.00030482430074531562 0 0.010834494673203417 0.00043747429191517436 0 0.010795418191736376 0.00038720648055193399 0 0.011075424763474447 -6.1132860158590009e-05 0 0.011731233900477473 -0.0015038672080884285 0 0.012179472987593809 -0.0013290688163824574 0 0.010834494673203417 0.00043747429191517436 0 0.011075424763474447 -6.1132860158590009e-05 0 0.010996476814282985 -0.0001074144102304228 0 0.011815997263224489 -0.0029696361162787586 0 0.012135526528927191 -0.0023891238023894543 0 0.011755731744641977 -0.0018984997560343333 0 0.012523311444500872 -0.0026275328807428074 0 0.011815997263224489 -0.0029696361162787586 0 0.012135526528927191 -0.0023891238023894543 0 0.012523311444500872 -0.0026275328807428074 0 0.012135526528927191 -0.0023891238023894543 0 0.012462684086487685 -0.0020147467001015917 0 0.0093663734206274087 0.00068144819554867466 0 0.0080872847354410398 0.00068929362918135003 0 0.01039421906582638 0.00073105162228210142 0 0.0085793000714900688 0.00076413895981374534 0 0.0086107226792239838 0.0012094050496807992 0 0.01039421906582638 0.00073105162228210142 0 0.012126570374210315 0.00041732886365515516 0 0.0115638576105744 -0.00019093648995914352 0 0.01039421906582638 0.00073105162228210142 0 0.010795418191736376 0.00038720648055193399 0 0.01102839831961812 5.5870108617192931e-06 0 0.01039421906582638 0.00073105162228210142 0 0.010795418191736376 0.00038720648055193399 0 0.009900568903079306 0.00030482430074531562 0 0.009900568903079306 0.00030482430074531562 0 0.0085793000714900688 0.00076413895981374534 0 0.0080108895089693877 -0.00047439521237927146 0 0.01039421906582638 0.00073105162228210142 0 0.009900568903079306 0.00030482430074531562 0 0.0085793000714900688 0.00076413895981374534 0 0.009900568903079306 0.00030482430074531562 0 0.0080108895089693877 -0.00047439521237927146 0 0.0090095831913044287 -0.0012832494820877647 0 0.010995942414963534 -0.00079010755373781685 0 0.009900568903079306 0.00030482430074531562 0 0.0090095831913044287 -0.0012832494820877647 0 0.010995942414963534 -0.00079010755373781685 0 0.0090095831913044287 -0.0012832494820877647 0 0.0095639316156483165 -0.0026275822568537035 0 0.0080108895089693877 -0.00047439521237927146 0 0.0090095831913044287 -0.0012832494820877647 0 0.0070544698705545415 -0.0016638353452676999 0 0.0090095831913044287 -0.0012832494820877647 0 0.0079607289850096435 -0.0027235991911702512 0 0.0070544698705545415 -0.0016638353452676999 0 0.0079607289850096435 -0.0027235991911702512 0 0.0070542659343777467 -0.0039381449822999022 0 0.0063224800739241785 -0.0028503696876996261 0 0.0079607289850096435 -0.0027235991911702512 0 0.0063224800739241785 -0.0028503696876996261 0 0.0070544698705545415 -0.0016638353452676999 0 0.0079607289850096435 -0.0027235991911702512 0 0.0070542659343777467 -0.0039381449822999022 0 0.008724906019772832 -0.0039352584463906905 0 0.0070542659343777467 -0.0039381449822999022 0 0.008724906019772832 -0.0039352584463906905 0 0.0080888798676686611 -0.0052468439502682228 0 0.008724906019772832 -0.0039352584463906905 0 0.0095639316156483165 -0.0026275822568537035 0 0.01011308760697213 -0.0041577572070815513 0 0.008724906019772832 -0.0039352584463906905 0 0.01011308760697213 -0.0041577572070815513 0 0.0094347095952403218 -0.0052316331951767804 0 0.0079607289850096435 -0.0027235991911702512 0 0.008724906019772832 -0.0039352584463906905 0 0.0095639316156483165 -0.0026275822568537035 0 0.0090095831913044287 -0.0012832494820877647 0 0.0079607289850096435 -0.0027235991911702512 0 0.0095639316156483165 -0.0026275822568537035 0 0.0095639316156483165 -0.0026275822568537035 0 0.011123949415450585 -0.0033470214610688662 0 0.01011308760697213 -0.0041577572070815513 0 0.0118074040765736 -0.0034401388258386641 0 0.011123949415450585 -0.0033470214610688662 0 0.011844260818679727 -0.0035805805293623481 0 0.012219139419041672 -0.0035654496826715387 0 0.0118074040765736 -0.0034401388258386641 0 0.011844260818679727 -0.0035805805293623481 0 0.011123949415450585 -0.0033470214610688662 0 0.011844260818679727 -0.0035805805293623481 0 0.011112949454816041 -0.0048383540232412635 0 0.01099820891620778 -0.0063358886177379446 0 0.010937100580704236 -0.0061795474096352204 0 0.010614150513294155 -0.0063041274691580185 0 0.011403095910404082 -0.0049623213558810317 0 0.010889195430463934 -0.0056432082015137053 0 0.011123949415450585 -0.0033470214610688662 0 0.01011308760697213 -0.0041577572070815513 0 0.011112949454816041 -0.0048383540232412635 0 0.01011308760697213 -0.0041577572070815513 0 0.011112949454816041 -0.0048383540232412635 0 0.0094347095952403218 -0.0052316331951767804 0 0.010889195430463934 -0.0056432082015137053 0 0.010566055242213981 -0.0060898340101422964 0 0.010614150513294155 -0.0063041274691580185 0 0.010624697398432142 -0.0065872924400682568 0 0.0099028376214554074 -0.0066418753203076426 0 0.011112949454816041 -0.0048383540232412635 0 0.0099028376214554074 -0.0066418753203076426 0 0.0094347095952403218 -0.0052316331951767804 0 0.010899049622439346 -0.0065469124579483973 0 0.01099820891620778 -0.0063358886177379446 0 0.010614150513294155 -0.0063041274691580185 0 0.010899049622439346 -0.0065469124579483973 0 0.010614150513294155 -0.0063041274691580185 0 0.010624697398432142 -0.0065872924400682568 0 0.010899049622439346 -0.0065469124579483973 0 0.010775412722578941 -0.0067303632097793047 0 0.010624697398432142 -0.0065872924400682568 0 0.010831094798232974 -0.0067727732388097152 0 0.010899049622439346 -0.0065469124579483973 0 0.010775412722578941 -0.0067303632097793047 0 0.010775412722578941 -0.0067303632097793047 0 0.010624697398432142 -0.0065872924400682568 0 0.010682929783529225 -0.0069311955954477122 0 0.010692553628787342 -0.0068809832538697744 0 0.010775412722578941 -0.0067303632097793047 0 0.010682929783529225 -0.0069311955954477122 0 0.010692553628787342 -0.0068809832538697744 0 0.010831094798232974 -0.0067727732388097152 0 0.010775412722578941 -0.0067303632097793047 0 0.010624697398432142 -0.0065872924400682568 0 0.010682929783529225 -0.0069311955954477122 0 0.0099028376214554074 -0.0066418753203076426 0 0.010667248526942058 -0.0077068412503905103 0 0.010682929783529225 -0.0069311955954477122 0 0.0099028376214554074 -0.0066418753203076426 0 0.0069205479420105286 -0.0074529302141204349 0 0.0092701194941093388 -0.0077111342626683373 0 0.0085738234266878443 -0.0065340388643308385 0 0.0099028376214554074 -0.0066418753203076426 0 0.0085738234266878443 -0.0065340388643308385 0 0.0094347095952403218 -0.0052316331951767804 0 0.0092701194941093388 -0.0077111342626683373 0 0.0099028376214554074 -0.0066418753203076426 0 0.0085738234266878443 -0.0065340388643308385 0 0.0069205479420105286 -0.0074529302141204349 0 0.0085738234266878443 -0.0065340388643308385 0 0.007173308659890942 -0.0060377670953039543 0 0.0069205479420105286 -0.0074529302141204349 0 0.007173308659890942 -0.0060377670953039543 0 0.0057023415608707098 -0.0059291424559753366 0 0.007173308659890942 -0.0060377670953039543 0 0.0080888798676686611 -0.0052468439502682228 0 0.0062615022836149739 -0.0050672050621935888 0 0.0085738234266878443 -0.0065340388643308385 0 0.007173308659890942 -0.0060377670953039543 0 0.0080888798676686611 -0.0052468439502682228 0 0.0070542659343777467 -0.0039381449822999022 0 0.0080888798676686611 -0.0052468439502682228 0 0.0062615022836149739 -0.0050672050621935888 0 0.008724906019772832 -0.0039352584463906905 0 0.0080888798676686611 -0.0052468439502682228 0 0.0094347095952403218 -0.0052316331951767804 0 0.0085738234266878443 -0.0065340388643308385 0 0.0080888798676686611 -0.0052468439502682228 0 0.0094347095952403218 -0.0052316331951767804 0 0.0044333892393815088 -0.0053869928329156064 0 0.0030624894911032621 -0.0060360376157753016 0 0.0032522914694179425 -0.0045532581517503451 0 0.0044333892393815088 -0.0053869928329156064 0 0.0062615022836149739 -0.0050672050621935888 0 0.0057023415608707098 -0.0059291424559753366 0 0.0044333892393815088 -0.0053869928329156064 0 0.0062615022836149739 -0.0050672050621935888 0 0.0050070248244706208 -0.0038449458563517892 0 0.007173308659890942 -0.0060377670953039543 0 0.0062615022836149739 -0.0050672050621935888 0 0.0057023415608707098 -0.0059291424559753366 0 0.0069205479420105286 -0.0074529302141204349 0 0.0057023415608707098 -0.0059291424559753366 0 0.0041195771021700616 -0.0061150340454441008 0 0.0044333892393815088 -0.0053869928329156064 0 0.0057023415608707098 -0.0059291424559753366 0 0.0041195771021700616 -0.0061150340454441008 0 0.0062646970718970773 -0.0066022566309253943 0 0.0056226773072665772 -0.0064793217633558591 0 0.0044333892393815088 -0.0053869928329156064 0 0.0041195771021700616 -0.0061150340454441008 0 0.0030624894911032621 -0.0060360376157753016 0 0.0023634145517097975 -0.0048919662196167633 0 0.0013467539342450895 -0.0040000946707582077 0 0.0038748502081538618 -0.0059928366841545252 0 0.0041195771021700616 -0.0061150340454441008 0 0.0030624894911032621 -0.0060360376157753016 0 0.0011635314447227066 -0.0046332972967191768 0 0.000599989457299496 -0.001985474569401484 0 -0.00078952735042315896 -0.0039294235414515655 0 0.0011635314447227066 -0.0046332972967191768 0 0.0038748502081538618 -0.0059928366841545252 0 0.000599989457299496 -0.001985474569401484 0 0.000599989457299496 -0.001985474569401484 0 -0.0019838931366521779 -0.0020252103952952015 0 -0.00078952735042315896 -0.0039294235414515655 0 -0.0019838931366521779 -0.0020252103952952015 0 -0.00078952735042315896 -0.0039294235414515655 0 -0.0028635067770196101 -0.0035133641944135145 0 0.0013467539342450895 -0.0040000946707582077 0 -0.0004104072123629805 -0.0025520099141594734 0 0.000599989457299496 -0.001985474569401484 0 -0.0019838931366521779 -0.0020252103952952015 0 -0.0024474501923388791 -0.00042763283403396998 0 0.0030624894911032621 -0.0060360376157753016 0 0.0032522914694179425 -0.0045532581517503451 0 0.00046266584584810045 -0.004418934757512997 0 0.0032522914694179425 -0.0045532581517503451 0 0.00046266584584810045 -0.004418934757512997 0 0.0028031318584536714 -0.0027319031438439484 0 0.00046266584584810045 -0.004418934757512997 0 0.00067641226602431503 -0.0015057592816459971 0 0.0028031318584536714 -0.0027319031438439484 0 0.00067641226602431503 -0.0015057592816459971 0 0.0028031318584536714 -0.0027319031438439484 0 0.0027603587483246974 -0.00059766733937713053 0 0.0028031318584536714 -0.0027319031438439484 0 0.0048235473515020229 -0.0020314297463770925 0 0.0050070248244706208 -0.0038449458563517892 0 0.0032522914694179425 -0.0045532581517503451 0 0.0028031318584536714 -0.0027319031438439484 0 0.0050070248244706208 -0.0038449458563517892 0 0.0044333892393815088 -0.0053869928329156064 0 0.0032522914694179425 -0.0045532581517503451 0 0.0050070248244706208 -0.0038449458563517892 0 0.0070542659343777467 -0.0039381449822999022 0 0.0062615022836149739 -0.0050672050621935888 0 0.0050070248244706208 -0.0038449458563517892 0 0.0070542659343777467 -0.0039381449822999022 0 0.0050070248244706208 -0.0038449458563517892 0 0.0063224800739241785 -0.0028503696876996261 0 0.0048235473515020229 -0.0020314297463770925 0 0.0050070248244706208 -0.0038449458563517892 0 0.0063224800739241785 -0.0028503696876996261 0 0.0048235473515020229 -0.0020314297463770925 0 0.0063224800739241785 -0.0028503696876996261 0 0.0070544698705545415 -0.0016638353452676999 0 0.0080108895089693877 -0.00047439521237927146 0 0.0070544698705545415 -0.0016638353452676999 0 0.0058631479303930213 -0.00051132857984953429 0 0.0048235473515020229 -0.0020314297463770925 0 0.0070544698705545415 -0.0016638353452676999 0 0.0058631479303930213 -0.00051132857984953429 0 0.0048235473515020229 -0.0020314297463770925 0 0.0058631479303930213 -0.00051132857984953429 0 0.0027603587483246974 -0.00059766733937713053 0 0.0058631479303930213 -0.00051132857984953429 0 0.0043195667129414103 0.0013379133308977279 0 0.0027603587483246974 -0.00059766733937713053 0 0.0085793000714900688 0.00076413895981374534 0 0.0080108895089693877 -0.00047439521237927146 0 0.0058631479303930213 -0.00051132857984953429 0 0.0085793000714900688 0.00076413895981374534 0 0.0058631479303930213 -0.00051132857984953429 0 0.0043195667129414103 0.0013379133308977279 0 0.0085793000714900688 0.00076413895981374534 0 0.0043195667129414103 0.0013379133308977279 0 0.006212656732931341 0.0039299766253952668 0 0.0043195667129414103 0.0013379133308977279 0 0.006212656732931341 0.0039299766253952668 0 0.0027168115338146938 0.0036527422696168797 0 0.0080872847354410398 0.00068929362918135003 0 0.0049963991852130015 0.00099254802891764302 0 0.0080371873805189613 0.00092497662812626453 0 0.0080872847354410398 0.00068929362918135003 0 3.29771845597608e-06 0.0028821944137281583 0 0.0027168115338146938 0.0036527422696168797 0 0.00080569701282698456 0.0012845634144507713 0 0.0027310013251628695 0.00095271229150336299 0 0.0049963991852130015 0.00099254802891764302 0 0.0043195667129414103 0.0013379133308977279 0 0.0027168115338146938 0.0036527422696168797 0 0.00080569701282698456 0.0012845634144507713 0 0.00080569701282698456 0.0012845634144507713 0 0.0027603587483246974 -0.00059766733937713053 0 2.9245391882969314e-05 -0.00017375308264696156 0 0.0043195667129414103 0.0013379133308977279 0 0.00080569701282698456 0.0012845634144507713 0 0.0027603587483246974 -0.00059766733937713053 0 0.0028031318584536714 -0.0027319031438439484 0 0.0048235473515020229 -0.0020314297463770925 0 0.0027603587483246974 -0.00059766733937713053 0 0.00067641226602431503 -0.0015057592816459971 0 0.0027603587483246974 -0.00059766733937713053 0 2.9245391882969314e-05 -0.00017375308264696156 0 0.00067641226602431503 -0.0015057592816459971 0 2.9245391882969314e-05 -0.00017375308264696156 0 -0.0026849821212873884 -0.00086056415713483961 0 -0.0014085561050479567 0.00048610786825569016 0 -0.0031370726717205879 0.00011492143325592894 0 -0.0026849821212873884 -0.00086056415713483961 0 2.9245391882969314e-05 -0.00017375308264696156 0 -0.0014085561050479567 0.00048610786825569016 0 -0.0026849821212873884 -0.00086056415713483961 0 -0.0014085561050479567 0.00048610786825569016 0 -0.0020107473755787068 0.0006803049850477509 0 -0.0031370726717205879 0.00011492143325592894 0 0.00080569701282698456 0.0012845634144507713 0 2.9245391882969314e-05 -0.00017375308264696156 0 -0.0014085561050479567 0.00048610786825569016 0 3.29771845597608e-06 0.0028821944137281583 0 0.00080569701282698456 0.0012845634144507713 0 -0.0012858543791171744 0.0013179115065972879 0 0.00080569701282698456 0.0012845634144507713 0 -0.0014085561050479567 0.00048610786825569016 0 -0.0012858543791171744 0.0013179115065972879 0 -0.0014085561050479567 0.00048610786825569016 0 -0.0012858543791171744 0.0013179115065972879 0 -0.0020107473755787068 0.0006803049850477509 0 -0.0012858543791171744 0.0013179115065972879 0 -0.0015313598960726093 0.00098859976190297165 0 -0.0020107473755787068 0.0006803049850477509 0 -0.0012858543791171744 0.0013179115065972879 0 -0.0016083986493099583 0.0014252783141687642 0 -0.0015313598960726093 0.00098859976190297165 0 3.29771845597608e-06 0.0028821944137281583 0 -0.0012858543791171744 0.0013179115065972879 0 -0.0016083986493099583 0.0014252783141687642 0 0.0027310013251628695 0.00095271229150336299 0 0.0011904621432465695 0.00076276280142808291 0 -0.00063241672323850978 4.7100643183414148e-07 0 -0.00029315755786214537 5.7812784335292754e-05 0 -0.0013645031587917595 0.00043619649183433777 0 -0.00029315755786214537 5.7812784335292754e-05 0 -0.0015313598960726093 0.00098859976190297165 0 -0.0013645031587917595 0.00043619649183433777 0 -0.0016083986493099583 0.0014252783141687642 0 -0.00029315755786214537 5.7812784335292754e-05 0 -0.0015313598960726093 0.00098859976190297165 0 0.0011904621432465695 0.00076276280142808291 0 0.00066027024394758698 0.000653622173330307 0 0.002070307815332463 -0.00033969083712193988 0 -0.00029315755786214537 5.7812784335292754e-05 0 0.00091396341873020541 0.00026281167353089068 0 -0.0015313598960726093 0.00098859976190297165 0 -0.0020107473755787068 0.0006803049850477509 0 -0.0013645031587917595 0.00043619649183433777 0 -0.0020107473755787068 0.0006803049850477509 0 -0.0013645031587917595 0.00043619649183433777 0 -0.0026697404504605568 9.3574152760031466e-07 0 -0.00063241672323850978 4.7100643183414148e-07 0 -0.0013645031587917595 0.00043619649183433777 0 -0.0026697404504605568 9.3574152760031466e-07 0 -0.0020107473755787068 0.0006803049850477509 0 -0.0026697404504605568 9.3574152760031466e-07 0 -0.0031370726717205879 0.00011492143325592894 0 -0.0026697404504605568 9.3574152760031466e-07 0 -0.0031370726717205879 0.00011492143325592894 0 -0.0047059638363893775 -2.2392373106474981e-07 0 -0.0031370726717205879 0.00011492143325592894 0 -0.0047059638363893775 -2.2392373106474981e-07 0 -0.0043454445730478622 -0.00024192877900905207 0 -0.0047059638363893775 -2.2392373106474981e-07 0 -0.0043454445730478622 -0.00024192877900905207 0 -0.0067431394700108024 -5.531721086494155e-07 0 -0.0043454445730478622 -0.00024192877900905207 0 -0.0067431394700108024 -5.531721086494155e-07 0 -0.0050727294906572793 -0.00050300294930974269 0 -0.0031370726717205879 0.00011492143325592894 0 -0.0043454445730478622 -0.00024192877900905207 0 -0.0026849821212873884 -0.00086056415713483961 0 -0.0026849821212873884 -0.00086056415713483961 0 -0.0041035205944334489 -0.00096436805138943346 0 -0.0050727294906572793 -0.00050300294930974269 0 -0.0024474501923388791 -0.00042763283403396998 0 -0.0026849821212873884 -0.00086056415713483961 0 -0.0041035205944334489 -0.00096436805138943346 0 0.00046266584584810045 -0.004418934757512997 0 0.00067641226602431503 -0.0015057592816459971 0 -0.0026849821212873884 -0.00086056415713483961 0 -0.0004104072123629805 -0.0025520099141594734 0 -0.0013685453066955566 -0.0017253052285609886 0 -0.0043454445730478622 -0.00024192877900905207 0 -0.0026849821212873884 -0.00086056415713483961 0 -0.0050727294906572793 -0.00050300294930974269 0 -0.0041035205944334489 -0.00096436805138943346 0 -0.0065676908140292261 -0.0015607515805755642 0 -0.0050727294906572793 -0.00050300294930974269 0 -0.0019838931366521779 -0.0020252103952952015 0 -0.0024474501923388791 -0.00042763283403396998 0 -0.0041035205944334489 -0.00096436805138943346 0 -0.0050529404623480649 -0.0030306715294489738 0 -0.0041035205944334489 -0.00096436805138943346 0 -0.0028635067770196101 -0.0035133641944135145 0 -0.0019838931366521779 -0.0020252103952952015 0 -0.0041035205944334489 -0.00096436805138943346 0 -0.0028635067770196101 -0.0035133641944135145 0 -0.0050529404623480649 -0.0030306715294489738 0 -0.0041035205944334489 -0.00096436805138943346 0 -0.0065676908140292261 -0.0015607515805755642 0 -0.0075682797398208632 -0.00074069988100665418 0 -0.0065676908140292261 -0.0015607515805755642 0 -0.0072285817402034458 -0.00062838648757983435 0 -0.0065676908140292261 -0.0015607515805755642 0 -0.0072285817402034458 -0.00062838648757983435 0 -0.0050727294906572793 -0.00050300294930974269 0 -0.0087792778776812162 -9.5222710317740906e-07 0 -0.0072285817402034458 -0.00062838648757983435 0 -0.0067431394700108024 -5.531721086494155e-07 0 -0.0087792778776812162 -9.5222710317740906e-07 0 -0.0082495114459018807 -0.00037823796010213665 0 -0.0072285817402034458 -0.00062838648757983435 0 -0.0072285817402034458 -0.00062838648757983435 0 -0.0067431394700108024 -5.531721086494155e-07 0 -0.0050727294906572793 -0.00050300294930974269 0 0.013261176466874114 0.0048023157512530551 0 0.013182354100341194 0.004814863623259706 0 0.013270316577435869 0.0048517811887096828 0 0.013182354100341194 0.004814863623259706 0 0.013270316577435869 0.0048517811887096828 0 0.013147456683815952 0.0048688562969797693 0 0.013270316577435869 0.0048517811887096828 0 0.013147456683815952 0.0048688562969797693 0 0.013241471140080436 0.0049408672661715065 0 0.013270316577435869 0.0048517811887096828 0 0.01333628621027331 0.0048147080638695 0 0.01338550509307321 0.0048932046169784596 0 0.01333628621027331 0.0048147080638695 0 0.01338550509307321 0.0048932046169784596 0 0.0134215435644443 0.0048226392529204703 0 0.01333628621027331 0.0048147080638695 0 0.013377742536428048 0.0047627238112091415 0 0.0134215435644443 0.0048226392529204703 0 0.013302089229081351 0.004781679225066838 0 0.01333628621027331 0.0048147080638695 0 0.013377742536428048 0.0047627238112091415 0 0.013261176466874114 0.0048023157512530551 0 0.013302089229081351 0.004781679225066838 0 0.01333628621027331 0.0048147080638695 0 0.013261176466874114 0.0048023157512530551 0 0.013270316577435869 0.0048517811887096828 0 0.01333628621027331 0.0048147080638695 0 0.013377742536428048 0.0047627238112091415 0 0.013231372273833943 0.0047481581873440983 0 0.013455656371305035 0.0047373347132236348 0 -0.0075410552968243434 0.0042687569202545465 0 -0.0074492524848932757 0.0042351426540800166 0 -0.007626454873427068 0.004239706024178334 0 0.0012615555880177559 0.0032598909511698114 0 0.0022397268129868641 0.0045802824642271998 0 0.013302089229081351 0.004781679225066838 0 0.013377742536428048 0.0047627238112091415 0 0.013231372273833943 0.0047481581873440983 0 -0.0075410552968243434 0.0042687569202545465 0 -0.0076011150658467442 0.0043005832934558163 0 -0.0075669489685001659 0.0043268745816359673 0 -0.0075410552968243434 0.0042687569202545465 0 -0.0075055929662783552 0.0043345221729291948 0 -0.0075669489685001659 0.0043268745816359673 0 -0.0075410552968243434 0.0042687569202545465 0 -0.007490284225392353 0.0042602117502975462 0 -0.0074492524848932757 0.0042351426540800166 0 -0.0075410552968243434 0.0042687569202545465 0 -0.007490284225392353 0.0042602117502975462 0 -0.0075055929662783552 0.0043345221729291948 0 -0.007490284225392353 0.0042602117502975462 0 -0.0074716042583643175 0.0042948489028891597 0 -0.0075055929662783552 0.0043345221729291948 0 -0.007490284225392353 0.0042602117502975462 0 -0.0074716042583643175 0.0042948489028891597 0 -0.007465682373251117 0.0042540084725190474 0 -0.0074550994234609622 0.0042417062612284647 0 -0.0074492524848932757 0.0042351426540800166 0 -0.0074766066340356766 0.0042109875579897319 0 -0.0074716042583643175 0.0042948489028891597 0 -0.0074550994234609622 0.0042417062612284647 0 -0.007465682373251117 0.0042540084725190474 0 -0.007490284225392353 0.0042602117502975462 0 -0.007465682373251117 0.0042540084725190474 0 -0.0074492524848932757 0.0042351426540800166 0 -0.0074550994234609622 0.0042417062612284647 0 -0.007465682373251117 0.0042540084725190474 0 -0.0074492524848932757 0.0042351426540800166 0 0.013261176466874114 0.0048023157512530551 0 0.013182354100341194 0.004814863623259706 0 0.013231372273833943 0.0047481581873440983 0 0.013261176466874114 0.0048023157512530551 0 0.013302089229081351 0.004781679225066838 0 0.013231372273833943 0.0047481581873440983 0 0.0012615555880177559 0.0032598909511698114 0 -0.0080328654146780611 0.00087023895904114214 0 0.013182354100341194 0.004814863623259706 0 0.013231372273833943 0.0047481581873440983 0 0.013021002677390288 0.0048222831203976555 0 -0.0080328654146780611 0.00087023895904114214 0 -0.014478477199894459 0.0028741644721183364 0 -0.0074550994234609622 0.0042417062612284647 0 -0.0074766066340356766 0.0042109875579897319 0 -0.0074761591486376226 0.0042288801916475233 0 -0.027142755219907066 0.00074353548617846427 0 -0.027393540660352919 0.00050485562359450862 0 -0.027583069248859327 0.00065109672194836024 0 -0.0080328654146780611 0.00087023895904114214 0 -0.016368707416644125 -0.00056944901402745105 0 -0.0080328654146780611 0.00087023895904114214 0 -0.0015922533088678352 -0.0010581775846769648 0 0.013021002677390288 0.0048222831203976555 0 0.013049897771199144 0.0049381153343192137 0 0.013038361841946714 0.0049578520272916685 0 0.013021002677390288 0.0048222831203976555 0 0.013147456683815952 0.0048688562969797693 0 0.013049897771199144 0.0049381153343192137 0 0.013182354100341194 0.004814863623259706 0 0.013021002677390288 0.0048222831203976555 0 0.013147456683815952 0.0048688562969797693 0 0.013147456683815952 0.0048688562969797693 0 0.013049897771199144 0.0049381153343192137 0 0.013241471140080436 0.0049408672661715065 0 0.013049897771199144 0.0049381153343192137 0 0.013139939868356381 0.005006748305386121 0 0.013241471140080436 0.0049408672661715065 0 0.013049897771199144 0.0049381153343192137 0 0.012972404871416134 0.0049540524024557116 0 0.013079862979210908 0.0049512185271044003 0 0.013049897771199144 0.0049381153343192137 0 0.013038361841946714 0.0049578520272916685 0 0.013079862979210908 0.0049512185271044003 0 0.012972404871416134 0.0049540524024557116 0 0.013079862979210908 0.0049512185271044003 0 0.013191913030884538 0.0047762916266869213 0 0.012972404871416134 0.0049540524024557116 0 0.013139939868356381 0.005006748305386121 0 0.013180650204579156 0.0051779875479266973 0 0.013049897771199144 0.0049381153343192137 0 0.012972404871416134 0.0049540524024557116 0 0.013139939868356381 0.005006748305386121 0 0.013139939868356381 0.005006748305386121 0 0.013360211352015804 0.0051353546238352005 0 0.013180650204579156 0.0051779875479266973 0 0.013139939868356381 0.005006748305386121 0 0.013360211352015804 0.0051353546238352005 0 0.013241471140080436 0.0049408672661715065 0 0.013270316577435869 0.0048517811887096828 0 0.013241471140080436 0.0049408672661715065 0 0.01338550509307321 0.0048932046169784596 0 0.013241471140080436 0.0049408672661715065 0 0.01338550509307321 0.0048932046169784596 0 0.01347208982758694 0.0050165428202370663 0 0.013360211352015804 0.0051353546238352005 0 0.013241471140080436 0.0049408672661715065 0 0.01347208982758694 0.0050165428202370663 0 0.013360211352015804 0.0051353546238352005 0 0.01347208982758694 0.0050165428202370663 0 0.013567915747720961 0.0051578853805356231 0 0.01347208982758694 0.0050165428202370663 0 0.013673078623106868 0.0050531546956412684 0 0.013567915747720961 0.0051578853805356231 0 0.013893490416933569 0.0058980074425614027 0 0.013757876918582788 0.0058777048843515452 0 0.013868429997843797 0.0058234509505321269 0 0.013893490416933569 0.0058980074425614027 0 0.013757876918582788 0.0058777048843515452 0 0.013831260151873076 0.0060524321528042085 0 0.013673078623106868 0.0050531546956412684 0 0.013524808455891914 0.0049097451759882718 0 0.013651096343880677 0.0048592903925836614 0 0.01018663299898567 0.0051408418382290428 0 0.0066516627888908155 0.0058044488544113397 0 0.01347208982758694 0.0050165428202370663 0 0.013673078623106868 0.0050531546956412684 0 0.013524808455891914 0.0049097451759882718 0 0.01338550509307321 0.0048932046169784596 0 0.01347208982758694 0.0050165428202370663 0 0.013524808455891914 0.0049097451759882718 0 0.0024087575125977178 0.0044120118629677992 0 0.0021262993512181538 0.0049042351416391274 0 0.013776135801332846 0.0058910340961425452 0 0.013757876918582788 0.0058777048843515452 0 0.013759186166080281 0.0057245982867880846 0 0.013776135801332846 0.0058910340961425452 0 0.013757876918582788 0.0058777048843515452 0 0.013804913845918797 0.0058546197437552702 0 0.013757876918582788 0.0058777048843515452 0 0.013759186166080281 0.0057245982867880846 0 0.013471422813671211 0.0056212986088198923 0 0.0095182175879158833 0.0072059293197153243 0 0.0066516627888908155 0.0058044488544113397 0 -0.0076998406980020809 0.0024306787270851463 0 -0.0072325602016162643 0.0032605109198559435 0 -0.00773042963130005 0.0031350321487973367 0 -0.0072325602016162643 0.0032605109198559435 0 -0.00773042963130005 0.0031350321487973367 0 -0.0076011862793751396 0.0036231055665428987 0 -0.0079818027551139554 0.0034722910698343234 0 -0.00773042963130005 0.0031350321487973367 0 -0.0076011862793751396 0.0036231055665428987 0 -0.0072325602016162643 0.0032605109198559435 0 -0.0076011862793751396 0.0036231055665428987 0 -0.0072463514496852264 0.003837839426087728 0 -0.0079750600193156107 0.0038027646923359695 0 -0.0076011862793751396 0.0036231055665428987 0 -0.0075781448313444249 0.0041418209224557221 0 -0.0076011862793751396 0.0036231055665428987 0 -0.0072463514496852264 0.003837839426087728 0 -0.0075781448313444249 0.0041418209224557221 0 0.0021262993512181538 0.0049042351416391274 0 0.00086180375519167185 0.0052391258062122669 0 0.013759186166080281 0.0057245982867880846 0 0.013559906737207158 0.0053860062098898299 0 0.013471422813671211 0.0056212986088198923 0 -0.0072325602016162643 0.0032605109198559435 0 -0.0072463514496852264 0.003837839426087728 0 -0.0067260291718013636 0.0041576597325459494 0 -0.0071215394522296674 0.0040313159152769061 0 -0.0075720848568558638 0.0043138724869118527 0 -0.0078348456404531194 0.0040341819992713033 0 0.00086180375519167185 0.0052391258062122669 0 -0.0053882121919726026 0.0047632046868874489 0 -0.0072463514496852264 0.003837839426087728 0 -0.0067260291718013636 0.0041576597325459494 0 -0.0075781448313444249 0.0041418209224557221 0 -0.0071215394522296674 0.0040313159152769061 0 -0.0068078159607041873 0.0046381023503788057 0 -0.0072908439087579456 0.0044700702490567184 0 -0.0071215394522296674 0.0040313159152769061 0 -0.0075720848568558638 0.0043138724869118527 0 -0.0072908439087579456 0.0044700702490567184 0 -0.0075720848568558638 0.0043138724869118527 0 -0.0078565568896185305 0.0043713016562901691 0 -0.0078348456404531194 0.0040341819992713033 0 -0.008140708760348097 0.0042057816861980572 0 -0.0078565568896185305 0.0043713016562901691 0 -0.0078348456404531194 0.0040341819992713033 0 0.013524808455891914 0.0049097451759882718 0 0.013531322685604232 0.0048055828781849701 0 0.013651096343880677 0.0048592903925836614 0 0.013531322685604232 0.0048055828781849701 0 0.0134215435644443 0.0048226392529204703 0 0.013493751844310049 0.004705799282268614 0 0.013377742536428048 0.0047627238112091415 0 0.0134215435644443 0.0048226392529204703 0 0.013455656371305035 0.0047373347132236348 0 0.0038693850942304341 0.0035775572559448585 0 0.0022397268129868641 0.0045802824642271998 0 0.013524808455891914 0.0049097451759882718 0 0.013531322685604232 0.0048055828781849701 0 0.0134215435644443 0.0048226392529204703 0 0.01338550509307321 0.0048932046169784596 0 0.013524808455891914 0.0049097451759882718 0 0.0134215435644443 0.0048226392529204703 0 0.0066516627888908155 0.0058044488544113397 0 0.0031855669424075824 0.0050325351980485388 0 0.013531322685604232 0.0048055828781849701 0 0.013651096343880677 0.0048592903925836614 0 0.013542163070129723 0.0047079144259121715 0 0.013559906737207158 0.0053860062098898299 0 0.013471422813671211 0.0056212986088198923 0 0.013494380466006902 0.0053847329223649073 0 0.0066516627888908155 0.0058044488544113397 0 0.0026992493629120324 0.0049613957975562428 0 0.0049191073413591231 0.0049755748126948229 0 0.0048980259135808918 0.0050472719005041061 0 0.0049571738567974174 0.0050472212200450275 0 0.00086180375519167185 0.0052391258062122669 0 -0.0018968090037200435 0.0046995584164000659 0 0.00035400085829896064 0.0051573789169546353 0 0.00019768225062865346 0.0051693510872896061 0 0.00023993055025308625 0.005238825654273669 0 0.00055776860009422013 0.0052491326143297903 0 0.00047654745503724933 0.0052469647885064084 0 0.00037605332646603731 0.0049042923993867522 0 0.00047654745503724933 0.0052469647885064084 0 0.00035400085829896064 0.0051573789169546353 0 0.00037605332646603731 0.0049042923993867522 0 0.00047654745503724933 0.0052469647885064084 0 0.00035400085829896064 0.0051573789169546353 0 0.00023993055025308625 0.005238825654273669 0 0.0031855669424075824 0.0050325351980485388 0 0.0026992493629120324 0.0049613957975562428 0 0.00086180375519167185 0.0052391258062122669 0 0.0031855669424075824 0.0050325351980485388 0 0.00035400085829896064 0.0051573789169546353 0 0.00019768225062865346 0.0051693510872896061 0 0.00037605332646603731 0.0049042923993867522 0 -0.0076461403384131656 0.0042632263881512041 0 -0.007626454873427068 0.004239706024178334 0 -0.0076011150658467442 0.0043005832934558163 0 0.0012640963411626389 0.0045400969245806538 0 0.0026992493629120324 0.0049613957975562428 0 0.0026992493629120324 0.0049613957975562428 0 0.0022397268129868641 0.0045802824642271998 0 0.013531322685604232 0.0048055828781849701 0 0.013542163070129723 0.0047079144259121715 0 0.013493751844310049 0.004705799282268614 0 0.00059467406657213106 0.0054282187948503707 0 -0.00025213223730567881 0.0039985949693444418 0 0.0015755750107205482 0.0040265166919428276 0 0.0012640963411626389 0.0045400969245806538 0 0.0022397268129868641 0.0045802824642271998 0 -0.0075410552968243434 0.0042687569202545465 0 -0.007626454873427068 0.004239706024178334 0 -0.0076011150658467442 0.0043005832934558163 0 -0.0076011150658467442 0.0043005832934558163 0 -0.0076200202798699943 0.0044106209661297566 0 -0.0075669489685001659 0.0043268745816359673 0 -0.0077651342901316998 0.0042662722537323066 0 -0.0076602372209822753 0.0044763303561535317 0 -0.0077837984583998404 0.0044744143257590277 0 -0.0076461403384131656 0.0042632263881512041 0 -0.0076011150658467442 0.0043005832934558163 0 -0.0076200202798699943 0.0044106209661297566 0 0.0012640963411626389 0.0045400969245806538 0 -0.0025119812259839268 0.0031520674773041729 0 -0.0076602372209822753 0.0044763303561535317 0 -0.0077837984583998404 0.0044744143257590277 0 -0.0077344282890267884 0.0045827397808209762 0 -0.0077651342901316998 0.0042662722537323066 0 -0.0077837984583998404 0.0044744143257590277 0 -0.0079098067236318941 0.0044501079232478983 0 0.0012640963411626389 0.0045400969245806538 0 -0.0018968090037200435 0.0046995584164000659 0 -0.0018968090037200435 0.0046995584164000659 0 -0.0050667795926792707 0.005348989779784063 0 -0.0077837984583998404 0.0044744143257590277 0 -0.0079098067236318941 0.0044501079232478983 0 -0.007860357623583062 0.0045978482649644626 0 -0.0018968090037200435 0.0046995584164000659 0 -0.0025046591474391349 0.0042677630189387802 0 -0.007860357623583062 0.0045978482649644626 0 -0.007962372306354425 0.0047351996355387335 0 -0.0080792175177619822 0.0046398106046196246 0 -0.0079324390598136275 0.0044424176342497904 0 -0.007860357623583062 0.0045978482649644626 0 -0.0080792175177619822 0.0046398106046196246 0 -0.007962372306354425 0.0047351996355387335 0 -0.0080792175177619822 0.0046398106046196246 0 -0.0080125996524368359 0.0048820714305919041 0 -0.007860357623583062 0.0045978482649644626 0 -0.007962372306354425 0.0047351996355387335 0 -0.007892564717620355 0.0048091783923335544 0 -0.007860357623583062 0.0045978482649644626 0 -0.0077350118733348645 0.0047294543314915375 0 -0.007892564717620355 0.0048091783923335544 0 -0.0077350118733348645 0.0047294543314915375 0 -0.0076638926870586099 0.0046147299634231032 0 -0.0077344282890267884 0.0045827397808209762 0 -0.0077350118733348645 0.0047294543314915375 0 -0.0076638926870586099 0.0046147299634231032 0 -0.007528966073644729 0.0046786269245243329 0 -0.0076602372209822753 0.0044763303561535317 0 -0.0076638926870586099 0.0046147299634231032 0 -0.0077344282890267884 0.0045827397808209762 0 -0.0077837984583998404 0.0044744143257590277 0 -0.007860357623583062 0.0045978482649644626 0 -0.0077344282890267884 0.0045827397808209762 0 -0.007860357623583062 0.0045978482649644626 0 -0.0077350118733348645 0.0047294543314915375 0 -0.0077344282890267884 0.0045827397808209762 0 -0.0083252456709618453 0.0047188582223945371 0 -0.0077460066545376694 0.004656942797206025 0 -0.0080648559427378488 0.0049814829337238012 0 -0.0081834910628000926 0.0044770712911456701 0 -0.0078565568896185305 0.0043713016562901691 0 -0.0077460066545376694 0.004656942797206025 0 -0.0075720848568558638 0.0043138724869118527 0 -0.0078565568896185305 0.0043713016562901691 0 -0.0077460066545376694 0.004656942797206025 0 -0.0077460066545376694 0.004656942797206025 0 -0.0073496676255118392 0.004805118674400536 0 -0.0076977762066109713 0.0051045989945759729 0 -0.0068078159607041873 0.0046381023503788057 0 -0.0073496676255118392 0.004805118674400536 0 -0.0071230062982762651 0.0050775170545072391 0 -0.0068078159607041873 0.0046381023503788057 0 -0.0073496676255118392 0.004805118674400536 0 -0.0072908439087579456 0.0044700702490567184 0 -0.0077460066545376694 0.004656942797206025 0 -0.0073496676255118392 0.004805118674400536 0 -0.0072908439087579456 0.0044700702490567184 0 -0.0075720848568558638 0.0043138724869118527 0 -0.0077460066545376694 0.004656942797206025 0 -0.0072908439087579456 0.0044700702490567184 0 -0.0071230062982762651 0.0050775170545072391 0 -0.0076977762066109713 0.0051045989945759729 0 -0.007435978617847284 0.0055253885050410055 0 -0.0073496676255118392 0.004805118674400536 0 -0.0071230062982762651 0.0050775170545072391 0 -0.0076977762066109713 0.0051045989945759729 0 -0.0050667795926792707 0.005348989779784063 0 -0.0070848180125668092 0.0053646950672313794 0 -0.0082109258093627461 0.0053042236169608768 0 -0.0076977762066109713 0.0051045989945759729 0 -0.0080648559427378488 0.0049814829337238012 0 -0.0082109258093627461 0.0053042236169608768 0 -0.0076977762066109713 0.0051045989945759729 0 -0.007435978617847284 0.0055253885050410055 0 -0.0077460066545376694 0.004656942797206025 0 -0.0076977762066109713 0.0051045989945759729 0 -0.0080648559427378488 0.0049814829337238012 0 -0.0089297089047074944 0.0050168461465353214 0 -0.0087293142283604887 0.0049493511745277502 0 -0.0087983080060619473 0.0050798983670755464 0 -0.0082691512280662592 0.0051041108914949979 0 -0.0070848180125668092 0.0053646950672313794 0 -0.00904420184020438 0.0049399712512499657 0 -0.0089297089047074944 0.0050168461465353214 0 -0.0087293142283604887 0.0049493511745277502 0 -0.0086280106629481861 0.0048125442228302224 0 -0.0084963806394414039 0.0051859048283800615 0 -0.0087983080060619473 0.0050798983670755464 0 -0.0080792175177619822 0.0046398106046196246 0 -0.0082054014359188715 0.004824004313244085 0 -0.0080125996524368359 0.0048820714305919041 0 -0.0086280106629481861 0.0048125442228302224 0 -0.0084963806394414039 0.0051859048283800615 0 -0.0082640540558041303 0.0048917793093745309 0 -0.0070848180125668092 0.0053646950672313794 0 -0.0072534710737134018 0.0054318215862921328 0 -0.0070848180125668092 0.0053646950672313794 0 -0.0076581067431626838 0.0051587192100089928 0 -0.0082366143146204961 0.0054500024391245508 0 -0.0087683380302082444 0.0054201332975420619 0 -0.0084963806394414039 0.0051859048283800615 0 -0.0087683380302082444 0.0054201332975420619 0 -0.0084963806394414039 0.0051859048283800615 0 -0.0087983080060619473 0.0050798983670755464 0 -0.0090692304083953533 0.0054428597274896687 0 -0.0087683380302082444 0.0054201332975420619 0 -0.0089788946647942989 0.0051916111223489943 0 -0.0087683380302082444 0.0054201332975420619 0 -0.0087983080060619473 0.0050798983670755464 0 -0.0089788946647942989 0.0051916111223489943 0 -0.0089297089047074944 0.0050168461465353214 0 -0.0087983080060619473 0.0050798983670755464 0 -0.0089788946647942989 0.0051916111223489943 0 -0.0077350118733348645 0.0047294543314915375 0 -0.0077224686420903901 0.0049644069879351185 0 -0.007528966073644729 0.0046786269245243329 0 -0.0078624977585826407 0.0049752828257795907 0 -0.007805322856036097 0.0048652774282010123 0 -0.007892564717620355 0.0048091783923335544 0 -0.0078624977585826407 0.0049752828257795907 0 -0.0077224686420903901 0.0049644069879351185 0 -0.007805322856036097 0.0048652774282010123 0 -0.0077350118733348645 0.0047294543314915375 0 -0.0077224686420903901 0.0049644069879351185 0 -0.007805322856036097 0.0048652774282010123 0 -0.0077350118733348645 0.0047294543314915375 0 -0.007805322856036097 0.0048652774282010123 0 -0.007892564717620355 0.0048091783923335544 0 -0.007962372306354425 0.0047351996355387335 0 -0.007892564717620355 0.0048091783923335544 0 -0.0080125996524368359 0.0048820714305919041 0 -0.0078624977585826407 0.0049752828257795907 0 -0.007892564717620355 0.0048091783923335544 0 -0.0080125996524368359 0.0048820714305919041 0 -0.0077537035775200082 0.0051186535267795505 0 -0.0076581067431626838 0.0051587192100089928 0 -0.0082366143146204961 0.0054500024391245508 0 -0.0084963806394414039 0.0051859048283800615 0 -0.0082640540558041303 0.0048917793093745309 0 -0.0082366143146204961 0.0054500024391245508 0 -0.0078624977585826407 0.0049752828257795907 0 -0.0082640540558041303 0.0048917793093745309 0 -0.0082366143146204961 0.0054500024391245508 0 -0.0078624977585826407 0.0049752828257795907 0 -0.0077224686420903901 0.0049644069879351185 0 -0.016763861167940708 0.0025627124934258102 0 -0.016800222850322743 0.0025556679461982718 0 -0.025268299481334706 -0.00024822289050419478 0 -0.025721694163570952 0.00020027384756961738 0 -0.025777834343428459 -0.00017390560954227844 0 -0.025721694163570952 0.00020027384756961738 0 -0.025777834343428459 -0.00017390560954227844 0 -0.026023528972499269 9.0379735392851577e-05 0 -0.025980296548445778 -0.00049767545843262351 0 -0.025777834343428459 -0.00017390560954227844 0 -0.026023528972499269 9.0379735392851577e-05 0 -0.02651581172896814 -0.00047304906936671237 0 -0.026353496076715454 -0.00018511764540676113 0 -0.026652935032301227 -7.8394100668030005e-05 0 -0.02651581172896814 -0.00047304906936671237 0 -0.026652935032301227 -7.8394100668030005e-05 0 -0.02686953784799646 -0.00030011464882072261 0 -0.026652935032301227 -7.8394100668030005e-05 0 -0.026498933699362605 0.00025145246154883918 0 -0.02691073265588181 9.6959376865900037e-05 0 -0.026652935032301227 -7.8394100668030005e-05 0 -0.02691073265588181 9.6959376865900037e-05 0 -0.02686953784799646 -0.00030011464882072261 0 -0.016800222850322743 0.0025556679461982718 0 -0.01692068394832032 0.0025637576245814285 0 -0.026353496076715454 -0.00018511764540676113 0 -0.026652935032301227 -7.8394100668030005e-05 0 -0.026498933699362605 0.00025145246154883918 0 -0.025721694163570952 0.00020027384756961738 0 -0.026023528972499269 9.0379735392851577e-05 0 -0.026084097849604224 0.00060394495883757382 0 -0.0077224686420903901 0.0049644069879351185 0 -0.0074498277147407831 0.0046299957353635101 0 -0.007528966073644729 0.0046786269245243329 0 -0.021500234670227977 0.00093924833343088843 0 -0.01692068394832032 0.0025637576245814285 0 -0.0076602372209822753 0.0044763303561535317 0 -0.0076638926870586099 0.0046147299634231032 0 -0.007528966073644729 0.0046786269245243329 0 -0.0076200202798699943 0.0044106209661297566 0 -0.007517628846388469 0.0044915285176742184 0 -0.007528966073644729 0.0046786269245243329 0 -0.0025119812259839268 0.0031520674773041729 0 -0.0034731937362277904 0.0030208235595357365 0 -0.01692068394832032 0.0025637576245814285 0 -0.014785412553964292 0.0028968079839295255 0 -0.007517628846388469 0.0044915285176742184 0 -0.0074498277147407831 0.0046299957353635101 0 -0.0074256154498989852 0.0044140684292687067 0 -0.007517628846388469 0.0044915285176742184 0 -0.0074498277147407831 0.0046299957353635101 0 -0.007528966073644729 0.0046786269245243329 0 -0.026498933699362605 0.00025145246154883918 0 -0.026841120818542896 0.00051363236980458537 0 -0.02691073265588181 9.6959376865900037e-05 0 -0.01692068394832032 0.0025637576245814285 0 -0.014478477199894459 0.0028741644721183364 0 -0.0075273729781832645 0.0042552158673633657 0 -0.0074988115931827418 0.0042341118203117348 0 -0.0074761591486376226 0.0042288801916475233 0 -0.0074550994234609622 0.0042417062612284647 0 -0.0074988115931827418 0.0042341118203117348 0 -0.0074761591486376226 0.0042288801916475233 0 -0.0074716042583643175 0.0042948489028891597 0 -0.0074550994234609622 0.0042417062612284647 0 -0.0074256154498989852 0.0044140684292687067 0 -0.014117273632498912 0.0029964302479743156 0 -0.014785412553964292 0.0028968079839295255 0 -0.0074716042583643175 0.0042948489028891597 0 -0.0074256154498989852 0.0044140684292687067 0 -0.0075055929662783552 0.0043345221729291948 0 -0.0076200202798699943 0.0044106209661297566 0 -0.0075055929662783552 0.0043345221729291948 0 -0.0075669489685001659 0.0043268745816359673 0 -0.0076200202798699943 0.0044106209661297566 0 -0.007517628846388469 0.0044915285176742184 0 -0.0075055929662783552 0.0043345221729291948 0 -0.007517628846388469 0.0044915285176742184 0 -0.0074256154498989852 0.0044140684292687067 0 -0.0075055929662783552 0.0043345221729291948 0 -0.027142755219907066 0.00074353548617846427 0 -0.027393540660352919 0.00050485562359450862 0 -0.026841120818542896 0.00051363236980458537 0 -0.027393540660352919 0.00050485562359450862 0 -0.026841120818542896 0.00051363236980458537 0 -0.02730463247187935 0.00026571995499658781 0 -0.026841120818542896 0.00051363236980458537 0 -0.02730463247187935 0.00026571995499658781 0 -0.02691073265588181 9.6959376865900037e-05 0 -0.02730463247187935 0.00026571995499658781 0 -0.027286478253852515 -0.00012310407809603251 0 -0.02753492678024265 6.610910827045689e-05 0 -0.02730463247187935 0.00026571995499658781 0 -0.02691073265588181 9.6959376865900037e-05 0 -0.027286478253852515 -0.00012310407809603251 0 -0.02691073265588181 9.6959376865900037e-05 0 -0.02686953784799646 -0.00030011464882072261 0 -0.027286478253852515 -0.00012310407809603251 0 -0.027165155052082064 -0.00044761833230294958 0 -0.02686953784799646 -0.00030011464882072261 0 -0.027286478253852515 -0.00012310407809603251 0 -0.02751657832242109 -0.00059166989490145249 0 -0.027165155052082064 -0.00044761833230294958 0 -0.027286478253852515 -0.00012310407809603251 0 -0.02751657832242109 -0.00059166989490145249 0 -0.027286478253852515 -0.00012310407809603251 0 -0.02777414209167561 -0.0001130962139142228 0 -0.02777414209167561 -0.0001130962139142228 0 -0.02753492678024265 6.610910827045689e-05 0 -0.027752702722434082 0.00021742107062014599 0 -0.027286478253852515 -0.00012310407809603251 0 -0.02777414209167561 -0.0001130962139142228 0 -0.02753492678024265 6.610910827045689e-05 0 -0.02777414209167561 -0.0001130962139142228 0 -0.028036062924175032 6.3804827700523207e-05 0 -0.027752702722434082 0.00021742107062014599 0 -0.02777414209167561 -0.0001130962139142228 0 -0.028225302105326755 -0.00022022422211887696 0 -0.028036062924175032 6.3804827700523207e-05 0 -0.027984261866254887 -0.00054762164095699764 0 -0.02777414209167561 -0.0001130962139142228 0 -0.028225302105326755 -0.00022022422211887696 0 -0.028233353541427801 0.00010836813759329384 0 -0.028365890370264182 0.00027012188082594762 0 -0.028225302105326755 -0.00022022422211887696 0 -0.028116701454110968 8.6199718012219646e-05 0 -0.028036062924175032 6.3804827700523207e-05 0 -0.029105560260221156 -0.00072966412869646124 0 -0.028225302105326755 -0.00022022422211887696 0 -0.029034021753120184 0.00015423182483687337 0 -0.028116701454110968 8.6199718012219646e-05 0 -0.028041656666416271 0.00025438641462784513 0 -0.028058295838018363 0.00025030819595915854 0 -0.028116701454110968 8.6199718012219646e-05 0 -0.028036062924175032 6.3804827700523207e-05 0 -0.028041656666416271 0.00025438641462784513 0 -0.028036062924175032 6.3804827700523207e-05 0 -0.028041656666416271 0.00025438641462784513 0 -0.027752702722434082 0.00021742107062014599 0 -0.028041656666416271 0.00025438641462784513 0 -0.027765691890744394 0.00041622093892673402 0 -0.027902592723166204 0.00047461691378335359 0 -0.027393540660352919 0.00050485562359450862 0 -0.027765691890744394 0.00041622093892673402 0 -0.027752702722434082 0.00021742107062014599 0 -0.02730463247187935 0.00026571995499658781 0 -0.02753492678024265 6.610910827045689e-05 0 -0.027752702722434082 0.00021742107062014599 0 -0.027393540660352919 0.00050485562359450862 0 -0.02730463247187935 0.00026571995499658781 0 -0.027752702722434082 0.00021742107062014599 0 -0.028041656666416271 0.00025438641462784513 0 -0.027765691890744394 0.00041622093892673402 0 -0.027752702722434082 0.00021742107062014599 0 -0.030724212224773097 -0.00017270458961662081 0 -0.030380534888568289 -0.00017380543621675677 0 -0.030877133732257388 -0.00020513170236429181 0 -0.030724212224773097 -0.00017270458961662081 0 -0.030734139086114918 -0.00038627216521561219 0 -0.030380534888568289 -0.00017380543621675677 0 -0.030418806435729879 -0.0005581536044502618 0 -0.030744941804938055 -0.00067699191428701431 0 -0.030734139086114918 -0.00038627216521561219 0 -0.029786730251457637 -0.0004727085141308256 0 -0.030418806435729879 -0.0005581536044502618 0 -0.030380534888568289 -0.00017380543621675677 0 -0.030418806435729879 -0.0005581536044502618 0 -0.030734139086114918 -0.00038627216521561219 0 -0.030380534888568289 -0.00017380543621675677 0 -0.029786730251457637 -0.0004727085141308256 0 -0.029034021753120184 0.00015423182483687337 0 -0.029652211986821268 0.00044834231669867234 0 -0.029786730251457637 -0.0004727085141308256 0 -0.030135760945736039 0.0002072977594713379 0 -0.029652211986821268 0.00044834231669867234 0 -0.030135760945736039 0.0002072977594713379 0 -0.029652211986821268 0.00044834231669867234 0 -0.030073840094047413 0.00060311005299249257 0 -0.029291785855146829 0.00018263414327791439 0 -0.02915132644256925 0.00054262714745367021 0 -0.028365890370264182 0.00027012188082594762 0 -0.02845340252799012 0.00056266229471541788 0 -0.028041656666416271 0.00025438641462784513 0 -0.028058295838018363 0.00025030819595915854 0 -0.028004294349869903 0.00025276357625446031 0 -0.028041656666416271 0.00025438641462784513 0 -0.028004294349869903 0.00025276357625446031 0 -0.028021021627205132 0.00029833456582210828 0 -0.028004294349869903 0.00025276357625446031 0 -0.027863224074799443 0.00032748463496802245 0 -0.027790352448566865 0.00019444341778606571 0 -0.028004294349869903 0.00025276357625446031 0 -0.027790352448566865 0.00019444341778606571 0 -0.027916796541730307 0.00012520917135987929 0 -0.028058295838018363 0.00025030819595915854 0 -0.028004294349869903 0.00025276357625446031 0 -0.027863224074799443 0.00032748463496802245 0 -0.02845340252799012 0.00056266229471541788 0 -0.028113835928616323 0.00083713275506231517 0 -0.02915132644256925 0.00054262714745367021 0 -0.027841030199007959 0.0010116099553122023 0 -0.030135760945736039 0.0002072977594713379 0 -0.030073840094047413 0.00060311005299249257 0 -0.030268632196157257 0.00059267126898483811 0 -0.028113835928616323 0.00083713275506231517 0 -0.026486386094302709 0.00078464637215723673 0 -0.027863224074799443 0.00032748463496802245 0 -0.027790352448566865 0.00019444341778606571 0 -0.027500983445678195 0.00024088645362914103 0 -0.027790352448566865 0.00019444341778606571 0 -0.027500983445678195 0.00024088645362914103 0 -0.027578792155293734 -8.0213617527741781e-06 0 -0.030073840094047413 0.00060311005299249257 0 -0.030254621108842392 0.0006654145286204763 0 -0.030268632196157257 0.00059267126898483811 0 -0.030271266448275484 0.00071660708943649518 0 -0.030254621108842392 0.0006654145286204763 0 -0.030268632196157257 0.00059267126898483811 0 -0.030642912514261579 -4.757981438402569e-05 0 -0.030724212224773097 -0.00017270458961662081 0 -0.030877133732257388 -0.00020513170236429181 0 0.0015535593584567204 -0.0066017594825807917 0 -5.6075819024201827e-05 -0.0038297116694595628 0 -0.0010694530996943046 -0.0067679107819095296 0 -0.027103125426743868 8.7127484045501033e-06 0 -0.027500983445678195 0.00024088645362914103 0 -0.027578792155293734 -8.0213617527741781e-06 0 -5.6075819024201827e-05 -0.0038297116694595628 0 -0.0023342783542630399 -0.0056585071010949832 0 -0.0026006891193263958 -0.0039601053634863844 0 -0.027790352448566865 0.00019444341778606571 0 -0.027578792155293734 -8.0213617527741781e-06 0 -0.027916796541730307 0.00012520917135987929 0 -0.014921748088334644 -0.0017763425044471904 0 -0.015364051487294935 -0.0017222637522260763 0 -5.6075819024201827e-05 -0.0038297116694595628 0 -0.0023342783542630399 -0.0056585071010949832 0 -0.0010694530996943046 -0.0067679107819095296 0 -0.0023342783542630399 -0.0056585071010949832 0 -0.0026006891193263958 -0.0039601053634863844 0 -0.0050683191320077372 -0.0040376234834972559 0 -0.028004294349869903 0.00025276357625446031 0 -0.027916796541730307 0.00012520917135987929 0 -0.028021021627205132 0.00029833456582210828 0 -0.015364051487294935 -0.0017222637522260763 0 -0.016395376619662116 -0.0015686124952339971 0 -0.0023342783542630399 -0.0056585071010949832 0 -0.0050683191320077372 -0.0040376234834972559 0 -0.0051159985978773501 -0.0060600401533992924 0 -0.0033200454563775345 -0.0070272065934173546 0 -0.0051159985978773501 -0.0060600401533992924 0 -0.005570018400098224 -0.0078836664954644968 0 -0.0023342783542630399 -0.0056585071010949832 0 -0.0033200454563775345 -0.0070272065934173546 0 -0.0051159985978773501 -0.0060600401533992924 0 -0.005570018400098224 -0.0078836664954644968 0 -0.0057975006129296659 -0.0092394661935666263 0 -0.0037855291954225208 -0.0098101638711094192 0 -0.0033200454563775345 -0.0070272065934173546 0 -0.005570018400098224 -0.0078836664954644968 0 -0.0037855291954225208 -0.0098101638711094192 0 -0.0033200454563775345 -0.0070272065934173546 0 -0.0020285112032280865 -0.0083559084527755484 0 -0.0037855291954225208 -0.0098101638711094192 0 -0.0020285112032280865 -0.0083559084527755484 0 -0.0013945890531255113 -0.0092343910008782937 0 -0.0037855291954225208 -0.0098101638711094192 0 -0.0023342783542630399 -0.0056585071010949832 0 -0.0033200454563775345 -0.0070272065934173546 0 -0.0010694530996943046 -0.0067679107819095296 0 -0.0033200454563775345 -0.0070272065934173546 0 -0.0010694530996943046 -0.0067679107819095296 0 -0.0020285112032280865 -0.0083559084527755484 0 -0.0010694530996943046 -0.0067679107819095296 0 -0.0020285112032280865 -0.0083559084527755484 0 -0.0011630414441231056 -0.0080880917534139358 0 -0.0010694530996943046 -0.0067679107819095296 0 -0.0011630414441231056 -0.0080880917534139358 0 -0.00029987594944614173 -0.0080899463280898146 0 -0.0020285112032280865 -0.0083559084527755484 0 -0.0013945890531255113 -0.0092343910008782937 0 -0.0011630414441231056 -0.0080880917534139358 0 -0.0013945890531255113 -0.0092343910008782937 0 -0.0011630414441231056 -0.0080880917534139358 0 -0.00029987594944614173 -0.0080899463280898146 0 -0.0013945890531255113 -0.0092343910008782937 0 -0.00029987594944614173 -0.0080899463280898146 0 0.0010909626146860555 -0.0087325349477405077 0 0.0059993832017896393 -0.005153871179843895 0 0.0063964657393340597 -0.0064936774223343765 0 0.0015535593584567204 -0.0066017594825807917 0 -0.0010694530996943046 -0.0067679107819095296 0 -0.00029987594944614173 -0.0080899463280898146 0 0.0015535593584567204 -0.0066017594825807917 0 -0.00029987594944614173 -0.0080899463280898146 0 0.0010909626146860555 -0.0087325349477405077 0 -0.0087418177021561811 -0.0055121915589383648 0 -0.010752566488559542 -0.0056812292604246266 0 -0.0092365021054168668 -0.0072592402198485145 0 -0.0087418177021561811 -0.0055121915589383648 0 -0.010752566488559542 -0.0056812292604246266 0 -0.0098833062329485473 -0.0041136283571992513 0 -0.012248381482768673 -0.0041240264831916128 0 -0.010752566488559542 -0.0056812292604246266 0 -0.0098833062329485473 -0.0041136283571992513 0 -0.027393540660352919 0.00050485562359450862 0 -0.027765691890744394 0.00041622093892673402 0 -0.027583069248859327 0.00065109672194836024 0 -0.0087418177021561811 -0.0055121915589383648 0 -0.0098833062329485473 -0.0041136283571992513 0 -0.0074919965360390446 -0.0040837978445242059 0 -0.016368707416644125 -0.00056944901402745105 0 -0.017160186006415078 -0.0012406024762734301 0 -0.027765691890744394 0.00041622093892673402 0 -0.027583069248859327 0.00065109672194836024 0 -0.027902592723166204 0.00047461691378335359 0 -0.028041656666416271 0.00025438641462784513 0 -0.028021021627205132 0.00029833456582210828 0 -0.027902592723166204 0.00047461691378335359 0 -0.016395376619662116 -0.0015686124952339971 0 -0.017160186006415078 -0.0012406024762734301 0 -0.0050683191320077372 -0.0040376234834972559 0 -0.0074919965360390446 -0.0040837978445242059 0 -0.0051159985978773501 -0.0060600401533992924 0 -0.0074919965360390446 -0.0040837978445242059 0 -0.0051159985978773501 -0.0060600401533992924 0 -0.007232043921751286 -0.0065496432927050173 0 -0.0087418177021561811 -0.0055121915589383648 0 -0.0074919965360390446 -0.0040837978445242059 0 -0.007232043921751286 -0.0065496432927050173 0 -0.0051159985978773501 -0.0060600401533992924 0 -0.007232043921751286 -0.0065496432927050173 0 -0.005570018400098224 -0.0078836664954644968 0 -0.005570018400098224 -0.0078836664954644968 0 -0.0076923356359595643 -0.0088474363070171133 0 -0.0057975006129296659 -0.0092394661935666263 0 -0.007232043921751286 -0.0065496432927050173 0 -0.005570018400098224 -0.0078836664954644968 0 -0.0076923356359595643 -0.0088474363070171133 0 0.0040531591328843595 -0.0010235955409488536 0 0.0015639238829033796 -0.001247980275619091 0 0.013674109764755771 0.0047118271819161775 0 0.013306244636975365 0.0049824365896568579 0 0.013498682983763655 0.0046046720173860385 0 -0.0087418177021561811 -0.0055121915589383648 0 -0.007232043921751286 -0.0065496432927050173 0 -0.0092365021054168668 -0.0072592402198485145 0 -0.007232043921751286 -0.0065496432927050173 0 -0.0076923356359595643 -0.0088474363070171133 0 -0.0092365021054168668 -0.0072592402198485145 0 0.013038361841946714 0.0049578520272916685 0 0.013306244636975365 0.0049824365896568579 0 0.013079862979210908 0.0049512185271044003 0 -0.0015922533088678352 -0.0010581775846769648 0 0.0015639238829033796 -0.001247980275619091 0 0.013306244636975365 0.0049824365896568579 0 0.013191913030884538 0.0047762916266869213 0 0.013498682983763655 0.0046046720173860385 0 0.013306244636975365 0.0049824365896568579 0 0.013079862979210908 0.0049512185271044003 0 0.013191913030884538 0.0047762916266869213 0 0.013191913030884538 0.0047762916266869213 0 0.013327564330351831 0.0044802862699140676 0 0.012960696483630291 0.0043246071469728682 0 0.013191913030884538 0.0047762916266869213 0 0.013327564330351831 0.0044802862699140676 0 0.013498682983763655 0.0046046720173860385 0 0.012773394008136627 0.0053815690055965979 0 0.012785908582793807 0.0055232849760157316 0 0.012805598471566211 0.0054654425229212445 0 0.012960696483630291 0.0043246071469728682 0 0.013399192302062539 0.0040138530767250781 0 0.013313677524029665 0.0029763479300808603 0 0.013417941505241207 0.0048176721906652911 0 0.014061756669221489 0.0044682222440295587 0 0.013327564330351831 0.0044802862699140676 0 0.012960696483630291 0.0043246071469728682 0 0.013399192302062539 0.0040138530767250781 0 0.013327564330351831 0.0044802862699140676 0 0.013399192302062539 0.0040138530767250781 0 0.013633407861331099 0.0043839095214079924 0 0.01437647234723593 0.0036450351441126324 0 0.013718725006205317 0.0036730684675244747 0 0.013633407861331099 0.0043839095214079924 0 0.013399192302062539 0.0040138530767250781 0 0.013718725006205317 0.0036730684675244747 0 0.013633407861331099 0.0043839095214079924 0 0.013674109764755771 0.0047118271819161775 0 0.013498682983763655 0.0046046720173860385 0 0.013671451131650825 0.0043699812030487213 0 0.013633407861331099 0.0043839095214079924 0 0.013498682983763655 0.0046046720173860385 0 0.013671451131650825 0.0043699812030487213 0 0.013327564330351831 0.0044802862699140676 0 0.013633407861331099 0.0043839095214079924 0 0.013498682983763655 0.0046046720173860385 0 -0.0076923356359595643 -0.0088474363070171133 0 -0.0057975006129296659 -0.0092394661935666263 0 -0.0061345884111440379 -0.010420307915649131 0 0.007033090917325683 -0.00032666207277374018 0 0.0097147073450835966 0.00075047583742908659 0 0.0040531591328843595 -0.0010235955409488536 0 0.007033090917325683 -0.00032666207277374018 0 0.013674109764755771 0.0047118271819161775 0 0.013909065114974091 0.0044361154839383833 0 0.013671451131650825 0.0043699812030487213 0 -0.0057975006129296659 -0.0092394661935666263 0 -0.0061345884111440379 -0.010420307915649131 0 -0.0037855291954225208 -0.0098101638711094192 0 0.013666904872765251 0.0043178866063145853 0 0.013684206914026404 0.0043395817990393966 0 0.013624569813015176 0.0043183242298690805 0 0.013487667651355072 0.0013029570548379742 0 0.012585278470893945 -0.00077888522521715254 0 0.007033090917325683 -0.00032666207277374018 0 0.012585278470893945 -0.00077888522521715254 0 0.01524269486412376 0.0041397166012314803 0 0.015951464471765254 0.0035734206721055955 0 0.016746551875774965 0.0036793507616046692 0 0.01524269486412376 0.0041397166012314803 0 0.015221354229070349 0.0033673231030574217 0 0.015951464471765254 0.0035734206721055955 0 0.01437647234723593 0.0036450351441126324 0 0.013633407861331099 0.0043839095214079924 0 0.01524269486412376 0.0041397166012314803 0 0.013633407861331099 0.0043839095214079924 0 0.013671451131650825 0.0043699812030487213 0 0.013684206914026404 0.0043395817990393966 0 0.013666904872765251 0.0043178866063145853 0 0.013671451131650825 0.0043699812030487213 0 0.013684206914026404 0.0043395817990393966 0 0.013477907439733343 0.0019133949146136239 0 0.013487667651355072 0.0013029570548379742 0 0.01437647234723593 0.0036450351441126324 0 0.01524269486412376 0.0041397166012314803 0 0.015221354229070349 0.0033673231030574217 0 0.01437647234723593 0.0036450351441126324 0 0.015221354229070349 0.0033673231030574217 0 0.014661202672475506 0.0030602652380797494 0 0.015221354229070349 0.0033673231030574217 0 0.015114777625046391 0.0027524591827182078 0 0.014661202672475506 0.0030602652380797494 0 0.015221354229070349 0.0033673231030574217 0 0.015114777625046391 0.0027524591827182078 0 0.015838543113837592 0.0028322670953313629 0 0.015114777625046391 0.0027524591827182078 0 0.014661202672475506 0.0030602652380797494 0 0.014712275641345361 0.0024331413224684701 0 0.016227671959246095 0.0028919499849926946 0 0.01712345104138575 0.0036996430985589595 0 0.017023191433008119 0.0023893522500428779 0 0.014876002029925287 0.0015062150592155808 0 0.012585278470893945 -0.00077888522521715254 0 0.015951464471765254 0.0035734206721055955 0 0.015838543113837592 0.0028322670953313629 0 0.016746551875774965 0.0036793507616046692 0 0.015221354229070349 0.0033673231030574217 0 0.015951464471765254 0.0035734206721055955 0 0.015838543113837592 0.0028322670953313629 0 0.016718192322506244 0.0016991739601943912 0 0.015745320911594717 0.0020837212620754136 0 0.017416846286238966 0.0021424084796842864 0 0.016227671959246095 0.0028919499849926946 0 0.015745320911594717 0.0020837212620754136 0 0.017023191433008119 0.0023893522500428779 0 0.016442301151603229 0.00026445846626076629 0 0.016449942746994347 -5.4355488194710017e-05 0 0.016718192322506244 0.0016991739601943912 0 0.015745320911594717 0.0020837212620754136 0 0.015856783757003556 0.0014761812864019373 0 0.014661202672475506 0.0030602652380797494 0 0.014712275641345361 0.0024331413224684701 0 0.014135697273416377 0.0024227491461962735 0 0.015114777625046391 0.0027524591827182078 0 0.014712275641345361 0.0024331413224684701 0 0.015074886076662283 0.0019351885839717401 0 0.016227671959246095 0.0028919499849926946 0 0.015745320911594717 0.0020837212620754136 0 0.015074886076662283 0.0019351885839717401 0 0.015114777625046391 0.0027524591827182078 0 0.015838543113837592 0.0028322670953313629 0 0.015074886076662283 0.0019351885839717401 0 0.014876002029925287 0.0015062150592155808 0 0.015127158446730817 0.0017796928283228004 0 0.015745320911594717 0.0020837212620754136 0 0.01518326496850839 0.0014840984459538976 0 0.015856783757003556 0.0014761812864019373 0 0.015745320911594717 0.0020837212620754136 0 0.015074886076662283 0.0019351885839717401 0 0.01518326496850839 0.0014840984459538976 0 0.015074886076662283 0.0019351885839717401 0 0.014634362753401259 0.0019010999420109587 0 0.01518326496850839 0.0014840984459538976 0 0.014712275641345361 0.0024331413224684701 0 0.015074886076662283 0.0019351885839717401 0 0.014634362753401259 0.0019010999420109587 0 0.014061756669221489 0.0044682222440295587 0 0.015566120576291155 0.0039114010739306135 0 0.014634362753401259 0.0019010999420109587 0 0.014135697273416377 0.0024227491461962735 0 0.014101681582293744 0.0011492505769429651 0 0.014135697273416377 0.0024227491461962735 0 0.013313677524029665 0.0029763479300808603 0 0.014101681582293744 0.0011492505769429651 0 0.012785908582793807 0.0055232849760157316 0 0.012804068715763301 0.0055190780043548378 0 0.01281792950806521 0.0055125803125346462 0 0.014712275641345361 0.0024331413224684701 0 0.014634362753401259 0.0019010999420109587 0 0.014135697273416377 0.0024227491461962735 0 0.012804142088274337 0.0055213544872363849 0 0.012785908582793807 0.0055232849760157316 0 0.012814980116030203 0.0055135976971615284 0 0.012804142088274337 0.0055213544872363849 0 0.012785908582793807 0.0055232849760157316 0 0.012804068715763301 0.0055190780043548378 0 0.012804142088274337 0.0055213544872363849 0 0.012804068715763301 0.0055190780043548378 0 0.012813752986258576 0.0055248709493643973 0 0.012785908582793807 0.0055232849760157316 0 0.012814980116030203 0.0055135976971615284 0 0.012805598471566211 0.0054654425229212445 0 0.013399192302062539 0.0040138530767250781 0 0.013718725006205317 0.0036730684675244747 0 0.013313677524029665 0.0029763479300808603 0 0.013718725006205317 0.0036730684675244747 0 0.013313677524029665 0.0029763479300808603 0 0.013981039627078862 0.0031346473416595079 0 0.01437647234723593 0.0036450351441126324 0 0.014661202672475506 0.0030602652380797494 0 0.013981039627078862 0.0031346473416595079 0 0.01437647234723593 0.0036450351441126324 0 0.013718725006205317 0.0036730684675244747 0 0.013981039627078862 0.0031346473416595079 0 0.014661202672475506 0.0030602652380797494 0 0.014135697273416377 0.0024227491461962735 0 0.013981039627078862 0.0031346473416595079 0 0.014135697273416377 0.0024227491461962735 0 0.013313677524029665 0.0029763479300808603 0 0.013981039627078862 0.0031346473416595079 0 0.011735421695004687 -0.0064663580319441619 0 0.011826956974191939 -0.0065845625701228244 0 0.011859588134505475 -0.0063887338643291592 0 0.011600607795407017 -0.006416922268824476 0 0.011716672678016859 -0.0063515636177381004 0 0.011735421695004687 -0.0064663580319441619 0 0.011716672678016859 -0.0063515636177381004 0 0.011735421695004687 -0.0064663580319441619 0 0.011859588134505475 -0.0063887338643291592 0 0.011583350741319639 -0.0066232532739350413 0 0.011735421695004687 -0.0064663580319441619 0 0.011826956974191939 -0.0065845625701228244 0 0.011583350741319639 -0.0066232532739350413 0 0.011667006837901435 -0.0068302927881847527 0 0.011826956974191939 -0.0065845625701228244 0 0.011952252320286884 -0.0067277117175375475 0 0.011667006837901435 -0.0068302927881847527 0 0.011826956974191939 -0.0065845625701228244 0 0.011826956974191939 -0.0065845625701228244 0 0.011985496543058312 -0.0065719353757049412 0 0.011998179673660831 -0.0064593097729007684 0 0.011952252320286884 -0.0067277117175375475 0 0.011985496543058312 -0.0065719353757049412 0 0.012191550398702043 -0.0065181688308866108 0 0.011952252320286884 -0.0067277117175375475 0 0.011826956974191939 -0.0065845625701228244 0 0.011985496543058312 -0.0065719353757049412 0 0.011826956974191939 -0.0065845625701228244 0 0.011998179673660831 -0.0064593097729007684 0 0.011859588134505475 -0.0063887338643291592 0 0.011998179673660831 -0.0064593097729007684 0 0.011859588134505475 -0.0063887338643291592 0 0.012058477664311996 -0.0062791311715236324 0 0.01316147022598692 -0.0042858305223307316 0 0.013622114596948681 -0.0030429932438543156 0 0.012164455525538782 -0.0063407406840995714 0 0.012494386230630747 -0.0062294661856210709 0 0.012075819729889699 -0.0061493407879707985 0 0.011998179673660831 -0.0064593097729007684 0 0.012164455525538782 -0.0063407406840995714 0 0.012075819729889699 -0.0061493407879707985 0 0.012164455525538782 -0.0063407406840995714 0 0.012191550398702043 -0.0065181688308866108 0 0.012494386230630747 -0.0062294661856210709 0 0.011998179673660831 -0.0064593097729007684 0 0.012164455525538782 -0.0063407406840995714 0 0.012191550398702043 -0.0065181688308866108 0 0.0059993832017896393 -0.005153871179843895 0 0.0035552032407900366 -0.0041573394767714213 0 0.0061519618183351957 -0.0039119703853858316 0 0.0074099002089546423 -0.0027089060809082841 0 0.0080924808308787555 -0.0033441018333873777 0 0.0059993832017896393 -0.005153871179843895 0 0.0091394892105195382 -0.0034692582382556641 0 0.011985496543058312 -0.0065719353757049412 0 0.011998179673660831 -0.0064593097729007684 0 0.012191550398702043 -0.0065181688308866108 0 0.007033090917325683 -0.00032666207277374018 0 0.0035552032407900366 -0.0041573394767714213 0 0.0074099002089546423 -0.0027089060809082841 0 0.0080924808308787555 -0.0033441018333873777 0 0.0086000930208591283 -0.0023850371303058759 0 0.010017190346984561 -0.0027849223353366022 0 0.0080924808308787555 -0.0033441018333873777 0 0.0086000930208591283 -0.0023850371303058759 0 0.0091394892105195382 -0.0034692582382556641 0 0.012585278470893945 -0.00077888522521715254 0 0.0074099002089546423 -0.0027089060809082841 0 0.0086000930208591283 -0.0023850371303058759 0 0.008722339849769117 -0.0014728911179650004 0 0.010017190346984561 -0.0027849223353366022 0 0.0086000930208591283 -0.0023850371303058759 0 0.008722339849769117 -0.0014728911179650004 0 0.012585278470893945 -0.00077888522521715254 0 0.015087397635387073 -0.0013675351666776856 0 0.01712345104138575 0.0036996430985589595 0 0.017023191433008119 0.0023893522500428779 0 0.018177910071927487 0.0026156337798680391 0 0.013328550069670255 -0.0012241487114137473 0 0.014609544439694439 -0.0025168915278047962 0 0.014234388319478869 -0.0018008020585271647 0 0.016449942746994347 -5.4355488194710017e-05 0 0.015087397635387073 -0.0013675351666776856 0 0.017416846286238966 0.0021424084796842864 0 0.017503433234018127 0.001805283607698812 0 0.01749616903725033 0.0018535892137745806 0 0.016718192322506244 0.0016991739601943912 0 0.017416846286238966 0.0021424084796842864 0 0.017679192221552772 0.0017310654522230177 0 0.017416846286238966 0.0021424084796842864 0 0.017679192221552772 0.0017310654522230177 0 0.01749616903725033 0.0018535892137745806 0 0.017679192221552772 0.0017310654522230177 0 0.01749616903725033 0.0018535892137745806 0 0.017237571221891703 0.0020314033075057758 0 0.01749616903725033 0.0018535892137745806 0 0.017489171241352533 0.001796418524767374 0 0.017237571221891703 0.0020314033075057758 0 0.01568007963913029 -0.0018949001417882625 0 0.015896378488629955 -0.0021145265300087234 0 0.015597148648067764 -0.0021584981412729968 0 0.015155969711442896 -0.0014647022208740823 0 0.017215408375312952 -0.00092446895069112913 0 0.017503433234018127 0.001805283607698812 0 0.01749616903725033 0.0018535892137745806 0 0.017489171241352533 0.001796418524767374 0 0.014977970941453912 -0.0032718865065695011 0 0.014960856975748721 -0.0033243993200458726 0 0.014625105209489868 -0.002918810878887769 0 0.015155969711442896 -0.0014647022208740823 0 0.014889029405050332 -0.0016302112171332236 0 0.014854639100982113 -0.00068336944799911358 0 0.015830018511036978 -0.0016693593697856106 0 0.016240283848182324 -0.00040444776765493045 0 0.015087397635387073 -0.0013675351666776856 0 0.014889029405050332 -0.0016302112171332236 0 0.015087397635387073 -0.0013675351666776856 0 0.015155969711442896 -0.0014647022208740823 0 0.014889029405050332 -0.0016302112171332236 0 0.013622114596948681 -0.0030429932438543156 0 0.01478506565329586 -0.0024818049113797926 0 0.014234388319478869 -0.0018008020585271647 0 0.015068232015912796 -0.0016058342609178687 0 0.013328550069670255 -0.0012241487114137473 0 0.014234388319478869 -0.0018008020585271647 0 0.015068232015912796 -0.0016058342609178687 0 0.012585278470893945 -0.00077888522521715254 0 0.013622114596948681 -0.0030429932438543156 0 0.014609544439694439 -0.0025168915278047962 0 0.01478506565329586 -0.0024818049113797926 0 0.014234388319478869 -0.0018008020585271647 0 0.014889029405050332 -0.0016302112171332236 0 0.013133275579172252 -0.0035206671476882409 0 0.013622114596948681 -0.0030429932438543156 0 0.013133275579172252 -0.0035206671476882409 0 0.01347878486348182 -0.0030662594245299004 0 0.01351248864817252 -0.0029604276928293142 0 0.013731113511264102 -0.0030204782687122253 0 0.011859588134505475 -0.0063887338643291592 0 0.012058477664311996 -0.0062791311715236324 0 0.011773947992576228 -0.0062205668588608265 0 0.014960856975748721 -0.0033243993200458726 0 0.014272947258090156 -0.0034708926147360665 0 0.014625105209489868 -0.002918810878887769 0 0.015155969711442896 -0.0014647022208740823 0 0.015930311781795162 -0.0024405171698650978 0 0.014103666793312828 -0.0030049291457796196 0 0.014272947258090156 -0.0034708926147360665 0 0.014625105209489868 -0.002918810878887769 0 0.012701594971172714 -0.0037732994011998914 0 0.013133275579172252 -0.0035206671476882409 0 0.011716672678016859 -0.0063515636177381004 0 0.011859588134505475 -0.0063887338643291592 0 0.011773947992576228 -0.0062205668588608265 0 0.011619933167423005 -0.006265761813578608 0 0.011716672678016859 -0.0063515636177381004 0 0.011773947992576228 -0.0062205668588608265 0 0.015569409930057931 -0.0038625165370120241 0 0.016735858539718165 -0.0041904396833332518 0 0.01618471051248116 -0.0048611741020902618 0 0.016735858539718165 -0.0041904396833332518 0 0.01618471051248116 -0.0048611741020902618 0 0.01711327630507398 -0.0048442399843186996 0 0.015874359568713171 -0.0059749335987964699 0 0.01618471051248116 -0.0048611741020902618 0 0.016950836819788397 -0.0054443496915125584 0 0.015874359568713171 -0.0059749335987964699 0 0.016950836819788397 -0.0054443496915125584 0 0.017257853232225246 -0.0057522038018288143 0 0.014873849691135669 -0.0034215491012124597 0 0.015930311781795162 -0.0024405171698650978 0 0.01618471051248116 -0.0048611741020902618 0 0.016950836819788397 -0.0054443496915125584 0 0.01711327630507398 -0.0048442399843186996 0 0.016950836819788397 -0.0054443496915125584 0 0.017508015907752347 -0.0052862700199284825 0 0.01711327630507398 -0.0048442399843186996 0 0.016950836819788397 -0.0054443496915125584 0 0.01724444306283035 -0.0057116545917648793 0 0.017508015907752347 -0.0052862700199284825 0 0.016063132639516999 -0.0026116662715404081 0 0.015930311781795162 -0.0024405171698650978 0 0.017508015907752347 -0.0052862700199284825 0 0.01711327630507398 -0.0048442399843186996 0 0.01778196904976596 -0.0049170260546781809 0 0.01711327630507398 -0.0048442399843186996 0 0.017558354280016994 -0.0043543725913544338 0 0.01778196904976596 -0.0049170260546781809 0 0.016735858539718165 -0.0041904396833332518 0 0.01711327630507398 -0.0048442399843186996 0 0.017558354280016994 -0.0043543725913544338 0 0.016735858539718165 -0.0041904396833332518 0 0.017558354280016994 -0.0043543725913544338 0 0.017695325684926107 -0.003753732143177836 0 0.017558354280016994 -0.0043543725913544338 0 0.01778196904976596 -0.0049170260546781809 0 0.018823564903636923 -0.0041367002634246511 0 0.01778196904976596 -0.0049170260546781809 0 0.018397501465907868 -0.0054899008138852984 0 0.018823564903636923 -0.0041367002634246511 0 0.01724444306283035 -0.0057116545917648793 0 0.017508015907752347 -0.0052862700199284825 0 0.018397501465907868 -0.0054899008138852984 0 0.015930311781795162 -0.0024405171698650978 0 0.017215408375312952 -0.00092446895069112913 0 0.017508015907752347 -0.0052862700199284825 0 0.01778196904976596 -0.0049170260546781809 0 0.018397501465907868 -0.0054899008138852984 0 0.017679192221552772 0.0017310654522230177 0 0.017237571221891703 0.0020314033075057758 0 0.018298597453673602 0.0026252512675773504 0 0.021655320103204572 0.0030544201567781508 0 0.021267283550009397 0.0030024838591816436 0 0.021480176364211349 0.0024281449619769631 0 0.017215408375312952 -0.00092446895069112913 0 0.019001954448377326 0.0001641339047666744 0 0.021267283550009397 0.0030024838591816436 0 0.021480176364211349 0.0024281449619769631 0 0.021130687181684059 0.0026231900166627862 0 0.017215408375312952 -0.00092446895069112913 0 0.018976402082691041 -0.00062364865995039943 0 0.018976402082691041 -0.00062364865995039943 0 0.019849548320695656 -0.00049613956734158966 0 0.021480176364211349 0.0024281449619769631 0 0.021407925996995678 0.0018052764114657915 0 0.021029756962108379 0.0023003273129866496 0 0.018823564903636923 -0.0041367002634246511 0 0.019265356815170148 -0.0031416513075251343 0 0.018370594316716025 -0.0032698345790001439 0 0.019265356815170148 -0.0031416513075251343 0 0.018370594316716025 -0.0032698345790001439 0 0.018390195533628771 -0.002560397471206695 0 0.018370594316716025 -0.0032698345790001439 0 0.017315922383534504 -0.0029380129347473627 0 0.018390195533628771 -0.002560397471206695 0 0.017558354280016994 -0.0043543725913544338 0 0.018823564903636923 -0.0041367002634246511 0 0.017695325684926107 -0.003753732143177836 0 0.018823564903636923 -0.0041367002634246511 0 0.018370594316716025 -0.0032698345790001439 0 0.017695325684926107 -0.003753732143177836 0 0.016735858539718165 -0.0041904396833332518 0 0.017695325684926107 -0.003753732143177836 0 0.016388057109549738 -0.003326036761164539 0 0.017259642339427044 -0.0031596552608522959 0 0.016910413151868652 -0.0025527788701527779 0 0.017695325684926107 -0.003753732143177836 0 0.016388057109549738 -0.003326036761164539 0 0.016617246580716248 -0.002156799993719078 0 0.018370594316716025 -0.0032698345790001439 0 0.017695325684926107 -0.003753732143177836 0 0.017315922383534504 -0.0029380129347473627 0 0.01546204207141233 -0.0026984295751911751 0 0.016617246580716248 -0.002156799993719078 0 0.015489397845182877 -0.0018850906044752822 0 0.01546204207141233 -0.0026984295751911751 0 0.016388057109549738 -0.003326036761164539 0 0.016617246580716248 -0.002156799993719078 0 0.015569409930057931 -0.0038625165370120241 0 0.016735858539718165 -0.0041904396833332518 0 0.016388057109549738 -0.003326036761164539 0 0.015569409930057931 -0.0038625165370120241 0 0.01546204207141233 -0.0026984295751911751 0 0.016388057109549738 -0.003326036761164539 0 0.020413568037282091 0.0027983694395000789 0 0.020616805301110892 0.0026847654375541743 0 0.020352867766714963 0.0025160650321081079 0 0.020413568037282091 0.0027983694395000789 0 0.020038289619923995 0.0026748951576676485 0 0.020352867766714963 0.0025160650321081079 0 0.018235742881471798 0.0034344240207945854 0 0.019129478182679249 0.0030140580998104238 0 0.018175879393233074 0.0034520797575012716 0 0.018235742881471798 0.0034344240207945854 0 0.016803691898685393 0.003837834061799677 0 0.016796303492225828 0.0038390528434020673 0 0.016798008603655455 0.0038418167682537792 0 0.016796303492225828 0.0038390528434020673 0 0.016798008603655455 0.0038418167682537792 0 0.01679385450431474 0.0038439172112921839 0 0.016798008603655455 0.0038418167682537792 0 0.016795691730310734 0.0038473327499085998 0 0.016801869470634438 0.0038409306119257945 0 0.01679385450431474 0.0038439172112921839 0 0.016795691730310734 0.0038473327499085998 0 0.016788629496395559 0.0038504697410583072 0 0.015207010652666386 0.0044608604676157713 0 0.015293595378820466 0.0048852642059768383 0 0.016798008603655455 0.0038418167682537792 0 0.01679385450431474 0.0038439172112921839 0 0.016795691730310734 0.0038473327499085998 0 0.016795691730310734 0.0038473327499085998 0 0.016801869470634438 0.0038409306119257945 0 0.016803630800858033 0.0038426368735904911 0 0.015207010652666386 0.0044608604676157713 0 0.015566120576291155 0.0039114010739306135 0 0.016803691898685393 0.003837834061799677 0 0.016798008603655455 0.0038418167682537792 0 0.016801869470634438 0.0038409306119257945 0 0.016803691898685393 0.003837834061799677 0 0.016801869470634438 0.0038409306119257945 0 0.016805253203519246 0.0038392285204051839 0 0.016801869470634438 0.0038409306119257945 0 0.016805253203519246 0.0038392285204051839 0 0.016803630800858033 0.0038426368735904911 0 0.015581266217169952 0.0038988973394655613 0 0.015566120576291155 0.0039114010739306135 0 0.014101681582293744 0.0011492505769429651 0 0.01518326496850839 0.0014840984459538976 0 0.015601826972662391 0.00074725185072060712 0 0.016805253203519246 0.0038392285204051839 0 0.016803784413615155 0.0038408885403863799 0 0.016813868545716384 0.0038337122568102163 0 0.016803691898685393 0.003837834061799677 0 0.016805253203519246 0.0038392285204051839 0 0.016813868545716384 0.0038337122568102163 0 0.018175879393233074 0.0034520797575012716 0 0.017350166682497024 0.0033137820502615418 0 0.015566120576291155 0.0039114010739306135 0 0.017350166682497024 0.0033137820502615418 0 0.014634362753401259 0.0019010999420109587 0 0.014101681582293744 0.0011492505769429651 0 0.01518326496850839 0.0014840984459538976 0 0.01518326496850839 0.0014840984459538976 0 0.015601826972662391 0.00074725185072060712 0 0.015856783757003556 0.0014761812864019373 0 0.020836856463300909 0.0028621795775090591 0 0.020818120680142601 0.0028078882851586382 0 0.020616805301110892 0.0026847654375541743 0 0.020927879157144835 0.0028284242285899525 0 0.020836856463300909 0.0028621795775090591 0 0.020818120680142601 0.0028078882851586382 0 0.01737691653499367 0.0033086924469219797 0 0.017350166682497024 0.0033137820502615418 0 0.021267283550009397 0.0030024838591816436 0 0.020669518558042776 0.0028955559987102197 0 0.020916022912233177 0.0027738382538443885 0 0.017679192221552772 0.0017310654522230177 0 0.018298597453673602 0.0026252512675773504 0 0.020669518558042776 0.0028955559987102197 0 0.017679192221552772 0.0017310654522230177 0 0.020927879157144835 0.0028284242285899525 0 0.020669518558042776 0.0028955559987102197 0 0.016718192322506244 0.0016991739601943912 0 0.017679192221552772 0.0017310654522230177 0 0.015601826972662391 0.00074725185072060712 0 0.017679192221552772 0.0017310654522230177 0 0.020927879157144835 0.0028284242285899525 0 0.021226773455202658 0.0027494851904909692 0 0.019001954448377326 0.0001641339047666744 0 0.019542259655339379 0.00050013659116362877 0 0.017498654491914171 0.0029315281119103712 0 0.017350166682497024 0.0033137820502615418 0 0.016718192322506244 0.0016991739601943912 0 0.015601826972662391 0.00074725185072060712 0 0.015856783757003556 0.0014761812864019373 0 0.020927879157144835 0.0028284242285899525 0 0.020818120680142601 0.0028078882851586382 0 0.020669518558042776 0.0028955559987102197 0 0.020818120680142601 0.0028078882851586382 0 0.020669518558042776 0.0028955559987102197 0 0.020916022912233177 0.0027738382538443885 0 0.021267283550009397 0.0030024838591816436 0 0.020916022912233177 0.0027738382538443885 0 0.021130687181684059 0.0026231900166627862 0 0.021480176364211349 0.0024281449619769631 0 0.021130687181684059 0.0026231900166627862 0 0.021029756962108379 0.0023003273129866496 0 0.020916022912233177 0.0027738382538443885 0 0.021130687181684059 0.0026231900166627862 0 0.020891796179846236 0.0026399953519551296 0 0.020818120680142601 0.0028078882851586382 0 0.020916022912233177 0.0027738382538443885 0 0.020891796179846236 0.0026399953519551296 0 0.020891796179846236 0.0026399953519551296 0 0.020804051613030731 0.0024962257893479073 0 0.021029756962108379 0.0023003273129866496 0 0.021130687181684059 0.0026231900166627862 0 0.020891796179846236 0.0026399953519551296 0 0.021029756962108379 0.0023003273129866496 0 0.020413568037282091 0.0027983694395000789 0 0.020836856463300909 0.0028621795775090591 0 0.020616805301110892 0.0026847654375541743 0 0.020616805301110892 0.0026847654375541743 0 0.020804051613030731 0.0024962257893479073 0 0.020662069504993223 0.0023244915883988749 0 0.020818120680142601 0.0028078882851586382 0 0.020891796179846236 0.0026399953519551296 0 0.020616805301110892 0.0026847654375541743 0 0.020891796179846236 0.0026399953519551296 0 0.020616805301110892 0.0026847654375541743 0 0.020804051613030731 0.0024962257893479073 0 0.020804051613030731 0.0024962257893479073 0 0.020662069504993223 0.0023244915883988749 0 0.021029756962108379 0.0023003273129866496 0 0.020662069504993223 0.0023244915883988749 0 0.021029756962108379 0.0023003273129866496 0 0.020794059350571242 0.0017900360918863842 0 0.021407925996995678 0.0018052764114657915 0 0.021029756962108379 0.0023003273129866496 0 0.020794059350571242 0.0017900360918863842 0 0.020794059350571242 0.0017900360918863842 0 0.020258536701358361 0.0019691199537380682 0 0.020051895494862106 0.0012676078639234059 0 0.020662069504993223 0.0023244915883988749 0 0.020794059350571242 0.0017900360918863842 0 0.020258536701358361 0.0019691199537380682 0 0.020616805301110892 0.0026847654375541743 0 0.020662069504993223 0.0023244915883988749 0 0.020352867766714963 0.0025160650321081079 0 0.020662069504993223 0.0023244915883988749 0 0.020258536701358361 0.0019691199537380682 0 0.020352867766714963 0.0025160650321081079 0 0.019588057537430578 0.0031169363970534156 0 0.019765808442345139 0.0022848360236434589 0 0.019258047961728923 0.0026125001895639607 0 0.020258536701358361 0.0019691199537380682 0 0.020352867766714963 0.0025160650321081079 0 0.019765808442345139 0.0022848360236434589 0 0.019588057537430578 0.0031169363970534156 0 0.020352867766714963 0.0025160650321081079 0 0.019765808442345139 0.0022848360236434589 0 0.019817217100711822 0.001808101328990159 0 0.019142220294576115 0.0017552092228049888 0 0.020051895494862106 0.0012676078639234059 0 0.020258536701358361 0.0019691199537380682 0 0.019817217100711822 0.001808101328990159 0 0.020051895494862106 0.0012676078639234059 0 0.019765808442345139 0.0022848360236434589 0 0.019817217100711822 0.001808101328990159 0 0.019142220294576115 0.0017552092228049888 0 0.020258536701358361 0.0019691199537380682 0 0.019765808442345139 0.0022848360236434589 0 0.019817217100711822 0.001808101328990159 0 0.020216501582828051 0.0017862382562568685 0 0.019720302352193516 0.0017149676455353699 0 0.019638055842591987 0.0019826972795470286 0 0.020216501582828051 0.0017862382562568685 0 0.019720302352193516 0.0017149676455353699 0 0.019975649680566986 0.0015344785595156455 0 0.020216501582828051 0.0017862382562568685 0 0.019638055842591987 0.0019826972795470286 0 0.019697478383530118 0.0023146428821744142 0 0.017984423534402515 0.0032204482887543909 0 0.018766998853756069 0.002540137660482241 0 0.018024451033064517 0.0039539351864649134 0 0.019423107161328852 0.0019442886132321306 0 0.018267141343092274 0.0028922525876424491 0 0.019142220294576115 0.0017552092228049888 0 0.017707959550042261 0.0027880054378326825 0 0.018113590564964224 0.0027301255569198153 0 0.017542027350479057 0.0028630467070984993 0 0.017984423534402515 0.0032204482887543909 0 0.017462591467603639 0.003741877727542582 0 0.017542027350479057 0.0028630467070984993 0 0.017984423534402515 0.0032204482887543909 0 0.018113590564964224 0.0027301255569198153 0 0.018267141343092274 0.0028922525876424491 0 0.018253854805319061 0.0028924417865136766 0 0.017984423534402515 0.0032204482887543909 0 0.018113590564964224 0.0027301255569198153 0 0.018766998853756069 0.002540137660482241 0 0.019258047961728923 0.0026125001895639607 0 0.018766998853756069 0.002540137660482241 0 0.018947284573028789 0.002971625861705397 0 0.019142220294576115 0.0017552092228049888 0 0.018113590564964224 0.0027301255569198153 0 0.018766998853756069 0.002540137660482241 0 0.019765808442345139 0.0022848360236434589 0 0.019142220294576115 0.0017552092228049888 0 0.019258047961728923 0.0026125001895639607 0 0.019142220294576115 0.0017552092228049888 0 0.019258047961728923 0.0026125001895639607 0 0.018766998853756069 0.002540137660482241 0 0.018498446342275449 0.0033984446686662942 0 0.017230804374598129 0.0039855459213694365 0 0.017603597153106668 0.0033031392572084755 0 0.017964907352808996 0.0029649198061263847 0 0.018498446342275449 0.0033984446686662942 0 0.018314637749946766 0.0024459993971389501 0 0.017964907352808996 0.0029649198061263847 0 0.017603597153106668 0.0033031392572084755 0 0.017412175847064754 0.0027071911621768595 0 0.017964907352808996 0.0029649198061263847 0 0.018498446342275449 0.0033984446686662942 0 0.017603597153106668 0.0033031392572084755 0 0.019720302352193516 0.0017149676455353699 0 0.019120369576260416 0.0019098928373666015 0 0.019623019007198032 0.0012938179230916759 0 0.019720302352193516 0.0017149676455353699 0 0.019638055842591987 0.0019826972795470286 0 0.019120369576260416 0.0019098928373666015 0 0.019638055842591987 0.0019826972795470286 0 0.019120369576260416 0.0019098928373666015 0 0.019405268292228446 0.0021806176170172096 0 0.019697478383530118 0.0023146428821744142 0 0.019405268292228446 0.0021806176170172096 0 0.019162308215670262 0.0024480549457027742 0 0.017202115086382884 0.0033674561091387801 0 0.016150606048498401 0.0036294962730816296 0 0.01655138463026638 0.0039816548689162127 0 0.019120369576260416 0.0019098928373666015 0 0.019405268292228446 0.0021806176170172096 0 0.019162308215670262 0.0024480549457027742 0 0.018267141343092274 0.0028922525876424491 0 0.01763010801062085 0.0032480601441811871 0 0.019638055842591987 0.0019826972795470286 0 0.019697478383530118 0.0023146428821744142 0 0.019405268292228446 0.0021806176170172096 0 0.018267141343092274 0.0028922525876424491 0 0.01786716398712521 0.0032154142871115626 0 0.018406067399150836 0.0025928869064120444 0 0.016869830197372589 0.0036903455513573121 0 0.019120369576260416 0.0019098928373666015 0 0.019162308215670262 0.0024480549457027742 0 0.018608138774548848 0.0025751727650282813 0 0.018498446342275449 0.0033984446686662942 0 0.017295841147920644 0.0049572076200500061 0 0.017230804374598129 0.0039855459213694365 0 0.01763010801062085 0.0032480601441811871 0 0.016869830197372589 0.0036903455513573121 0 0.016150606048498401 0.0036294962730816296 0 0.015502147500604895 0.0041725441163383472 0 0.015047197264931348 0.0040712046641719389 0 0.015313576115632974 0.0045583093857713072 0 0.015502147500604895 0.0041725441163383472 0 0.015842611701730513 0.0042044673708026229 0 0.015313576115632974 0.0045583093857713072 0 0.015842611701730513 0.0042044673708026229 0 0.015682306055697454 0.0046749932550242904 0 0.015313576115632974 0.0045583093857713072 0 0.015502147500604895 0.0041725441163383472 0 0.015162429950101721 0.0043761779232503783 0 0.016150606048498401 0.0036294962730816296 0 0.015502147500604895 0.0041725441163383472 0 0.015842611701730513 0.0042044673708026229 0 0.015842611701730513 0.0042044673708026229 0 0.015682306055697454 0.0046749932550242904 0 0.016116137294243854 0.0044904548179643365 0 0.015842611701730513 0.0042044673708026229 0 0.016116137294243854 0.0044904548179643365 0 0.01655138463026638 0.0039816548689162127 0 0.016116137294243854 0.0044904548179643365 0 0.01655138463026638 0.0039816548689162127 0 0.016542415808532999 0.0046909319784567381 0 0.016150606048498401 0.0036294962730816296 0 0.015842611701730513 0.0042044673708026229 0 0.01655138463026638 0.0039816548689162127 0 0.017542027350479057 0.0028630467070984993 0 0.01655138463026638 0.0039816548689162127 0 0.017462591467603639 0.003741877727542582 0 0.01655138463026638 0.0039816548689162127 0 0.017285722856824899 0.0044586700711385721 0 0.017462591467603639 0.003741877727542582 0 0.01655138463026638 0.0039816548689162127 0 0.017285722856824899 0.0044586700711385721 0 0.016542415808532999 0.0046909319784567381 0 0.017285722856824899 0.0044586700711385721 0 0.016785198634035797 0.0054082656887855171 0 0.016542415808532999 0.0046909319784567381 0 0.016785198634035797 0.0054082656887855171 0 0.016542415808532999 0.0046909319784567381 0 0.016068137810547365 0.0050901580858499643 0 0.016116137294243854 0.0044904548179643365 0 0.016542415808532999 0.0046909319784567381 0 0.016068137810547365 0.0050901580858499643 0 0.016068137810547365 0.0050901580858499643 0 0.01512799624888472 0.0057614018531618868 0 0.015181551063181802 0.0053157194235979805 0 0.016785198634035797 0.0054082656887855171 0 0.016068137810547365 0.0050901580858499643 0 0.01512799624888472 0.0057614018531618868 0 0.015682306055697454 0.0046749932550242904 0 0.016116137294243854 0.0044904548179643365 0 0.016068137810547365 0.0050901580858499643 0 0.015682306055697454 0.0046749932550242904 0 0.016068137810547365 0.0050901580858499643 0 0.015598864857281831 0.0050157244102514474 0 0.016068137810547365 0.0050901580858499643 0 0.015598864857281831 0.0050157244102514474 0 0.015181551063181802 0.0053157194235979805 0 0.015598864857281831 0.0050157244102514474 0 0.01523077204989442 0.0050001782271589254 0 0.015181551063181802 0.0053157194235979805 0 0.015682306055697454 0.0046749932550242904 0 0.015598864857281831 0.0050157244102514474 0 0.01523077204989442 0.0050001782271589254 0 0.015313576115632974 0.0045583093857713072 0 0.015682306055697454 0.0046749932550242904 0 0.01523077204989442 0.0050001782271589254 0 0.01728179394740334 0.0036454137570748799 0 0.016999052898768633 0.0041436032603052245 0 0.018766998853756069 0.002540137660482241 0 0.019009465252019117 0.0034175020290948162 0 0.018947284573028789 0.002971625861705397 0 0.016796303492225828 0.0038390528434020673 0 0.01679385450431474 0.0038439172112921839 0 0.016790806537343241 0.0038421921032405315 0 0.018235742881471798 0.0034344240207945854 0 0.016999052898768633 0.0041436032603052245 0 0.018235742881471798 0.0034344240207945854 0 0.018420823736329632 0.0034468526266618429 0 0.019481713930521061 0.0031679268505788848 0 0.019009465252019117 0.0034175020290948162 0 0.018947284573028789 0.002971625861705397 0 0.019588057537430578 0.0031169363970534156 0 0.019258047961728923 0.0026125001895639607 0 0.018947284573028789 0.002971625861705397 0 0.018766998853756069 0.002540137660482241 0 0.019052794709485465 0.0044696718698800115 0 0.018024451033064517 0.0039539351864649134 0 0.017285722856824899 0.0044586700711385721 0 0.019052794709485465 0.0044696718698800115 0 0.018024451033064517 0.0039539351864649134 0 0.017285722856824899 0.0044586700711385721 0 0.018024451033064517 0.0039539351864649134 0 0.017462591467603639 0.003741877727542582 0 0.017984423534402515 0.0032204482887543909 0 0.018024451033064517 0.0039539351864649134 0 0.017462591467603639 0.003741877727542582 0 0.017285722856824899 0.0044586700711385721 0 0.016785198634035797 0.0054082656887855171 0 0.019052794709485465 0.0044696718698800115 0 0.016325343466000421 0.004928422039457374 0 0.016999052898768633 0.0041436032603052245 0 0.015929457802244064 0.0053725781820320997 0 0.016667576371343147 0.0050018558985146112 0 0.016378391228186278 0.0053465820035898176 0 0.016378391228186278 0.0053465820035898176 0 0.016276498488574934 0.0055052734102942957 0 0.016767243253547344 0.0055665073136023707 0 0.015929457802244064 0.0053725781820320997 0 0.016378391228186278 0.0053465820035898176 0 0.016276498488574934 0.0055052734102942957 0 0.016999052898768633 0.0041436032603052245 0 0.015293595378820466 0.0048852642059768383 0 0.01679385450431474 0.0038439172112921839 0 0.016790806537343241 0.0038421921032405315 0 0.016788629496395559 0.0038504697410583072 0 0.016667576371343147 0.0050018558985146112 0 0.016378391228186278 0.0053465820035898176 0 0.016767243253547344 0.0055665073136023707 0 0.012804142088274337 0.0055213544872363849 0 0.012813752986258576 0.0055248709493643973 0 0.012814980116030203 0.0055135976971615284 0 0.012877074966692426 0.0059626912625380755 0 0.012831930872737665 0.0057342262256814746 0 0.013041278389988168 0.0058132227345286261 0 0.015293595378820466 0.0048852642059768383 0 0.014699835682408348 0.0051462923990889921 0 0.014699835682408348 0.0051462923990889921 0 0.014510262654589453 0.0051944955471221101 0 0.012831930872737665 0.0057342262256814746 0 0.012956123095475286 0.0055498410588269969 0 0.012805598471566211 0.0054654425229212445 0 0.012831930872737665 0.0057342262256814746 0 0.012983886465224151 0.0056837084142270329 0 0.012956123095475286 0.0055498410588269969 0 0.012831930872737665 0.0057342262256814746 0 0.012983886465224151 0.0056837084142270329 0 0.013041278389988168 0.0058132227345286261 0 0.013101562035499654 0.0056374600178554909 0 0.013198515141781173 0.0057272168184204384 0 0.013231713805441081 0.0055779856711185702 0 0.012983886465224151 0.0056837084142270329 0 0.012956123095475286 0.0055498410588269969 0 0.013101562035499654 0.0056374600178554909 0 0.012983886465224151 0.0056837084142270329 0 0.013101562035499654 0.0056374600178554909 0 0.013041278389988168 0.0058132227345286261 0 0.013101562035499654 0.0056374600178554909 0 0.013198515141781173 0.0057272168184204384 0 0.013041278389988168 0.0058132227345286261 0 0.015293595378820466 0.0048852642059768383 0 0.014679829150344334 0.0054337677081688013 0 0.013198515141781173 0.0057272168184204384 0 0.013041278389988168 0.0058132227345286261 0 0.013234206381567318 0.0059069467842877707 0 0.012877074966692426 0.0059626912625380755 0 0.013041278389988168 0.0058132227345286261 0 0.013234206381567318 0.0059069467842877707 0 0.016276498488574934 0.0055052734102942957 0 0.016767243253547344 0.0055665073136023707 0 0.016028910403351963 0.0057323430002116302 0 0.015929457802244064 0.0053725781820320997 0 0.016276498488574934 0.0055052734102942957 0 0.016028910403351963 0.0057323430002116302 0 0.014679829150344334 0.0054337677081688013 0 0.014467067499737639 0.0056519733792131707 0 0.015929457802244064 0.0053725781820320997 0 0.016028910403351963 0.0057323430002116302 0 0.015585790084869603 0.0056987632942410403 0 0.016028910403351963 0.0057323430002116302 0 0.015585790084869603 0.0056987632942410403 0 0.015247765538376257 0.0059270200338633026 0 0.015929457802244064 0.0053725781820320997 0 0.015585790084869603 0.0056987632942410403 0 0.01512799624888472 0.0057614018531618868 0 0.013234206381567318 0.0059069467842877707 0 0.013642428510761622 0.0058978217606159783 0 0.013505182974373734 0.0057858896968722576 0 0.016325343466000421 0.004928422039457374 0 0.015758362336119769 0.0053021900855503151 0 0.015585790084869603 0.0056987632942410403 0 0.015247765538376257 0.0059270200338633026 0 0.01512799624888472 0.0057614018531618868 0 0.013580976654133617 0.0056441765641675641 0 0.013370848452365709 0.0056909907924615304 0 0.013326770732295186 0.0054123329465926972 0 0.013505182974373734 0.0057858896968722576 0 0.013580976654133617 0.0056441765641675641 0 0.013748951117323282 0.0057680895334024746 0 0.013642428510761622 0.0058978217606159783 0 0.013505182974373734 0.0057858896968722576 0 0.013748951117323282 0.0057680895334024746 0 0.013505182974373734 0.0057858896968722576 0 0.013580976654133617 0.0056441765641675641 0 0.013370848452365709 0.0056909907924615304 0 0.013234206381567318 0.0059069467842877707 0 0.013505182974373734 0.0057858896968722576 0 0.013370848452365709 0.0056909907924615304 0 0.013198515141781173 0.0057272168184204384 0 0.013234206381567318 0.0059069467842877707 0 0.013370848452365709 0.0056909907924615304 0 0.013198515141781173 0.0057272168184204384 0 0.013370848452365709 0.0056909907924615304 0 0.013231713805441081 0.0055779856711185702 0 0.013231713805441081 0.0055779856711185702 0 0.013326770732295186 0.0054123329465926972 0 0.013101821015911388 0.0054001303566278197 0 0.013370848452365709 0.0056909907924615304 0 0.013231713805441081 0.0055779856711185702 0 0.013326770732295186 0.0054123329465926972 0 0.013326770732295186 0.0054123329465926972 0 0.013180650204579156 0.0051779875479266973 0 0.013101821015911388 0.0054001303566278197 0 0.013580976654133617 0.0056441765641675641 0 0.013326770732295186 0.0054123329465926972 0 0.01356607588505784 0.0053604156916941693 0 0.013360211352015804 0.0051353546238352005 0 0.013326770732295186 0.0054123329465926972 0 0.01356607588505784 0.0053604156916941693 0 0.013360211352015804 0.0051353546238352005 0 0.01356607588505784 0.0053604156916941693 0 0.013567915747720961 0.0051578853805356231 0 0.013360211352015804 0.0051353546238352005 0 0.013326770732295186 0.0054123329465926972 0 0.013180650204579156 0.0051779875479266973 0 0.012972404871416134 0.0049540524024557116 0 0.013180650204579156 0.0051779875479266973 0 0.013101821015911388 0.0054001303566278197 0 0.012972404871416134 0.0049540524024557116 0 0.013191913030884538 0.0047762916266869213 0 0.012960696483630291 0.0043246071469728682 0 0.012972404871416134 0.0049540524024557116 0 0.012773394008136627 0.0053815690055965979 0 0.012915666087784373 0.0053693451512157485 0 0.012972404871416134 0.0049540524024557116 0 0.012915666087784373 0.0053693451512157485 0 0.013101821015911388 0.0054001303566278197 0 0.013258846260478789 0.0049173016391273888 0 0.013417941505241207 0.0048176721906652911 0 0.012773394008136627 0.0053815690055965979 0 0.012915666087784373 0.0053693451512157485 0 0.012805598471566211 0.0054654425229212445 0 0.012956123095475286 0.0055498410588269969 0 0.012915666087784373 0.0053693451512157485 0 0.012805598471566211 0.0054654425229212445 0 0.012956123095475286 0.0055498410588269969 0 0.012915666087784373 0.0053693451512157485 0 0.013101821015911388 0.0054001303566278197 0 0.012956123095475286 0.0055498410588269969 0 0.013101562035499654 0.0056374600178554909 0 0.013101821015911388 0.0054001303566278197 0 0.013101562035499654 0.0056374600178554909 0 0.013231713805441081 0.0055779856711185702 0 0.013101821015911388 0.0054001303566278197 0 0.013869575660608544 0.0057969719532978857 0 0.013980443734971655 0.0057439126564704486 0 0.013967901260805894 0.0057306297626863092 0 0.013869575660608544 0.0057969719532978857 0 0.013967901260805894 0.0057306297626863092 0 0.01377055379292187 0.005748047253345317 0 0.013869575660608544 0.0057969719532978857 0 0.013868429997843797 0.0058234509505321269 0 0.013980443734971655 0.0057439126564704486 0 0.013869575660608544 0.0057969719532978857 0 0.013769557667125624 0.0058347924865713397 0 0.01377055379292187 0.005748047253345317 0 0.013628525446886631 0.0058284025731892694 0 0.013769557667125624 0.0058347924865713397 0 0.01377055379292187 0.005748047253345317 0 0.013869575660608544 0.0057969719532978857 0 0.013769557667125624 0.0058347924865713397 0 0.013804913845918797 0.0058546197437552702 0 0.013628525446886631 0.0058284025731892694 0 0.013776135801332846 0.0058910340961425452 0 0.013769557667125624 0.0058347924865713397 0 0.013776135801332846 0.0058910340961425452 0 0.013769557667125624 0.0058347924865713397 0 0.013804913845918797 0.0058546197437552702 0 0.013757876918582788 0.0058777048843515452 0 0.013804913845918797 0.0058546197437552702 0 0.013868429997843797 0.0058234509505321269 0 0.013869575660608544 0.0057969719532978857 0 0.013804913845918797 0.0058546197437552702 0 0.013868429997843797 0.0058234509505321269 0 0.013868429997843797 0.0058234509505321269 0 0.013955312011580616 0.0057750896711448538 0 0.013980443734971655 0.0057439126564704486 0 0.01018663299898567 0.0051408418382290428 0 0.011717107492515998 0.0052233138167924265 0 0.013893490416933569 0.0058980074425614027 0 0.013868429997843797 0.0058234509505321269 0 0.013955312011580616 0.0057750896711448538 0 0.013673078623106868 0.0050531546956412684 0 0.01375787652645526 0.0052933979761110991 0 0.013567915747720961 0.0051578853805356231 0 0.01356607588505784 0.0053604156916941693 0 0.01375787652645526 0.0052933979761110991 0 0.013567915747720961 0.0051578853805356231 0 0.011717107492515998 0.0052233138167924265 0 0.012143379072668669 0.0053223388014141592 0 0.013580976654133617 0.0056441765641675641 0 0.01356607588505784 0.0053604156916941693 0 0.013876648117474374 0.0056825475256883891 0 0.01356607588505784 0.0053604156916941693 0 0.01375787652645526 0.0052933979761110991 0 0.013876648117474374 0.0056825475256883891 0 0.013955312011580616 0.0057750896711448538 0 0.013980443734971655 0.0057439126564704486 0 0.013876648117474374 0.0056825475256883891 0 0.013980443734971655 0.0057439126564704486 0 0.014155504266021159 0.0057957805631188393 0 0.013967901260805894 0.0057306297626863092 0 0.013980443734971655 0.0057439126564704486 0 0.014155504266021159 0.0057957805631188393 0 0.013876648117474374 0.0056825475256883891 0 0.014155504266021159 0.0057957805631188393 0 0.013876648117474374 0.0056825475256883891 0 0.013748951117323282 0.0057680895334024746 0 0.013642428510761622 0.0058978217606159783 0 0.014155504266021159 0.0057957805631188393 0 0.013748951117323282 0.0057680895334024746 0 0.013580976654133617 0.0056441765641675641 0 0.013876648117474374 0.0056825475256883891 0 0.013748951117323282 0.0057680895334024746 0 0.015247765538376257 0.0059270200338633026 0 0.014155504266021159 0.0057957805631188393 0 0.01477479781367121 0.0056849240941456436 0 0.014467067499737639 0.0056519733792131707 0 0.014367856846791203 0.0057062953650850205 0 0.015247765538376257 0.0059270200338633026 0 0.01512799624888472 0.0057614018531618868 0 0.01477479781367121 0.0056849240941456436 0 0.01477479781367121 0.0056849240941456436 0 0.014864312998987814 0.0054881376059465895 0 0.014504051278819888 0.0054576388644271652 0 0.01512799624888472 0.0057614018531618868 0 0.01477479781367121 0.0056849240941456436 0 0.014864312998987814 0.0054881376059465895 0 0.01512799624888472 0.0057614018531618868 0 0.014864312998987814 0.0054881376059465895 0 0.015181551063181802 0.0053157194235979805 0 0.014155504266021159 0.0057957805631188393 0 0.014504051278819888 0.0054576388644271652 0 0.014187598467790996 0.0053817795997997677 0 0.014155504266021159 0.0057957805631188393 0 0.014187598467790996 0.0053817795997997677 0 0.01403101893590555 0.0055849964755507932 0 0.014155504266021159 0.0057957805631188393 0 0.01477479781367121 0.0056849240941456436 0 0.014504051278819888 0.0054576388644271652 0 0.014187598467790996 0.0053817795997997677 0 0.01403101893590555 0.0055849964755507932 0 0.014006369235671704 0.0053833052729985037 0 0.01403101893590555 0.0055849964755507932 0 0.013847557386570371 0.0056140300462286276 0 0.014006369235671704 0.0053833052729985037 0 0.014155504266021159 0.0057957805631188393 0 0.01403101893590555 0.0055849964755507932 0 0.013967901260805894 0.0057306297626863092 0 0.01403101893590555 0.0055849964755507932 0 0.013967901260805894 0.0057306297626863092 0 0.013847557386570371 0.0056140300462286276 0 0.013967901260805894 0.0057306297626863092 0 0.01377055379292187 0.005748047253345317 0 0.013847557386570371 0.0056140300462286276 0 0.01377055379292187 0.005748047253345317 0 0.01369564247486011 0.0056260308618416681 0 0.013847557386570371 0.0056140300462286276 0 0.013615337660211559 0.005691596658808985 0 0.01377055379292187 0.005748047253345317 0 0.01369564247486011 0.0056260308618416681 0 0.01369564247486011 0.0056260308618416681 0 0.013847557386570371 0.0056140300462286276 0 0.013721435669729691 0.005497228883673007 0 0.013721435669729691 0.005497228883673007 0 0.013797798347942883 0.005329434551745873 0 0.014006369235671704 0.0053833052729985037 0 0.013847557386570371 0.0056140300462286276 0 0.013721435669729691 0.005497228883673007 0 0.014006369235671704 0.0053833052729985037 0 0.013797798347942883 0.005329434551745873 0 0.014006369235671704 0.0053833052729985037 0 0.014223873683444244 0.0050723158104965631 0 0.013797798347942883 0.005329434551745873 0 0.014223873683444244 0.0050723158104965631 0 0.013765933487829611 0.0050462594880971408 0 0.014187598467790996 0.0053817795997997677 0 0.014223873683444244 0.0050723158104965631 0 0.014396248504101762 0.0050796182553986711 0 0.014187598467790996 0.0053817795997997677 0 0.014006369235671704 0.0053833052729985037 0 0.014223873683444244 0.0050723158104965631 0 0.015206830751037397 0.0044170774577770803 0 0.015662873322662075 0.004235108944970538 0 0.014223873683444244 0.0050723158104965631 0 0.015797530161241229 0.0051754842158184431 0 0.015138640561639974 0.0044224377417848623 0 0.014223873683444244 0.0050723158104965631 0 0.014373429484087279 0.0044236997449024675 0 0.015138640561639974 0.0044224377417848623 0 0.014223873683444244 0.0050723158104965631 0 0.013917553651735569 0.0046334744433686398 0 0.014373429484087279 0.0044236997449024675 0 0.013917553651735569 0.0046334744433686398 0 0.013651366524606807 0.0047601980323098399 0 0.013765933487829611 0.0050462594880971408 0 0.013563213860870218 0.0044732417751448773 0 0.013917553651735569 0.0046334744433686398 0 0.013651366524606807 0.0047601980323098399 0 0.014223873683444244 0.0050723158104965631 0 0.013917553651735569 0.0046334744433686398 0 0.013765933487829611 0.0050462594880971408 0 0.015313576115632974 0.0045583093857713072 0 0.014964811566083848 0.0048418140410169171 0 0.01523077204989442 0.0050001782271589254 0 0.014964811566083848 0.0048418140410169171 0 0.01523077204989442 0.0050001782271589254 0 0.014761471263768054 0.005157955004548069 0 0.014864312998987814 0.0054881376059465895 0 0.015181551063181802 0.0053157194235979805 0 0.014761471263768054 0.005157955004548069 0 0.01523077204989442 0.0050001782271589254 0 0.015181551063181802 0.0053157194235979805 0 0.014761471263768054 0.005157955004548069 0 0.014864312998987814 0.0054881376059465895 0 0.014504051278819888 0.0054576388644271652 0 0.014761471263768054 0.005157955004548069 0 0.014964811566083848 0.0048418140410169171 0 0.014761471263768054 0.005157955004548069 0 0.014719280500322189 0.0048260774692466327 0 0.014761471263768054 0.005157955004548069 0 0.014396248504101762 0.0050796182553986711 0 0.014719280500322189 0.0048260774692466327 0 0.014504051278819888 0.0054576388644271652 0 0.014761471263768054 0.005157955004548069 0 0.014396248504101762 0.0050796182553986711 0 0.014504051278819888 0.0054576388644271652 0 0.014187598467790996 0.0053817795997997677 0 0.014396248504101762 0.0050796182553986711 0 0.014223873683444244 0.0050723158104965631 0 0.014396248504101762 0.0050796182553986711 0 0.01441425646803904 0.0047305591016015523 0 0.014396248504101762 0.0050796182553986711 0 0.01441425646803904 0.0047305591016015523 0 0.014719280500322189 0.0048260774692466327 0 0.015662873322662075 0.004235108944970538 0 0.016869830197372589 0.0036903455513573121 0 0.01441425646803904 0.0047305591016015523 0 0.014891327606861028 0.0044624018716738646 0 0.014995534671722299 0.0042679666605548615 0 0.01441425646803904 0.0047305591016015523 0 0.014719280500322189 0.0048260774692466327 0 0.014891327606861028 0.0044624018716738646 0 0.015797530161241229 0.0051754842158184431 0 0.017295841147920644 0.0049572076200500061 0 0.016648896697971299 0.0045850418315714426 0 0.014719280500322189 0.0048260774692466327 0 0.014891327606861028 0.0044624018716738646 0 0.015013269359969132 0.004613132551112716 0 0.015502147500604895 0.0041725441163383472 0 0.015047197264931348 0.0040712046641719389 0 0.015162429950101721 0.0043761779232503783 0 0.016806319205803461 0.0037493303750296201 0 0.016869830197372589 0.0036903455513573121 0 0.014891327606861028 0.0044624018716738646 0 0.015047197264931348 0.0040712046641719389 0 0.015162429950101721 0.0043761779232503783 0 0.015313576115632974 0.0045583093857713072 0 0.015162429950101721 0.0043761779232503783 0 0.015013269359969132 0.004613132551112716 0 0.014891327606861028 0.0044624018716738646 0 0.015162429950101721 0.0043761779232503783 0 0.015013269359969132 0.004613132551112716 0 0.014964811566083848 0.0048418140410169171 0 0.014719280500322189 0.0048260774692466327 0 0.015013269359969132 0.004613132551112716 0 0.015313576115632974 0.0045583093857713072 0 0.014964811566083848 0.0048418140410169171 0 0.015013269359969132 0.004613132551112716 0 0.017295841147920644 0.0049572076200500061 0 0.017230804374598129 0.0039855459213694365 0 0.016648896697971299 0.0045850418315714426 0 0.017230804374598129 0.0039855459213694365 0 0.016648896697971299 0.0045850418315714426 0 0.01627231537401809 0.004216574457107965 0 0.017230804374598129 0.0039855459213694365 0 0.01627231537401809 0.004216574457107965 0 0.016740318270992028 0.003500450738043337 0 0.01627231537401809 0.004216574457107965 0 0.015660452935345535 0.0036532315111857711 0 0.016740318270992028 0.003500450738043337 0 0.015797530161241229 0.0051754842158184431 0 0.016648896697971299 0.0045850418315714426 0 0.01627231537401809 0.004216574457107965 0 0.015797530161241229 0.0051754842158184431 0 0.01627231537401809 0.004216574457107965 0 0.015138640561639974 0.0044224377417848623 0 0.01627231537401809 0.004216574457107965 0 0.015660452935345535 0.0036532315111857711 0 0.015138640561639974 0.0044224377417848623 0 0.015660452935345535 0.0036532315111857711 0 0.016420619292761715 0.002865236831426692 0 0.01520399358486731 0.0026084508908241146 0 0.015660452935345535 0.0036532315111857711 0 0.016420619292761715 0.002865236831426692 0 0.016740318270992028 0.003500450738043337 0 0.016420619292761715 0.002865236831426692 0 0.016740318270992028 0.003500450738043337 0 0.017412175847064754 0.0027071911621768595 0 0.016740318270992028 0.003500450738043337 0 0.017603597153106668 0.0033031392572084755 0 0.017412175847064754 0.0027071911621768595 0 0.017230804374598129 0.0039855459213694365 0 0.016740318270992028 0.003500450738043337 0 0.017603597153106668 0.0033031392572084755 0 0.014064213918072329 0.0041063852359443142 0 0.013713362051669047 0.0040728702508605712 0 0.014142195701619308 0.0034335617779891045 0 0.014064213918072329 0.0041063852359443142 0 0.014581204157520225 0.0038001503169394994 0 0.014142195701619308 0.0034335617779891045 0 0.014064213918072329 0.0041063852359443142 0 0.013713362051669047 0.0040728702508605712 0 0.013803300143946205 0.0043214869671345498 0 0.013563213860870218 0.0044732417751448773 0 0.013713362051669047 0.0040728702508605712 0 0.013803300143946205 0.0043214869671345498 0 0.013563213860870218 0.0044732417751448773 0 0.013917553651735569 0.0046334744433686398 0 0.013803300143946205 0.0043214869671345498 0 0.013917553651735569 0.0046334744433686398 0 0.014064213918072329 0.0041063852359443142 0 0.013803300143946205 0.0043214869671345498 0 0.013917553651735569 0.0046334744433686398 0 0.014064213918072329 0.0041063852359443142 0 0.014373429484087279 0.0044236997449024675 0 0.014373429484087279 0.0044236997449024675 0 0.015138640561639974 0.0044224377417848623 0 0.014581204157520225 0.0038001503169394994 0 0.015660452935345535 0.0036532315111857711 0 0.015138640561639974 0.0044224377417848623 0 0.014581204157520225 0.0038001503169394994 0 0.014064213918072329 0.0041063852359443142 0 0.014373429484087279 0.0044236997449024675 0 0.014581204157520225 0.0038001503169394994 0 0.014955936157821552 0.0044790162778848208 0 0.014805116243835117 0.0050425282068254917 0 0.011225313496922884 0.012367908975561757 0 0.011343596818738593 0.010861331381733537 0 0.013085325215448789 0.011420106056524429 0 0.015660452935345535 0.0036532315111857711 0 0.014581204157520225 0.0038001503169394994 0 0.01520399358486731 0.0026084508908241146 0 0.012352177223550012 0.0065508541976465016 0 0.014805116243835117 0.0050425282068254917 0 0.014581204157520225 0.0038001503169394994 0 0.014142195701619308 0.0034335617779891045 0 0.014925921564548507 0.0030206065872609455 0 0.009534388265024743 0.01221562160034197 0 0.011225313496922884 0.012367908975561757 0 0.0098541090199265879 0.011379264339971804 0 0.009534388265024743 0.01221562160034197 0 0.0097197079393860179 0.012846904539983625 0 0.011225313496922884 0.012367908975561757 0 0.010097592627457958 0.0074883505771517695 0 0.012352177223550012 0.0065508541976465016 0 0.0094093700466085419 0.013218771557369596 0 0.0097197079393860179 0.012846904539983625 0 0.011225313496922884 0.012367908975561757 0 0.011225313496922884 0.012367908975561757 0 0.011343596818738593 0.010861331381733537 0 0.0098541090199265879 0.011379264339971804 0 0.013373349736876847 0.0038978540053740724 0 0.013713362051669047 0.0040728702508605712 0 0.014142195701619308 0.0034335617779891045 0 0.011343596818738593 0.010861331381733537 0 0.0098541090199265879 0.011379264339971804 0 0.0088268933727326596 0.010261114436827661 0 0.011343596818738593 0.010861331381733537 0 0.01155193585548416 0.0093279158990518217 0 0.0088268933727326596 0.010261114436827661 0 0.013085325215448789 0.011420106056524429 0 0.012592930210813825 0.0098063546222930363 0 0.014165416657905109 0.0090557018214540291 0 0.011343596818738593 0.010861331381733537 0 0.013085325215448789 0.011420106056524429 0 0.012592930210813825 0.0098063546222930363 0 0.011343596818738593 0.010861331381733537 0 0.012592930210813825 0.0098063546222930363 0 0.01155193585548416 0.0093279158990518217 0 0.012592930210813825 0.0098063546222930363 0 0.01280369410740324 0.0083850452837374769 0 0.01155193585548416 0.0093279158990518217 0 0.012592930210813825 0.0098063546222930363 0 0.01280369410740324 0.0083850452837374769 0 0.014165416657905109 0.0090557018214540291 0 0.01155193585548416 0.0093279158990518217 0 0.010713311921070171 0.0077158976916466178 0 0.0088268933727326596 0.010261114436827661 0 0.01280369410740324 0.0083850452837374769 0 0.01155193585548416 0.0093279158990518217 0 0.010713311921070171 0.0077158976916466178 0 0.017412175847064754 0.0027071911621768595 0 0.017050866077479566 0.0018747491203657226 0 0.018314637749946766 0.0024459993971389501 0 0.016420619292761715 0.002865236831426692 0 0.017412175847064754 0.0027071911621768595 0 0.017050866077479566 0.0018747491203657226 0 0.018356662547441505 0.002163541058162485 0 0.018747247962296754 0.0019518176428988778 0 0.018546843325735321 0.0017836490570387613 0 0.014805116243835117 0.0050425282068254917 0 0.015677209675014687 0.004964524808094538 0 0.016420619292761715 0.002865236831426692 0 0.01520399358486731 0.0026084508908241146 0 0.017050866077479566 0.0018747491203657226 0 0.014805116243835117 0.0050425282068254917 0 0.017511527128602607 0.0029249679778465378 0 0.01280369410740324 0.0083850452837374769 0 0.014165416657905109 0.0090557018214540291 0 0.013660049951059268 0.0074898018995385564 0 0.018747247962296754 0.0019518176428988778 0 0.018546843325735321 0.0017836490570387613 0 0.018726518634013516 0.001827341435644886 0 0.018546843325735321 0.0017836490570387613 0 0.018726518634013516 0.001827341435644886 0 0.018565123212814384 0.0017364628068807749 0 0.018726518634013516 0.001827341435644886 0 0.018888461472531422 0.0016876366162479957 0 0.018897718255577137 0.0018104162877210833 0 0.018747247962296754 0.0019518176428988778 0 0.018726518634013516 0.001827341435644886 0 0.018897718255577137 0.0018104162877210833 0 0.018565123212814384 0.0017364628068807749 0 0.018548337460788229 0.0019388168327511774 0 0.017827266926388897 0.0024289118554819888 0 0.018565123212814384 0.0017364628068807749 0 0.019198252687237634 0.00075428130863456082 0 0.019096342126517223 0.0013435690972592249 0 0.018888461472531422 0.0016876366162479957 0 0.018565123212814384 0.0017364628068807749 0 0.019096342126517223 0.0013435690972592249 0 0.018726518634013516 0.001827341435644886 0 0.018888461472531422 0.0016876366162479957 0 0.018565123212814384 0.0017364628068807749 0 0.015677209675014687 0.004964524808094538 0 0.016402233965989357 0.0042302790694789582 0 0.018546843325735321 0.0017836490570387613 0 0.018565123212814384 0.0017364628068807749 0 0.018548337460788229 0.0019388168327511774 0 0.014165416657905109 0.0090557018214540291 0 0.015178026632965276 0.0067883391038869737 0 0.013660049951059268 0.0074898018995385564 0 0.015178026632965276 0.0067883391038869737 0 0.013660049951059268 0.0074898018995385564 0 0.013733129607741219 0.0063918376467587976 0 0.013733129607741219 0.0063918376467587976 0 0.014162862248711284 0.0051980960286488022 0 0.014620434414548829 0.0060744366525522136 0 0.013733129607741219 0.0063918376467587976 0 0.014162862248711284 0.0051980960286488022 0 0.01262248983480131 0.0054297037886597245 0 0.014162862248711284 0.0051980960286488022 0 0.014620434414548829 0.0060744366525522136 0 0.015124780325948916 0.0053373757868767158 0 0.015178026632965276 0.0067883391038869737 0 0.014620434414548829 0.0060744366525522136 0 0.015124780325948916 0.0053373757868767158 0 0.015178026632965276 0.0067883391038869737 0 0.013733129607741219 0.0063918376467587976 0 0.014620434414548829 0.0060744366525522136 0 0.018548337460788229 0.0019388168327511774 0 0.017896851777024263 0.0025776351218870851 0 0.017827266926388897 0.0024289118554819888 0 0.01862053453017375 0.0017751611298849604 0 0.018719702905822366 0.0016462147101277706 0 0.016402233965989357 0.0042302790694789582 0 0.016880199395039527 0.003501275071215601 0 0.015178026632965276 0.0067883391038869737 0 0.015124780325948916 0.0053373757868767158 0 0.016201045155524712 0.0047088794849872466 0 0.010713311921070171 0.0077158976916466178 0 0.011064201234440612 0.0058084009572841634 0 0.0086704262984902379 0.0067561164561092861 0 0.010713311921070171 0.0077158976916466178 0 0.012387400586971272 0.0068446049317585547 0 0.011064201234440612 0.0058084009572841634 0 0.01280369410740324 0.0083850452837374769 0 0.010713311921070171 0.0077158976916466178 0 0.012387400586971272 0.0068446049317585547 0 0.01280369410740324 0.0083850452837374769 0 0.013660049951059268 0.0074898018995385564 0 0.012387400586971272 0.0068446049317585547 0 0.013660049951059268 0.0074898018995385564 0 0.013733129607741219 0.0063918376467587976 0 0.012387400586971272 0.0068446049317585547 0 0.01262248983480131 0.0054297037886597245 0 0.011064201234440612 0.0058084009572841634 0 0.011937782516384221 0.0040151937349172957 0 0.012387400586971272 0.0068446049317585547 0 0.01262248983480131 0.0054297037886597245 0 0.011064201234440612 0.0058084009572841634 0 0.013733129607741219 0.0063918376467587976 0 0.012387400586971272 0.0068446049317585547 0 0.01262248983480131 0.0054297037886597245 0 0.011064201234440612 0.0058084009572841634 0 0.011937782516384221 0.0040151937349172957 0 0.0099146605270029036 0.0042506218612289757 0 0.010839259361722467 0.0028224637371198971 0 0.011937782516384221 0.0040151937349172957 0 0.0099146605270029036 0.0042506218612289757 0 0.010839259361722467 0.0028224637371198971 0 0.01059961521900748 0.0015003529194715529 0 0.01253303247384268 0.0019015953917175727 0 0.010839259361722467 0.0028224637371198971 0 0.011937782516384221 0.0040151937349172957 0 0.01253303247384268 0.0019015953917175727 0 0.011937782516384221 0.0040151937349172957 0 0.013614472182615439 0.0038442027861667369 0 0.01253303247384268 0.0019015953917175727 0 0.013614472182615439 0.0038442027861667369 0 0.01421499998235343 0.0026843619846831732 0 0.01253303247384268 0.0019015953917175727 0 0.01262248983480131 0.0054297037886597245 0 0.011937782516384221 0.0040151937349172957 0 0.013614472182615439 0.0038442027861667369 0 0.014162862248711284 0.0051980960286488022 0 0.01262248983480131 0.0054297037886597245 0 0.013614472182615439 0.0038442027861667369 0 0.014162862248711284 0.0051980960286488022 0 0.014896907190026384 0.0044093537121568773 0 0.013614472182615439 0.0038442027861667369 0 0.014162862248711284 0.0051980960286488022 0 0.015124780325948916 0.0053373757868767158 0 0.014896907190026384 0.0044093537121568773 0 0.014896907190026384 0.0044093537121568773 0 0.013614472182615439 0.0038442027861667369 0 0.01492442733887263 0.0034113777101478877 0 0.015124780325948916 0.0053373757868767158 0 0.014896907190026384 0.0044093537121568773 0 0.015460767046470869 0.0046021372994271906 0 0.015124780325948916 0.0053373757868767158 0 0.016201045155524712 0.0047088794849872466 0 0.015460767046470869 0.0046021372994271906 0 0.016201045155524712 0.0047088794849872466 0 0.015460767046470869 0.0046021372994271906 0 0.015614204182355007 0.0039526429828609282 0 0.014896907190026384 0.0044093537121568773 0 0.015460767046470869 0.0046021372994271906 0 0.015614204182355007 0.0039526429828609282 0 0.014896907190026384 0.0044093537121568773 0 0.015614204182355007 0.0039526429828609282 0 0.01492442733887263 0.0034113777101478877 0 0.016201045155524712 0.0047088794849872466 0 0.015614204182355007 0.0039526429828609282 0 0.01633109077056143 0.0033736920289087588 0 0.016201045155524712 0.0047088794849872466 0 0.01633109077056143 0.0033736920289087588 0 0.017416265873757122 0.0026089659168428174 0 0.01633109077056143 0.0033736920289087588 0 0.01583947959066629 0.0030940878003601745 0 0.016377351115630687 0.0024469649996847155 0 0.015614204182355007 0.0039526429828609282 0 0.01583947959066629 0.0030940878003601745 0 0.01492442733887263 0.0034113777101478877 0 0.01583947959066629 0.0030940878003601745 0 0.015377132419861951 0.0024887649070935674 0 0.01492442733887263 0.0034113777101478877 0 0.015614204182355007 0.0039526429828609282 0 0.01633109077056143 0.0033736920289087588 0 0.01583947959066629 0.0030940878003601745 0 0.01583947959066629 0.0030940878003601745 0 0.015377132419861951 0.0024887649070935674 0 0.016377351115630687 0.0024469649996847155 0 0.015377132419861951 0.0024887649070935674 0 0.016377351115630687 0.0024469649996847155 0 0.016129531136500123 0.0016535456693253603 0 0.01633109077056143 0.0033736920289087588 0 0.016377351115630687 0.0024469649996847155 0 0.017416265873757122 0.0026089659168428174 0 0.01421499998235343 0.0026843619846831732 0 0.014709928597619482 0.0016315708711891819 0 0.01253303247384268 0.0019015953917175727 0 0.013614472182615439 0.0038442027861667369 0 0.01492442733887263 0.0034113777101478877 0 0.01421499998235343 0.0026843619846831732 0 0.015377132419861951 0.0024887649070935674 0 0.01492442733887263 0.0034113777101478877 0 0.01421499998235343 0.0026843619846831732 0 0.015377132419861951 0.0024887649070935674 0 0.01421499998235343 0.0026843619846831732 0 0.014709928597619482 0.0016315708711891819 0 0.013810912100778248 0.00067959246578139254 0 0.014709928597619482 0.0016315708711891819 0 0.016031423898688901 0.0002168857996742855 0 0.013810912100778248 0.00067959246578139254 0 0.014709928597619482 0.0016315708711891819 0 0.01253303247384268 0.0019015953917175727 0 0.014709928597619482 0.0016315708711891819 0 0.016129531136500123 0.0016535456693253603 0 0.016031423898688901 0.0002168857996742855 0 0.016129531136500123 0.0016535456693253603 0 0.016031423898688901 0.0002168857996742855 0 0.017585398123429467 0.0012243630860112288 0 0.016377351115630687 0.0024469649996847155 0 0.016129531136500123 0.0016535456693253603 0 0.017119312100465661 0.0020276599098238519 0 0.015377132419861951 0.0024887649070935674 0 0.014709928597619482 0.0016315708711891819 0 0.016129531136500123 0.0016535456693253603 0 0.013810912100778248 0.00067959246578139254 0 0.012749066695553386 -0.00034719833562907006 0 0.014437655596577992 -0.0012262464112778239 0 0.013810912100778248 0.00067959246578139254 0 0.016031423898688901 0.0002168857996742855 0 0.014437655596577992 -0.0012262464112778239 0 0.012749066695553386 -0.00034719833562907006 0 0.011038947645952198 -5.2864877194933702e-05 0 0.01253303247384268 0.0019015953917175727 0 0.012749066695553386 -0.00034719833562907006 0 0.011038947645952198 -5.2864877194933702e-05 0 0.012644331389610457 -0.0021604787725927935 0 0.011038947645952198 -5.2864877194933702e-05 0 0.01059961521900748 0.0015003529194715529 0 0.01253303247384268 0.0019015953917175727 0 0.013810912100778248 0.00067959246578139254 0 0.012749066695553386 -0.00034719833562907006 0 0.01253303247384268 0.0019015953917175727 0 0.020947248088237402 -0.00020249033196333924 0 0.02118866887533008 -0.00048352035253966899 0 0.020655864883202233 -0.00051900881336773336 0 0.021336760139972148 -0.00025251789966561008 0 0.021524273503575213 -0.00051160391679053901 0 0.02118866887533008 -0.00048352035253966899 0 0.020947248088237402 -0.00020249033196333924 0 0.021336760139972148 -0.00025251789966561008 0 0.02118866887533008 -0.00048352035253966899 0 0.020947248088237402 -0.00020249033196333924 0 0.021336760139972148 -0.00025251789966561008 0 0.021177329079803946 0.00012479993661116396 0 0.021336760139972148 -0.00025251789966561008 0 0.021628035866809957 -0.00019688050377520075 0 0.021177329079803946 0.00012479993661116396 0 0.021336760139972148 -0.00025251789966561008 0 0.021628035866809957 -0.00019688050377520075 0 0.021746067190838134 -0.00043216825248798075 0 0.021628035866809957 -0.00019688050377520075 0 0.021746067190838134 -0.00043216825248798075 0 0.022003291833356559 -0.0004382058640948432 0 0.021336760139972148 -0.00025251789966561008 0 0.021746067190838134 -0.00043216825248798075 0 0.021524273503575213 -0.00051160391679053901 0 0.021746067190838134 -0.00043216825248798075 0 0.021524273503575213 -0.00051160391679053901 0 0.0218360955182164 -0.00066278247917688903 0 0.021524273503575213 -0.00051160391679053901 0 0.0218360955182164 -0.00066278247917688903 0 0.021553965454854537 -0.00068828940175805263 0 0.021746067190838134 -0.00043216825248798075 0 0.0218360955182164 -0.00066278247917688903 0 0.022004240394065552 -0.00060028073669816495 0 0.0218360955182164 -0.00066278247917688903 0 0.022056820192976442 -0.00082647003409027221 0 0.02182840064482099 -0.00081947286840902299 0 0.0218360955182164 -0.00066278247917688903 0 0.022065707541819916 -0.00071761656238655401 0 0.022056820192976442 -0.00082647003409027221 0 0.0218360955182164 -0.00066278247917688903 0 0.022065707541819916 -0.00071761656238655401 0 0.022004240394065552 -0.00060028073669816495 0 0.0218360955182164 -0.00066278247917688903 0 0.021553965454854537 -0.00068828940175805263 0 0.02182840064482099 -0.00081947286840902299 0 0.02129345988250524 -0.0007469683286918181 0 0.02118866887533008 -0.00048352035253966899 0 0.020655864883202233 -0.00051900881336773336 0 0.021553965454854537 -0.00068828940175805263 0 0.02129345988250524 -0.0007469683286918181 0 0.02162551355011259 -0.0009510582692981251 0 0.02129345988250524 -0.0007469683286918181 0 0.020655864883202233 -0.00051900881336773336 0 0.021153336395461339 -0.0012328582783205694 0 0.021553965454854537 -0.00068828940175805263 0 0.02129345988250524 -0.0007469683286918181 0 0.02118866887533008 -0.00048352035253966899 0 0.021524273503575213 -0.00051160391679053901 0 0.021553965454854537 -0.00068828940175805263 0 0.02118866887533008 -0.00048352035253966899 0 0.019199796711665554 0.00084493707969788222 0 0.018109619198850922 -8.1086416309111386e-05 0 0.019284807781567895 -0.00083253341752492359 0 0.019841658954199124 6.8309530929072299e-05 0 0.020327037138282454 -0.00069257172652824892 0 0.019199796711665554 0.00084493707969788222 0 0.018109619198850922 -8.1086416309111386e-05 0 0.017585398123429467 0.0012243630860112288 0 0.016031423898688901 0.0002168857996742855 0 0.018109619198850922 -8.1086416309111386e-05 0 0.017574280057338184 -0.0012596375106629107 0 0.016031423898688901 0.0002168857996742855 0 0.018109619198850922 -8.1086416309111386e-05 0 0.017585398123429467 0.0012243630860112288 0 0.019199796711665554 0.00084493707969788222 0 0.017585398123429467 0.0012243630860112288 0 0.017702973973136159 0.0027620690198343588 0 0.017585398123429467 0.0012243630860112288 0 0.017119312100465661 0.0020276599098238519 0 0.017702973973136159 0.0027620690198343588 0 0.016129531136500123 0.0016535456693253603 0 0.017585398123429467 0.0012243630860112288 0 0.017119312100465661 0.0020276599098238519 0 0.019841658954199124 6.8309530929072299e-05 0 0.019111742423852548 0.0011441152552347533 0 0.020655864883202233 -0.00051900881336773336 0 0.020490050919033206 -5.9413212279903232e-05 0 0.019991165446298031 2.5073417098634638e-05 0 0.020947248088237402 -0.00020249033196333924 0 0.020655864883202233 -0.00051900881336773336 0 0.020490050919033206 -5.9413212279903232e-05 0 0.020947248088237402 -0.00020249033196333924 0 0.020490050919033206 -5.9413212279903232e-05 0 0.020597383543134402 0.00021917722851365627 0 0.020490050919033206 -5.9413212279903232e-05 0 0.020246948586995047 0.00024072376863714659 0 0.019991165446298031 2.5073417098634638e-05 0 0.020490050919033206 -5.9413212279903232e-05 0 0.020246948586995047 0.00024072376863714659 0 0.020597383543134402 0.00021917722851365627 0 0.017896851777024263 0.0025776351218870851 0 0.017416265873757122 0.0026089659168428174 0 0.017702973973136159 0.0027620690198343588 0 0.017119312100465661 0.0020276599098238519 0 0.017416265873757122 0.0026089659168428174 0 0.017702973973136159 0.0027620690198343588 0 0.016377351115630687 0.0024469649996847155 0 0.017119312100465661 0.0020276599098238519 0 0.017416265873757122 0.0026089659168428174 0 0.017896851777024263 0.0025776351218870851 0 0.017702973973136159 0.0027620690198343588 0 0.017827266926388897 0.0024289118554819888 0 0.016880199395039527 0.003501275071215601 0 0.01710476033447432 0.0030736327776885036 0 0.019991165446298031 2.5073417098634638e-05 0 0.019918554997607339 0.00051944836642690319 0 0.019198252687237634 0.00075428130863456082 0 0.019111742423852548 0.0011441152552347533 0 0.018719702905822366 0.0016462147101277706 0 0.020246948586995047 0.00024072376863714659 0 0.019991165446298031 2.5073417098634638e-05 0 0.019918554997607339 0.00051944836642690319 0 0.020597383543134402 0.00021917722851365627 0 0.020303748927060026 0.00050279612387506528 0 0.020562551332343585 0.00053847142920426805 0 0.020246948586995047 0.00024072376863714659 0 0.020597383543134402 0.00021917722851365627 0 0.020303748927060026 0.00050279612387506528 0 0.020246948586995047 0.00024072376863714659 0 0.019918554997607339 0.00051944836642690319 0 0.020303748927060026 0.00050279612387506528 0 0.019918554997607339 0.00051944836642690319 0 0.020303748927060026 0.00050279612387506528 0 0.020071669011572132 0.00077777917816413615 0 0.020303748927060026 0.00050279612387506528 0 0.020471755997106145 0.00074062449960725764 0 0.020071669011572132 0.00077777917816413615 0 0.020303748927060026 0.00050279612387506528 0 0.020562551332343585 0.00053847142920426805 0 0.020471755997106145 0.00074062449960725764 0 0.020562551332343585 0.00053847142920426805 0 0.020810653267718856 0.00046573557196440889 0 0.02075875045050141 0.00071035388181548765 0 0.020562551332343585 0.00053847142920426805 0 0.02075875045050141 0.00071035388181548765 0 0.020471755997106145 0.00074062449960725764 0 0.020810653267718856 0.00046573557196440889 0 0.021093333050393005 0.00044443291779977404 0 0.021024743608876073 0.00067464866843857719 0 0.020810653267718856 0.00046573557196440889 0 0.021024743608876073 0.00067464866843857719 0 0.02075875045050141 0.00071035388181548765 0 0.020810653267718856 0.00046573557196440889 0 0.021177329079803946 0.00012479993661116396 0 0.021093333050393005 0.00044443291779977404 0 0.020597383543134402 0.00021917722851365627 0 0.020562551332343585 0.00053847142920426805 0 0.020810653267718856 0.00046573557196440889 0 0.020947248088237402 -0.00020249033196333924 0 0.020597383543134402 0.00021917722851365627 0 0.021177329079803946 0.00012479993661116396 0 0.020597383543134402 0.00021917722851365627 0 0.020810653267718856 0.00046573557196440889 0 0.021177329079803946 0.00012479993661116396 0 0.021177329079803946 0.00012479993661116396 0 0.021350236003484759 0.0004286556083837504 0 0.021665476422789768 5.3699530897012321e-05 0 0.021628035866809957 -0.00019688050377520075 0 0.021177329079803946 0.00012479993661116396 0 0.021665476422789768 5.3699530897012321e-05 0 0.021177329079803946 0.00012479993661116396 0 0.021350236003484759 0.0004286556083837504 0 0.021093333050393005 0.00044443291779977404 0 0.021350236003484759 0.0004286556083837504 0 0.021093333050393005 0.00044443291779977404 0 0.021024743608876073 0.00067464866843857719 0 0.021350236003484759 0.0004286556083837504 0 0.021024743608876073 0.00067464866843857719 0 0.021219271149744839 0.00076381961075431518 0 0.021350236003484759 0.0004286556083837504 0 0.021219271149744839 0.00076381961075431518 0 0.021322095346644816 0.00076986432813402797 0 0.021219271149744839 0.00076381961075431518 0 0.021312522467688107 0.00085300984837694807 0 0.021063558579770783 0.00089452312137070487 0 0.021219271149744839 0.00076381961075431518 0 0.021312522467688107 0.00085300984837694807 0 0.021322095346644816 0.00076986432813402797 0 0.021312522467688107 0.00085300984837694807 0 0.021063558579770783 0.00089452312137070487 0 0.020944373488919005 0.001160980167080141 0 0.021024743608876073 0.00067464866843857719 0 0.021219271149744839 0.00076381961075431518 0 0.021063558579770783 0.00089452312137070487 0 0.021024743608876073 0.00067464866843857719 0 0.02075875045050141 0.00071035388181548765 0 0.020766645063957402 0.00095872513597533733 0 0.021024743608876073 0.00067464866843857719 0 0.021063558579770783 0.00089452312137070487 0 0.020766645063957402 0.00095872513597533733 0 0.020471755997106145 0.00074062449960725764 0 0.020766645063957402 0.00095872513597533733 0 0.02027758116684631 0.0010456634474649406 0 0.02075875045050141 0.00071035388181548765 0 0.020471755997106145 0.00074062449960725764 0 0.020766645063957402 0.00095872513597533733 0 0.020766645063957402 0.00095872513597533733 0 0.020520144754462899 0.0013356416635276697 0 0.02027758116684631 0.0010456634474649406 0 0.020766645063957402 0.00095872513597533733 0 0.020944373488919005 0.001160980167080141 0 0.020520144754462899 0.0013356416635276697 0 0.021063558579770783 0.00089452312137070487 0 0.020766645063957402 0.00095872513597533733 0 0.020944373488919005 0.001160980167080141 0 0.020944373488919005 0.001160980167080141 0 0.020520144754462899 0.0013356416635276697 0 0.021001798005097161 0.0016265514728938777 0 0.020520144754462899 0.0013356416635276697 0 0.021001798005097161 0.0016265514728938777 0 0.020145788345990259 0.0018636205164512163 0 0.020261723255479237 0.0011663079930298293 0 0.019755760346980518 0.0014001281947866487 0 0.021312522467688107 0.00085300984837694807 0 0.020944373488919005 0.001160980167080141 0 0.021001798005097161 0.0016265514728938777 0 0.020084699001565939 0.00075416770008655918 0 0.020404001284202871 0.00098018224734172025 0 0.020496078923908555 0.00071813638822620181 0 0.021312522467688107 0.00085300984837694807 0 0.021554000477883094 0.00052190579130089604 0 0.021246031633765757 0.0005733711190306222 0 0.020261723255479237 0.0011663079930298293 0 0.02065571861683797 0.00099316627682295125 0 0.020603098877623949 0.00091923046323989809 0 0.020261723255479237 0.0011663079930298293 0 0.019198252687237634 0.00075428130863456082 0 0.019431109607869538 0.0010692454903104595 0 0.019096342126517223 0.0013435690972592249 0 0.019431109607869538 0.0010692454903104595 0 0.019408274853310804 0.0012899534528607701 0 0.019096342126517223 0.0013435690972592249 0 0.019198252687237634 0.00075428130863456082 0 0.019660206706796503 0.00084054472509410285 0 0.019431109607869538 0.0010692454903104595 0 0.019918554997607339 0.00051944836642690319 0 0.019198252687237634 0.00075428130863456082 0 0.019660206706796503 0.00084054472509410285 0 0.019431109607869538 0.0010692454903104595 0 0.019772722766105623 0.0011233484743097984 0 0.019408274853310804 0.0012899534528607701 0 0.019660206706796503 0.00084054472509410285 0 0.019431109607869538 0.0010692454903104595 0 0.019772722766105623 0.0011233484743097984 0 0.019772722766105623 0.0011233484743097984 0 0.02027758116684631 0.0010456634474649406 0 0.020005978903286377 0.0013876927290130655 0 0.019772722766105623 0.0011233484743097984 0 0.020071669011572132 0.00077777917816413615 0 0.02027758116684631 0.0010456634474649406 0 0.019918554997607339 0.00051944836642690319 0 0.019660206706796503 0.00084054472509410285 0 0.020071669011572132 0.00077777917816413615 0 0.019660206706796503 0.00084054472509410285 0 0.019772722766105623 0.0011233484743097984 0 0.020071669011572132 0.00077777917816413615 0 0.020471755997106145 0.00074062449960725764 0 0.020071669011572132 0.00077777917816413615 0 0.02027758116684631 0.0010456634474649406 0 0.020520144754462899 0.0013356416635276697 0 0.02027758116684631 0.0010456634474649406 0 0.020005978903286377 0.0013876927290130655 0 0.020520144754462899 0.0013356416635276697 0 0.020005978903286377 0.0013876927290130655 0 0.020145788345990259 0.0018636205164512163 0 0.020005978903286377 0.0013876927290130655 0 0.01943323747960525 0.0015307488733505531 0 0.020145788345990259 0.0018636205164512163 0 0.019772722766105623 0.0011233484743097984 0 0.020005978903286377 0.0013876927290130655 0 0.01943323747960525 0.0015307488733505531 0 0.01943323747960525 0.0015307488733505531 0 0.018897718255577137 0.0018104162877210833 0 0.020145788345990259 0.0018636205164512163 0 0.019772722766105623 0.0011233484743097984 0 0.019408274853310804 0.0012899534528607701 0 0.01943323747960525 0.0015307488733505531 0 0.019408274853310804 0.0012899534528607701 0 0.01943323747960525 0.0015307488733505531 0 0.019145843635906958 0.0015498562331455667 0 0.018888461472531422 0.0016876366162479957 0 0.019145843635906958 0.0015498562331455667 0 0.018897718255577137 0.0018104162877210833 0 0.01943323747960525 0.0015307488733505531 0 0.019145843635906958 0.0015498562331455667 0 0.018897718255577137 0.0018104162877210833 0 0.018888461472531422 0.0016876366162479957 0 0.019145843635906958 0.0015498562331455667 0 0.019096342126517223 0.0013435690972592249 0 0.019408274853310804 0.0012899534528607701 0 0.019145843635906958 0.0015498562331455667 0 0.019096342126517223 0.0013435690972592249 0 0.019500963162220292 0.0014878564551824576 0 0.019755760346980518 0.0014001281947866487 0 0.017511527128602607 0.0029249679778465378 0 0.018189709756863404 0.0024108214669835595 0 0.018747247962296754 0.0019518176428988778 0 0.018897718255577137 0.0018104162877210833 0 0.018891056451925715 0.0016844326618475334 0 0.018897718255577137 0.0018104162877210833 0 0.018891056451925715 0.0016844326618475334 0 0.01901601620572586 0.0015298830864132796 0 0.017050866077479566 0.0018747491203657226 0 0.018891056451925715 0.0016844326618475334 0 0.018311460130309595 0.0019840257693586982 0 0.018891056451925715 0.0016844326618475334 0 0.018311460130309595 0.0019840257693586982 0 0.018816251765167189 0.0019323736471792631 0 0.018816251765167189 0.0019323736471792631 0 0.01901601620572586 0.0015298830864132796 0 0.019280784468508106 0.002180527209949692 0 0.018891056451925715 0.0016844326618475334 0 0.018816251765167189 0.0019323736471792631 0 0.01901601620572586 0.0015298830864132796 0 0.018816251765167189 0.0019323736471792631 0 0.019280784468508106 0.002180527209949692 0 0.018314637749946766 0.0024459993971389501 0 0.018498446342275449 0.0033984446686662942 0 0.019280784468508106 0.002180527209949692 0 0.018314637749946766 0.0024459993971389501 0 0.018406067399150836 0.0025928869064120444 0 0.01938098025004921 0.0018224393528340841 0 0.017050866077479566 0.0018747491203657226 0 0.018311460130309595 0.0019840257693586982 0 0.018314637749946766 0.0024459993971389501 0 0.018311460130309595 0.0019840257693586982 0 0.018816251765167189 0.0019323736471792631 0 0.018314637749946766 0.0024459993971389501 0 0.017964907352808996 0.0029649198061263847 0 0.017412175847064754 0.0027071911621768595 0 0.018314637749946766 0.0024459993971389501 0 0.020084699001565939 0.00075416770008655918 0 0.020404001284202871 0.00098018224734172025 0 0.020167131745931127 0.0012492219914819994 0 0.020404001284202871 0.00098018224734172025 0 0.020167131745931127 0.0012492219914819994 0 0.02067827158138839 0.0012699984477608087 0 0.020084699001565939 0.00075416770008655918 0 0.019623019007198032 0.0012938179230916759 0 0.020167131745931127 0.0012492219914819994 0 0.020261723255479237 0.0011663079930298293 0 0.01938098025004921 0.0018224393528340841 0 0.019779760023385766 0.0013964239198505392 0 0.01901601620572586 0.0015298830864132796 0 0.019280784468508106 0.002180527209949692 0 0.019720302352193516 0.0017149676455353699 0 0.019623019007198032 0.0012938179230916759 0 0.019975649680566986 0.0015344785595156455 0 0.019623019007198032 0.0012938179230916759 0 0.019975649680566986 0.0015344785595156455 0 0.020167131745931127 0.0012492219914819994 0 0.020216501582828051 0.0017862382562568685 0 0.019975649680566986 0.0015344785595156455 0 0.020167131745931127 0.0012492219914819994 0 0.020216501582828051 0.0017862382562568685 0 0.020167131745931127 0.0012492219914819994 0 0.02067827158138839 0.0012699984477608087 0 0.019423107161328852 0.0019442886132321306 0 0.020115995022739048 0.0013921870800224826 0 0.020404001284202871 0.00098018224734172025 0 0.02067827158138839 0.0012699984477608087 0 0.020695030612725041 0.00092051250029167458 0 0.020404001284202871 0.00098018224734172025 0 0.020695030612725041 0.00092051250029167458 0 0.020496078923908555 0.00071813638822620181 0 0.020051895494862106 0.0012676078639234059 0 0.020866976057195674 0.0008831614836605215 0 0.020938375390699329 0.0012665711136392941 0 0.02067827158138839 0.0012699984477608087 0 0.020695030612725041 0.00092051250029167458 0 0.020866976057195674 0.0008831614836605215 0 0.020115995022739048 0.0013921870800224826 0 0.020408933375176599 0.0011553487006998159 0 0.020794059350571242 0.0017900360918863842 0 0.020051895494862106 0.0012676078639234059 0 0.020938375390699329 0.0012665711136392941 0 0.021407925996995678 0.0018052764114657915 0 0.020794059350571242 0.0017900360918863842 0 0.020938375390699329 0.0012665711136392941 0 0.021407925996995678 0.0018052764114657915 0 0.020938375390699329 0.0012665711136392941 0 0.021286238472477521 0.0011265665213403143 0 0.019849548320695656 -0.00049613956734158966 0 0.020380515718726282 -0.00030065731412051261 0 0.020866976057195674 0.0008831614836605215 0 0.020938375390699329 0.0012665711136392941 0 0.021286238472477521 0.0011265665213403143 0 0.020866976057195674 0.0008831614836605215 0 0.021161591652846746 0.000714388638636995 0 0.021025504552379424 0.00071270058986706375 0 0.020866976057195674 0.0008831614836605215 0 0.021286238472477521 0.0011265665213403143 0 0.021161591652846746 0.000714388638636995 0 0.020380515718726282 -0.00030065731412051261 0 0.020767446186424066 8.5625850911847237e-06 0 0.019907616380826797 -0.0021145582958830254 0 0.020665750847085156 -0.00090004175495992441 0 0.019540542182537042 -0.0010922933148823605 0 0.020665750847085156 -0.00090004175495992441 0 0.020505113676223666 -0.00019152794670506803 0 0.019540542182537042 -0.0010922933148823605 0 0.020767446186424066 8.5625850911847237e-06 0 0.021023100510514047 0.00026311063046975149 0 0.020665750847085156 -0.00090004175495992441 0 0.020505113676223666 -0.00019152794670506803 0 0.021257240059623452 0.00032727168655736523 0 0.021161591652846746 0.000714388638636995 0 0.021129229018891988 0.0006745545172118047 0 0.021025504552379424 0.00071270058986706375 0 0.021161591652846746 0.000714388638636995 0 0.021129229018891988 0.0006745545172118047 0 0.021241694795289107 0.0006201288877126309 0 0.021129229018891988 0.0006745545172118047 0 0.021025504552379424 0.00071270058986706375 0 0.021082772432305226 0.00069364811274428455 0 0.021025504552379424 0.00071270058986706375 0 0.021026733116070787 0.00071804834244092034 0 0.021082772432305226 0.00069364811274428455 0 0.021026733116070787 0.00071804834244092034 0 0.021082772432305226 0.00069364811274428455 0 0.021110646693075864 0.00074318729428737211 0 0.021026733116070787 0.00071804834244092034 0 0.021110646693075864 0.00074318729428737211 0 0.02091443925253764 0.00071960409146342461 0 0.021082772432305226 0.00069364811274428455 0 0.021152837571601461 0.0007184036800185875 0 0.021110646693075864 0.00074318729428737211 0 0.021152837571601461 0.0007184036800185875 0 0.021228313696580441 0.00077607970770411682 0 0.021110646693075864 0.00074318729428737211 0 0.021312522467688107 0.00085300984837694807 0 0.021228313696580441 0.00077607970770411682 0 0.021322095346644816 0.00076986432813402797 0 0.021152837571601461 0.0007184036800185875 0 0.021228313696580441 0.00077607970770411682 0 0.021322095346644816 0.00076986432813402797 0 0.021312522467688107 0.00085300984837694807 0 0.021228313696580441 0.00077607970770411682 0 0.021176824559954375 0.00072745825270722586 0 0.021228313696580441 0.00077607970770411682 0 0.021110646693075864 0.00074318729428737211 0 0.021176824559954375 0.00072745825270722586 0 0.02065571861683797 0.00099316627682295125 0 0.020758636934608412 0.00094649566920000801 0 0.021176824559954375 0.00072745825270722586 0 0.021246031633765757 0.0005733711190306222 0 0.02091443925253764 0.00071960409146342461 0 0.020695030612725041 0.00092051250029167458 0 0.020496078923908555 0.00071813638822620181 0 0.02091443925253764 0.00071960409146342461 0 0.021110646693075864 0.00074318729428737211 0 0.021176824559954375 0.00072745825270722586 0 0.02091443925253764 0.00071960409146342461 0 0.021312522467688107 0.00085300984837694807 0 0.021176824559954375 0.00072745825270722586 0 0.021246031633765757 0.0005733711190306222 0 0.020695030612725041 0.00092051250029167458 0 0.020866976057195674 0.0008831614836605215 0 0.02091443925253764 0.00071960409146342461 0 0.020866976057195674 0.0008831614836605215 0 0.021025504552379424 0.00071270058986706375 0 0.02091443925253764 0.00071960409146342461 0 0.021025504552379424 0.00071270058986706375 0 0.021026733116070787 0.00071804834244092034 0 0.02091443925253764 0.00071960409146342461 0 0.0165786930539625 -0.0018846628788068873 0 0.017315922383534504 -0.0029380129347473627 0 0.017662167553592453 -0.0020228642883939672 0 0.016367136999429356 -0.0016260188645143493 0 0.016910413151868652 -0.0025527788701527779 0 0.015857357482869424 -0.0011940168894253927 0 0.016617246580716248 -0.002156799993719078 0 0.015489397845182877 -0.0018850906044752822 0 0.017315922383534504 -0.0029380129347473627 0 0.017662167553592453 -0.0020228642883939672 0 0.018390195533628771 -0.002560397471206695 0 0.0165786930539625 -0.0018846628788068873 0 0.017662167553592453 -0.0020228642883939672 0 0.017522461633930266 -0.0011732978993710581 0 0.017662167553592453 -0.0020228642883939672 0 0.018390195533628771 -0.002560397471206695 0 0.01851925105588554 -0.0014372377799288895 0 0.018390195533628771 -0.002560397471206695 0 0.01905384499176015 -0.00203129482171902 0 0.01851925105588554 -0.0014372377799288895 0 0.019265356815170148 -0.0031416513075251343 0 0.018390195533628771 -0.002560397471206695 0 0.01905384499176015 -0.00203129482171902 0 0.019265356815170148 -0.0031416513075251343 0 0.019907616380826797 -0.0021145582958830254 0 0.01905384499176015 -0.00203129482171902 0 0.019907616380826797 -0.0021145582958830254 0 0.01905384499176015 -0.00203129482171902 0 0.019540542182537042 -0.0010922933148823605 0 0.01905384499176015 -0.00203129482171902 0 0.019540542182537042 -0.0010922933148823605 0 0.01851925105588554 -0.0014372377799288895 0 0.019540542182537042 -0.0010922933148823605 0 0.019398821741093471 -0.00027090714186469612 0 0.018663781975312099 -0.00065506080105179787 0 0.020505113676223666 -0.00019152794670506803 0 0.019540542182537042 -0.0010922933148823605 0 0.019398821741093471 -0.00027090714186469612 0 0.019279033590990081 -0.00066785594703136963 0 0.019505626978652397 -0.00048626791448259883 0 0.019398821741093471 -0.00027090714186469612 0 0.018663781975312099 -0.00065506080105179787 0 0.018717567552845663 0.00020462300471386826 0 0.018523281906558605 -0.00059534372643927312 0 0.017358983659861944 -3.3404990128181898e-05 0 0.018542764418121478 0.00026830933175943286 0 0.018523281906558605 -0.00059534372643927312 0 0.01851925105588554 -0.0014372377799288895 0 0.017522461633930266 -0.0011732978993710581 0 0.019279033590990081 -0.00066785594703136963 0 0.019203525537804869 -0.00085368444775953969 0 0.019540542182537042 -0.0010922933148823605 0 0.018663781975312099 -0.00065506080105179787 0 0.01851925105588554 -0.0014372377799288895 0 0.017662167553592453 -0.0020228642883939672 0 0.01851925105588554 -0.0014372377799288895 0 0.017522461633930266 -0.0011732978993710581 0 0.017522461633930266 -0.0011732978993710581 0 0.017358983659861944 -3.3404990128181898e-05 0 0.016603197036182189 -0.00093303126901772896 0 0.018523281906558605 -0.00059534372643927312 0 0.017522461633930266 -0.0011732978993710581 0 0.017358983659861944 -3.3404990128181898e-05 0 0.018138638680437514 -0.00070331521188514933 0 0.017226241336752761 -0.00087331043818654767 0 0.018512737890866385 -0.0011740824116872124 0 0.017449743417866675 -0.0013857023033104422 0 0.017455704000705365 -0.00085636379955040382 0 0.017358983659861944 -3.3404990128181898e-05 0 0.016603197036182189 -0.00093303126901772896 0 0.01604309889154627 -0.0004409177445077066 0 0.0165786930539625 -0.0018846628788068873 0 0.017522461633930266 -0.0011732978993710581 0 0.016603197036182189 -0.00093303126901772896 0 0.018246090179998471 -0.00021308191979624088 0 0.017903823970822179 -0.00054333361555847096 0 0.01761154479662656 -8.655123188498927e-05 0 0.018246090179998471 -0.00021308191979624088 0 0.017903823970822179 -0.00054333361555847096 0 0.018724544961341481 -0.00051503278997848498 0 0.018512737890866385 -0.0011740824116872124 0 0.017903823970822179 -0.00054333361555847096 0 0.017455704000705365 -0.00085636379955040382 0 0.018512737890866385 -0.0011740824116872124 0 0.017903823970822179 -0.00054333361555847096 0 0.018724544961341481 -0.00051503278997848498 0 0.018512737890866385 -0.0011740824116872124 0 0.018724544961341481 -0.00051503278997848498 0 0.01920321366591745 -0.00096777483943890513 0 0.018138638680437514 -0.00070331521188514933 0 0.019505626978652397 -0.00048626791448259883 0 0.018724544961341481 -0.00051503278997848498 0 0.019195582922312618 -0.00030447756456714086 0 0.01920321366591745 -0.00096777483943890513 0 0.020121571652928643 -0.00020801335026437927 0 0.019505626978652397 -0.00048626791448259883 0 0.022130140428831834 -6.1486005096016776e-05 0 0.022166942991151045 0.00057022767301328668 0 0.021756656054277429 0.00047733067626230515 0 0.020505113676223666 -0.00019152794670506803 0 0.019398821741093471 -0.00027090714186469612 0 0.019793938492460972 0.00041380299431146363 0 0.019505626978652397 -0.00048626791448259883 0 0.020338257808255579 -0.00011419185923816082 0 0.019398821741093471 -0.00027090714186469612 0 0.018717567552845663 0.00020462300471386826 0 0.019793938492460972 0.00041380299431146363 0 0.022130140428831834 -6.1486005096016776e-05 0 0.021756656054277429 0.00047733067626230515 0 0.021665178990322817 9.9819954121862139e-05 0 0.022130140428831834 -6.1486005096016776e-05 0 0.021665178990322817 9.9819954121862139e-05 0 0.021779490345493351 -0.00026209391326400449 0 0.022130140428831834 -6.1486005096016776e-05 0 0.021968912739021875 -0.00056225771038112982 0 0.021779490345493351 -0.00026209391326400449 0 0.021968912739021875 -0.00056225771038112982 0 0.021779490345493351 -0.00026209391326400449 0 0.02190261600785632 -0.00065368492667864557 0 0.020121571652928643 -0.00020801335026437927 0 0.020427299984823826 -9.173621709579592e-05 0 0.019195582922312618 -0.00030447756456714086 0 0.019333892292781839 7.947373464498383e-06 0 0.018807307178774373 9.6722596362089302e-06 0 0.018246090179998471 -0.00021308191979624088 0 0.018724544961341481 -0.00051503278997848498 0 0.018807307178774373 9.6722596362089302e-06 0 0.018724544961341481 -0.00051503278997848498 0 0.019195582922312618 -0.00030447756456714086 0 0.018807307178774373 9.6722596362089302e-06 0 0.019333892292781839 7.947373464498383e-06 0 0.018807307178774373 9.6722596362089302e-06 0 0.019315234590723557 9.3419615654243197e-05 0 0.018807307178774373 9.6722596362089302e-06 0 0.018632319387961175 0.00018973682465550781 0 0.018051849673501721 0.00018793417891918961 0 0.018246090179998471 -0.00021308191979624088 0 0.018807307178774373 9.6722596362089302e-06 0 0.018051849673501721 0.00018793417891918961 0 0.021153555327995895 0.00043673333910018751 0 0.020957895706427244 0.00046093783345229559 0 0.021273752472226674 1.7354617172026847e-05 0 0.021153555327995895 0.00043673333910018751 0 0.020957895706427244 0.00046093783345229559 0 0.021133934429739445 0.00060708601660123672 0 0.021350236003484759 0.0004286556083837504 0 0.021665476422789768 5.3699530897012321e-05 0 0.02211003604925937 0.00014208428101355621 0 0.021665476422789768 5.3699530897012321e-05 0 0.02211003604925937 0.00014208428101355621 0 0.022045760443255978 -0.00026409991815704107 0 0.021152837571601461 0.0007184036800185875 0 0.021322095346644816 0.00076986432813402797 0 0.020957895706427244 0.00046093783345229559 0 0.021350236003484759 0.0004286556083837504 0 0.021322095346644816 0.00076986432813402797 0 0.02211003604925937 0.00014208428101355621 0 0.021516561793577669 0.00031780962415147389 0 0.021613131324732301 0.00012648839924050081 0 0.021152837571601461 0.0007184036800185875 0 0.020957895706427244 0.00046093783345229559 0 0.021088557899467151 0.00063552621280772909 0 0.021082772432305226 0.00069364811274428455 0 0.021152837571601461 0.0007184036800185875 0 0.021088557899467151 0.00063552621280772909 0 0.021082772432305226 0.00069364811274428455 0 0.021088557899467151 0.00063552621280772909 0 0.021133934429739445 0.00060708601660123672 0 0.020957895706427244 0.00046093783345229559 0 0.021088557899467151 0.00063552621280772909 0 0.021133934429739445 0.00060708601660123672 0 0.021129229018891988 0.0006745545172118047 0 0.021082772432305226 0.00069364811274428455 0 0.021133934429739445 0.00060708601660123672 0 0.021129229018891988 0.0006745545172118047 0 0.021133934429739445 0.00060708601660123672 0 0.021241694795289107 0.0006201288877126309 0 0.021153555327995895 0.00043673333910018751 0 0.021133934429739445 0.00060708601660123672 0 0.021241694795289107 0.0006201288877126309 0 0.021756656054277429 0.00047733067626230515 0 0.021150902099960636 0.0003748505424993706 0 0.021665178990322817 9.9819954121862139e-05 0 0.020505113676223666 -0.00019152794670506803 0 0.019793938492460972 0.00041380299431146363 0 0.021150902099960636 0.0003748505424993706 0 0.020338257808255579 -0.00011419185923816082 0 0.020580483341886485 -1.1222552324033711e-05 0 0.020505113676223666 -0.00019152794670506803 0 0.021257240059623452 0.00032727168655736523 0 0.021150902099960636 0.0003748505424993706 0 0.021665178990322817 9.9819954121862139e-05 0 0.02140019826329162 9.0403409710325964e-05 0 0.021779490345493351 -0.00026209391326400449 0 0.021150902099960636 0.0003748505424993706 0 0.021665178990322817 9.9819954121862139e-05 0 0.02140019826329162 9.0403409710325964e-05 0 0.021153555327995895 0.00043673333910018751 0 0.021241694795289107 0.0006201288877126309 0 0.021273752472226674 1.7354617172026847e-05 0 0.021257240059623452 0.00032727168655736523 0 0.02140019826329162 9.0403409710325964e-05 0 0.021273752472226674 1.7354617172026847e-05 0 0.021257240059623452 0.00032727168655736523 0 0.021150902099960636 0.0003748505424993706 0 0.02140019826329162 9.0403409710325964e-05 0 0.021023100510514047 0.00026311063046975149 0 0.021076185317787328 0.00021921004331265008 0 0.02140019826329162 9.0403409710325964e-05 0 0.02160716662713217 -0.00028407870878786564 0 0.021273752472226674 1.7354617172026847e-05 0 0.02160716662713217 -0.00028407870878786564 0 0.021238951661203952 -0.00025090285456161261 0 0.021273752472226674 1.7354617172026847e-05 0 0.02140019826329162 9.0403409710325964e-05 0 0.02160716662713217 -0.00028407870878786564 0 0.021779490345493351 -0.00026209391326400449 0 0.02160716662713217 -0.00028407870878786564 0 0.02206810910546024 -0.00070281907810299123 0 0.02190261600785632 -0.00065368492667864557 0 0.02160716662713217 -0.00028407870878786564 0 0.021779490345493351 -0.00026209391326400449 0 0.02190261600785632 -0.00065368492667864557 0 0.02160716662713217 -0.00028407870878786564 0 0.021238951661203952 -0.00025090285456161261 0 0.02206810910546024 -0.00070281907810299123 0 0.022456241964521395 -0.00058350096373647662 0 0.022347487360817948 -0.00071235037456090198 0 0.02206810910546024 -0.00070281907810299123 0 0.02177745579814697 -0.00019740683094889217 0 0.021855593794180766 -0.00034030921453588923 0 0.022358054902239837 -0.00064520309255141554 0 0.022456241964521395 -0.00058350096373647662 0 0.022347487360817948 -0.00071235037456090198 0 0.022318775955729096 -0.00067990315248164009 0 0.022358054902239837 -0.00064520309255141554 0 0.022347487360817948 -0.00071235037456090198 0 0.022318775955729096 -0.00067990315248164009 0 0.022377261648248627 -0.00075158981372358297 0 0.022347487360817948 -0.00071235037456090198 0 0.022358054902239837 -0.00064520309255141554 0 0.022456241964521395 -0.00058350096373647662 0 0.02225096418302358 -0.00053297487712840839 0 0.022318775955729096 -0.00067990315248164009 0 0.022358054902239837 -0.00064520309255141554 0 0.02225096418302358 -0.00053297487712840839 0 0.021613131324732301 0.00012648839924050081 0 0.02177745579814697 -0.00019740683094889217 0 0.022456241964521395 -0.00058350096373647662 0 0.02225096418302358 -0.00053297487712840839 0 0.022045760443255978 -0.00026409991815704107 0 0.02211003604925937 0.00014208428101355621 0 0.022456241964521395 -0.00058350096373647662 0 0.022045760443255978 -0.00026409991815704107 0 0.020957895706427244 0.00046093783345229559 0 0.021238951661203952 -0.00025090285456161261 0 0.021273752472226674 1.7354617172026847e-05 0 0.021628035866809957 -0.00019688050377520075 0 0.022045760443255978 -0.00026409991815704107 0 0.022003291833356559 -0.0004382058640948432 0 0.021628035866809957 -0.00019688050377520075 0 0.021665476422789768 5.3699530897012321e-05 0 0.022045760443255978 -0.00026409991815704107 0 0.02225096418302358 -0.00053297487712840839 0 0.022045760443255978 -0.00026409991815704107 0 0.022003291833356559 -0.0004382058640948432 0 0.02225096418302358 -0.00053297487712840839 0 0.022003291833356559 -0.0004382058640948432 0 0.022172658167784427 -0.00059181598615114955 0 0.021746067190838134 -0.00043216825248798075 0 0.022003291833356559 -0.0004382058640948432 0 0.022004240394065552 -0.00060028073669816495 0 0.022003291833356559 -0.0004382058640948432 0 0.022004240394065552 -0.00060028073669816495 0 0.022172658167784427 -0.00059181598615114955 0 0.022004240394065552 -0.00060028073669816495 0 0.022172658167784427 -0.00059181598615114955 0 0.022211047007109568 -0.00069000543375667602 0 0.022318775955729096 -0.00067990315248164009 0 0.02225096418302358 -0.00053297487712840839 0 0.022172658167784427 -0.00059181598615114955 0 0.022318775955729096 -0.00067990315248164009 0 0.022211047007109568 -0.00069000543375667602 0 0.022377261648248627 -0.00075158981372358297 0 0.022318775955729096 -0.00067990315248164009 0 0.022172658167784427 -0.00059181598615114955 0 0.022211047007109568 -0.00069000543375667602 0 0.022065707541819916 -0.00071761656238655401 0 0.022004240394065552 -0.00060028073669816495 0 0.022211047007109568 -0.00069000543375667602 0 0.022065707541819916 -0.00071761656238655401 0 0.022211047007109568 -0.00069000543375667602 0 0.022246233735197303 -0.0007859216601836974 0 0.022246233735197303 -0.0007859216601836974 0 0.0222890337107578 -0.00086893323521814304 0 0.022056820192976442 -0.00082647003409027221 0 0.022246233735197303 -0.0007859216601836974 0 0.022398775222982281 -0.00082223135008635279 0 0.0222890337107578 -0.00086893323521814304 0 0.022246233735197303 -0.0007859216601836974 0 0.022377261648248627 -0.00075158981372358297 0 0.022398775222982281 -0.00082223135008635279 0 0.022211047007109568 -0.00069000543375667602 0 0.022246233735197303 -0.0007859216601836974 0 0.022377261648248627 -0.00075158981372358297 0 0.022398775222982281 -0.00082223135008635279 0 0.022515651332097368 -0.00089555341268627838 0 0.022524494103352111 -0.00076466812667412792 0 0.022377261648248627 -0.00075158981372358297 0 0.022398775222982281 -0.00082223135008635279 0 0.022524494103352111 -0.00076466812667412792 0 0.022398775222982281 -0.00082223135008635279 0 0.0222890337107578 -0.00086893323521814304 0 0.022515651332097368 -0.00089555341268627838 0 0.022515651332097368 -0.00089555341268627838 0 0.022881988007256722 -0.00066455479936975684 0 0.022720389760108727 -0.00091341258148563411 0 0.022515651332097368 -0.00089555341268627838 0 0.022524494103352111 -0.00076466812667412792 0 0.022881988007256722 -0.00066455479936975684 0 0.022524494103352111 -0.00076466812667412792 0 0.022464740955979095 -0.00062344481352346747 0 0.022881988007256722 -0.00066455479936975684 0 0.022464740955979095 -0.00062344481352346747 0 0.022654010686834546 -0.00038469873350059061 0 0.022881988007256722 -0.00066455479936975684 0 0.022524494103352111 -0.00076466812667412792 0 0.022347487360817948 -0.00071235037456090198 0 0.022464740955979095 -0.00062344481352346747 0 0.022377261648248627 -0.00075158981372358297 0 0.022524494103352111 -0.00076466812667412792 0 0.022347487360817948 -0.00071235037456090198 0 0.022347487360817948 -0.00071235037456090198 0 0.02206810910546024 -0.00070281907810299123 0 0.022464740955979095 -0.00062344481352346747 0 0.02206810910546024 -0.00070281907810299123 0 0.02190261600785632 -0.00065368492667864557 0 0.02212858318915965 -0.00046966431481339384 0 0.02206810910546024 -0.00070281907810299123 0 0.02212858318915965 -0.00046966431481339384 0 0.022464740955979095 -0.00062344481352346747 0 0.02212858318915965 -0.00046966431481339384 0 0.022464740955979095 -0.00062344481352346747 0 0.022654010686834546 -0.00038469873350059061 0 0.022654010686834546 -0.00038469873350059061 0 0.022613235438834835 1.4044270989077826e-05 0 0.023117633624560777 -0.00014163125249895206 0 0.02212858318915965 -0.00046966431481339384 0 0.022654010686834546 -0.00038469873350059061 0 0.022613235438834835 1.4044270989077826e-05 0 0.02212858318915965 -0.00046966431481339384 0 0.022613235438834835 1.4044270989077826e-05 0 0.022209321473187684 0.0004984717567877206 0 0.022613235438834835 1.4044270989077826e-05 0 0.022209321473187684 0.0004984717567877206 0 0.023161842409916936 0.00063238461912644764 0 0.022613235438834835 1.4044270989077826e-05 0 0.023117633624560777 -0.00014163125249895206 0 0.023161842409916936 0.00063238461912644764 0 0.023117633624560777 -0.00014163125249895206 0 0.023696594739051696 0.00055366685300171166 0 0.023161842409916936 0.00063238461912644764 0 0.023117633624560777 -0.00014163125249895206 0 0.02370567847222016 7.4579117270267138e-05 0 0.023696594739051696 0.00055366685300171166 0 0.023117633624560777 -0.00014163125249895206 0 0.02370567847222016 7.4579117270267138e-05 0 0.023170056659677599 -0.00084034557679801424 0 0.022881988007256722 -0.00066455479936975684 0 0.023170056659677599 -0.00084034557679801424 0 0.022720389760108727 -0.00091341258148563411 0 0.023117633624560777 -0.00014163125249895206 0 0.022881988007256722 -0.00066455479936975684 0 0.023170056659677599 -0.00084034557679801424 0 0.022654010686834546 -0.00038469873350059061 0 0.023117633624560777 -0.00014163125249895206 0 0.022881988007256722 -0.00066455479936975684 0 0.018871911336552648 0.00020562351953864214 0 0.019315234590723557 9.3419615654243197e-05 0 0.019649565243942312 9.7140037681800505e-05 0 0.018871911336552648 0.00020562351953864214 0 0.018632319387961175 0.00018973682465550781 0 0.019315234590723557 9.3419615654243197e-05 0 0.018807307178774373 9.6722596362089302e-06 0 0.018632319387961175 0.00018973682465550781 0 0.019315234590723557 9.3419615654243197e-05 0 0.019315234590723557 9.3419615654243197e-05 0 0.019851376208513426 9.2215743165369921e-06 0 0.019649565243942312 9.7140037681800505e-05 0 0.02059903064050532 9.3840579720807244e-05 0 0.020677005283086997 0.00027084013927662826 0 0.019333892292781839 7.947373464498383e-06 0 0.019315234590723557 9.3419615654243197e-05 0 0.019851376208513426 9.2215743165369921e-06 0 0.020427299984823826 -9.173621709579592e-05 0 0.02059903064050532 9.3840579720807244e-05 0 0.021968912739021875 -0.00056225771038112982 0 0.02190261600785632 -0.00065368492667864557 0 0.021574214320848391 -0.00060556164545804759 0 0.02212858318915965 -0.00046966431481339384 0 0.021574214320848391 -0.00060556164545804759 0 0.021040209658108371 7.5581811513812848e-05 0 0.02190261600785632 -0.00065368492667864557 0 0.02212858318915965 -0.00046966431481339384 0 0.021574214320848391 -0.00060556164545804759 0 0.02212858318915965 -0.00046966431481339384 0 0.022209321473187684 0.0004984717567877206 0 0.021040209658108371 7.5581811513812848e-05 0 0.022209321473187684 0.0004984717567877206 0 0.021040209658108371 7.5581811513812848e-05 0 0.02137624109199459 0.00065079964762459282 0 0.021040209658108371 7.5581811513812848e-05 0 0.01996864134403575 0.00040462588340279827 0 0.02137624109199459 0.00065079964762459282 0 0.019851376208513426 9.2215743165369921e-06 0 0.021040209658108371 7.5581811513812848e-05 0 0.019649565243942312 9.7140037681800505e-05 0 0.021040209658108371 7.5581811513812848e-05 0 0.019649565243942312 9.7140037681800505e-05 0 0.01996864134403575 0.00040462588340279827 0 0.01996864134403575 0.00040462588340279827 0 0.02064083694615006 0.00084942236516364115 0 0.02137624109199459 0.00065079964762459282 0 0.01996864134403575 0.00040462588340279827 0 0.019400591219473684 0.00056410831352160409 0 0.020026464271526399 0.00084759458279859998 0 0.01996864134403575 0.00040462588340279827 0 0.019400591219473684 0.00056410831352160409 0 0.019195898693159626 0.00026200613338083704 0 0.019649565243942312 9.7140037681800505e-05 0 0.01996864134403575 0.00040462588340279827 0 0.019195898693159626 0.00026200613338083704 0 0.018871911336552648 0.00020562351953864214 0 0.019649565243942312 9.7140037681800505e-05 0 0.019195898693159626 0.00026200613338083704 0 0.019579006864563656 0.0017645756690001062 0 0.019666976290081305 0.0012103259039840787 0 0.020112042497472817 0.0023990482926922402 0 0.021774662756241167 0.0011297125380606719 0 0.022639813750712914 0.0013841405460772555 0 0.019579006864563656 0.0017645756690001062 0 0.019666976290081305 0.0012103259039840787 0 0.019056137885323784 0.0011331053578219753 0 0.019400591219473684 0.00056410831352160409 0 0.019666976290081305 0.0012103259039840787 0 0.019056137885323784 0.0011331053578219753 0 0.019400591219473684 0.00056410831352160409 0 0.020026464271526399 0.00084759458279859998 0 0.019666976290081305 0.0012103259039840787 0 0.01996864134403575 0.00040462588340279827 0 0.020026464271526399 0.00084759458279859998 0 0.02064083694615006 0.00084942236516364115 0 0.020026464271526399 0.00084759458279859998 0 0.019666976290081305 0.0012103259039840787 0 0.020732571303230019 0.0014317027330602301 0 0.020026464271526399 0.00084759458279859998 0 0.02064083694615006 0.00084942236516364115 0 0.020732571303230019 0.0014317027330602301 0 0.019666976290081305 0.0012103259039840787 0 0.020732571303230019 0.0014317027330602301 0 0.02037464157623731 0.0024640643978780484 0 0.02064083694615006 0.00084942236516364115 0 0.020732571303230019 0.0014317027330602301 0 0.021789423880273353 0.0013167438662183542 0 0.020732571303230019 0.0014317027330602301 0 0.021789423880273353 0.0013167438662183542 0 0.022049915007171215 0.0021855433970220123 0 0.02064083694615006 0.00084942236516364115 0 0.021789423880273353 0.0013167438662183542 0 0.02137624109199459 0.00065079964762459282 0 0.022209321473187684 0.0004984717567877206 0 0.02137624109199459 0.00065079964762459282 0 0.022685942684818008 0.0011522753063755468 0 0.021789423880273353 0.0013167438662183542 0 0.02137624109199459 0.00065079964762459282 0 0.022685942684818008 0.0011522753063755468 0 0.021789423880273353 0.0013167438662183542 0 0.022685942684818008 0.0011522753063755468 0 0.023393065987129681 0.0018618972821075213 0 0.021789423880273353 0.0013167438662183542 0 0.022049915007171215 0.0021855433970220123 0 0.023393065987129681 0.0018618972821075213 0 0.024345256217795198 0.0030001805781571735 0 0.022049915007171215 0.0021855433970220123 0 0.023393065987129681 0.0018618972821075213 0 0.024188421220478814 0.0024079201708117597 0 0.024231785694183161 0.00216854680837111 0 0.024345256217795198 0.0030001805781571735 0 0.022049915007171215 0.0021855433970220123 0 0.021756989836720794 0.0040036863837902698 0 0.020732571303230019 0.0014317027330602301 0 0.022049915007171215 0.0021855433970220123 0 0.02037464157623731 0.0024640643978780484 0 0.022639813750712914 0.0013841405460772555 0 0.024231785694183161 0.00216854680837111 0 0.023319462544098422 0.0013496604046681696 0 0.023742035381439649 0.0025466003748453861 0 0.024184866158440128 0.0024187815666216832 0 0.022639813750712914 0.0013841405460772555 0 0.024763973152700174 0.0018915868448317621 0 0.023109226151890271 0.00049673307755578565 0 0.02310837417747898 0.00050496757899366458 0 0.023121428814380014 0.00051387287614388418 0 0.022049915007171215 0.0021855433970220123 0 0.02037464157623731 0.0024640643978780484 0 0.021756989836720794 0.0040036863837902698 0 0.02310837417747898 0.00050496757899366458 0 0.023096546425246743 0.00049789634757024565 0 0.023107137832107216 0.0005111998581549843 0 0.023109226151890271 0.00049673307755578565 0 0.02310837417747898 0.00050496757899366458 0 0.023096546425246743 0.00049789634757024565 0 0.023098078753137515 0.00048894096169913991 0 0.023109226151890271 0.00049673307755578565 0 0.023096546425246743 0.00049789634757024565 0 0.021762541512898016 0.00093971100583520675 0 0.022639813750712914 0.0013841405460772555 0 0.024071522831731029 0.0013423906625141147 0 0.024792122029764843 0.0017682496206283982 0 0.024452936969722797 0.0009556623929196633 0 0.02370567847222016 7.4579117270267138e-05 0 0.023696594739051696 0.00055366685300171166 0 0.024452936969722797 0.0009556623929196633 0 0.024071522831731029 0.0013423906625141147 0 0.023696594739051696 0.00055366685300171166 0 0.024452936969722797 0.0009556623929196633 0 0.024071522831731029 0.0013423906625141147 0 0.023696594739051696 0.00055366685300171166 0 0.023161842409916936 0.00063238461912644764 0 0.022209321473187684 0.0004984717567877206 0 0.022685942684818008 0.0011522753063755468 0 0.023161842409916936 0.00063238461912644764 0 0.022685942684818008 0.0011522753063755468 0 0.023161842409916936 0.00063238461912644764 0 0.023503971047669703 0.0013667297427803361 0 0.022685942684818008 0.0011522753063755468 0 0.023503971047669703 0.0013667297427803361 0 0.023393065987129681 0.0018618972821075213 0 0.024071522831731029 0.0013423906625141147 0 0.023503971047669703 0.0013667297427803361 0 0.024193669344316538 0.0019097194465456161 0 0.024071522831731029 0.0013423906625141147 0 0.023161842409916936 0.00063238461912644764 0 0.023503971047669703 0.0013667297427803361 0 0.023503971047669703 0.0013667297427803361 0 0.024193669344316538 0.0019097194465456161 0 0.023393065987129681 0.0018618972821075213 0 0.024193669344316538 0.0019097194465456161 0 0.023393065987129681 0.0018618972821075213 0 0.024349685612452661 0.00239324153954147 0 0.024345256217795198 0.0030001805781571735 0 0.023393065987129681 0.0018618972821075213 0 0.024349685612452661 0.00239324153954147 0 0.024345256217795198 0.0030001805781571735 0 0.024349685612452661 0.00239324153954147 0 0.024924074439314672 0.0026143557604076705 0 0.024193669344316538 0.0019097194465456161 0 0.024896372239332311 0.0024081821721255317 0 0.024805166114698456 0.0021105643852483381 0 0.024349685612452661 0.00239324153954147 0 0.024896372239332311 0.0024081821721255317 0 0.024924074439314672 0.0026143557604076705 0 0.024193669344316538 0.0019097194465456161 0 0.024349685612452661 0.00239324153954147 0 0.024896372239332311 0.0024081821721255317 0 0.024896372239332311 0.0024081821721255317 0 0.025128881073992908 0.0023366241270230087 0 0.024805166114698456 0.0021105643852483381 0 0.025128881073992908 0.0023366241270230087 0 0.024805166114698456 0.0021105643852483381 0 0.025190906333248216 0.0022830472207640965 0 0.024071522831731029 0.0013423906625141147 0 0.024193669344316538 0.0019097194465456161 0 0.024805166114698456 0.0021105643852483381 0 0.024071522831731029 0.0013423906625141147 0 0.024805166114698456 0.0021105643852483381 0 0.024792122029764843 0.0017682496206283982 0 0.024235752031742573 -6.5886055252937153e-05 0 0.024893862472188995 0.00039303931819173774 0 0.024805166114698456 0.0021105643852483381 0 0.024792122029764843 0.0017682496206283982 0 0.025159952315578726 0.0022944365584142748 0 0.024805166114698456 0.0021105643852483381 0 0.025190906333248216 0.0022830472207640965 0 0.025159952315578726 0.0022944365584142748 0 0.02375718750111357 -0.0019094873508122092 0 0.023837900387905939 -0.0018222418980930691 0 0.023703327061834322 -0.0017183877574483959 0 0.023837900387905939 -0.0018222418980930691 0 0.02382980216831658 -0.0017166310548653303 0 0.023703327061834322 -0.0017183877574483959 0 0.023837900387905939 -0.0018222418980930691 0 0.02395589792640691 -0.0017128082273994507 0 0.02382980216831658 -0.0017166310548653303 0 0.023837900387905939 -0.0018222418980930691 0 0.023945641049241254 -0.0018686555659164523 0 0.02395589792640691 -0.0017128082273994507 0 0.023945641049241254 -0.0018686555659164523 0 0.02387381969520147 -0.0019681502247222761 0 0.023990134907117568 -0.0019697726317644839 0 0.023837900387905939 -0.0018222418980930691 0 0.023945641049241254 -0.0018686555659164523 0 0.02387381969520147 -0.0019681502247222761 0 0.02375718750111357 -0.0019094873508122092 0 0.023837900387905939 -0.0018222418980930691 0 0.02387381969520147 -0.0019681502247222761 0 0.02387381969520147 -0.0019681502247222761 0 0.023886901884394206 -0.0021085546046040334 0 0.023827207800104801 -0.0020868000542015094 0 0.02375718750111357 -0.0019094873508122092 0 0.02387381969520147 -0.0019681502247222761 0 0.023827207800104801 -0.0020868000542015094 0 0.024235752031742573 -6.5886055252937153e-05 0 0.023647941020083236 -0.00082805737989068064 0 0.023886901884394206 -0.0021085546046040334 0 0.023829640270543486 -0.0021770155962116595 0 0.023851903813733193 -0.00228856980585078 0 0.024651744776710772 -0.0022599234096733552 0 0.024883143605465737 -0.002138885484912353 0 0.02387381969520147 -0.0019681502247222761 0 0.023886901884394206 -0.0021085546046040334 0 0.023990134907117568 -0.0019697726317644839 0 0.023886901884394206 -0.0021085546046040334 0 0.023827171646556209 -0.002091966885104728 0 0.023880023406548361 -0.002113163136673109 0 0.023647941020083236 -0.00082805737989068064 0 0.022930390460371333 -0.0023525656479819836 0 0.023886901884394206 -0.0021085546046040334 0 0.023827207800104801 -0.0020868000542015094 0 0.023880023406548361 -0.002113163136673109 0 0.021523999091251664 -0.0040365932982433525 0 0.020629374832249827 -0.0045480469971026036 0 0.017316424069578756 -0.0076249820791674449 0 0.019903318095476793 -0.0077657517852640755 0 0.017380278466701132 -0.0095978057948069087 0 0.023827171646556209 -0.002091966885104728 0 0.023748206640566941 -0.0022361703525303448 0 0.023829640270543486 -0.0021770155962116595 0 0.023886901884394206 -0.0021085546046040334 0 0.023827171646556209 -0.002091966885104728 0 0.023829640270543486 -0.0021770155962116595 0 0.023827171646556209 -0.002091966885104728 0 0.023748206640566941 -0.0022361703525303448 0 0.023608401615330756 -0.0022157067148513079 0 0.023748206640566941 -0.0022361703525303448 0 0.023829640270543486 -0.0021770155962116595 0 0.023851903813733193 -0.00228856980585078 0 0.023748206640566941 -0.0022361703525303448 0 0.023851903813733193 -0.00228856980585078 0 0.023707644962315561 -0.0023796058516951904 0 0.023748206640566941 -0.0022361703525303448 0 0.023608401615330756 -0.0022157067148513079 0 0.023707644962315561 -0.0023796058516951904 0 0.020629374832249827 -0.0045480469971026036 0 0.021081426028738758 -0.0041248807381502528 0 0.023557638047857255 -0.0021615374359994204 0 0.023619459916695746 -0.0023786092716825682 0 0.023453070706020002 -0.0022384121597573514 0 0.024684964474968381 -0.0024921523754719422 0 0.022199157004931015 -0.0032436700758882702 0 0.023557638047857255 -0.0021615374359994204 0 0.023619459916695746 -0.0023786092716825682 0 0.023707644962315561 -0.0023796058516951904 0 0.030974953818865565 -0.00025701093400558057 0 0.031082307723886159 -0.00026732192533289039 0 0.031083284384256803 -0.00034286412013282189 0 0.023619459916695746 -0.0023786092716825682 0 0.023707644962315561 -0.0023796058516951904 0 0.023769336149629158 -0.0024978366906386489 0 0.030974953818865565 -0.00025701093400558057 0 0.030691387566876525 -2.4974170171559175e-05 0 0.030973676407991622 -1.0109128786910762e-05 0 0.024684964474968381 -0.0024921523754719422 0 0.025826085377579563 -0.0013826849159675671 0 0.030974953818865565 -0.00025701093400558057 0 0.031073823765157632 -0.00011388645756836041 0 0.031082307723886159 -0.00026732192533289039 0 0.030974953818865565 -0.00025701093400558057 0 0.031073823765157632 -0.00011388645756836041 0 0.030973676407991622 -1.0109128786910762e-05 0 0.023945641049241254 -0.0018686555659164523 0 0.023990134907117568 -0.0019697726317644839 0 0.024070358919610933 -0.0018191626695973247 0 0.023851903813733193 -0.00228856980585078 0 0.023707644962315561 -0.0023796058516951904 0 0.023769336149629158 -0.0024978366906386489 0 0.024883143605465737 -0.002138885484912353 0 0.025826085377579563 -0.0013826849159675671 0 0.025826085377579563 -0.0013826849159675671 0 0.026093087902309822 0.00010663135417138565 0 0.026141657711998348 7.2718900527556744e-05 0 0.025828726749054582 -0.00059612225980266238 0 0.026841553047683066 -0.00055947860041954229 0 0.023945641049241254 -0.0018686555659164523 0 0.024070358919610933 -0.0018191626695973247 0 0.02395589792640691 -0.0017128082273994507 0 0.025826085377579563 -0.0013826849159675671 0 0.028177470711924186 0.00031368440456191479 0 0.03109103875292369 2.4388808804246373e-05 0 0.030973676407991622 -1.0109128786910762e-05 0 0.03107790339644715 0.00014754482861317313 0 0.031073823765157632 -0.00011388645756836041 0 0.03109103875292369 2.4388808804246373e-05 0 0.031174501338607653 -9.6241772053905266e-06 0 0.031073823765157632 -0.00011388645756836041 0 0.03109103875292369 2.4388808804246373e-05 0 0.030973676407991622 -1.0109128786910762e-05 0 0.030691387566876525 -2.4974170171559175e-05 0 0.030973676407991622 -1.0109128786910762e-05 0 0.030922780441107755 0.00013034326479273111 0 0.030922780441107755 0.00013034326479273111 0 0.031011034641160708 0.00022473782559301835 0 0.030847582221370077 0.00031521657317406799 0 0.030691387566876525 -2.4974170171559175e-05 0 0.030922780441107755 0.00013034326479273111 0 0.030847582221370077 0.00031521657317406799 0 0.031011034641160708 0.00022473782559301835 0 0.03114790471553696 0.00022631210115695203 0 0.031054062905394645 0.00032780628429818247 0 0.030973676407991622 -1.0109128786910762e-05 0 0.030922780441107755 0.00013034326479273111 0 0.03107790339644715 0.00014754482861317313 0 0.030922780441107755 0.00013034326479273111 0 0.031011034641160708 0.00022473782559301835 0 0.03107790339644715 0.00014754482861317313 0 0.03109103875292369 2.4388808804246373e-05 0 0.03107790339644715 0.00014754482861317313 0 0.031154066664608644 0.00011210231829737246 0 0.03107790339644715 0.00014754482861317313 0 0.031154913004252414 0.00017757606925350241 0 0.031154066664608644 0.00011210231829737246 0 0.03107790339644715 0.00014754482861317313 0 0.031154913004252414 0.00017757606925350241 0 0.03114790471553696 0.00022631210115695203 0 0.031011034641160708 0.00022473782559301835 0 0.03107790339644715 0.00014754482861317313 0 0.03114790471553696 0.00022631210115695203 0 0.031242888696779707 0.00022364724074436782 0 0.031154066664608644 0.00011210231829737246 0 0.031174501338607653 -9.6241772053905266e-06 0 0.031242888696779707 0.00022364724074436782 0 0.031260970921891222 0.00024997894861489896 0 0.031247256736084451 0.00025945603658647721 0 0.031242888696779707 0.00022364724074436782 0 0.031174501338607653 -9.6241772053905266e-06 0 0.031268235968126418 -0.00015340404407496099 0 0.026638036054980305 -0.0019033199877102785 0 0.026084288609748589 -0.0023022144767092896 0 0.03114790471553696 0.00022631210115695203 0 0.031242888696779707 0.00022364724074436782 0 0.031272361337509318 0.00029435984646661946 0 0.031154913004252414 0.00017757606925350241 0 0.03114790471553696 0.00022631210115695203 0 0.031242888696779707 0.00022364724074436782 0 0.031154913004252414 0.00017757606925350241 0 0.031242888696779707 0.00022364724074436782 0 0.031154066664608644 0.00011210231829737246 0 0.03109103875292369 2.4388808804246373e-05 0 0.031154066664608644 0.00011210231829737246 0 0.031174501338607653 -9.6241772053905266e-06 0 0.031260970921891222 0.00024997894861489896 0 0.031243435567510268 0.00026194082370918517 0 0.031247256736084451 0.00025945603658647721 0 0.031242888696779707 0.00022364724074436782 0 0.031260970921891222 0.00024997894861489896 0 0.031279400815946698 0.00026352693021303099 0 0.031260970921891222 0.00024997894861489896 0 0.03127061013000916 0.00026192843008826522 0 0.031279400815946698 0.00026352693021303099 0 0.031243435567510268 0.00026194082370918517 0 0.031211543195693619 0.00027447037099358982 0 0.031242210012135251 0.00026118985807819768 0 0.031243435567510268 0.00026194082370918517 0 0.031242210012135251 0.00026118985807819768 0 0.03127061013000916 0.00026192843008826522 0 0.031260970921891222 0.00024997894861489896 0 0.031243435567510268 0.00026194082370918517 0 0.03127061013000916 0.00026192843008826522 0 0.031228018273969278 0.00026757499677157058 0 0.031211543195693619 0.00027447037099358982 0 0.031215509801897655 0.00026789388255535796 0 0.031243435567510268 0.00026194082370918517 0 0.031228018273969278 0.00026757499677157058 0 0.031211543195693619 0.00027447037099358982 0 0.031228018273969278 0.00026757499677157058 0 0.031247256736084451 0.00025945603658647721 0 0.031222645481454706 0.00026832999335898181 0 0.031243435567510268 0.00026194082370918517 0 0.031228018273969278 0.00026757499677157058 0 0.031247256736084451 0.00025945603658647721 0 0.026084288609748589 -0.0023022144767092896 0 0.02428482719196948 -0.0036005505556817858 0 0.031082307723886159 -0.00026732192533289039 0 0.031268235968126418 -0.00015340404407496099 0 0.031368444266194194 -0.0004913883207115806 0 0.025959132192978164 -0.0037766238019235638 0 0.02428482719196948 -0.0036005505556817858 0 0.031073823765157632 -0.00011388645756836041 0 0.031082307723886159 -0.00026732192533289039 0 0.0311533238468082 -0.00014139404933022345 0 0.031082307723886159 -0.00026732192533289039 0 0.0311533238468082 -0.00014139404933022345 0 0.031268235968126418 -0.00015340404407496099 0 0.031073823765157632 -0.00011388645756836041 0 0.031174501338607653 -9.6241772053905266e-06 0 0.0311533238468082 -0.00014139404933022345 0 0.031174501338607653 -9.6241772053905266e-06 0 0.0311533238468082 -0.00014139404933022345 0 0.031268235968126418 -0.00015340404407496099 0 0.023891555997837571 -0.0032673358419368034 0 0.024070029289001722 -0.0032907946624575867 0 0.024087451873148168 -0.0030173022434194507 0 0.031211543195693619 0.00027447037099358982 0 0.03120584828857273 0.00024800071168266951 0 0.03117069695439733 0.0002570146058666829 0 0.024070029289001722 -0.0032907946624575867 0 0.024087451873148168 -0.0030173022434194507 0 0.024179311698974509 -0.0031634940448293015 0 0.026276837595003232 -0.0010810197832425573 0 0.027297728894451524 0.00016880259984120924 0 0.031211543195693619 0.00027447037099358982 0 0.03120584828857273 0.00024800071168266951 0 0.031242210012135251 0.00026118985807819768 0 0.026276837595003232 -0.0010810197832425573 0 0.023070897266722418 -0.0035261487569972138 0 0.024070029289001722 -0.0032907946624575867 0 0.024007389545347872 -0.0034649118204362682 0 0.024123838316366754 -0.0034683923125047112 0 0.023891555997837571 -0.0032673358419368034 0 0.024070029289001722 -0.0032907946624575867 0 0.024007389545347872 -0.0034649118204362682 0 0.024007389545347872 -0.0034649118204362682 0 0.024069790639861241 -0.0036001404870321645 0 0.024123838316366754 -0.0034683923125047112 0 0.024007389545347872 -0.0034649118204362682 0 0.023974676539354336 -0.0035610561052809644 0 0.02387651002730419 -0.0035160323868265795 0 0.024007389545347872 -0.0034649118204362682 0 0.023974676539354336 -0.0035610561052809644 0 0.024069790639861241 -0.0036001404870321645 0 0.023891555997837571 -0.0032673358419368034 0 0.02387651002730419 -0.0035160323868265795 0 0.023701955464365904 -0.0035039416277701453 0 0.023891555997837571 -0.0032673358419368034 0 0.024007389545347872 -0.0034649118204362682 0 0.02387651002730419 -0.0035160323868265795 0 0.02387651002730419 -0.0035160323868265795 0 0.023944900624192324 -0.0036623813382166059 0 0.023701955464365904 -0.0035039416277701453 0 0.012124017503797831 -0.0074797940119855494 0 0.014711195940493886 -0.0080403569469963358 0 0.012535668101168369 -0.0061777261874390839 0 0.020976591744003639 -0.0042556662955338526 0 0.017768503112996565 -0.0037626713638907604 0 0.019333984442412383 -0.0041178283932735149 0 0.023070897266722418 -0.0035261487569972138 0 0.023974676539354336 -0.0035610561052809644 0 0.02387651002730419 -0.0035160323868265795 0 0.023944900624192324 -0.0036623813382166059 0 0.023944900624192324 -0.0036623813382166059 0 0.024069790639861241 -0.0036001404870321645 0 0.024188082912812256 -0.0037758167996076232 0 0.023974676539354336 -0.0035610561052809644 0 0.023944900624192324 -0.0036623813382166059 0 0.024069790639861241 -0.0036001404870321645 0 0.022199157004931015 -0.0032436700758882702 0 0.02213910293882583 -0.0043907937583072569 0 0.016122367042922647 -0.0090880785908436599 0 0.014957451668634048 -0.0080505782045400421 0 0.015731970437460371 -0.0079740973612542933 0 0.031083284384256803 -0.00034286412013282189 0 0.031095728540683664 -0.00035173416617254418 0 0.031082376916663657 -0.00037077345303676833 0 0.016882699404865652 -0.0085203448712474622 0 0.016122367042922647 -0.0090880785908436599 0 0.015731970437460371 -0.0079740973612542933 0 0.031082307723886159 -0.00026732192533289039 0 0.031083284384256803 -0.00034286412013282189 0 0.031095728540683664 -0.00035173416617254418 0 0.020629374832249827 -0.0045480469971026036 0 0.022199157004931015 -0.0032436700758882702 0 0.031228018273969278 0.00026757499677157058 0 0.031222645481454706 0.00026832999335898181 0 0.031215509801897655 0.00026789388255535796 0 0.02428482719196948 -0.0036005505556817858 0 0.023070897266722418 -0.0035261487569972138 0 0.031095728540683664 -0.00035173416617254418 0 0.031085450801199642 -0.00036776758996861109 0 0.031082376916663657 -0.00037077345303676833 0 0.014616660437436637 -0.0091448589551879258 0 0.014979882454287071 -0.0086960714497338106 0 0.014711195940493886 -0.0080403569469963358 0 0.02428482719196948 -0.0036005505556817858 0 0.022398311458214304 -0.0041063762774135376 0 0.023475596209851755 -0.0033724229643734031 0 0.022856191331148593 -0.0029485208355039161 0 0.023158371606762467 -0.0025770130165400206 0 0.023070897266722418 -0.0035261487569972138 0 0.022398311458214304 -0.0041063762774135376 0 0.022398311458214304 -0.0041063762774135376 0 0.02213910293882583 -0.0043907937583072569 0 0.020976591744003639 -0.0042556662955338526 0 0.017877459444243057 -0.0042739022942908777 0 0.014953758884319174 -0.0080540457916302884 0 0.014547829443225972 -0.0076964585579264002 0 0.015190685515231506 -0.0077614277800624448 0 0.014547829443225972 -0.0076964585579264002 0 0.014963094538038443 -0.0070088059492811354 0 0.015190685515231506 -0.0077614277800624448 0 0.02213910293882583 -0.0043907937583072569 0 0.021998238971403329 -0.0045279430589433515 0 0.012124017503797831 -0.0074797940119855494 0 0.014616660437436637 -0.0091448589551879258 0 0.014711195940493886 -0.0080403569469963358 0 0.014547829443225972 -0.0076964585579264002 0 0.014963094538038443 -0.0070088059492811354 0 0.014563090990043645 -0.0062580125334931467 0 0.021662641753860203 -0.0050809665475584466 0 0.021726116394314422 -0.0050026311998860179 0 0.021576716963517328 -0.0048688313344195187 0 0.022398311458214304 -0.0041063762774135376 0 0.020976591744003639 -0.0042556662955338526 0 0.02213910293882583 -0.0043907937583072569 0 0.020976591744003639 -0.0042556662955338526 0 0.020629374832249827 -0.0045480469971026036 0 0.017497562334499128 -0.0051566980333007401 0 0.015731970437460371 -0.0079740973612542933 0 0.015190685515231506 -0.0077614277800624448 0 0.015509939404832477 -0.0064485570282738734 0 0.016882699404865652 -0.0085203448712474622 0 0.015731970437460371 -0.0079740973612542933 0 0.015509939404832477 -0.0064485570282738734 0 0.017316424069578756 -0.0076249820791674449 0 0.017380278466701132 -0.0095978057948069087 0 0.01570731942290058 -0.0069836629074178274 0 0.014963094538038443 -0.0070088059492811354 0 0.015190685515231506 -0.0077614277800624448 0 0.015509939404832477 -0.0064485570282738734 0 0.014957451668634048 -0.0080505782045400421 0 0.015731970437460371 -0.0079740973612542933 0 0.015190685515231506 -0.0077614277800624448 0 0.016769368812587327 -0.0061254812005421292 0 0.01570731942290058 -0.0069836629074178274 0 0.015904864179023169 -0.0050101366168211125 0 0.017316424069578756 -0.0076249820791674449 0 0.016769368812587327 -0.0061254812005421292 0 0.01570731942290058 -0.0069836629074178274 0 0.014563090990043645 -0.0062580125334931467 0 0.013716423674989965 -0.0057638676747810503 0 0.014080958412644593 -0.0043482084025388956 0 0.014963094538038443 -0.0070088059492811354 0 0.015509939404832477 -0.0064485570282738734 0 0.014563090990043645 -0.0062580125334931467 0 0.015509939404832477 -0.0064485570282738734 0 0.014563090990043645 -0.0062580125334931467 0 0.014080958412644593 -0.0043482084025388956 0 0.014547829443225972 -0.0076964585579264002 0 0.014563090990043645 -0.0062580125334931467 0 0.013716423674989965 -0.0057638676747810503 0 0.017497562334499128 -0.0051566980333007401 0 0.015056833582743422 -0.00382411123281627 0 0.014139628101451316 -0.0044347683097504384 0 0.015904864179023169 -0.0050101366168211125 0 0.015243794375454697 -0.003748360144146038 0 0.01570731942290058 -0.0069836629074178274 0 0.014139628101451316 -0.0044347683097504384 0 0.015904864179023169 -0.0050101366168211125 0 0.015904864179023169 -0.0050101366168211125 0 0.016431990440568651 -0.0036802800486148571 0 0.015243794375454697 -0.003748360144146038 0 0.015904864179023169 -0.0050101366168211125 0 0.016431990440568651 -0.0036802800486148571 0 0.017507234275199339 -0.0047903677251114763 0 0.016769368812587327 -0.0061254812005421292 0 0.015904864179023169 -0.0050101366168211125 0 0.017507234275199339 -0.0047903677251114763 0 0.012535668101168369 -0.0061777261874390839 0 0.011354859094132759 -0.004738587942646603 0 0.0097532443967533362 -0.0058483188141270842 0 0.019333984442412383 -0.0041178283932735149 0 0.017377509731868343 -0.0041996651136965478 0 0.012124017503797831 -0.0074797940119855494 0 0.012535668101168369 -0.0061777261874390839 0 0.0097532443967533362 -0.0058483188141270842 0 0.01456941389403906 -0.0079617734085958864 0 0.013706108574024581 -0.0058800099791161409 0 0.012535668101168369 -0.0061777261874390839 0 0.013706108574024581 -0.0058800099791161409 0 0.012535668101168369 -0.0061777261874390839 0 0.012574329888323665 -0.0050932599029085614 0 0.017877459444243057 -0.0042739022942908777 0 0.016777681758627924 -0.0037811548073098593 0 0.013716423674989965 -0.0057638676747810503 0 0.014080958412644593 -0.0043482084025388956 0 0.012817032632682147 -0.0037908703357537829 0 0.013706108574024581 -0.0058800099791161409 0 0.012574329888323665 -0.0050932599029085614 0 0.012817032632682147 -0.0037908703357537829 0 0.012574329888323665 -0.0050932599029085614 0 0.011354859094132759 -0.004738587942646603 0 0.012817032632682147 -0.0037908703357537829 0 0.012535668101168369 -0.0061777261874390839 0 0.012574329888323665 -0.0050932599029085614 0 0.011354859094132759 -0.004738587942646603 0 0.011354859094132759 -0.004738587942646603 0 0.011578877807944149 -0.0031202186399672334 0 0.010400887679002723 -0.0036896340288485679 0 0.011354859094132759 -0.004738587942646603 0 0.011578877807944149 -0.0031202186399672334 0 0.012817032632682147 -0.0037908703357537829 0 0.011578877807944149 -0.0031202186399672334 0 0.010534738475957461 -0.0017925005213429207 0 0.010400887679002723 -0.0036896340288485679 0 0.011578877807944149 -0.0031202186399672334 0 0.012556551973308584 -0.0021785021691426302 0 0.010534738475957461 -0.0017925005213429207 0 0.015056833582743422 -0.00382411123281627 0 0.013243248167253327 -0.0020834279088117018 0 0.011578877807944149 -0.0031202186399672334 0 0.012817032632682147 -0.0037908703357537829 0 0.012556551973308584 -0.0021785021691426302 0 0.014080958412644593 -0.0043482084025388956 0 0.012817032632682147 -0.0037908703357537829 0 0.012556551973308584 -0.0021785021691426302 0 0.012749066695553386 -0.00034719833562907006 0 0.012644331389610457 -0.0021604787725927935 0 0.014437655596577992 -0.0012262464112778239 0 0.012354237228600384 -0.0010282468216986735 0 0.013243248167253327 -0.0020834279088117018 0 0.011038947645952198 -5.2864877194933702e-05 0 0.012556551973308584 -0.0021785021691426302 0 0.010534738475957461 -0.0017925005213429207 0 0.015410108570424129 -0.0024483333358394062 0 0.016871967212345344 -0.0023703544586171853 0 0.016431990440568651 -0.0036802800486148571 0 0.015410108570424129 -0.0024483333358394062 0 0.016431990440568651 -0.0036802800486148571 0 0.015243794375454697 -0.003748360144146038 0 0.014139628101451316 -0.0044347683097504384 0 0.012644331389610457 -0.0021604787725927935 0 0.01437026500471078 -0.0027932209090185123 0 0.014139628101451316 -0.0044347683097504384 0 0.015243794375454697 -0.003748360144146038 0 0.01437026500471078 -0.0027932209090185123 0 0.015410108570424129 -0.0024483333358394062 0 0.015243794375454697 -0.003748360144146038 0 0.01437026500471078 -0.0027932209090185123 0 0.015410108570424129 -0.0024483333358394062 0 0.01437026500471078 -0.0027932209090185123 0 0.014437655596577992 -0.0012262464112778239 0 0.012644331389610457 -0.0021604787725927935 0 0.01437026500471078 -0.0027932209090185123 0 0.014437655596577992 -0.0012262464112778239 0 0.016031423898688901 0.0002168857996742855 0 0.014437655596577992 -0.0012262464112778239 0 0.01606048238818859 -0.0014058569969306162 0 0.016031423898688901 0.0002168857996742855 0 0.01606048238818859 -0.0014058569969306162 0 0.017574280057338184 -0.0012596375106629107 0 0.015410108570424129 -0.0024483333358394062 0 0.014437655596577992 -0.0012262464112778239 0 0.01606048238818859 -0.0014058569969306162 0 0.015410108570424129 -0.0024483333358394062 0 0.016871967212345344 -0.0023703544586171853 0 0.01606048238818859 -0.0014058569969306162 0 0.016871967212345344 -0.0023703544586171853 0 0.01606048238818859 -0.0014058569969306162 0 0.017574280057338184 -0.0012596375106629107 0 0.018109619198850922 -8.1086416309111386e-05 0 0.017574280057338184 -0.0012596375106629107 0 0.018570326473737731 -0.0014793851460359901 0 0.017574280057338184 -0.0012596375106629107 0 0.018570326473737731 -0.0014793851460359901 0 0.018081859307835475 -0.0023004575793429721 0 0.016871967212345344 -0.0023703544586171853 0 0.017574280057338184 -0.0012596375106629107 0 0.018081859307835475 -0.0023004575793429721 0 0.016871967212345344 -0.0023703544586171853 0 0.018081859307835475 -0.0023004575793429721 0 0.017670284081740935 -0.0033625377173600985 0 0.018081859307835475 -0.0023004575793429721 0 0.01850030029908413 -0.0029946643157722891 0 0.019256127493276546 -0.0024681551058341948 0 0.018570326473737731 -0.0014793851460359901 0 0.018081859307835475 -0.0023004575793429721 0 0.019256127493276546 -0.0024681551058341948 0 0.018081859307835475 -0.0023004575793429721 0 0.01850030029908413 -0.0029946643157722891 0 0.017670284081740935 -0.0033625377173600985 0 0.01850030029908413 -0.0029946643157722891 0 0.017670284081740935 -0.0033625377173600985 0 0.018937461269727701 -0.0037820527153803844 0 0.016871967212345344 -0.0023703544586171853 0 0.016431990440568651 -0.0036802800486148571 0 0.017670284081740935 -0.0033625377173600985 0 0.01989158551121618 -0.0030050851668984194 0 0.020816798394527401 -0.002663806322391239 0 0.02039909094067275 -0.0038742636034421202 0 0.01989158551121618 -0.0030050851668984194 0 0.018937461269727701 -0.0037820527153803844 0 0.02039909094067275 -0.0038742636034421202 0 0.01850030029908413 -0.0029946643157722891 0 0.019256127493276546 -0.0024681551058341948 0 0.018937461269727701 -0.0037820527153803844 0 0.01989158551121618 -0.0030050851668984194 0 0.019256127493276546 -0.0024681551058341948 0 0.018937461269727701 -0.0037820527153803844 0 0.019256127493276546 -0.0024681551058341948 0 0.020122668779343492 -0.0022243315042541462 0 0.019859267781533164 -0.0016494872014216704 0 0.01989158551121618 -0.0030050851668984194 0 0.019256127493276546 -0.0024681551058341948 0 0.020122668779343492 -0.0022243315042541462 0 0.020122668779343492 -0.0022243315042541462 0 0.020691938513595742 -0.0018297322260828652 0 0.020816798394527401 -0.002663806322391239 0 0.01989158551121618 -0.0030050851668984194 0 0.020122668779343492 -0.0022243315042541462 0 0.020816798394527401 -0.002663806322391239 0 0.020122668779343492 -0.0022243315042541462 0 0.019859267781533164 -0.0016494872014216704 0 0.020691938513595742 -0.0018297322260828652 0 0.019859267781533164 -0.0016494872014216704 0 0.021153336395461339 -0.0012328582783205694 0 0.020691938513595742 -0.0018297322260828652 0 0.019859267781533164 -0.0016494872014216704 0 0.019284807781567895 -0.00083253341752492359 0 0.021153336395461339 -0.0012328582783205694 0 0.019199796711665554 0.00084493707969788222 0 0.019284807781567895 -0.00083253341752492359 0 0.021153336395461339 -0.0012328582783205694 0 0.018570326473737731 -0.0014793851460359901 0 0.019859267781533164 -0.0016494872014216704 0 0.019284807781567895 -0.00083253341752492359 0 0.018570326473737731 -0.0014793851460359901 0 0.019256127493276546 -0.0024681551058341948 0 0.019859267781533164 -0.0016494872014216704 0 0.018109619198850922 -8.1086416309111386e-05 0 0.018570326473737731 -0.0014793851460359901 0 0.019284807781567895 -0.00083253341752492359 0 0.02129345988250524 -0.0007469683286918181 0 0.02162551355011259 -0.0009510582692981251 0 0.021153336395461339 -0.0012328582783205694 0 0.02162551355011259 -0.0009510582692981251 0 0.021622836217172769 -0.0012305566810641979 0 0.021153336395461339 -0.0012328582783205694 0 0.02162551355011259 -0.0009510582692981251 0 0.021791681645719093 -0.0011059958172961286 0 0.021622836217172769 -0.0012305566810641979 0 0.021791681645719093 -0.0011059958172961286 0 0.021622836217172769 -0.0012305566810641979 0 0.021881911769768198 -0.0012801264880492743 0 0.021622836217172769 -0.0012305566810641979 0 0.021153336395461339 -0.0012328582783205694 0 0.02152262163855408 -0.0015496178882820463 0 0.021153336395461339 -0.0012328582783205694 0 0.020691938513595742 -0.0018297322260828652 0 0.02152262163855408 -0.0015496178882820463 0 0.022056820192976442 -0.00082647003409027221 0 0.021907845050071255 -0.00095811056301965431 0 0.02216961417516377 -0.00097060660346985725 0 0.022065707541819916 -0.00071761656238655401 0 0.022246233735197303 -0.0007859216601836974 0 0.022056820192976442 -0.00082647003409027221 0 0.021553965454854537 -0.00068828940175805263 0 0.02162551355011259 -0.0009510582692981251 0 0.02182840064482099 -0.00081947286840902299 0 0.022056820192976442 -0.00082647003409027221 0 0.02182840064482099 -0.00081947286840902299 0 0.021907845050071255 -0.00095811056301965431 0 0.02162551355011259 -0.0009510582692981251 0 0.02182840064482099 -0.00081947286840902299 0 0.021907845050071255 -0.00095811056301965431 0 0.022002039459235782 -0.001090151437925474 0 0.02216961417516377 -0.00097060660346985725 0 0.022246403164150358 -0.0010709930011339156 0 0.021791681645719093 -0.0011059958172961286 0 0.021907845050071255 -0.00095811056301965431 0 0.022002039459235782 -0.001090151437925474 0 0.02162551355011259 -0.0009510582692981251 0 0.021791681645719093 -0.0011059958172961286 0 0.021907845050071255 -0.00095811056301965431 0 0.021791681645719093 -0.0011059958172961286 0 0.022002039459235782 -0.001090151437925474 0 0.021881911769768198 -0.0012801264880492743 0 0.021907845050071255 -0.00095811056301965431 0 0.022002039459235782 -0.001090151437925474 0 0.02216961417516377 -0.00097060660346985725 0 0.0222890337107578 -0.00086893323521814304 0 0.022515651332097368 -0.00089555341268627838 0 0.02216961417516377 -0.00097060660346985725 0 0.0222890337107578 -0.00086893323521814304 0 0.022056820192976442 -0.00082647003409027221 0 0.02216961417516377 -0.00097060660346985725 0 0.022246403164150358 -0.0010709930011339156 0 0.022720389760108727 -0.00091341258148563411 0 0.02218481600815321 -0.0010804905395556728 0 0.022515651332097368 -0.00089555341268627838 0 0.02216961417516377 -0.00097060660346985725 0 0.022246403164150358 -0.0010709930011339156 0 0.022515651332097368 -0.00089555341268627838 0 0.022246403164150358 -0.0010709930011339156 0 0.022720389760108727 -0.00091341258148563411 0 0.022002039459235782 -0.001090151437925474 0 0.022246403164150358 -0.0010709930011339156 0 0.021881911769768198 -0.0012801264880492743 0 0.022246403164150358 -0.0010709930011339156 0 0.021881911769768198 -0.0012801264880492743 0 0.02218481600815321 -0.0010804905395556728 0 0.022436204920214659 -0.0018668329380398545 0 0.022611377192068547 -0.0021477226811648926 0 0.02152262163855408 -0.0015496178882820463 0 0.021881911769768198 -0.0012801264880492743 0 0.02218481600815321 -0.0010804905395556728 0 0.02152262163855408 -0.0015496178882820463 0 0.020816798394527401 -0.002663806322391239 0 0.022022915023994755 -0.0039591523933364455 0 0.020691938513595742 -0.0018297322260828652 0 0.02152262163855408 -0.0015496178882820463 0 0.020816798394527401 -0.002663806322391239 0 0.021622836217172769 -0.0012305566810641979 0 0.02152262163855408 -0.0015496178882820463 0 0.021881911769768198 -0.0012801264880492743 0 0.020816798394527401 -0.002663806322391239 0 0.022022915023994755 -0.0039591523933364455 0 0.02039909094067275 -0.0038742636034421202 0 0.022611377192068547 -0.0021477226811648926 0 0.022930390460371333 -0.0023525656479819836 0 0.022022915023994755 -0.0039591523933364455 0 0.020819029192948927 -0.0053742658091020627 0 0.02039909094067275 -0.0038742636034421202 0 0.022022915023994755 -0.0039591523933364455 0 0.020819029192948927 -0.0053742658091020627 0 0.022530683365648608 -0.0058934340265689332 0 0.023170056659677599 -0.00084034557679801424 0 0.02218481600815321 -0.0010804905395556728 0 0.022467466233385813 -0.0015706956039490826 0 0.023170056659677599 -0.00084034557679801424 0 0.022720389760108727 -0.00091341258148563411 0 0.02218481600815321 -0.0010804905395556728 0 0.023231803884682427 -0.0019764394622265756 0 0.022930390460371333 -0.0023525656479819836 0 0.02370567847222016 7.4579117270267138e-05 0 0.023170056659677599 -0.00084034557679801424 0 0.02445661433944676 -0.00019193127593151351 0 0.02370567847222016 7.4579117270267138e-05 0 0.024452936969722797 0.0009556623929196633 0 0.02445661433944676 -0.00019193127593151351 0 0.019903318095476793 -0.0077657517852640755 0 0.020819029192948927 -0.0053742658091020627 0 0.022530683365648608 -0.0058934340265689332 0 0.021523999091251664 -0.0040365932982433525 0 0.022930390460371333 -0.0023525656479819836 0 0.019903318095476793 -0.0077657517852640755 0 0.017964844725174303 -0.0063592621578500074 0 0.019264155081840061 -0.0052912946298280892 0 0.019903318095476793 -0.0077657517852640755 0 0.020819029192948927 -0.0053742658091020627 0 0.019264155081840061 -0.0052912946298280892 0 0.017316424069578756 -0.0076249820791674449 0 0.019903318095476793 -0.0077657517852640755 0 0.017964844725174303 -0.0063592621578500074 0 0.017316424069578756 -0.0076249820791674449 0 0.016769368812587327 -0.0061254812005421292 0 0.017964844725174303 -0.0063592621578500074 0 0.016769368812587327 -0.0061254812005421292 0 0.017964844725174303 -0.0063592621578500074 0 0.017507234275199339 -0.0047903677251114763 0 0.017964844725174303 -0.0063592621578500074 0 0.017507234275199339 -0.0047903677251114763 0 0.019264155081840061 -0.0052912946298280892 0 0.016431990440568651 -0.0036802800486148571 0 0.017670284081740935 -0.0033625377173600985 0 0.017507234275199339 -0.0047903677251114763 0 0.017670284081740935 -0.0033625377173600985 0 0.017507234275199339 -0.0047903677251114763 0 0.018937461269727701 -0.0037820527153803844 0 0.017507234275199339 -0.0047903677251114763 0 0.018937461269727701 -0.0037820527153803844 0 0.019264155081840061 -0.0052912946298280892 0 0.018937461269727701 -0.0037820527153803844 0 0.02039909094067275 -0.0038742636034421202 0 0.019264155081840061 -0.0052912946298280892 0 0.020819029192948927 -0.0053742658091020627 0 0.02039909094067275 -0.0038742636034421202 0 0.019264155081840061 -0.0052912946298280892 0 0.008192734376069712 0.00017557354770200709 0 0.0085918809102460032 0.0003529263864236383 0 0.0094963325072658211 0.00050362000625919865 0 0.008192734376069712 0.00017557354770200709 0 0.0094963325072658211 0.00050362000625919865 0 0.0092906429771118203 3.9261000254216721e-05 0 0.008192734376069712 0.00017557354770200709 0 0.0075471700342871076 2.0284024915646268e-06 0 0.0054835703242049633 -3.5058901103656405e-06 0 0.008192734376069712 0.00017557354770200709 0 0.0075471700342871076 2.0284024915646268e-06 0 0.0085918809102460032 0.0003529263864236383 0 0.0075471700342871076 2.0284024915646268e-06 0 0.0085931635489897816 0.00025105272879394954 0 0.0085918809102460032 0.0003529263864236383 0 0.0085931635489897816 0.00025105272879394954 0 0.0085918809102460032 0.0003529263864236383 0 0.0093053324595894944 0.00074742907638833509 0 0.0075471700342871076 2.0284024915646268e-06 0 0.0085931635489897816 0.00025105272879394954 0 0.0096169671294946031 2.1400788543233935e-07 0 0.0085918809102460032 0.0003529263864236383 0 0.0094963325072658211 0.00050362000625919865 0 0.0093053324595894944 0.00074742907638833509 0 0.0094963325072658211 0.00050362000625919865 0 0.010046216206637051 0.00093921670197013695 0 0.0093053324595894944 0.00074742907638833509 0 0.0094963325072658211 0.00050362000625919865 0 0.010692821681405012 0.0008870276014085681 0 0.010398668423914395 0.00014036944175332746 0 0.0094963325072658211 0.00050362000625919865 0 0.010692821681405012 0.0008870276014085681 0 0.010046216206637051 0.00093921670197013695 0 0.010692821681405012 0.0008870276014085681 0 0.010398668423914395 0.00014036944175332746 0 0.011733792708904083 0.0010019684078937184 0 0.010398668423914395 0.00014036944175332746 0 0.0092906429771118203 3.9261000254216721e-05 0 0.0096821657613823074 -0.00044284630120274704 0 0.0094963325072658211 0.00050362000625919865 0 0.010398668423914395 0.00014036944175332746 0 0.0092906429771118203 3.9261000254216721e-05 0 0.0096821657613823074 -0.00044284630120274704 0 0.008915167024856634 -0.0012032356326769863 0 0.0083869761927900729 -0.00038764355041051964 0 0.0092906429771118203 3.9261000254216721e-05 0 0.0096821657613823074 -0.00044284630120274704 0 0.0083869761927900729 -0.00038764355041051964 0 0.0096821657613823074 -0.00044284630120274704 0 0.01066776684579309 -0.00043910825352257767 0 0.0099947526805862271 -0.0010737606377887951 0 0.010398668423914395 0.00014036944175332746 0 0.0096821657613823074 -0.00044284630120274704 0 0.01066776684579309 -0.00043910825352257767 0 0.010398668423914395 0.00014036944175332746 0 0.01066776684579309 -0.00043910825352257767 0 0.011292168417311739 3.3477356657432e-05 0 0.0099947526805862271 -0.0010737606377887951 0 0.010317556210078011 -0.0016936029993524513 0 0.010828684979217577 -0.0010385005453347937 0 0.01066776684579309 -0.00043910825352257767 0 0.0099947526805862271 -0.0010737606377887951 0 0.010828684979217577 -0.0010385005453347937 0 0.0099947526805862271 -0.0010737606377887951 0 0.008915167024856634 -0.0012032356326769863 0 0.0094674851560345979 -0.0017994478961862106 0 0.0096821657613823074 -0.00044284630120274704 0 0.0099947526805862271 -0.0010737606377887951 0 0.008915167024856634 -0.0012032356326769863 0 0.008915167024856634 -0.0012032356326769863 0 0.0083869761927900729 -0.00038764355041051964 0 0.0077949595174628362 -0.0018978232918120883 0 0.008915167024856634 -0.0012032356326769863 0 0.0077949595174628362 -0.0018978232918120883 0 0.0094674851560345979 -0.0017994478961862106 0 0.008192734376069712 0.00017557354770200709 0 0.0092906429771118203 3.9261000254216721e-05 0 0.0083869761927900729 -0.00038764355041051964 0 0.008192734376069712 0.00017557354770200709 0 0.0083869761927900729 -0.00038764355041051964 0 0.0054835703242049633 -3.5058901103656405e-06 0 0.0054764249291151404 -1.5032254586684342e-06 0 0.0034413515715662163 5.3114639817005324e-07 0 0.0030246405960375738 -0.00025051601550013806 0 0.0083869761927900729 -0.00038764355041051964 0 0.0054835703242049633 -3.5058901103656405e-06 0 0.0077949595174628362 -0.0018978232918120883 0 0.0054782760602801366 -2.2002409103317232e-07 0 0.0054955482254736236 -0.00027087701394557737 0 0.0034413515715662163 5.3114639817005324e-07 0 0.0030246405960375738 -0.00025051601550013806 0 0.0021675274848400529 0.00018765951590996277 0 0.0077949595174628362 -0.0018978232918120883 0 0.0090607889678442893 -0.0025575861327227795 0 0.0094674851560345979 -0.0017994478961862106 0 0.0054955482254736236 -0.00027087701394557737 0 0.0057277012651044722 -0.00039941365770966987 0 0.0030246405960375738 -0.00025051601550013806 0 0.0021675274848400529 0.00018765951590996277 0 0.0017742795756563561 6.1333650474512745e-05 0 0.0021675274848400529 0.00018765951590996277 0 0.0016769172174536345 0.00024624567607501512 0 0.0017742795756563561 6.1333650474512745e-05 0 0.0034413515715662163 5.3114639817005324e-07 0 0.0021675274848400529 0.00018765951590996277 0 0.0014043905384261367 3.2908919068664241e-07 0 0.0021675274848400529 0.00018765951590996277 0 0.0014043905384261367 3.2908919068664241e-07 0 0.0013207523580098417 0.00018593535944845624 0 0.0021675274848400529 0.00018765951590996277 0 0.0016769172174536345 0.00024624567607501512 0 0.0013207523580098417 0.00018593535944845624 0 0.0016769172174536345 0.00024624567607501512 0 0.0013207523580098417 0.00018593535944845624 0 0.0015698706177294604 0.00015530106541177089 0 0.0013207523580098417 0.00018593535944845624 0 0.00024834366058491082 0.00016391726321631763 0 0.0015698706177294604 0.00015530106541177089 0 0.0025858791609582018 -0.00040702147237931056 0 0.003358612125879019 -0.00022801792402244182 0 0.00091396341873020541 0.00026281167353089068 0 0.00024834366058491082 0.00016391726321631763 0 0.0016246600606883933 0.0012689995296558173 0 -0.00029315755786214537 5.7812784335292754e-05 0 0.00091396341873020541 0.00026281167353089068 0 0.00024834366058491082 0.00016391726321631763 0 0.0014043905384261367 3.2908919068664241e-07 0 0.0013207523580098417 0.00018593535944845624 0 0.00024834366058491082 0.00016391726321631763 0 -0.00063241672323850978 4.7100643183414148e-07 0 -0.00029315755786214537 5.7812784335292754e-05 0 0.0014043905384261367 3.2908919068664241e-07 0 -0.00029315755786214537 5.7812784335292754e-05 0 0.0014043905384261367 3.2908919068664241e-07 0 0.00024834366058491082 0.00016391726321631763 0 0.0042508373610770922 -0.0003561371875813133 0 0.002070307815332463 -0.00033969083712193988 0 0.0029712018244239888 0.00079458539565600871 0 0.0042508373610770922 -0.0003561371875813133 0 0.0029712018244239888 0.00079458539565600871 0 0.0040423838562036038 0.0014251627282524744 0 0.002070307815332463 -0.00033969083712193988 0 0.0029712018244239888 0.00079458539565600871 0 0.0016246600606883933 0.0012689995296558173 0 0.002070307815332463 -0.00033969083712193988 0 0.00091396341873020541 0.00026281167353089068 0 0.0016246600606883933 0.0012689995296558173 0 0.0029712018244239888 0.00079458539565600871 0 0.0016246600606883933 0.0012689995296558173 0 0.0031334679860889661 0.0023515840339242092 0 0.0016769172174536345 0.00024624567607501512 0 0.0015698706177294604 0.00015530106541177089 0 0.0016185262998745515 0.00023335784731768895 0 0.003358612125879019 -0.00022801792402244182 0 0.0057053606724445779 0.00026828576453215769 0 0.0029712018244239888 0.00079458539565600871 0 0.0031334679860889661 0.0023515840339242092 0 0.0040423838562036038 0.0014251627282524744 0 0.0032188840135492515 0.0022498283211484266 0 0.0040423838562036038 0.0014251627282524744 0 0.004288141853637688 0.0030508401667232767 0 0.0057053606724445779 0.00026828576453215769 0 0.0052112402906727175 0.00071822220299944995 0 0.01001985045279313 -0.0033645765467906984 0 0.010056522927576445 -0.0023807373317402225 0 0.010766256348827587 -0.002785580375876848 0 0.0057053606724445779 0.00026828576453215769 0 0.0069723752913749791 0.00022692259588985762 0 0.010056522927576445 -0.0023807373317402225 0 0.010766204750893561 -0.0020562896809124594 0 0.010766256348827587 -0.002785580375876848 0 0.0016769172174536345 0.00024624567607501512 0 0.0016185262998745515 0.00023335784731768895 0 0.0017742795756563561 6.1333650474512745e-05 0 0.01001985045279313 -0.0033645765467906984 0 0.010056522927576445 -0.0023807373317402225 0 0.0090607889678442893 -0.0025575861327227795 0 0.0057053606724445779 0.00026828576453215769 0 0.0057277012651044722 -0.00039941365770966987 0 0.010056522927576445 -0.0023807373317402225 0 0.0090607889678442893 -0.0025575861327227795 0 0.0094674851560345979 -0.0017994478961862106 0 0.010056522927576445 -0.0023807373317402225 0 0.010317556210078011 -0.0016936029993524513 0 0.010766204750893561 -0.0020562896809124594 0 0.010056522927576445 -0.0023807373317402225 0 0.0094674851560345979 -0.0017994478961862106 0 0.010317556210078011 -0.0016936029993524513 0 0.0099947526805862271 -0.0010737606377887951 0 0.0094674851560345979 -0.0017994478961862106 0 0.010317556210078011 -0.0016936029993524513 0 0.010317556210078011 -0.0016936029993524513 0 0.010855536223402113 -0.0015196948331936307 0 0.010828684979217577 -0.0010385005453347937 0 0.010317556210078011 -0.0016936029993524513 0 0.010855536223402113 -0.0015196948331936307 0 0.010766204750893561 -0.0020562896809124594 0 0.010855536223402113 -0.0015196948331936307 0 0.011281147729257665 -0.0016101311931065064 0 0.011439258462093267 -0.0010810215536831505 0 0.011281147729257665 -0.0016101311931065064 0 0.011585877035690003 -0.0020880365157894859 0 0.010766204750893561 -0.0020562896809124594 0 0.0080807941591796387 -0.00019169974634488326 0 0.0078763217569459108 2.6380917594464948e-05 0 0.010855536223402113 -0.0015196948331936307 0 0.011281147729257665 -0.0016101311931065064 0 0.010766204750893561 -0.0020562896809124594 0 0.012144689850884762 -0.0010134747020955927 0 0.011930887695898012 -0.0011520184899495196 0 0.012058230202631885 -0.00094875620063948119 0 0.011930887695898012 -0.0011520184899495196 0 0.012050465361753143 -0.00091717365965881918 0 0.011919980657406928 -0.00075068561152728645 0 0.011281147729257665 -0.0016101311931065064 0 0.011930887695898012 -0.0011520184899495196 0 0.011439258462093267 -0.0010810215536831505 0 0.0078763217569459108 2.6380917594464948e-05 0 0.0084026845957498406 0.00016356530165512531 0 0.011281147729257665 -0.0016101311931065064 0 0.011477130837391389 -0.0018005171299637144 0 0.011930887695898012 -0.0011520184899495196 0 0.011930887695898012 -0.0011520184899495196 0 0.012058230202631885 -0.00094875620063948119 0 0.012050465361753143 -0.00091717365965881918 0 0.012144689850884762 -0.0010134747020955927 0 0.012199703135756183 -0.0007857135875927846 0 0.012058230202631885 -0.00094875620063948119 0 0.0053678122172371688 0.0038554414796158408 0 0.0052652549449446725 0.0028635746081098344 0 0.006372244571127084 0.0024315426838620951 0 0.0078763217569459108 2.6380917594464948e-05 0 0.0084202353092155905 0.00026539035730743099 0 0.011585877035690003 -0.0020880365157894859 0 0.010766204750893561 -0.0020562896809124594 0 0.010766256348827587 -0.002785580375876848 0 0.0078763217569459108 2.6380917594464948e-05 0 0.0069723752913749791 0.00022692259588985762 0 0.0053678122172371688 0.0038554414796158408 0 0.0052652549449446725 0.0028635746081098344 0 0.004288141853637688 0.0030508401667232767 0 0.0052652549449446725 0.0028635746081098344 0 0.004288141853637688 0.0030508401667232767 0 0.0050371940161162646 0.0021159644547330131 0 0.0040423838562036038 0.0014251627282524744 0 0.0050371940161162646 0.0021159644547330131 0 0.0055986285539913732 0.0010397122708674237 0 0.0040423838562036038 0.0014251627282524744 0 0.004288141853637688 0.0030508401667232767 0 0.0050371940161162646 0.0021159644547330131 0 0.006372244571127084 0.0024315426838620951 0 0.0055986285539913732 0.0010397122708674237 0 0.0073823329750193145 0.00099383461666974118 0 0.0050371940161162646 0.0021159644547330131 0 0.006372244571127084 0.0024315426838620951 0 0.0055986285539913732 0.0010397122708674237 0 0.0052652549449446725 0.0028635746081098344 0 0.0050371940161162646 0.0021159644547330131 0 0.006372244571127084 0.0024315426838620951 0 0.0063291460843787582 -0.00038804148150029829 0 0.0055986285539913732 0.0010397122708674237 0 0.0073823329750193145 0.00099383461666974118 0 0.0042508373610770922 -0.0003561371875813133 0 0.0040423838562036038 0.0014251627282524744 0 0.0055986285539913732 0.0010397122708674237 0 0.0042508373610770922 -0.0003561371875813133 0 0.0063291460843787582 -0.00038804148150029829 0 0.0055986285539913732 0.0010397122708674237 0 0.012126570374210315 0.00041732886365515516 0 0.012330187591507006 -0.00041245772726948592 0 0.0115638576105744 -0.00019093648995914352 0 0.012330187591507006 -0.00041245772726948592 0 0.011931775934968455 -0.00068910540337193207 0 0.0115638576105744 -0.00019093648995914352 0 0.0080872847354410398 0.00068929362918135003 0 0.0086751075919361941 0.0002153850065870245 0 0.008385509928220276 -0.00043818687817160056 0 0.0063291460843787582 -0.00038804148150029829 0 0.0073823329750193145 0.00099383461666974118 0 0.0084202353092155905 0.00026539035730743099 0 0.0086751075919361941 0.0002153850065870245 0 0.012199703135756183 -0.0007857135875927846 0 0.012330187591507006 -0.00041245772726948592 0 0.012132286257892125 -0.00075794177032822464 0 0.012330187591507006 -0.00041245772726948592 0 0.012132286257892125 -0.00075794177032822464 0 0.011931775934968455 -0.00068910540337193207 0 0.011931775934968455 -0.00068910540337193207 0 0.012095642104440984 -0.00090423379847767661 0 0.012163412336805457 -0.0008410671940600118 0 0.012132286257892125 -0.00075794177032822464 0 0.011931775934968455 -0.00068910540337193207 0 0.012095642104440984 -0.00090423379847767661 0 0.012199703135756183 -0.0007857135875927846 0 0.012132286257892125 -0.00075794177032822464 0 0.012058230202631885 -0.00094875620063948119 0 0.012132286257892125 -0.00075794177032822464 0 0.012095642104440984 -0.00090423379847767661 0 0.012058230202631885 -0.00094875620063948119 0 0.012095642104440984 -0.00090423379847767661 0 0.012050465361753143 -0.00091717365965881918 0 0.012196951303322436 -0.00069859839659753512 0 0.012095642104440984 -0.00090423379847767661 0 0.012058230202631885 -0.00094875620063948119 0 0.012050465361753143 -0.00091717365965881918 0 0.012095642104440984 -0.00090423379847767661 0 0.012196951303322436 -0.00069859839659753512 0 0.012163412336805457 -0.0008410671940600118 0 0.012196951303322436 -0.00069859839659753512 0 0.012603873956969604 -0.0005124828363288203 0 0.012163412336805457 -0.0008410671940600118 0 0.012196951303322436 -0.00069859839659753512 0 0.012648205354257043 -2.8691782810518254e-05 0 0.012603873956969604 -0.0005124828363288203 0 0.012440099325220048 0.00014149896972821222 0 0.012668349282992597 0.00041609269224861191 0 0.012648205354257043 -2.8691782810518254e-05 0 0.012196951303322436 -0.00069859839659753512 0 0.01205948797319701 -0.00010385158265988783 0 0.012648205354257043 -2.8691782810518254e-05 0 0.012104649661816132 -1.4929736577145136e-06 0 0.012397000748685851 -4.113607512207951e-05 0 0.012196951303322436 -0.00069859839659753512 0 0.01205948797319701 -0.00010385158265988783 0 0.011919980657406928 -0.00075068561152728645 0 0.012050465361753143 -0.00091717365965881918 0 0.012196951303322436 -0.00069859839659753512 0 0.011919980657406928 -0.00075068561152728645 0 0.011930887695898012 -0.0011520184899495196 0 0.011919980657406928 -0.00075068561152728645 0 0.011439258462093267 -0.0010810215536831505 0 0.011919980657406928 -0.00075068561152728645 0 0.011444314177060039 -0.00057046900196002241 0 0.011439258462093267 -0.0010810215536831505 0 0.01066776684579309 -0.00043910825352257767 0 0.011444314177060039 -0.00057046900196002241 0 0.010828684979217577 -0.0010385005453347937 0 0.010855536223402113 -0.0015196948331936307 0 0.010828684979217577 -0.0010385005453347937 0 0.011439258462093267 -0.0010810215536831505 0 0.011444314177060039 -0.00057046900196002241 0 0.010828684979217577 -0.0010385005453347937 0 0.011439258462093267 -0.0010810215536831505 0 0.01066776684579309 -0.00043910825352257767 0 0.011444314177060039 -0.00057046900196002241 0 0.011292168417311739 3.3477356657432e-05 0 0.01205948797319701 -0.00010385158265988783 0 0.011919980657406928 -0.00075068561152728645 0 0.011444314177060039 -0.00057046900196002241 0 0.012104649661816132 -1.4929736577145136e-06 0 0.011488479546088063 7.8055773847547305e-05 0 0.01205948797319701 -0.00010385158265988783 0 0.011444314177060039 -0.00057046900196002241 0 0.011292168417311739 3.3477356657432e-05 0 0.012440099325220048 0.00014149896972821222 0 0.011788419202750469 6.7440126105679858e-05 0 0.01245827627974466 0.00077040578029249375 0 0.010398668423914395 0.00014036944175332746 0 0.011788419202750469 6.7440126105679858e-05 0 0.011733792708904083 0.0010019684078937184 0 0.011043789532156453 0.00013825300351665682 0 0.011488479546088063 7.8055773847547305e-05 0 0.011788419202750469 6.7440126105679858e-05 0 0.011733792708904083 0.0010019684078937184 0 0.01245827627974466 0.00077040578029249375 0 0.01245827627974466 0.00077040578029249375 0 0.012839048024641055 0.00090083133617431034 0 0.012837319108877924 0.0013938860033848256 0 0.012839048024641055 0.00090083133617431034 0 0.012668349282992597 0.00041609269224861191 0 0.013065568129228702 0.00062452860277275386 0 0.01245827627974466 0.00077040578029249375 0 0.012839048024641055 0.00090083133617431034 0 0.012668349282992597 0.00041609269224861191 0 0.012668349282992597 0.00041609269224861191 0 0.013065568129228702 0.00062452860277275386 0 0.012648205354257043 -2.8691782810518254e-05 0 0.012440099325220048 0.00014149896972821222 0 0.01245827627974466 0.00077040578029249375 0 0.012668349282992597 0.00041609269224861191 0 0.013065568129228702 0.00062452860277275386 0 0.013744887784492323 0.0010021063922178071 0 0.013315442410662704 0.00017197130175136626 0 0.013065568129228702 0.00062452860277275386 0 0.013315442410662704 0.00017197130175136626 0 0.012648205354257043 -2.8691782810518254e-05 0 0.012839048024641055 0.00090083133617431034 0 0.013065568129228702 0.00062452860277275386 0 0.013278865130761992 0.0012853040439349617 0 0.013065568129228702 0.00062452860277275386 0 0.013744887784492323 0.0010021063922178071 0 0.013278865130761992 0.0012853040439349617 0 0.013744887784492323 0.0010021063922178071 0 0.014701711744883777 0.00074628295944775467 0 0.014358613107006283 0.001661586423361044 0 0.013744887784492323 0.0010021063922178071 0 0.013966916998891934 0.00046747841177631401 0 0.014701711744883777 0.00074628295944775467 0 0.013966916998891934 0.00046747841177631401 0 0.014097474528322849 -0.00012866867527186289 0 0.014701711744883777 0.00074628295944775467 0 0.013744887784492323 0.0010021063922178071 0 0.013966916998891934 0.00046747841177631401 0 0.013315442410662704 0.00017197130175136626 0 0.014097474528322849 -0.00012866867527186289 0 0.013284023936164503 -0.00032054133105399442 0 0.013315442410662704 0.00017197130175136626 0 0.013966916998891934 0.00046747841177631401 0 0.014097474528322849 -0.00012866867527186289 0 0.013315442410662704 0.00017197130175136626 0 0.014097474528322849 -0.00012866867527186289 0 0.013784998065758959 -0.00053175916590934966 0 0.014853818815420404 -0.00045952744757963291 0 0.014097474528322849 -0.00012866867527186289 0 0.013784998065758959 -0.00053175916590934966 0 0.013284023936164503 -0.00032054133105399442 0 0.013784998065758959 -0.00053175916590934966 0 0.013284023936164503 -0.00032054133105399442 0 0.012819773290029288 -0.00066572117193475255 0 0.013284023936164503 -0.00032054133105399442 0 0.012603873956969604 -0.0005124828363288203 0 0.012819773290029288 -0.00066572117193475255 0 0.013284023936164503 -0.00032054133105399442 0 0.013315442410662704 0.00017197130175136626 0 0.012603873956969604 -0.0005124828363288203 0 0.013315442410662704 0.00017197130175136626 0 0.012648205354257043 -2.8691782810518254e-05 0 0.012603873956969604 -0.0005124828363288203 0 0.012603873956969604 -0.0005124828363288203 0 0.012281080198808041 -0.00081965542809060417 0 0.012163412336805457 -0.0008410671940600118 0 0.012603873956969604 -0.0005124828363288203 0 0.012281080198808041 -0.00081965542809060417 0 0.012819773290029288 -0.00066572117193475255 0 0.012281080198808041 -0.00081965542809060417 0 0.011670925741902503 -0.00065486376948193856 0 0.012264326323531558 -0.00095845544086964741 0 0.012281080198808041 -0.00081965542809060417 0 0.012264326323531558 -0.00095845544086964741 0 0.012819773290029288 -0.00066572117193475255 0 0.012281080198808041 -0.00081965542809060417 0 0.012163412336805457 -0.0008410671940600118 0 0.011670925741902503 -0.00065486376948193856 0 0.011931775934968455 -0.00068910540337193207 0 0.011670925741902503 -0.00065486376948193856 0 0.0115638576105744 -0.00019093648995914352 0 0.011931775934968455 -0.00068910540337193207 0 0.012163412336805457 -0.0008410671940600118 0 0.011670925741902503 -0.00065486376948193856 0 0.011670925741902503 -0.00065486376948193856 0 0.011664358440337863 -0.0007374517015664554 0 0.012264326323531558 -0.00095845544086964741 0 0.011670925741902503 -0.00065486376948193856 0 0.011296633015777496 -0.00022716787609731789 0 0.011664358440337863 -0.0007374517015664554 0 0.011670925741902503 -0.00065486376948193856 0 0.011296633015777496 -0.00022716787609731789 0 0.01102839831961812 5.5870108617192931e-06 0 0.010795418191736376 0.00038720648055193399 0 0.011296633015777496 -0.00022716787609731789 0 0.01102839831961812 5.5870108617192931e-06 0 0.011670925741902503 -0.00065486376948193856 0 0.01102839831961812 5.5870108617192931e-06 0 0.0115638576105744 -0.00019093648995914352 0 0.01039421906582638 0.00073105162228210142 0 0.01102839831961812 5.5870108617192931e-06 0 0.0115638576105744 -0.00019093648995914352 0 0.012179472987593809 -0.0013290688163824574 0 0.013266462391274027 -0.0013086289736305989 0 0.012462684086487685 -0.0020147467001015917 0 0.011755731744641977 -0.0018984997560343333 0 0.01276205545597469 -0.0013302538446721935 0 0.012135526528927191 -0.0023891238023894543 0 0.012462684086487685 -0.0020147467001015917 0 0.011755731744641977 -0.0018984997560343333 0 0.012165701470056517 -0.0013194329221188187 0 0.012179472987593809 -0.0013290688163824574 0 0.010795418191736376 0.00038720648055193399 0 0.011296633015777496 -0.00022716787609731789 0 0.011075424763474447 -6.1132860158590009e-05 0 0.011296633015777496 -0.00022716787609731789 0 0.011075424763474447 -6.1132860158590009e-05 0 0.011664358440337863 -0.0007374517015664554 0 0.011075424763474447 -6.1132860158590009e-05 0 0.011038672565756273 -0.00027055715820450152 0 0.011664358440337863 -0.0007374517015664554 0 0.011038672565756273 -0.00027055715820450152 0 0.0123037427081557 -0.0012490799927315345 0 0.011664358440337863 -0.0007374517015664554 0 0.012179472987593809 -0.0013290688163824574 0 0.012172439539685666 -0.001168528280718022 0 0.0123037427081557 -0.0012490799927315345 0 0.011664358440337863 -0.0007374517015664554 0 0.012264326323531558 -0.00095845544086964741 0 0.012270586124020865 -0.0027444903826678805 0 0.0123037427081557 -0.0012490799927315345 0 0.014143227482109975 -0.0020100658813626657 0 0.0123037427081557 -0.0012490799927315345 0 0.01431898064391088 -0.0012098474949709826 0 0.014143227482109975 -0.0020100658813626657 0 0.0123037427081557 -0.0012490799927315345 0 0.013347861543006436 -0.00086425348000451893 0 0.01431898064391088 -0.0012098474949709826 0 0.0123037427081557 -0.0012490799927315345 0 0.013347861543006436 -0.00086425348000451893 0 0.012264326323531558 -0.00095845544086964741 0 0.013347861543006436 -0.00086425348000451893 0 0.012264326323531558 -0.00095845544086964741 0 0.012819773290029288 -0.00066572117193475255 0 0.013784998065758959 -0.00053175916590934966 0 0.013347861543006436 -0.00086425348000451893 0 0.012819773290029288 -0.00066572117193475255 0 0.013784998065758959 -0.00053175916590934966 0 0.013347861543006436 -0.00086425348000451893 0 0.014542553499452099 -0.00078909646016418018 0 0.014542553499452099 -0.00078909646016418018 0 0.01526691326482346 -0.0010735350179771671 0 0.01431898064391088 -0.0012098474949709826 0 0.014542553499452099 -0.00078909646016418018 0 0.01526691326482346 -0.0010735350179771671 0 0.015675919136854056 -0.00068724892986379372 0 0.01526691326482346 -0.0010735350179771671 0 0.015826278602695573 -0.0011044328904558391 0 0.015675919136854056 -0.00068724892986379372 0 0.01526691326482346 -0.0010735350179771671 0 0.015441593131287205 -0.0015049922662988121 0 0.01431898064391088 -0.0012098474949709826 0 0.01526691326482346 -0.0010735350179771671 0 0.015441593131287205 -0.0015049922662988121 0 0.015826278602695573 -0.0011044328904558391 0 0.013347861543006436 -0.00086425348000451893 0 0.014542553499452099 -0.00078909646016418018 0 0.01431898064391088 -0.0012098474949709826 0 0.015441593131287205 -0.0015049922662988121 0 0.01431898064391088 -0.0012098474949709826 0 0.014143227482109975 -0.0020100658813626657 0 0.01426043161302302 -0.0010768063210396001 0 0.013266462391274027 -0.0013086289736305989 0 0.014105103305890298 -0.00083936849761974029 0 0.01276205545597469 -0.0013302538446721935 0 0.013486040381135468 -0.0019058099291914443 0 0.014105103305890298 -0.00083936849761974029 0 0.013486040381135468 -0.0019058099291914443 0 0.015019827920287896 -0.001361209738657911 0 0.012523311444500872 -0.0026275328807428074 0 0.012462684086487685 -0.0020147467001015917 0 0.013486040381135468 -0.0019058099291914443 0 0.012462684086487685 -0.0020147467001015917 0 0.01276205545597469 -0.0013302538446721935 0 0.013486040381135468 -0.0019058099291914443 0 0.015489397845182877 -0.0018850906044752822 0 0.014555622535373975 -0.0022326974562567239 0 0.015019827920287896 -0.001361209738657911 0 0.013486040381135468 -0.0019058099291914443 0 0.014555622535373975 -0.0022326974562567239 0 0.015019827920287896 -0.001361209738657911 0 0.015857357482869424 -0.0011940168894253927 0 0.015489397845182877 -0.0018850906044752822 0 0.015019827920287896 -0.001361209738657911 0 0.015857357482869424 -0.0011940168894253927 0 0.015019827920287896 -0.001361209738657911 0 0.015668510568750578 -0.00083134082051081702 0 0.0165786930539625 -0.0018846628788068873 0 0.016603197036182189 -0.00093303126901772896 0 0.015844533028719871 -0.00072838606636823667 0 0.016367136999429356 -0.0016260188645143493 0 0.016094335572705523 -0.0011383601760582549 0 0.015857357482869424 -0.0011940168894253927 0 0.015668510568750578 -0.00083134082051081702 0 0.015844533028719871 -0.00072838606636823667 0 0.01426043161302302 -0.0010768063210396001 0 0.014695182734776876 -0.00094520807338985356 0 0.014105103305890298 -0.00083936849761974029 0 0.015019827920287896 -0.001361209738657911 0 0.015668510568750578 -0.00083134082051081702 0 0.015441593131287205 -0.0015049922662988121 0 0.015668510568750578 -0.00083134082051081702 0 0.015826278602695573 -0.0011044328904558391 0 0.015826278602695573 -0.0011044328904558391 0 0.016537846128004508 -0.00086039097046943132 0 0.015675919136854056 -0.00068724892986379372 0 0.015668510568750578 -0.00083134082051081702 0 0.015826278602695573 -0.0011044328904558391 0 0.015844533028719871 -0.00072838606636823667 0 0.015826278602695573 -0.0011044328904558391 0 0.017449743417866675 -0.0013857023033104422 0 0.016537846128004508 -0.00086039097046943132 0 0.015826278602695573 -0.0011044328904558391 0 0.015844533028719871 -0.00072838606636823667 0 0.01604309889154627 -0.0004409177445077066 0 0.016603197036182189 -0.00093303126901772896 0 0.015844533028719871 -0.00072838606636823667 0 0.01604309889154627 -0.0004409177445077066 0 0.016835177598785604 -0.00095193233376419852 0 0.017226241336752761 -0.00087331043818654767 0 0.017903823970822179 -0.00054333361555847096 0 0.017455704000705365 -0.00085636379955040382 0 0.016755673588780221 -0.00041230696705567998 0 0.017455704000705365 -0.00085636379955040382 0 0.016755673588780221 -0.00041230696705567998 0 0.016537846128004508 -0.00086039097046943132 0 0.017449743417866675 -0.0013857023033104422 0 0.017455704000705365 -0.00085636379955040382 0 0.016537846128004508 -0.00086039097046943132 0 0.017903823970822179 -0.00054333361555847096 0 0.016755673588780221 -0.00041230696705567998 0 0.01761154479662656 -8.655123188498927e-05 0 0.016755673588780221 -0.00041230696705567998 0 0.016537846128004508 -0.00086039097046943132 0 0.015675919136854056 -0.00068724892986379372 0 0.016755673588780221 -0.00041230696705567998 0 0.015675919136854056 -0.00068724892986379372 0 0.015330515204232719 -9.1047130084004303e-05 0 0.015675919136854056 -0.00068724892986379372 0 0.014853818815420404 -0.00045952744757963291 0 0.015330515204232719 -9.1047130084004303e-05 0 0.014542553499452099 -0.00078909646016418018 0 0.015675919136854056 -0.00068724892986379372 0 0.014853818815420404 -0.00045952744757963291 0 0.013784998065758959 -0.00053175916590934966 0 0.014542553499452099 -0.00078909646016418018 0 0.014853818815420404 -0.00045952744757963291 0 0.014097474528322849 -0.00012866867527186289 0 0.015330515204232719 -9.1047130084004303e-05 0 0.014701711744883777 0.00074628295944775467 0 0.014097474528322849 -0.00012866867527186289 0 0.014853818815420404 -0.00045952744757963291 0 0.015330515204232719 -9.1047130084004303e-05 0 0.016755673588780221 -0.00041230696705567998 0 0.015330515204232719 -9.1047130084004303e-05 0 0.017035106663208812 0.00045677826486382263 0 0.015330515204232719 -9.1047130084004303e-05 0 0.014701711744883777 0.00074628295944775467 0 0.017035106663208812 0.00045677826486382263 0 0.014701711744883777 0.00074628295944775467 0 0.017035106663208812 0.00045677826486382263 0 0.015618027020429442 0.0016485281836226616 0 0.017194196326167224 0.00044875766814300261 0 0.01707617900843798 0.00070498377483395737 0 0.018051849673501721 0.00018793417891918961 0 0.017035106663208812 0.00045677826486382263 0 0.018179887279786137 0.00035833756691290624 0 0.018632319387961175 0.00018973682465550781 0 0.018051849673501721 0.00018793417891918961 0 0.018179887279786137 0.00035833756691290624 0 0.018246090179998471 -0.00021308191979624088 0 0.018051849673501721 0.00018793417891918961 0 0.01761154479662656 -8.655123188498927e-05 0 0.018051849673501721 0.00018793417891918961 0 0.01761154479662656 -8.655123188498927e-05 0 0.017035106663208812 0.00045677826486382263 0 0.016755673588780221 -0.00041230696705567998 0 0.01761154479662656 -8.655123188498927e-05 0 0.017035106663208812 0.00045677826486382263 0 0.018179887279786137 0.00035833756691290624 0 0.018579596893467012 0.00033182160994411235 0 0.018682318171925314 0.00027876311889947649 0 0.018871911336552648 0.00020562351953864214 0 0.018179887279786137 0.00035833756691290624 0 0.018682318171925314 0.00027876311889947649 0 0.018871911336552648 0.00020562351953864214 0 0.018632319387961175 0.00018973682465550781 0 0.018179887279786137 0.00035833756691290624 0 0.017035106663208812 0.00045677826486382263 0 0.018179887279786137 0.00035833756691290624 0 0.018326200537645991 0.00041307090032423143 0 0.014701711744883777 0.00074628295944775467 0 0.015618027020429442 0.0016485281836226616 0 0.014358613107006283 0.001661586423361044 0 0.015618027020429442 0.0016485281836226616 0 0.014766283721010035 0.0020974286222477305 0 0.014358613107006283 0.001661586423361044 0 0.01707617900843798 0.00070498377483395737 0 0.016936132983215682 0.00094887894965861629 0 0.018326200537645991 0.00041307090032423143 0 0.018579596893467012 0.00033182160994411235 0 0.018911555247426489 0.00040678316446483576 0 0.018179887279786137 0.00035833756691290624 0 0.018326200537645991 0.00041307090032423143 0 0.018579596893467012 0.00033182160994411235 0 0.018579596893467012 0.00033182160994411235 0 0.018726416227950553 0.00025751435877034099 0 0.018911555247426489 0.00040678316446483576 0 0.018579596893467012 0.00033182160994411235 0 0.018726416227950553 0.00025751435877034099 0 0.018725866730618858 0.00028227544919184248 0 0.018726416227950553 0.00025751435877034099 0 0.018911555247426489 0.00040678316446483576 0 0.01890830849168193 0.00015341724555151257 0 0.018911555247426489 0.00040678316446483576 0 0.01890830849168193 0.00015341724555151257 0 0.019321380997269474 -0.00015660745894515243 0 0.01890830849168193 0.00015341724555151257 0 0.019046306056399603 -5.5105364253583969e-07 0 0.018918374724395164 8.5553711094710051e-05 0 0.01890830849168193 0.00015341724555151257 0 0.019046306056399603 -5.5105364253583969e-07 0 0.019321380997269474 -0.00015660745894515243 0 0.018726416227950553 0.00025751435877034099 0 0.01879795384645145 0.00020676646138539031 0 0.018725866730618858 0.00028227544919184248 0 0.018726416227950553 0.00025751435877034099 0 0.01890830849168193 0.00015341724555151257 0 0.01879795384645145 0.00020676646138539031 0 0.01890830849168193 0.00015341724555151257 0 0.01879795384645145 0.00020676646138539031 0 0.018918374724395164 8.5553711094710051e-05 0 0.01879795384645145 0.00020676646138539031 0 0.018817432420505993 0.00025293413510269023 0 0.018918374724395164 8.5553711094710051e-05 0 0.018798537262799831 0.00032777848584606843 0 0.018725866730618858 0.00028227544919184248 0 0.018817432420505993 0.00025293413510269023 0 0.01879795384645145 0.00020676646138539031 0 0.018725866730618858 0.00028227544919184248 0 0.018817432420505993 0.00025293413510269023 0 0.018798537262799831 0.00032777848584606843 0 0.018725866730618858 0.00028227544919184248 0 0.018898985093785028 0.0003341430293736112 0 0.018725866730618858 0.00028227544919184248 0 0.018682318171925314 0.00027876311889947649 0 0.018898985093785028 0.0003341430293736112 0 0.018579596893467012 0.00033182160994411235 0 0.018725866730618858 0.00028227544919184248 0 0.018682318171925314 0.00027876311889947649 0 0.019195898693159626 0.00026200613338083704 0 0.018682318171925314 0.00027876311889947649 0 0.018898985093785028 0.0003341430293736112 0 0.018871911336552648 0.00020562351953864214 0 0.019195898693159626 0.00026200613338083704 0 0.018682318171925314 0.00027876311889947649 0 0.019400591219473684 0.00056410831352160409 0 0.019195898693159626 0.00026200613338083704 0 0.018898985093785028 0.0003341430293736112 0 0.019400591219473684 0.00056410831352160409 0 0.018898985093785028 0.0003341430293736112 0 0.018803858958531042 0.00041763004060069007 0 0.018798537262799831 0.00032777848584606843 0 0.018898985093785028 0.0003341430293736112 0 0.018803858958531042 0.00041763004060069007 0 0.019400591219473684 0.00056410831352160409 0 0.018803858958531042 0.00041763004060069007 0 0.019019368189862541 0.00072286564725430706 0 0.02068812068859403 0.0007919445684063496 0 0.021092025012778858 0.00054415992858403974 0 0.018803858958531042 0.00041763004060069007 0 0.018638162914713482 0.00019902855499033485 0 0.018823218127385761 0.00018461559226571592 0 0.020864034361187257 0.00039143329774656412 0 0.021092025012778858 0.00054415992858403974 0 0.018803858958531042 0.00041763004060069007 0 0.018817432420505993 0.00025293413510269023 0 0.018823218127385761 0.00018461559226571592 0 0.018798537262799831 0.00032777848584606843 0 0.018803858958531042 0.00041763004060069007 0 0.018817432420505993 0.00025293413510269023 0 0.018817432420505993 0.00025293413510269023 0 0.018823218127385761 0.00018461559226571592 0 0.018905623282616142 7.6493526232015578e-05 0 0.018823218127385761 0.00018461559226571592 0 0.018823670629176909 -5.686266005180893e-05 0 0.018905623282616142 7.6493526232015578e-05 0 0.018823670629176909 -5.686266005180893e-05 0 0.018905623282616142 7.6493526232015578e-05 0 0.018975966446453857 -6.6435653322114978e-05 0 0.023098078753137515 0.00048894096169913991 0 0.023088696646357848 0.00048261885862763403 0 0.023085943872336017 0.00048977964993746482 0 0.021092025012778858 0.00054415992858403974 0 0.021033385750554714 0.00026270260914761572 0 0.018638162914713482 0.00019902855499033485 0 0.018823218127385761 0.00018461559226571592 0 0.018823670629176909 -5.686266005180893e-05 0 0.021762541512898016 0.00093971100583520675 0 0.021092025012778858 0.00054415992858403974 0 0.023098078753137515 0.00048894096169913991 0 0.023085943872336017 0.00048977964993746482 0 0.023096546425246743 0.00049789634757024565 0 0.023085943872336017 0.00048977964993746482 0 0.023096546425246743 0.00049789634757024565 0 0.023083265326861547 0.00049523823378041306 0 0.018823670629176909 -5.686266005180893e-05 0 0.018936490035568614 -0.00018881203397705824 0 0.018975966446453857 -6.6435653322114978e-05 0 0.021033385750554714 0.00026270260914761572 0 0.021029483504656915 -3.1722843738050996e-05 0 0.023096546425246743 0.00049789634757024565 0 0.023083265326861547 0.00049523823378041306 0 0.023092925237477704 0.00050177779984546277 0 0.023083265326861547 0.00049523823378041306 0 0.023088040877634147 0.00050170407581945093 0 0.023092925237477704 0.00050177779984546277 0 0.023096546425246743 0.00049789634757024565 0 0.023092925237477704 0.00050177779984546277 0 0.023107137832107216 0.0005111998581549843 0 0.020409581764198569 -0.00067918577424961322 0 0.021189320775027165 -0.00059314762199955628 0 0.02035367735036954 -0.0012669121280175465 0 0.020122785949670052 -0.0013391182437240631 0 0.020173924932342439 -0.0012737554943743764 0 0.02035367735036954 -0.0012669121280175465 0 0.020122785949670052 -0.0013391182437240631 0 0.020361364745428146 -0.0012673061472973776 0 0.018936490035568614 -0.00018881203397705824 0 0.019058040989964473 -0.00015328393919427621 0 0.019029435350085937 -0.00029873290649397376 0 0.021029483504656915 -3.1722843738050996e-05 0 0.021189320775027165 -0.00059314762199955628 0 0.023083265326861547 0.00049523823378041306 0 0.023088040877634147 0.00050170407581945093 0 0.023081423658509004 0.00049812204468956654 0 0.018936490035568614 -0.00018881203397705824 0 0.019058040989964473 -0.00015328393919427621 0 0.018975966446453857 -6.6435653322114978e-05 0 0.020409581764198569 -0.00067918577424961322 0 0.020043062057449469 -0.0005189832113383858 0 0.020122785949670052 -0.0013391182437240631 0 0.01960139348740314 -0.0011977938126499497 0 0.019923921740711812 -0.0014007848786774238 0 0.019074698697906536 -5.9295944685919376e-05 0 0.018975966446453857 -6.6435653322114978e-05 0 0.018999451402622543 -8.6859378301865399e-06 0 0.019058040989964473 -0.00015328393919427621 0 0.019074698697906536 -5.9295944685919376e-05 0 0.018975966446453857 -6.6435653322114978e-05 0 0.018905623282616142 7.6493526232015578e-05 0 0.018975966446453857 -6.6435653322114978e-05 0 0.018999451402622543 -8.6859378301865399e-06 0 0.018905623282616142 7.6493526232015578e-05 0 0.018999451402622543 -8.6859378301865399e-06 0 0.018918374724395164 8.5553711094710051e-05 0 0.018999451402622543 -8.6859378301865399e-06 0 0.018918374724395164 8.5553711094710051e-05 0 0.019067675959762238 -4.7619441323809026e-05 0 0.018817432420505993 0.00025293413510269023 0 0.018905623282616142 7.6493526232015578e-05 0 0.018918374724395164 8.5553711094710051e-05 0 0.020043062057449469 -0.0005189832113383858 0 0.019949366736983446 -0.00036529090644087288 0 0.019074698697906536 -5.9295944685919376e-05 0 0.019067675959762238 -4.7619441323809026e-05 0 0.019321380997269474 -0.00015660745894515243 0 0.019074698697906536 -5.9295944685919376e-05 0 0.018999451402622543 -8.6859378301865399e-06 0 0.019067675959762238 -4.7619441323809026e-05 0 0.019046306056399603 -5.5105364253583969e-07 0 0.018918374724395164 8.5553711094710051e-05 0 0.019067675959762238 -4.7619441323809026e-05 0 0.019046306056399603 -5.5105364253583969e-07 0 0.019067675959762238 -4.7619441323809026e-05 0 0.019321380997269474 -0.00015660745894515243 0 0.019710580453637827 -0.00092478365706270295 0 0.019321380997269474 -0.00015660745894515243 0 0.019682405836392278 -0.00015845774230209461 0 0.01960139348740314 -0.0011977938126499497 0 0.019710580453637827 -0.00092478365706270295 0 0.019321380997269474 -0.00015660745894515243 0 0.019710580453637827 -0.00092478365706270295 0 0.020115048134315156 -0.0015295206064334002 0 0.019682405836392278 -0.00015845774230209461 0 0.016767558387156201 0.00082083664388422906 0 0.016888288513826559 0.00091355058671726815 0 0.013946104420865732 0.0023485428722073687 0 0.014011808185451412 0.0025214616743160791 0 0.01423831331309231 0.0023452884366314672 0 0.01960139348740314 -0.0011977938126499497 0 0.019710580453637827 -0.00092478365706270295 0 0.019923921740711812 -0.0014007848786774238 0 0.019710580453637827 -0.00092478365706270295 0 0.020115048134315156 -0.0015295206064334002 0 0.019923921740711812 -0.0014007848786774238 0 0.019923921740711812 -0.0014007848786774238 0 0.019948999574019289 -0.0013976159616644979 0 0.020173924932342439 -0.0012737554943743764 0 0.020122785949670052 -0.0013391182437240631 0 0.019923921740711812 -0.0014007848786774238 0 0.020173924932342439 -0.0012737554943743764 0 0.020115048134315156 -0.0015295206064334002 0 0.019923921740711812 -0.0014007848786774238 0 0.019948999574019289 -0.0013976159616644979 0 0.020115048134315156 -0.0015295206064334002 0 0.019626968666710445 -0.0013913846823379846 0 0.019948999574019289 -0.0013976159616644979 0 0.020115048134315156 -0.0015295206064334002 0 0.019626968666710445 -0.0013913846823379846 0 0.018451823567881245 -0.001332345045448573 0 0.019626968666710445 -0.0013913846823379846 0 0.019948999574019289 -0.0013976159616644979 0 0.020073634911899237 -0.0010705104358879503 0 0.019626968666710445 -0.0013913846823379846 0 0.020073634911899237 -0.0010705104358879503 0 0.018451823567881245 -0.001332345045448573 0 0.02035367735036954 -0.0012669121280175465 0 0.020173924932342439 -0.0012737554943743764 0 0.020389711035263797 -0.0012552876479089315 0 0.020073634911899237 -0.0010705104358879503 0 0.020173924932342439 -0.0012737554943743764 0 0.020389711035263797 -0.0012552876479089315 0 0.019948999574019289 -0.0013976159616644979 0 0.020073634911899237 -0.0010705104358879503 0 0.020173924932342439 -0.0012737554943743764 0 0.01425214694678243 0.0021696810975608783 0 0.014277749495459128 0.0020653350449909126 0 0.014893415316405183 0.0022308351177986975 0 0.014299299322617661 0.0026297755061585634 0 0.015774852751995978 0.0021676460442298885 0 0.015427280162254076 0.0019466308950581068 0 0.014893415316405183 0.0022308351177986975 0 0.015774852751995978 0.0021676460442298885 0 0.015427280162254076 0.0019466308950581068 0 0.015774852751995978 0.0021676460442298885 0 0.015747890170449599 0.0018032279137100249 0 0.014893415316405183 0.0022308351177986975 0 0.014194123538825576 0.00251570514454521 0 0.01616319924936949 0.0014834003397441622 0 0.020073634911899237 -0.0010705104358879503 0 0.018451823567881245 -0.001332345045448573 0 0.017054313484019701 0.0013094523418041668 0 0.014893415316405183 0.0022308351177986975 0 0.014194123538825576 0.00251570514454521 0 0.014299299322617661 0.0026297755061585634 0 0.014011808185451412 0.0025214616743160791 0 0.014194123538825576 0.00251570514454521 0 0.014001684426518059 0.0025350948334274875 0 0.014194123538825576 0.00251570514454521 0 0.014299299322617661 0.0026297755061585634 0 0.014001684426518059 0.0025350948334274875 0 0.016767558387156201 0.00082083664388422906 0 0.016403054231042935 0.0011055187816806826 0 0.014299299322617661 0.0026297755061585634 0 0.013738389322397942 0.0025772431517657548 0 0.013455393183882029 0.0030083045376767831 0 0.014299299322617661 0.0026297755061585634 0 0.013738389322397942 0.0025772431517657548 0 0.014001684426518059 0.0025350948334274875 0 0.013738389322397942 0.0025772431517657548 0 0.013586025739000578 0.0023861410667295122 0 0.013309463499766248 0.0024656890344601284 0 0.013738389322397942 0.0025772431517657548 0 0.013586025739000578 0.0023861410667295122 0 0.014001684426518059 0.0025350948334274875 0 0.013586025739000578 0.0023861410667295122 0 0.014001684426518059 0.0025350948334274875 0 0.013824374649306572 0.0023926290174934774 0 0.014011808185451412 0.0025214616743160791 0 0.014001684426518059 0.0025350948334274875 0 0.013824374649306572 0.0023926290174934774 0 0.013946104420865732 0.0023485428722073687 0 0.013824374649306572 0.0023926290174934774 0 0.013656872560260051 0.0021994106182288186 0 0.013946104420865732 0.0023485428722073687 0 0.014011808185451412 0.0025214616743160791 0 0.013824374649306572 0.0023926290174934774 0 0.013586025739000578 0.0023861410667295122 0 0.013824374649306572 0.0023926290174934774 0 0.013438150221586358 0.0022411851787944048 0 0.013586025739000578 0.0023861410667295122 0 0.013438150221586358 0.0022411851787944048 0 0.013168727242807699 0.0022494332672932872 0 0.013824374649306572 0.0023926290174934774 0 0.013438150221586358 0.0022411851787944048 0 0.013656872560260051 0.0021994106182288186 0 0.013438150221586358 0.0022411851787944048 0 0.013349642091467617 0.0020491759564390979 0 0.013656872560260051 0.0021994106182288186 0 0.013349642091467617 0.0020491759564390979 0 0.01369176525168157 0.0020309835932459308 0 0.013656872560260051 0.0021994106182288186 0 0.013349642091467617 0.0020491759564390979 0 0.01369176525168157 0.0020309835932459308 0 0.013544597161575769 0.001734993801203168 0 0.013349642091467617 0.0020491759564390979 0 0.013544597161575769 0.001734993801203168 0 0.01313531272219046 0.0017220167334608221 0 0.01369176525168157 0.0020309835932459308 0 0.013936380296062985 0.0019043723892453901 0 0.013544597161575769 0.001734993801203168 0 0.01369176525168157 0.0020309835932459308 0 0.013656872560260051 0.0021994106182288186 0 0.013969976518584185 0.0022089631925102464 0 0.013946104420865732 0.0023485428722073687 0 0.013656872560260051 0.0021994106182288186 0 0.013969976518584185 0.0022089631925102464 0 0.013969976518584185 0.0022089631925102464 0 0.01423831331309231 0.0023452884366314672 0 0.014247104426777976 0.0021012692631286719 0 0.013946104420865732 0.0023485428722073687 0 0.013969976518584185 0.0022089631925102464 0 0.01423831331309231 0.0023452884366314672 0 0.016936132983215682 0.00094887894965861629 0 0.016888288513826559 0.00091355058671726815 0 0.018911555247426489 0.00040678316446483576 0 0.019321380997269474 -0.00015660745894515243 0 0.019682405836392278 -0.00015845774230209461 0 0.014766283721010035 0.0020974286222477305 0 0.01423831331309231 0.0023452884366314672 0 0.014247104426777976 0.0021012692631286719 0 0.013969976518584185 0.0022089631925102464 0 0.014247104426777976 0.0021012692631286719 0 0.013936380296062985 0.0019043723892453901 0 0.01369176525168157 0.0020309835932459308 0 0.013969976518584185 0.0022089631925102464 0 0.013936380296062985 0.0019043723892453901 0 0.014247104426777976 0.0021012692631286719 0 0.013936380296062985 0.0019043723892453901 0 0.014358613107006283 0.001661586423361044 0 0.013936380296062985 0.0019043723892453901 0 0.014358613107006283 0.001661586423361044 0 0.013776643640980593 0.0015226491741348713 0 0.014766283721010035 0.0020974286222477305 0 0.014247104426777976 0.0021012692631286719 0 0.014358613107006283 0.001661586423361044 0 0.013744887784492323 0.0010021063922178071 0 0.014358613107006283 0.001661586423361044 0 0.013776643640980593 0.0015226491741348713 0 0.013744887784492323 0.0010021063922178071 0 0.013776643640980593 0.0015226491741348713 0 0.013278865130761992 0.0012853040439349617 0 0.013278865130761992 0.0012853040439349617 0 0.013544597161575769 0.001734993801203168 0 0.01313531272219046 0.0017220167334608221 0 0.013776643640980593 0.0015226491741348713 0 0.013278865130761992 0.0012853040439349617 0 0.013544597161575769 0.001734993801203168 0 0.013936380296062985 0.0019043723892453901 0 0.013776643640980593 0.0015226491741348713 0 0.013544597161575769 0.001734993801203168 0 0.012739975904033567 0.0018386591205732372 0 0.012837319108877924 0.0013938860033848256 0 0.012496058799135934 0.0015284273445262903 0 0.012739975904033567 0.0018386591205732372 0 0.01313531272219046 0.0017220167334608221 0 0.012837319108877924 0.0013938860033848256 0 0.013278865130761992 0.0012853040439349617 0 0.01313531272219046 0.0017220167334608221 0 0.012837319108877924 0.0013938860033848256 0 0.012839048024641055 0.00090083133617431034 0 0.013278865130761992 0.0012853040439349617 0 0.012837319108877924 0.0013938860033848256 0 0.01245827627974466 0.00077040578029249375 0 0.012837319108877924 0.0013938860033848256 0 0.012496058799135934 0.0015284273445262903 0 0.011733792708904083 0.0010019684078937184 0 0.012496058799135934 0.0015284273445262903 0 0.012093892463730332 0.0016950838113754115 0 0.011733792708904083 0.0010019684078937184 0 0.01245827627974466 0.00077040578029249375 0 0.012496058799135934 0.0015284273445262903 0 0.011733792708904083 0.0010019684078937184 0 0.012093892463730332 0.0016950838113754115 0 0.011450884238349064 0.0014011145720935669 0 0.012093892463730332 0.0016950838113754115 0 0.012467241433820424 0.0023679871689550455 0 0.011786396153017433 0.0019890679201596049 0 0.012093892463730332 0.0016950838113754115 0 0.012515556656324957 0.0019823014505201434 0 0.012467241433820424 0.0023679871689550455 0 0.012093892463730332 0.0016950838113754115 0 0.011786396153017433 0.0019890679201596049 0 0.011450884238349064 0.0014011145720935669 0 0.012496058799135934 0.0015284273445262903 0 0.012093892463730332 0.0016950838113754115 0 0.012515556656324957 0.0019823014505201434 0 0.012739975904033567 0.0018386591205732372 0 0.012496058799135934 0.0015284273445262903 0 0.012515556656324957 0.0019823014505201434 0 0.012515556656324957 0.0019823014505201434 0 0.012703761363594102 0.0022157733841750024 0 0.012467241433820424 0.0023679871689550455 0 0.012739975904033567 0.0018386591205732372 0 0.012515556656324957 0.0019823014505201434 0 0.012703761363594102 0.0022157733841750024 0 0.012467241433820424 0.0023679871689550455 0 0.012727233075408644 0.0026159655647728214 0 0.012302715304328103 0.002575686715192778 0 0.012467241433820424 0.0023679871689550455 0 0.012761956487386093 0.002380572039943974 0 0.012727233075408644 0.0026159655647728214 0 0.012703761363594102 0.0022157733841750024 0 0.012467241433820424 0.0023679871689550455 0 0.012761956487386093 0.002380572039943974 0 0.012703761363594102 0.0022157733841750024 0 0.012761956487386093 0.002380572039943974 0 0.012850165417687454 0.0022307223454484434 0 0.012703761363594102 0.0022157733841750024 0 0.012850165417687454 0.0022307223454484434 0 0.012953558808205756 0.0020581926869656739 0 0.012850165417687454 0.0022307223454484434 0 0.012953558808205756 0.0020581926869656739 0 0.013083583603017453 0.0021822249759503795 0 0.012739975904033567 0.0018386591205732372 0 0.012703761363594102 0.0022157733841750024 0 0.012953558808205756 0.0020581926869656739 0 0.012739975904033567 0.0018386591205732372 0 0.01313531272219046 0.0017220167334608221 0 0.012953558808205756 0.0020581926869656739 0 0.013349642091467617 0.0020491759564390979 0 0.01313531272219046 0.0017220167334608221 0 0.012953558808205756 0.0020581926869656739 0 0.013349642091467617 0.0020491759564390979 0 0.012953558808205756 0.0020581926869656739 0 0.013083583603017453 0.0021822249759503795 0 0.013438150221586358 0.0022411851787944048 0 0.013349642091467617 0.0020491759564390979 0 0.013083583603017453 0.0021822249759503795 0 0.013083583603017453 0.0021822249759503795 0 0.013168727242807699 0.0022494332672932872 0 0.012921904780481382 0.0022137820003093871 0 0.013438150221586358 0.0022411851787944048 0 0.013083583603017453 0.0021822249759503795 0 0.013168727242807699 0.0022494332672932872 0 0.012921904780481382 0.0022137820003093871 0 0.012814235045282087 0.0021826553099641576 0 0.012846364370771156 0.0022026033799574067 0 0.012850165417687454 0.0022307223454484434 0 0.012921904780481382 0.0022137820003093871 0 0.012846364370771156 0.0022026033799574067 0 0.012850165417687454 0.0022307223454484434 0 0.013083583603017453 0.0021822249759503795 0 0.012921904780481382 0.0022137820003093871 0 0.013168727242807699 0.0022494332672932872 0 0.012921904780481382 0.0022137820003093871 0 0.012814235045282087 0.0021826553099641576 0 0.013586025739000578 0.0023861410667295122 0 0.013168727242807699 0.0022494332672932872 0 0.013309463499766248 0.0024656890344601284 0 0.013168727242807699 0.0022494332672932872 0 0.012814235045282087 0.0021826553099641576 0 0.013309463499766248 0.0024656890344601284 0 0.013738389322397942 0.0025772431517657548 0 0.013309463499766248 0.0024656890344601284 0 0.013455393183882029 0.0030083045376767831 0 0.013309463499766248 0.0024656890344601284 0 0.012955073162446764 0.00270434688686846 0 0.013455393183882029 0.0030083045376767831 0 0.012814235045282087 0.0021826553099641576 0 0.013309463499766248 0.0024656890344601284 0 0.012955073162446764 0.00270434688686846 0 0.012814235045282087 0.0021826553099641576 0 0.012955073162446764 0.00270434688686846 0 0.01245565749665248 0.0027401867381843152 0 0.013332225913817117 0.002011214443804886 0 0.013537198524603918 0.0018520575599399805 0 0.012955073162446764 0.00270434688686846 0 0.01277847735664121 0.0031418995058723736 0 0.01245565749665248 0.0027401867381843152 0 0.014217873713805635 0.0017444986746235557 0 0.014277749495459128 0.0020653350449909126 0 0.012955073162446764 0.00270434688686846 0 0.01277847735664121 0.0031418995058723736 0 0.013455393183882029 0.0030083045376767831 0 0.015681485753365334 0.0018742679394303844 0 0.015774852751995978 0.0021676460442298885 0 0.015700359859780594 0.0018501425377455941 0 0.015774852751995978 0.0021676460442298885 0 0.015747890170449599 0.0018032279137100249 0 0.015700359859780594 0.0018501425377455941 0 0.014506842296933064 0.001013827206506691 0 0.014288808888933743 0.00089541603833068932 0 0.014228101460333126 0.00030546382957126076 0 0.01398183335318094 0.00037011214105367457 0 0.01415696040241254 0.0010103502307038401 0 0.013167918699145433 0.00054574650129925141 0 0.01328038905590999 0.0013112632988175534 0 0.01415696040241254 0.0010103502307038401 0 0.014467387402665149 0.00098994114607322842 0 0.014506842296933064 0.001013827206506691 0 0.014217873713805635 0.0017444986746235557 0 0.014506842296933064 0.001013827206506691 0 0.013167918699145433 0.00054574650129925141 0 0.012797202604127705 0.0013586345414396139 0 0.01328038905590999 0.0013112632988175534 0 0.014506842296933064 0.001013827206506691 0 0.013537198524603918 0.0018520575599399805 0 0.01277847735664121 0.0031418995058723736 0 0.012098879301982269 0.0032368833101696546 0 0.01245565749665248 0.0027401867381843152 0 0.012814235045282087 0.0021826553099641576 0 0.012797202604127705 0.0013586345414396139 0 0.013009789519890824 0.0018831619611101229 0 0.012797202604127705 0.0013586345414396139 0 0.01328038905590999 0.0013112632988175534 0 0.013009789519890824 0.0018831619611101229 0 0.01328038905590999 0.0013112632988175534 0 0.013457720463440763 0.0016207642268028827 0 0.01415696040241254 0.0010103502307038401 0 0.01328038905590999 0.0013112632988175534 0 0.013457720463440763 0.0016207642268028827 0 0.013009789519890824 0.0018831619611101229 0 0.013457720463440763 0.0016207642268028827 0 0.013089034245002049 0.0021457235089248428 0 0.013764111163131445 0.0017161358913572334 0 0.013457720463440763 0.0016207642268028827 0 0.013009789519890824 0.0018831619611101229 0 0.013089034245002049 0.0021457235089248428 0 0.013009789519890824 0.0018831619611101229 0 0.012846364370771156 0.0022026033799574067 0 0.013089034245002049 0.0021457235089248428 0 0.012814235045282087 0.0021826553099641576 0 0.013009789519890824 0.0018831619611101229 0 0.012846364370771156 0.0022026033799574067 0 0.012761956487386093 0.002380572039943974 0 0.012846364370771156 0.0022026033799574067 0 0.013089034245002049 0.0021457235089248428 0 0.012761956487386093 0.002380572039943974 0 0.012850165417687454 0.0022307223454484434 0 0.012846364370771156 0.0022026033799574067 0 0.012761956487386093 0.002380572039943974 0 0.013089034245002049 0.0021457235089248428 0 0.012727233075408644 0.0026159655647728214 0 0.013089034245002049 0.0021457235089248428 0 0.013639815857362758 0.0022154855375570524 0 0.013764111163131445 0.0017161358913572334 0 0.013089034245002049 0.0021457235089248428 0 0.013639815857362758 0.0022154855375570524 0 0.012727233075408644 0.0026159655647728214 0 0.013639815857362758 0.0022154855375570524 0 0.01457806441937811 0.0014561461567840037 0 0.015137796390657068 0.0022788462206714726 0 0.013639815857362758 0.0022154855375570524 0 0.015137796390657068 0.0022788462206714726 0 0.013847875234002834 0.002670421028423907 0 0.01457806441937811 0.0014561461567840037 0 0.013764111163131445 0.0017161358913572334 0 0.01415696040241254 0.0010103502307038401 0 0.013639815857362758 0.0022154855375570524 0 0.01457806441937811 0.0014561461567840037 0 0.013764111163131445 0.0017161358913572334 0 0.013457720463440763 0.0016207642268028827 0 0.013764111163131445 0.0017161358913572334 0 0.01415696040241254 0.0010103502307038401 0 0.01415696040241254 0.0010103502307038401 0 0.015131030042046675 0.00088043519221291577 0 0.015064074500722086 0.00050006546267855492 0 0.01457806441937811 0.0014561461567840037 0 0.015131030042046675 0.00088043519221291577 0 0.015589587357863643 0.00098528227940672094 0 0.01457806441937811 0.0014561461567840037 0 0.01415696040241254 0.0010103502307038401 0 0.015131030042046675 0.00088043519221291577 0 0.015064074500722086 0.00050006546267855492 0 0.015935339926429599 0.00052658501826710418 0 0.015927601810169032 0.00018859887174150049 0 0.015131030042046675 0.00088043519221291577 0 0.015064074500722086 0.00050006546267855492 0 0.015935339926429599 0.00052658501826710418 0 0.015064074500722086 0.00050006546267855492 0 0.015927601810169032 0.00018859887174150049 0 0.015402306190550174 3.5815280621613093e-05 0 0.015064074500722086 0.00050006546267855492 0 0.01494446572951055 0.00012879043933359846 0 0.015402306190550174 3.5815280621613093e-05 0 0.01415696040241254 0.0010103502307038401 0 0.015064074500722086 0.00050006546267855492 0 0.014598268993982035 0.00039611162377520276 0 0.014228101460333126 0.00030546382957126076 0 0.01415696040241254 0.0010103502307038401 0 0.014598268993982035 0.00039611162377520276 0 0.015064074500722086 0.00050006546267855492 0 0.014598268993982035 0.00039611162377520276 0 0.01494446572951055 0.00012879043933359846 0 0.016750647408190794 0.00022809327805526109 0 0.015935339926429599 0.00052658501826710418 0 0.01634959895582079 1.846114646881159e-06 0 0.016750647408190794 0.00022809327805526109 0 0.01634959895582079 1.846114646881159e-06 0 0.017626296426432129 5.061463857095175e-07 0 0.016750647408190794 0.00022809327805526109 0 0.015935339926429599 0.00052658501826710418 0 0.015927601810169032 0.00018859887174150049 0 0.015935339926429599 0.00052658501826710418 0 0.015589587357863643 0.00098528227940672094 0 0.01634959895582079 1.846114646881159e-06 0 0.015131030042046675 0.00088043519221291577 0 0.015935339926429599 0.00052658501826710418 0 0.015589587357863643 0.00098528227940672094 0 0.016346143905313509 -4.0250860253641398e-07 0 0.014665533821872861 8.4807707183443725e-05 0 0.015191526244643809 3.6493390598624027e-07 0 0.016344931894042156 6.8583159975826318e-07 0 0.015228609915286599 0.00058657771391458122 0 0.015589587357863643 0.00098528227940672094 0 0.01634959895582079 1.846114646881159e-06 0 0.016028553550250242 0.0013146066557710239 0 0.014665533821872861 8.4807707183443725e-05 0 0.015191526244643809 3.6493390598624027e-07 0 0.014038923734757661 -3.0312470154742372e-07 0 0.01457806441937811 0.0014561461567840037 0 0.015589587357863643 0.00098528227940672094 0 0.015137796390657068 0.0022788462206714726 0 0.015589587357863643 0.00098528227940672094 0 0.016028553550250242 0.0013146066557710239 0 0.015137796390657068 0.0022788462206714726 0 0.015228609915286599 0.00058657771391458122 0 0.014212444925437559 0.00077517359868613982 0 0.014665533821872861 8.4807707183443725e-05 0 0.014038923734757661 -3.0312470154742372e-07 0 0.014399589496688242 -0.00025054080209957865 0 0.014665533821872861 8.4807707183443725e-05 0 0.014651551626478127 -0.00027389201671483717 0 0.014399589496688242 -0.00025054080209957865 0 0.014033748916334 3.4783667246731176e-06 0 0.013068851104768565 0.00012376968194311241 0 0.014038923734757661 -3.0312470154742372e-07 0 0.014399589496688242 -0.00025054080209957865 0 0.014172174815080627 -0.00048351745656021388 0 0.014651551626478127 -0.00027389201671483717 0 0.014399589496688242 -0.00025054080209957865 0 0.014481269267738038 -0.00053251270393171691 0 0.014172174815080627 -0.00048351745656021388 0 0.014481269267738038 -0.00053251270393171691 0 0.014207914162897947 -0.00084806072509589737 0 0.013068851104768565 0.00012376968194311241 0 0.011998964112302071 0.00012103457029287561 0 0.012874024484245896 4.5827072480400255e-08 0 0.011686559414220603 -4.4607978907894261e-08 0 0.011743687074126251 -1.2057770334654031e-06 0 0.014399589496688242 -0.00025054080209957865 0 0.014172174815080627 -0.00048351745656021388 0 0.014481269267738038 -0.00053251270393171691 0 0.014481269267738038 -0.00053251270393171691 0 0.014207914162897947 -0.00084806072509589737 0 0.014559279085311667 -0.00079345505171811664 0 0.0083833852942839238 0.0029972565636215355 0 0.0091147464364715099 0.0023756304774310119 0 0.0084794381963806988 0.0016612023262237243 0 0.011998964112302071 0.00012103457029287561 0 0.010947797316504807 0.00095668939077857751 0 0.01168510607398026 -3.0005910027030978e-07 0 0.011631507103752504 -8.7421888238962927e-06 0 0.010161631188705035 -2.8178792944296006e-05 0 0.01168866541387251 1.7449110194794495e-06 0 0.011998964112302071 0.00012103457029287561 0 0.011998964112302071 0.00012103457029287561 0 0.012254666901127321 0.00068623272636611098 0 0.0083833852942839238 0.0029972565636215355 0 0.0091147464364715099 0.0023756304774310119 0 0.0093820251055838442 0.0031543490079642147 0 0.010020522571514959 0.0027363333108601936 0 0.010521518072364948 0.0023252358697326532 0 0.0098236012362565468 0.0020670575443793543 0 0.0091147464364715099 0.0023756304774310119 0 0.010020522571514959 0.0027363333108601936 0 0.0098236012362565468 0.0020670575443793543 0 0.0091147464364715099 0.0023756304774310119 0 0.010020522571514959 0.0027363333108601936 0 0.0093820251055838442 0.0031543490079642147 0 0.012254666901127321 0.00068623272636611098 0 0.012691097059569818 0.0011729121264732205 0 0.010020522571514959 0.0027363333108601936 0 0.0093820251055838442 0.0031543490079642147 0 0.010595494060412908 0.0033202299785934286 0 0.014481269267738038 -0.00053251270393171691 0 0.014559279085311667 -0.00079345505171811664 0 0.014896881060075218 -0.00074215189114304665 0 0.014651551626478127 -0.00027389201671483717 0 0.014481269267738038 -0.00053251270393171691 0 0.014896881060075218 -0.00074215189114304665 0 0.014212444925437559 0.00077517359868613982 0 0.012691097059569818 0.0011729121264732205 0 0.013639815857362758 0.0022154855375570524 0 0.013847875234002834 0.002670421028423907 0 0.012562563777395284 0.0030654715666289956 0 0.015137796390657068 0.0022788462206714726 0 0.013847875234002834 0.002670421028423907 0 0.014187792971417229 0.0035220714049774061 0 0.013847875234002834 0.002670421028423907 0 0.012562563777395284 0.0030654715666289956 0 0.014187792971417229 0.0035220714049774061 0 0.012655138114357414 0.0013432673582939641 0 0.012691097059569818 0.0011729121264732205 0 0.013639815857362758 0.0022154855375570524 0 0.012727233075408644 0.0026159655647728214 0 0.012562563777395284 0.0030654715666289956 0 0.012727233075408644 0.0026159655647728214 0 0.012562563777395284 0.0030654715666289956 0 0.012302715304328103 0.002575686715192778 0 0.012562563777395284 0.0030654715666289956 0 0.012302715304328103 0.002575686715192778 0 0.011768005946287415 0.0023525985621045023 0 0.012302715304328103 0.002575686715192778 0 0.011768005946287415 0.0023525985621045023 0 0.011786396153017433 0.0019890679201596049 0 0.012467241433820424 0.0023679871689550455 0 0.012302715304328103 0.002575686715192778 0 0.011786396153017433 0.0019890679201596049 0 0.010020522571514959 0.0027363333108601936 0 0.010929845461498873 0.0027247599402236908 0 0.010595494060412908 0.0033202299785934286 0 0.012590884256771353 0.0013263264992821435 0 0.012691097059569818 0.0011729121264732205 0 0.012562563777395284 0.0030654715666289956 0 0.010929845461498873 0.0027247599402236908 0 0.0106000805765259 0.0033558748177803226 0 0.012562563777395284 0.0030654715666289956 0 0.011768005946287415 0.0023525985621045023 0 0.010929845461498873 0.0027247599402236908 0 0.011768005946287415 0.0023525985621045023 0 0.010929845461498873 0.0027247599402236908 0 0.011066715024534273 0.0023213116994347015 0 0.010020522571514959 0.0027363333108601936 0 0.010929845461498873 0.0027247599402236908 0 0.010521518072364948 0.0023252358697326532 0 0.010929845461498873 0.0027247599402236908 0 0.011066715024534273 0.0023213116994347015 0 0.010521518072364948 0.0023252358697326532 0 0.010717024831583414 0.0018871846460876984 0 0.011786396153017433 0.0019890679201596049 0 0.010789981675087889 0.0013668048010378592 0 0.011066715024534273 0.0023213116994347015 0 0.010521518072364948 0.0023252358697326532 0 0.010717024831583414 0.0018871846460876984 0 0.010521518072364948 0.0023252358697326532 0 0.010717024831583414 0.0018871846460876984 0 0.0098236012362565468 0.0020670575443793543 0 0.011768005946287415 0.0023525985621045023 0 0.011066715024534273 0.0023213116994347015 0 0.010717024831583414 0.0018871846460876984 0 0.010717024831583414 0.0018871846460876984 0 0.010789981675087889 0.0013668048010378592 0 0.0099573192541675612 0.0012672494126837654 0 0.011768005946287415 0.0023525985621045023 0 0.010717024831583414 0.0018871846460876984 0 0.011786396153017433 0.0019890679201596049 0 0.011786396153017433 0.0019890679201596049 0 0.011450884238349064 0.0014011145720935669 0 0.010789981675087889 0.0013668048010378592 0 0.010692821681405012 0.0008870276014085681 0 0.011733792708904083 0.0010019684078937184 0 0.011450884238349064 0.0014011145720935669 0 0.010692821681405012 0.0008870276014085681 0 0.011450884238349064 0.0014011145720935669 0 0.010789981675087889 0.0013668048010378592 0 0.010789981675087889 0.0013668048010378592 0 0.010046216206637051 0.00093921670197013695 0 0.0099573192541675612 0.0012672494126837654 0 0.010692821681405012 0.0008870276014085681 0 0.010789981675087889 0.0013668048010378592 0 0.010046216206637051 0.00093921670197013695 0 0.010046216206637051 0.00093921670197013695 0 0.0093053324595894944 0.00074742907638833509 0 0.0099573192541675612 0.0012672494126837654 0 0.0093053324595894944 0.00074742907638833509 0 0.0099573192541675612 0.0012672494126837654 0 0.0091466625799863071 0.0010887853521254144 0 0.0099573192541675612 0.0012672494126837654 0 0.0091466625799863071 0.0010887853521254144 0 0.009690949802284396 0.001542267840555156 0 0.0085931635489897816 0.00025105272879394954 0 0.0091466625799863071 0.0010887853521254144 0 0.0084794381963806988 0.0016612023262237243 0 0.010597580253781639 0.00098210687440685026 0 0.010947797316504807 0.00095668939077857751 0 0.0085931635489897816 0.00025105272879394954 0 0.0093053324595894944 0.00074742907638833509 0 0.0091466625799863071 0.0010887853521254144 0 0.0085931635489897816 0.00025105272879394954 0 0.0096169671294946031 2.1400788543233935e-07 0 0.010161631188705035 -2.8178792944296006e-05 0 0.0091466625799863071 0.0010887853521254144 0 0.0084794381963806988 0.0016612023262237243 0 0.0092351893602163667 0.0017275257982522323 0 0.01168510607398026 -3.0005910027030978e-07 0 0.0096169671294946031 2.1400788543233935e-07 0 0.010161631188705035 -2.8178792944296006e-05 0 0.0091147464364715099 0.0023756304774310119 0 0.0084794381963806988 0.0016612023262237243 0 0.0092351893602163667 0.0017275257982522323 0 0.0091147464364715099 0.0023756304774310119 0 0.0098236012362565468 0.0020670575443793543 0 0.0092351893602163667 0.0017275257982522323 0 0.010717024831583414 0.0018871846460876984 0 0.0098236012362565468 0.0020670575443793543 0 0.009690949802284396 0.001542267840555156 0 0.010717024831583414 0.0018871846460876984 0 0.0099573192541675612 0.0012672494126837654 0 0.009690949802284396 0.001542267840555156 0 0.0091466625799863071 0.0010887853521254144 0 0.009690949802284396 0.001542267840555156 0 0.0092351893602163667 0.0017275257982522323 0 0.0098236012362565468 0.0020670575443793543 0 0.009690949802284396 0.001542267840555156 0 0.0092351893602163667 0.0017275257982522323 0 0.025332924925237289 0.00014149586203191463 0 0.025006400008521019 9.8855868348978363e-05 0 0.0240810687974405 0.00010024493742751093 0 0.025332924925237289 0.00014149586203191463 0 0.025095504381000024 3.0966510293339168e-07 0 0.0240810687974405 0.00010024493742751093 0 0.025095504381000024 3.0966510293339168e-07 0 0.026351254912673504 0.00024851883390149601 0 0.02715762516842548 4.8502944364237315e-07 0 0.025332924925237289 0.00014149586203191463 0 0.025095504381000024 3.0966510293339168e-07 0 0.026351254912673504 0.00024851883390149601 0 0.025332924925237289 0.00014149586203191463 0 0.026258189873929329 0.00029516884154952966 0 0.026351254912673504 0.00024851883390149601 0 0.026258189873929329 0.00029516884154952966 0 0.026237399928572703 0.00037972581658394892 0 0.026297714460853504 0.00029387542079263509 0 0.025332924925237289 0.00014149586203191463 0 0.026258189873929329 0.00029516884154952966 0 0.025006400008521019 9.8855868348978363e-05 0 0.026258189873929329 0.00029516884154952966 0 0.026237399928572703 0.00037972581658394892 0 0.026279073348879193 0.00037859845704575883 0 0.024968213229163688 0.00074405726615603797 0 0.024650394422923532 0.00069101487949353594 0 0.026279073348879193 0.00037859845704575883 0 0.026246389653285435 0.00042478060965046226 0 0.026273343728242499 0.00045151630731982568 0 0.026237399928572703 0.00037972581658394892 0 0.026279073348879193 0.00037859845704575883 0 0.026246389653285435 0.00042478060965046226 0 0.024650394422923532 0.00069101487949353594 0 0.023739259320634955 0.00047271389878416671 0 0.026237399928572703 0.00037972581658394892 0 0.026246389653285435 0.00042478060965046226 0 0.026195428627215595 0.0004545196172767793 0 0.026237399928572703 0.00037972581658394892 0 0.026195428627215595 0.0004545196172767793 0 0.026175145404178812 0.00043478539590359103 0 0.021192573265469132 1.6078187218131576e-05 0 0.02031418317964773 0.00068127212676386635 0 0.026246389653285435 0.00042478060965046226 0 0.026195428627215595 0.0004545196172767793 0 0.026223819160102257 0.00048566751729779391 0 0.026195428627215595 0.0004545196172767793 0 0.026223819160102257 0.00048566751729779391 0 0.026122400773182976 0.00046904139260989767 0 0.026246389653285435 0.00042478060965046226 0 0.026273343728242499 0.00045151630731982568 0 0.026223819160102257 0.00048566751729779391 0 0.023660885349236684 6.1248214481396924e-05 0 0.0240810687974405 0.00010024493742751093 0 0.022499444989401735 2.8446847760214932e-05 0 0.025006400008521019 9.8855868348978363e-05 0 0.023660885349236684 6.1248214481396924e-05 0 0.0240810687974405 0.00010024493742751093 0 0.025095504381000024 3.0966510293339168e-07 0 0.0240810687974405 0.00010024493742751093 0 0.023033537740233402 5.3306014073764676e-07 0 0.023033537740233402 5.3306014073764676e-07 0 0.022499444989401735 2.8446847760214932e-05 0 0.020969740651973396 -1.2832236624191429e-06 0 0.0240810687974405 0.00010024493742751093 0 0.023033537740233402 5.3306014073764676e-07 0 0.022499444989401735 2.8446847760214932e-05 0 0.022499444989401735 2.8446847760214932e-05 0 0.021699398500470469 -0.00013304560114450775 0 0.020969740651973396 -1.2832236624191429e-06 0 0.022499444989401735 2.8446847760214932e-05 0 0.021699398500470469 -0.00013304560114450775 0 0.022635621401901028 -0.00041182393608465376 0 0.021699398500470469 -0.00013304560114450775 0 0.020969740651973396 -1.2832236624191429e-06 0 0.020267750319781088 -0.00018171632034389351 0 0.023739259320634955 0.00047271389878416671 0 0.021998405662572298 -0.00042922296744030228 0 0.023660885349236684 6.1248214481396924e-05 0 0.022499444989401735 2.8446847760214932e-05 0 0.022635621401901028 -0.00041182393608465376 0 0.018598150729305891 -0.0011339595482501748 0 0.018867036447552964 9.2566735464154307e-05 0 0.020267750319781088 -0.00018171632034389351 0 0.017969330280484423 -0.0014635923685142823 0 0.017565446194451596 -0.00056304778342508674 0 0.016527729502620169 -0.0010535198750761901 0 0.017969330280484423 -0.0014635923685142823 0 0.017565446194451596 -0.00056304778342508674 0 0.018867036447552964 9.2566735464154307e-05 0 0.021998405662572298 -0.00042922296744030228 0 0.021694319231910064 -0.00049909955589715743 0 0.017565446194451596 -0.00056304778342508674 0 0.018867036447552964 9.2566735464154307e-05 0 0.018694940245662019 0.0003599943088342733 0 0.018867036447552964 9.2566735464154307e-05 0 0.020267750319781088 -0.00018171632034389351 0 0.018909898751416646 9.28277775137681e-07 0 0.020969740651973396 -1.2832236624191429e-06 0 0.020267750319781088 -0.00018171632034389351 0 0.018909898751416646 9.28277775137681e-07 0 0.021699398500470469 -0.00013304560114450775 0 0.022635621401901028 -0.00041182393608465376 0 0.020267750319781088 -0.00018171632034389351 0 0.021998405662572298 -0.00042922296744030228 0 0.021473689701536309 -0.00055175953904175717 0 0.018867036447552964 9.2566735464154307e-05 0 0.018909898751416646 9.28277775137681e-07 0 0.018694940245662019 0.0003599943088342733 0 0.018905009942249262 -2.0753526285510836e-06 0 0.017010448489177217 -0.00032328289061862251 0 0.017583291172263201 3.2806919863034156e-05 0 0.018905009942249262 -2.0753526285510836e-06 0 0.016374427930913694 -0.0011107440981494292 0 0.017010448489177217 -0.00032328289061862251 0 0.018905981932742129 -3.2890160561597547e-07 0 0.017731800196288387 -0.00036314959529172477 0 0.016374427930913694 -0.0011107440981494292 0 0.016380136332201155 -0.00068153679117752936 0 0.017010448489177217 -0.00032328289061862251 0 0.016374427930913694 -0.0011107440981494292 0 0.016380136332201155 -0.00068153679117752936 0 0.016016943170266255 -0.0007669358093758019 0 0.016237157060063359 -0.00043082719479692046 0 0.016380136332201155 -0.00068153679117752936 0 0.016016943170266255 -0.0007669358093758019 0 0.016237157060063359 -0.00043082719479692046 0 0.017010448489177217 -0.00032328289061862251 0 0.016570235782556512 -3.6946503727552049e-05 0 0.016237157060063359 -0.00043082719479692046 0 0.016380136332201155 -0.00068153679117752936 0 0.017010448489177217 -0.00032328289061862251 0 0.016750647408190794 0.00022809327805526109 0 0.016570235782556512 -3.6946503727552049e-05 0 0.015927601810169032 0.00018859887174150049 0 0.016237157060063359 -0.00043082719479692046 0 0.016570235782556512 -3.6946503727552049e-05 0 0.015825798791895843 -0.00019810024223672763 0 0.016570235782556512 -3.6946503727552049e-05 0 0.015927601810169032 0.00018859887174150049 0 0.015825798791895843 -0.00019810024223672763 0 0.018905009942249262 -2.0753526285510836e-06 0 0.017626296426432129 5.061463857095175e-07 0 0.017583291172263201 3.2806919863034156e-05 0 0.016750647408190794 0.00022809327805526109 0 0.016570235782556512 -3.6946503727552049e-05 0 0.017583291172263201 3.2806919863034156e-05 0 0.016750647408190794 0.00022809327805526109 0 0.017626296426432129 5.061463857095175e-07 0 0.017583291172263201 3.2806919863034156e-05 0 0.017010448489177217 -0.00032328289061862251 0 0.016570235782556512 -3.6946503727552049e-05 0 0.017583291172263201 3.2806919863034156e-05 0 0.015293193976881874 -0.00032071483486210706 0 0.014634225704206014 5.4657059504609778e-05 0 0.014438465557320139 -0.00027028524282898022 0 0.014228101460333126 0.00030546382957126076 0 0.014598268993982035 0.00039611162377520276 0 0.014634225704206014 5.4657059504609778e-05 0 0.014598268993982035 0.00039611162377520276 0 0.014634225704206014 5.4657059504609778e-05 0 0.01494446572951055 0.00012879043933359846 0 0.015293193976881874 -0.00032071483486210706 0 0.014634225704206014 5.4657059504609778e-05 0 0.01494446572951055 0.00012879043933359846 0 0.015293193976881874 -0.00032071483486210706 0 0.01494446572951055 0.00012879043933359846 0 0.015402306190550174 3.5815280621613093e-05 0 0.015927601810169032 0.00018859887174150049 0 0.015402306190550174 3.5815280621613093e-05 0 0.015825798791895843 -0.00019810024223672763 0 0.015293193976881874 -0.00032071483486210706 0 0.015402306190550174 3.5815280621613093e-05 0 0.015825798791895843 -0.00019810024223672763 0 0.015293193976881874 -0.00032071483486210706 0 0.015808013797331374 -0.00055732143010285996 0 0.015694027854686952 -0.00065869418772654571 0 0.015293193976881874 -0.00032071483486210706 0 0.015825798791895843 -0.00019810024223672763 0 0.015808013797331374 -0.00055732143010285996 0 0.016237157060063359 -0.00043082719479692046 0 0.015808013797331374 -0.00055732143010285996 0 0.016016943170266255 -0.0007669358093758019 0 0.016237157060063359 -0.00043082719479692046 0 0.015825798791895843 -0.00019810024223672763 0 0.015808013797331374 -0.00055732143010285996 0 0.015808013797331374 -0.00055732143010285996 0 0.016016943170266255 -0.0007669358093758019 0 0.015694027854686952 -0.00065869418772654571 0 0.016016943170266255 -0.0007669358093758019 0 0.015694027854686952 -0.00065869418772654571 0 0.01587554788337105 -0.00062873195575712871 0 0.01513687461587955 -0.00017694565956204232 0 0.015000376030774228 6.0443279636255331e-05 0 0.015293193976881874 -0.00032071483486210706 0 0.015435519960572361 -0.0007465442860802074 0 0.014438465557320139 -0.00027028524282898022 0 0.015293193976881874 -0.00032071483486210706 0 0.015694027854686952 -0.00065869418772654571 0 0.015435519960572361 -0.0007465442860802074 0 0.015435519960572361 -0.0007465442860802074 0 0.01556249256626238 -0.00079095262433654897 0 0.015584311628459014 -0.00080077064759057211 0 0.015694027854686952 -0.00065869418772654571 0 0.015435519960572361 -0.0007465442860802074 0 0.01587554788337105 -0.00062873195575712871 0 0.015435519960572361 -0.0007465442860802074 0 0.01556249256626238 -0.00079095262433654897 0 0.01587554788337105 -0.00062873195575712871 0 0.01556249256626238 -0.00079095262433654897 0 0.01587554788337105 -0.00062873195575712871 0 0.015809450514336038 -0.000960392584716046 0 0.016374427930913694 -0.0011107440981494292 0 0.016016943170266255 -0.0007669358093758019 0 0.01587554788337105 -0.00062873195575712871 0 0.017565446194451596 -0.00056304778342508674 0 0.018694940245662019 0.0003599943088342733 0 0.01587554788337105 -0.00062873195575712871 0 0.017731800196288387 -0.00036314959529172477 0 0.017108461088704157 -0.00055109165087241019 0 0.01587554788337105 -0.00062873195575712871 0 0.016527729502620169 -0.0010535198750761901 0 0.015809450514336038 -0.000960392584716046 0 0.017565446194451596 -0.00056304778342508674 0 0.01587554788337105 -0.00062873195575712871 0 0.016527729502620169 -0.0010535198750761901 0 0.017969330280484423 -0.0014635923685142823 0 0.016527729502620169 -0.0010535198750761901 0 0.01572638102324269 -0.0013401252179305544 0 0.021998405662572298 -0.00042922296744030228 0 0.021192573265469132 1.6078187218131576e-05 0 0.026273343728242499 0.00045151630731982568 0 0.026266129991778291 0.00049542028751682989 0 0.026223819160102257 0.00048566751729779391 0 0.016527729502620169 -0.0010535198750761901 0 0.015809450514336038 -0.000960392584716046 0 0.01572638102324269 -0.0013401252179305544 0 0.015607988889428309 -0.00094997288917685432 0 0.01572638102324269 -0.0013401252179305544 0 0.015580543908468752 -0.00086143686138651825 0 0.01556249256626238 -0.00079095262433654897 0 0.015607988889428309 -0.00094997288917685432 0 0.015572861102207595 -0.00081352720715240296 0 0.01556249256626238 -0.00079095262433654897 0 0.015607988889428309 -0.00094997288917685432 0 0.015809450514336038 -0.000960392584716046 0 0.015607988889428309 -0.00094997288917685432 0 0.015809450514336038 -0.000960392584716046 0 0.01572638102324269 -0.0013401252179305544 0 0.015580543908468752 -0.00086143686138651825 0 0.015572861102207595 -0.00081352720715240296 0 0.015643396806720344 -0.00065977498013757745 0 0.015572861102207595 -0.00081352720715240296 0 0.015643396806720344 -0.00065977498013757745 0 0.015673415116662297 -0.00076497997338281949 0 0.015607988889428309 -0.00094997288917685432 0 0.015580543908468752 -0.00086143686138651825 0 0.015572861102207595 -0.00081352720715240296 0 0.015643396806720344 -0.00065977498013757745 0 0.015841842885768089 -0.00064533365102478779 0 0.016000603630849257 -0.00010169590124022257 0 0.015643396806720344 -0.00065977498013757745 0 0.015841842885768089 -0.00064533365102478779 0 0.015673415116662297 -0.00076497997338281949 0 0.015841842885768089 -0.00064533365102478779 0 0.015797181617568185 -0.00077268110364022661 0 0.015673415116662297 -0.00076497997338281949 0 0.015797181617568185 -0.00077268110364022661 0 0.015673415116662297 -0.00076497997338281949 0 0.015715634819905632 -0.00082116010527053321 0 0.015673415116662297 -0.00076497997338281949 0 0.015715634819905632 -0.00082116010527053321 0 0.015584311628459014 -0.00080077064759057211 0 0.015797181617568185 -0.00077268110364022661 0 0.015715634819905632 -0.00082116010527053321 0 0.015828581678426941 -0.00084360893558971316 0 0.015572861102207595 -0.00081352720715240296 0 0.015673415116662297 -0.00076497997338281949 0 0.015584311628459014 -0.00080077064759057211 0 0.01556249256626238 -0.00079095262433654897 0 0.015572861102207595 -0.00081352720715240296 0 0.015584311628459014 -0.00080077064759057211 0 0.015584311628459014 -0.00080077064759057211 0 0.015696180329553833 -0.00090917359193561857 0 0.015546058018145282 -0.0009577132638258544 0 0.015435519960572361 -0.0007465442860802074 0 0.015584311628459014 -0.00080077064759057211 0 0.015546058018145282 -0.0009577132638258544 0 0.015696180329553833 -0.00090917359193561857 0 0.015837273401007695 -0.00096449206929716052 0 0.015828581678426941 -0.00084360893558971316 0 0.015715634819905632 -0.00082116010527053321 0 0.015584311628459014 -0.00080077064759057211 0 0.015696180329553833 -0.00090917359193561857 0 0.015715634819905632 -0.00082116010527053321 0 0.015696180329553833 -0.00090917359193561857 0 0.015828581678426941 -0.00084360893558971316 0 0.01565249367184467 -0.0011029802839137399 0 0.015666829092847417 -0.0010331683005871278 0 0.015837273401007695 -0.00096449206929716052 0 0.015696180329553833 -0.00090917359193561857 0 0.015666829092847417 -0.0010331683005871278 0 0.015837273401007695 -0.00096449206929716052 0 0.014506842296933064 0.001013827206506691 0 0.015761216149569848 0.00044805931612562562 0 0.015681485753365334 0.0018742679394303844 0 0.015678628219504068 0.0018640551632688504 0 0.015598609105083859 0.0018436330956817576 0 0.014228101460333126 0.00030546382957126076 0 0.013751087177438085 0.00042841690256340074 0 0.014438465557320139 -0.00027028524282898022 0 0.01565249367184467 -0.0011029802839137399 0 0.015666829092847417 -0.0010331683005871278 0 0.015546058018145282 -0.0009577132638258544 0 0.014506842296933064 0.001013827206506691 0 0.015000376030774228 6.0443279636255331e-05 0 0.015696180329553833 -0.00090917359193561857 0 0.015666829092847417 -0.0010331683005871278 0 0.015546058018145282 -0.0009577132638258544 0 0.014228101460333126 0.00030546382957126076 0 0.014634225704206014 5.4657059504609778e-05 0 0.014438465557320139 -0.00027028524282898022 0 0.01565228821729801 0.0017982976918445256 0 0.015700359859780594 0.0018501425377455941 0 0.015598609105083859 0.0018436330956817576 0 0.01565228821729801 0.0017982976918445256 0 0.015747890170449599 0.0018032279137100249 0 0.015802443197935886 0.0016928549535187094 0 0.01565228821729801 0.0017982976918445256 0 0.015747890170449599 0.0018032279137100249 0 0.015700359859780594 0.0018501425377455941 0 0.015681485753365334 0.0018742679394303844 0 0.015700359859780594 0.0018501425377455941 0 0.015598609105083859 0.0018436330956817576 0 0.015837273401007695 -0.00096449206929716052 0 0.015828581678426941 -0.00084360893558971316 0 0.016000176658264604 -0.00084059853661505319 0 0.01565228821729801 0.0017982976918445256 0 0.015387626525533367 0.0023621364517006985 0 0.01616319924936949 0.0014834003397441622 0 0.015761216149569848 0.00044805931612562562 0 0.016826929581483505 -0.00023775226606913117 0 0.01565228821729801 0.0017982976918445256 0 0.015598609105083859 0.0018436330956817576 0 0.015387626525533367 0.0023621364517006985 0 0.017186237362487772 -0.0018463271447508693 0 0.016397588872631777 -0.0011183842555848723 0 0.017195234598356344 -0.00069840093129536164 0 0.016826929581483505 -0.00023775226606913117 0 0.016599276656511994 -0.00039574766300870485 0 0.015828581678426941 -0.00084360893558971316 0 0.016000176658264604 -0.00084059853661505319 0 0.015899090611939105 -0.00075876115973837048 0 0.015797181617568185 -0.00077268110364022661 0 0.015828581678426941 -0.00084360893558971316 0 0.015899090611939105 -0.00075876115973837048 0 0.015841842885768089 -0.00064533365102478779 0 0.015797181617568185 -0.00077268110364022661 0 0.015899090611939105 -0.00075876115973837048 0 0.015841842885768089 -0.00064533365102478779 0 0.016473367335145313 -0.0004012133467081685 0 0.016000603630849257 -0.00010169590124022257 0 0.01646118225283353 -0.00038553951196813397 0 0.016599276656511994 -0.00039574766300870485 0 0.015841842885768089 -0.00064533365102478779 0 0.016397588872631777 -0.0011183842555848723 0 0.016473367335145313 -0.0004012133467081685 0 0.016473367335145313 -0.0004012133467081685 0 0.017195234598356344 -0.00069840093129536164 0 0.017168649860131599 0.00036700560172940675 0 0.016397588872631777 -0.0011183842555848723 0 0.016473367335145313 -0.0004012133467081685 0 0.017195234598356344 -0.00069840093129536164 0 0.016585659933350528 0.0012789366295823488 0 0.01576648842145608 0.0024422035574266517 0 0.014530545432772062 0.0016399456192136065 0 0.016585659933350528 0.0012789366295823488 0 0.01576648842145608 0.0024422035574266517 0 0.017842722019626167 0.0029191045129910078 0 0.01576648842145608 0.0024422035574266517 0 0.016127205373598165 0.003710217113026958 0 0.017842722019626167 0.0029191045129910078 0 0.01576648842145608 0.0024422035574266517 0 0.016127205373598165 0.003710217113026958 0 0.014315062494250096 0.0027324975428664605 0 0.021305674965805096 0.001588711134343277 0 0.020570708632192194 0.0011711095156777139 0 0.025805474227651129 0.00045141161909034884 0 0.026004293214661686 0.00049688011255358776 0 0.026030240478257177 0.00039933346036826801 0 0.01728970916186565 0.00085039603494549496 0 0.016958008539094259 0.00091616485880352018 0 0.01576648842145608 0.0024422035574266517 0 0.014315062494250096 0.0027324975428664605 0 0.014530545432772062 0.0016399456192136065 0 0.016473367335145313 -0.0004012133467081685 0 0.017168649860131599 0.00036700560172940675 0 0.016000603630849257 -0.00010169590124022257 0 0.016958008539094259 0.00091616485880352018 0 0.02031418317964773 0.00068127212676386635 0 0.015643396806720344 -0.00065977498013757745 0 0.016000603630849257 -0.00010169590124022257 0 0.015561201818389847 -0.00054298428615568784 0 0.014315062494250096 0.0027324975428664605 0 0.014530545432772062 0.0016399456192136065 0 0.012649355612616361 0.0018963338068019736 0 0.020570708632192194 0.0011711095156777139 0 0.02031418317964773 0.00068127212676386635 0 0.022193831053897349 0.00048986544466566434 0 0.02031418317964773 0.00068127212676386635 0 0.01572638102324269 -0.0013401252179305544 0 0.015580543908468752 -0.00086143686138651825 0 0.015561201818389847 -0.00054298428615568784 0 0.026195428627215595 0.0004545196172767793 0 0.026141561092151155 0.0004977389114920606 0 0.026175145404178812 0.00043478539590359103 0 0.015580543908468752 -0.00086143686138651825 0 0.015643396806720344 -0.00065977498013757745 0 0.015561201818389847 -0.00054298428615568784 0 0.026237399928572703 0.00037972581658394892 0 0.026175145404178812 0.00043478539590359103 0 0.026166361694536216 0.00038624499285861764 0 0.026141561092151155 0.0004977389114920606 0 0.026175145404178812 0.00043478539590359103 0 0.026112664904024904 0.00044766965944584498 0 0.026175145404178812 0.00043478539590359103 0 0.026112664904024904 0.00044766965944584498 0 0.026166361694536216 0.00038624499285861764 0 0.026004293214661686 0.00049688011255358776 0 0.026141561092151155 0.0004977389114920606 0 0.026112664904024904 0.00044766965944584498 0 0.026004293214661686 0.00049688011255358776 0 0.026112664904024904 0.00044766965944584498 0 0.026030240478257177 0.00039933346036826801 0 0.026112664904024904 0.00044766965944584498 0 0.026030240478257177 0.00039933346036826801 0 0.026166361694536216 0.00038624499285861764 0 0.026030240478257177 0.00039933346036826801 0 0.026166361694536216 0.00038624499285861764 0 0.026091760042067959 0.00028867708493252134 0 0.026030240478257177 0.00039933346036826801 0 0.026091760042067959 0.00028867708493252134 0 0.025946382900299107 0.00032491556311564412 0 0.026237399928572703 0.00037972581658394892 0 0.026166361694536216 0.00038624499285861764 0 0.026297714460853504 0.00029387542079263509 0 0.026166361694536216 0.00038624499285861764 0 0.026297714460853504 0.00029387542079263509 0 0.026091760042067959 0.00028867708493252134 0 0.026297714460853504 0.00029387542079263509 0 0.026091760042067959 0.00028867708493252134 0 0.026057583748583333 6.515040221448234e-05 0 0.026091760042067959 0.00028867708493252134 0 0.025893623743871524 0.00017019129615488887 0 0.026057583748583333 6.515040221448234e-05 0 0.025893623743871524 0.00017019129615488887 0 0.025771953799173204 0.00029305594966401287 0 0.025946382900299107 0.00032491556311564412 0 0.026091760042067959 0.00028867708493252134 0 0.025893623743871524 0.00017019129615488887 0 0.025946382900299107 0.00032491556311564412 0 0.025893623743871524 0.00017019129615488887 0 0.025771953799173204 0.00029305594966401287 0 0.025645770209925586 0.00015531550235172925 0 0.025805474227651129 0.00045141161909034884 0 0.025771953799173204 0.00029305594966401287 0 0.025946382900299107 0.00032491556311564412 0 0.025805474227651129 0.00045141161909034884 0 0.025771953799173204 0.00029305594966401287 0 0.025588116347625353 0.0003662710996137131 0 0.025805474227651129 0.00045141161909034884 0 0.026030240478257177 0.00039933346036826801 0 0.025946382900299107 0.00032491556311564412 0 0.022302574916101839 0.0018277330836469965 0 0.023644383447778205 0.0017842106821934192 0 0.019190143581985692 0.0045705789312293554 0 0.018067855651889664 0.0047505333461714799 0 0.020018968916786936 0.0058501382329755897 0 0.019190143581985692 0.0045705789312293554 0 0.019858076184422528 0.004719340942546185 0 0.020018968916786936 0.0058501382329755897 0 0.019190143581985692 0.0045705789312293554 0 0.019858076184422528 0.004719340942546185 0 0.019799598654244941 0.0038342061353494701 0 0.019190143581985692 0.0045705789312293554 0 0.018067855651889664 0.0047505333461714799 0 0.017842722019626167 0.0029191045129910078 0 0.021305674965805096 0.001588711134343277 0 0.022302574916101839 0.0018277330836469965 0 0.025771953799173204 0.00029305594966401287 0 0.025588116347625353 0.0003662710996137131 0 0.025645770209925586 0.00015531550235172925 0 0.025588116347625353 0.0003662710996137131 0 0.025645770209925586 0.00015531550235172925 0 0.025517224275783675 0.00026288555207696084 0 0.025645770209925586 0.00015531550235172925 0 0.025504184678031824 0.00017058538989523335 0 0.025517224275783675 0.00026288555207696084 0 0.025588116347625353 0.0003662710996137131 0 0.025517224275783675 0.00026288555207696084 0 0.025381438144615746 0.0002640782762401808 0 0.025504184678031824 0.00017058538989523335 0 0.025517224275783675 0.00026288555207696084 0 0.025425630725861677 0.00020755126888476563 0 0.025517224275783675 0.00026288555207696084 0 0.025425630725861677 0.00020755126888476563 0 0.025381438144615746 0.0002640782762401808 0 0.025425630725861677 0.00020755126888476563 0 0.025381438144615746 0.0002640782762401808 0 0.02538727221075986 0.00023230977871495194 0 0.025504184678031824 0.00017058538989523335 0 0.025425630725861677 0.00020755126888476563 0 0.025428742476497426 0.00014348411328103029 0 0.025428742476497426 0.00014348411328103029 0 0.025391166402726349 0.00016583106365599789 0 0.025379552457438406 0.00012460933782794585 0 0.025425630725861677 0.00020755126888476563 0 0.025428742476497426 0.00014348411328103029 0 0.025391166402726349 0.00016583106365599789 0 0.020712088873945524 0.0057612357438498072 0 0.020018968916786936 0.0058501382329755897 0 0.021598289064818754 0.0061305190317756456 0 0.025391166402726349 0.00016583106365599789 0 0.025375395128827138 0.00019948529886201001 0 0.025347031554100143 0.00015420038780743155 0 0.025391166402726349 0.00016583106365599789 0 0.025347031554100143 0.00015420038780743155 0 0.025379552457438406 0.00012460933782794585 0 0.023644383447778205 0.0017842106821934192 0 0.024804633492423206 0.0020095467332066699 0 0.02532721906969055 0.0002135644218948607 0 0.025381438144615746 0.0002640782762401808 0 0.025166588261132189 0.00015284617448557279 0 0.02532721906969055 0.0002135644218948607 0 0.025297196126393261 0.00019191182609019737 0 0.025166588261132189 0.00015284617448557279 0 0.023644383447778205 0.0017842106821934192 0 0.024256101489485794 0.001548786162760653 0 0.020018968916786936 0.0058501382329755897 0 0.022590331078253999 0.0068443653364701719 0 0.021598289064818754 0.0061305190317756456 0 0.025425630725861677 0.00020755126888476563 0 0.025375395128827138 0.00019948529886201001 0 0.02538727221075986 0.00023230977871495194 0 0.025425630725861677 0.00020755126888476563 0 0.025391166402726349 0.00016583106365599789 0 0.025375395128827138 0.00019948529886201001 0 0.025375395128827138 0.00019948529886201001 0 0.02538727221075986 0.00023230977871495194 0 0.0253606338707082 0.00022004049529178752 0 0.025375395128827138 0.00019948529886201001 0 0.025337300199430021 0.00018983123223399528 0 0.0253606338707082 0.00022004049529178752 0 0.025375395128827138 0.00019948529886201001 0 0.025337300199430021 0.00018983123223399528 0 0.025347031554100143 0.00015420038780743155 0 0.02532721906969055 0.0002135644218948607 0 0.025337300199430021 0.00018983123223399528 0 0.0253606338707082 0.00022004049529178752 0 0.025337300199430021 0.00018983123223399528 0 0.025347031554100143 0.00015420038780743155 0 0.025308292734681211 0.00016796310285182699 0 0.025308292734681211 0.00016796310285182699 0 0.025261558108506221 0.00016571604089335505 0 0.02529847216337169 0.00013817297470357457 0 0.025347031554100143 0.00015420038780743155 0 0.025308292734681211 0.00016796310285182699 0 0.02529847216337169 0.00013817297470357457 0 0.025308292734681211 0.00016796310285182699 0 0.025261558108506221 0.00016571604089335505 0 0.025297196126393261 0.00019191182609019737 0 0.025261558108506221 0.00016571604089335505 0 0.025249763730897955 0.00013266618282955074 0 0.02529847216337169 0.00013817297470357457 0 0.025337300199430021 0.00018983123223399528 0 0.025308292734681211 0.00016796310285182699 0 0.025297196126393261 0.00019191182609019737 0 0.02532721906969055 0.0002135644218948607 0 0.025337300199430021 0.00018983123223399528 0 0.025297196126393261 0.00019191182609019737 0 0.021115188342659272 0.0057966735219085299 0 0.020712088873945524 0.0057612357438498072 0 0.021598289064818754 0.0061305190317756456 0 0.021328088521031664 0.0058364131866919288 0 0.021115188342659272 0.0057966735219085299 0 0.021598289064818754 0.0061305190317756456 0 0.021328088521031664 0.0058364131866919288 0 0.021590868734271646 0.005692169947143149 0 0.021191498058817235 0.0054993168290162139 0 0.021115188342659272 0.0057966735219085299 0 0.020811386473799817 0.0055374202932352264 0 0.021191498058817235 0.0054993168290162139 0 0.021328088521031664 0.0058364131866919288 0 0.021115188342659272 0.0057966735219085299 0 0.021191498058817235 0.0054993168290162139 0 0.021115188342659272 0.0057966735219085299 0 0.020712088873945524 0.0057612357438498072 0 0.020811386473799817 0.0055374202932352264 0 0.020712088873945524 0.0057612357438498072 0 0.020467147268092043 0.0056157994876757421 0 0.020811386473799817 0.0055374202932352264 0 0.020712088873945524 0.0057612357438498072 0 0.020467147268092043 0.0056157994876757421 0 0.020018968916786936 0.0058501382329755897 0 0.020467147268092043 0.0056157994876757421 0 0.020018968916786936 0.0058501382329755897 0 0.020365106284306825 0.0054270858214298503 0 0.025381438144615746 0.0002640782762401808 0 0.02538727221075986 0.00023230977871495194 0 0.0253606338707082 0.00022004049529178752 0 0.02532721906969055 0.0002135644218948607 0 0.025381438144615746 0.0002640782762401808 0 0.0253606338707082 0.00022004049529178752 0 0.025264840889956189 0.00023728773362160987 0 0.025166588261132189 0.00015284617448557279 0 0.025152198179619761 0.00017407759218776578 0 0.022590331078253999 0.0068443653364701719 0 0.022763820002742349 0.0064111433656751544 0 0.023201781808680551 0.0064604269852294623 0 0.025144406684003695 0.00013709851431616387 0 0.025152198179619761 0.00017407759218776578 0 0.025106284837528192 0.00011777101306731514 0 0.025144406684003695 0.00013709851431616387 0 0.025166588261132189 0.00015284617448557279 0 0.025152198179619761 0.00017407759218776578 0 0.022590331078253999 0.0068443653364701719 0 0.022235050757874207 0.006425153471689188 0 0.022479417506427769 0.0063826331724171348 0 0.022590331078253999 0.0068443653364701719 0 0.022479417506427769 0.0063826331724171348 0 0.022763820002742349 0.0064111433656751544 0 0.025261558108506221 0.00016571604089335505 0 0.025297196126393261 0.00019191182609019737 0 0.025166588261132189 0.00015284617448557279 0 0.025261558108506221 0.00016571604089335505 0 0.025166588261132189 0.00015284617448557279 0 0.025220131337151529 0.00013948138037426667 0 0.025261558108506221 0.00016571604089335505 0 0.025249763730897955 0.00013266618282955074 0 0.025220131337151529 0.00013948138037426667 0 0.022590331078253999 0.0068443653364701719 0 0.021598289064818754 0.0061305190317756456 0 0.022235050757874207 0.006425153471689188 0 0.021598289064818754 0.0061305190317756456 0 0.021590868734271646 0.005692169947143149 0 0.021936617488076272 0.005860648842725226 0 0.021328088521031664 0.0058364131866919288 0 0.021598289064818754 0.0061305190317756456 0 0.021590868734271646 0.005692169947143149 0 0.021936617488076272 0.005860648842725226 0 0.022195469918731198 0.0061057829496768655 0 0.022350222043366241 0.005708843637066455 0 0.021598289064818754 0.0061305190317756456 0 0.021936617488076272 0.005860648842725226 0 0.022195469918731198 0.0061057829496768655 0 0.021598289064818754 0.0061305190317756456 0 0.022195469918731198 0.0061057829496768655 0 0.022235050757874207 0.006425153471689188 0 0.022195469918731198 0.0061057829496768655 0 0.022235050757874207 0.006425153471689188 0 0.022479417506427769 0.0063826331724171348 0 0.022479417506427769 0.0063826331724171348 0 0.022586793510800059 0.0061250658432915155 0 0.022763820002742349 0.0064111433656751544 0 0.022195469918731198 0.0061057829496768655 0 0.022479417506427769 0.0063826331724171348 0 0.022586793510800059 0.0061250658432915155 0 0.022195469918731198 0.0061057829496768655 0 0.022586793510800059 0.0061250658432915155 0 0.022350222043366241 0.005708843637066455 0 0.022586793510800059 0.0061250658432915155 0 0.022350222043366241 0.005708843637066455 0 0.022959435947867726 0.0056557867837505873 0 0.022586793510800059 0.0061250658432915155 0 0.022989814753259272 0.0061332330458412233 0 0.022959435947867726 0.0056557867837505873 0 0.022989814753259272 0.0061332330458412233 0 0.022763820002742349 0.0064111433656751544 0 0.023201781808680551 0.0064604269852294623 0 0.022586793510800059 0.0061250658432915155 0 0.022989814753259272 0.0061332330458412233 0 0.022763820002742349 0.0064111433656751544 0 0.022959435947867726 0.0056557867837505873 0 0.022522075124016508 0.0052484248101749365 0 0.02309516082119115 0.0048422293541191073 0 0.022522075124016508 0.0052484248101749365 0 0.022276322029526351 0.0046838315259266515 0 0.02309516082119115 0.0048422293541191073 0 0.022350222043366241 0.005708843637066455 0 0.022959435947867726 0.0056557867837505873 0 0.022522075124016508 0.0052484248101749365 0 0.022350222043366241 0.005708843637066455 0 0.022522075124016508 0.0052484248101749365 0 0.022003871791082819 0.0053844010495994396 0 0.022522075124016508 0.0052484248101749365 0 0.022003871791082819 0.0053844010495994396 0 0.022276322029526351 0.0046838315259266515 0 0.022003871791082819 0.0053844010495994396 0 0.021633203034502658 0.0047258355348963783 0 0.022276322029526351 0.0046838315259266515 0 0.021590868734271646 0.005692169947143149 0 0.021936617488076272 0.005860648842725226 0 0.022003871791082819 0.0053844010495994396 0 0.021936617488076272 0.005860648842725226 0 0.022350222043366241 0.005708843637066455 0 0.022003871791082819 0.0053844010495994396 0 0.021590868734271646 0.005692169947143149 0 0.022003871791082819 0.0053844010495994396 0 0.02152600320674318 0.005305897268309618 0 0.021590868734271646 0.005692169947143149 0 0.02152600320674318 0.005305897268309618 0 0.021191498058817235 0.0054993168290162139 0 0.02152600320674318 0.005305897268309618 0 0.021633203034502658 0.0047258355348963783 0 0.021137255192570974 0.0050448292147034094 0 0.022003871791082819 0.0053844010495994396 0 0.02152600320674318 0.005305897268309618 0 0.021633203034502658 0.0047258355348963783 0 0.021633203034502658 0.0047258355348963783 0 0.021296933922527985 0.0041459235357109046 0 0.021830355250111316 0.0039377502241819641 0 0.021633203034502658 0.0047258355348963783 0 0.022276322029526351 0.0046838315259266515 0 0.021830355250111316 0.0039377502241819641 0 0.022276322029526351 0.0046838315259266515 0 0.022599988764210439 0.0041822600927840809 0 0.02309516082119115 0.0048422293541191073 0 0.022276322029526351 0.0046838315259266515 0 0.022599988764210439 0.0041822600927840809 0 0.021830355250111316 0.0039377502241819641 0 0.019858076184422528 0.004719340942546185 0 0.020018968916786936 0.0058501382329755897 0 0.020223543934817186 0.0051559449660284629 0 0.020640986270286175 0.0049168142287248371 0 0.020223543934817186 0.0051559449660284629 0 0.020560299404011172 0.0052878139298342848 0 0.02029036363777827 0.0047963786443932259 0 0.020640986270286175 0.0049168142287248371 0 0.020223543934817186 0.0051559449660284629 0 0.019858076184422528 0.004719340942546185 0 0.02029036363777827 0.0047963786443932259 0 0.020223543934817186 0.0051559449660284629 0 0.020018968916786936 0.0058501382329755897 0 0.020223543934817186 0.0051559449660284629 0 0.020365106284306825 0.0054270858214298503 0 0.020223543934817186 0.0051559449660284629 0 0.020365106284306825 0.0054270858214298503 0 0.020560299404011172 0.0052878139298342848 0 0.020467147268092043 0.0056157994876757421 0 0.020365106284306825 0.0054270858214298503 0 0.020560299404011172 0.0052878139298342848 0 0.020467147268092043 0.0056157994876757421 0 0.020560299404011172 0.0052878139298342848 0 0.020811386473799817 0.0055374202932352264 0 0.020811386473799817 0.0055374202932352264 0 0.020857616860530313 0.0052757313899094126 0 0.021191498058817235 0.0054993168290162139 0 0.020560299404011172 0.0052878139298342848 0 0.020811386473799817 0.0055374202932352264 0 0.020857616860530313 0.0052757313899094126 0 0.02152600320674318 0.005305897268309618 0 0.021191498058817235 0.0054993168290162139 0 0.021137255192570974 0.0050448292147034094 0 0.020857616860530313 0.0052757313899094126 0 0.021191498058817235 0.0054993168290162139 0 0.021137255192570974 0.0050448292147034094 0 0.020640986270286175 0.0049168142287248371 0 0.020857616860530313 0.0052757313899094126 0 0.021137255192570974 0.0050448292147034094 0 0.020640986270286175 0.0049168142287248371 0 0.021137255192570974 0.0050448292147034094 0 0.02098091096579657 0.0045495910751592568 0 0.020640986270286175 0.0049168142287248371 0 0.020560299404011172 0.0052878139298342848 0 0.020857616860530313 0.0052757313899094126 0 0.020640986270286175 0.0049168142287248371 0 0.02098091096579657 0.0045495910751592568 0 0.020371737701077152 0.0043804991278106617 0 0.021633203034502658 0.0047258355348963783 0 0.02098091096579657 0.0045495910751592568 0 0.021296933922527985 0.0041459235357109046 0 0.021633203034502658 0.0047258355348963783 0 0.021137255192570974 0.0050448292147034094 0 0.02098091096579657 0.0045495910751592568 0 0.02098091096579657 0.0045495910751592568 0 0.021296933922527985 0.0041459235357109046 0 0.020800631138787651 0.0040802686379643018 0 0.02098091096579657 0.0045495910751592568 0 0.020800631138787651 0.0040802686379643018 0 0.020371737701077152 0.0043804991278106617 0 0.020800631138787651 0.0040802686379643018 0 0.020371737701077152 0.0043804991278106617 0 0.020442956129178978 0.0036413441667806313 0 0.019858076184422528 0.004719340942546185 0 0.020371737701077152 0.0043804991278106617 0 0.019799598654244941 0.0038342061353494701 0 0.02029036363777827 0.0047963786443932259 0 0.020640986270286175 0.0049168142287248371 0 0.020371737701077152 0.0043804991278106617 0 0.019858076184422528 0.004719340942546185 0 0.02029036363777827 0.0047963786443932259 0 0.020371737701077152 0.0043804991278106617 0 0.020442956129178978 0.0036413441667806313 0 0.019942533529807446 0.0028788058095867161 0 0.019799598654244941 0.0038342061353494701 0 0.020371737701077152 0.0043804991278106617 0 0.020442956129178978 0.0036413441667806313 0 0.019799598654244941 0.0038342061353494701 0 0.020800631138787651 0.0040802686379643018 0 0.020442956129178978 0.0036413441667806313 0 0.021114501544736788 0.0035570403843692921 0 0.021296933922527985 0.0041459235357109046 0 0.020800631138787651 0.0040802686379643018 0 0.021114501544736788 0.0035570403843692921 0 0.020442956129178978 0.0036413441667806313 0 0.021114501544736788 0.0035570403843692921 0 0.020754128835695738 0.0028688875785144266 0 0.021114501544736788 0.0035570403843692921 0 0.020754128835695738 0.0028688875785144266 0 0.021541111137686898 0.0030876821691115238 0 0.020754128835695738 0.0028688875785144266 0 0.021541111137686898 0.0030876821691115238 0 0.021171756075844463 0.0021113144123803573 0 0.020442956129178978 0.0036413441667806313 0 0.020754128835695738 0.0028688875785144266 0 0.019942533529807446 0.0028788058095867161 0 0.020754128835695738 0.0028688875785144266 0 0.019942533529807446 0.0028788058095867161 0 0.02029768712910111 0.0021773157511319266 0 0.022599988764210439 0.0041822600927840809 0 0.022349912749355546 0.0034366022018712883 0 0.023471824869738221 0.0039298881517190621 0 0.022599988764210439 0.0041822600927840809 0 0.022349912749355546 0.0034366022018712883 0 0.021830355250111316 0.0039377502241819641 0 0.021114501544736788 0.0035570403843692921 0 0.021830355250111316 0.0039377502241819641 0 0.021541111137686898 0.0030876821691115238 0 0.022349912749355546 0.0034366022018712883 0 0.021830355250111316 0.0039377502241819641 0 0.021541111137686898 0.0030876821691115238 0 0.021296933922527985 0.0041459235357109046 0 0.021114501544736788 0.0035570403843692921 0 0.021830355250111316 0.0039377502241819641 0 0.022349912749355546 0.0034366022018712883 0 0.021541111137686898 0.0030876821691115238 0 0.02206123016194618 0.00263908997896213 0 0.021541111137686898 0.0030876821691115238 0 0.02206123016194618 0.00263908997896213 0 0.021171756075844463 0.0021113144123803573 0 0.022349912749355546 0.0034366022018712883 0 0.02206123016194618 0.00263908997896213 0 0.023075425195575212 0.00255133100003543 0 0.02204282769251872 0.0018337371545958069 0 0.022680762862919208 0.0011569182104922359 0 0.023075425195575212 0.00255133100003543 0 0.02206123016194618 0.00263908997896213 0 0.02204282769251872 0.0018337371545958069 0 0.023075425195575212 0.00255133100003543 0 0.02204282769251872 0.0018337371545958069 0 0.021264262693145009 0.0011402660519912167 0 0.021171756075844463 0.0021113144123803573 0 0.02206123016194618 0.00263908997896213 0 0.02204282769251872 0.0018337371545958069 0 0.021171756075844463 0.0021113144123803573 0 0.02204282769251872 0.0018337371545958069 0 0.021264262693145009 0.0011402660519912167 0 0.022680762862919208 0.0011569182104922359 0 0.02029768712910111 0.0021773157511319266 0 0.021171756075844463 0.0021113144123803573 0 0.020397913863438154 0.0013406073022821595 0 0.02029768712910111 0.0021773157511319266 0 0.020397913863438154 0.0013406073022821595 0 0.019530693896613906 0.0018748924134831702 0 0.020754128835695738 0.0028688875785144266 0 0.02029768712910111 0.0021773157511319266 0 0.021171756075844463 0.0021113144123803573 0 0.021264262693145009 0.0011402660519912167 0 0.020397913863438154 0.0013406073022821595 0 0.020240468491962278 0.00031499257928638893 0 0.021264262693145009 0.0011402660519912167 0 0.021171756075844463 0.0021113144123803573 0 0.020397913863438154 0.0013406073022821595 0 0.020397913863438154 0.0013406073022821595 0 0.019762720246065221 0.00084843890162856952 0 0.019530693896613906 0.0018748924134831702 0 0.019762720246065221 0.00084843890162856952 0 0.018944541041660292 0.00081002716686227156 0 0.019530693896613906 0.0018748924134831702 0 0.019530693896613906 0.0018748924134831702 0 0.019139810098907962 0.0029913269770372492 0 0.018412805323195204 0.0019763267751880462 0 0.018944541041660292 0.00081002716686227156 0 0.019530693896613906 0.0018748924134831702 0 0.018412805323195204 0.0019763267751880462 0 0.019942533529807446 0.0028788058095867161 0 0.02029768712910111 0.0021773157511319266 0 0.019530693896613906 0.0018748924134831702 0 0.019190143581985692 0.0045705789312293554 0 0.019139810098907962 0.0029913269770372492 0 0.017842722019626167 0.0029191045129910078 0 0.019942533529807446 0.0028788058095867161 0 0.019530693896613906 0.0018748924134831702 0 0.019139810098907962 0.0029913269770372492 0 0.019190143581985692 0.0045705789312293554 0 0.019139810098907962 0.0029913269770372492 0 0.019799598654244941 0.0038342061353494701 0 0.019942533529807446 0.0028788058095867161 0 0.019139810098907962 0.0029913269770372492 0 0.019799598654244941 0.0038342061353494701 0 0.016127205373598165 0.003710217113026958 0 0.018067855651889664 0.0047505333461714799 0 0.017842722019626167 0.0029191045129910078 0 0.019139810098907962 0.0029913269770372492 0 0.017842722019626167 0.0029191045129910078 0 0.018412805323195204 0.0019763267751880462 0 0.016585659933350528 0.0012789366295823488 0 0.017842722019626167 0.0029191045129910078 0 0.018412805323195204 0.0019763267751880462 0 0.016585659933350528 0.0012789366295823488 0 0.018944541041660292 0.00081002716686227156 0 0.018412805323195204 0.0019763267751880462 0 0.01728970916186565 0.00085039603494549496 0 0.017952861170219995 0.00078189097348870917 0 0.017168649860131599 0.00036700560172940675 0 0.018944541041660292 0.00081002716686227156 0 0.018128423671999901 -8.6654847015294397e-05 0 0.017195234598356344 -0.00069840093129536164 0 0.017168649860131599 0.00036700560172940675 0 0.018128423671999901 -8.6654847015294397e-05 0 0.018128423671999901 -8.6654847015294397e-05 0 0.019512070425806747 -5.1954237327676403e-05 0 0.018156894373539553 -0.0011455978348325778 0 0.017195234598356344 -0.00069840093129536164 0 0.018128423671999901 -8.6654847015294397e-05 0 0.018156894373539553 -0.0011455978348325778 0 0.019762720246065221 0.00084843890162856952 0 0.019512070425806747 -5.1954237327676403e-05 0 0.020240468491962278 0.00031499257928638893 0 0.019762720246065221 0.00084843890162856952 0 0.018944541041660292 0.00081002716686227156 0 0.019512070425806747 -5.1954237327676403e-05 0 0.018944541041660292 0.00081002716686227156 0 0.018128423671999901 -8.6654847015294397e-05 0 0.019512070425806747 -5.1954237327676403e-05 0 0.018261347807585974 0.00010910468515333358 0 0.017835221376409697 -5.4328456486586777e-05 0 0.019512070425806747 -5.1954237327676403e-05 0 0.019998800685594662 -0.00036034238432886023 0 0.019768321669219682 -0.00066130268374152564 0 0.019512070425806747 -5.1954237327676403e-05 0 0.019998800685594662 -0.00036034238432886023 0 0.020240468491962278 0.00031499257928638893 0 0.019998800685594662 -0.00036034238432886023 0 0.019768321669219682 -0.00066130268374152564 0 0.020204340642006966 -0.00071412164903164425 0 0.019512070425806747 -5.1954237327676403e-05 0 0.019768321669219682 -0.00066130268374152564 0 0.019417703726966207 -0.0006055626700968474 0 0.019768321669219682 -0.00066130268374152564 0 0.019417703726966207 -0.0006055626700968474 0 0.019731433489655205 -0.00099921636647145023 0 0.019768321669219682 -0.00066130268374152564 0 0.019731433489655205 -0.00099921636647145023 0 0.020199426356622478 -0.0010494323726880194 0 0.019768321669219682 -0.00066130268374152564 0 0.020199426356622478 -0.0010494323726880194 0 0.020204340642006966 -0.00071412164903164425 0 0.019043138949659089 -0.00096496792869603897 0 0.019417703726966207 -0.0006055626700968474 0 0.019731433489655205 -0.00099921636647145023 0 0.017186237362487772 -0.0018463271447508693 0 0.017195234598356344 -0.00069840093129536164 0 0.018156894373539553 -0.0011455978348325778 0 0.016826929581483505 -0.00023775226606913117 0 0.017835221376409697 -5.4328456486586777e-05 0 0.019043138949659089 -0.00096496792869603897 0 0.019731433489655205 -0.00099921636647145023 0 0.019906362139336862 -0.0014215292584187039 0 0.016826929581483505 -0.00023775226606913117 0 0.018114248767881921 -0.00047966998277931431 0 0.015387626525533367 0.0023621364517006985 0 0.017054313484019701 0.0013094523418041668 0 0.01616319924936949 0.0014834003397441622 0 0.019731433489655205 -0.00099921636647145023 0 0.020078205885237895 -0.0012574374233973659 0 0.019906362139336862 -0.0014215292584187039 0 0.019731433489655205 -0.00099921636647145023 0 0.020078205885237895 -0.0012574374233973659 0 0.020199426356622478 -0.0010494323726880194 0 0.018903859174393554 -0.00087340485235481546 0 0.018114248767881921 -0.00047966998277931431 0 0.020078205885237895 -0.0012574374233973659 0 0.019906362139336862 -0.0014215292584187039 0 0.020245763296982484 -0.0013048919724369026 0 0.018451823567881245 -0.001332345045448573 0 0.017054313484019701 0.0013094523418041668 0 0.01616319924936949 0.0014834003397441622 0 0.016403054231042935 0.0011055187816806826 0 0.016177272441522308 0.0014318261948836348 0 0.015427280162254076 0.0019466308950581068 0 0.014893415316405183 0.0022308351177986975 0 0.01616319924936949 0.0014834003397441622 0 0.015427280162254076 0.0019466308950581068 0 0.015802443197935886 0.0016928549535187094 0 0.01616319924936949 0.0014834003397441622 0 0.015427280162254076 0.0019466308950581068 0 0.015747890170449599 0.0018032279137100249 0 0.015802443197935886 0.0016928549535187094 0 0.01565228821729801 0.0017982976918445256 0 0.015802443197935886 0.0016928549535187094 0 0.01616319924936949 0.0014834003397441622 0 0.02035367735036954 -0.0012669121280175465 0 0.020389711035263797 -0.0012552876479089315 0 0.020760654603837875 -0.0012450772858920538 0 0.020389711035263797 -0.0012552876479089315 0 0.020245763296982484 -0.0013048919724369026 0 0.020665295981168348 -0.001300389827044056 0 0.020389711035263797 -0.0012552876479089315 0 0.020665295981168348 -0.001300389827044056 0 0.020760654603837875 -0.0012450772858920538 0 0.020073634911899237 -0.0010705104358879503 0 0.020389711035263797 -0.0012552876479089315 0 0.020245763296982484 -0.0013048919724369026 0 0.020073634911899237 -0.0010705104358879503 0 0.019906362139336862 -0.0014215292584187039 0 0.020245763296982484 -0.0013048919724369026 0 0.020245763296982484 -0.0013048919724369026 0 0.020288732921797309 -0.0012594045623500701 0 0.0206279034283024 -0.0013191473571958904 0 0.020245763296982484 -0.0013048919724369026 0 0.0206279034283024 -0.0013191473571958904 0 0.020665295981168348 -0.001300389827044056 0 0.020078205885237895 -0.0012574374233973659 0 0.020245763296982484 -0.0013048919724369026 0 0.020288732921797309 -0.0012594045623500701 0 0.020078205885237895 -0.0012574374233973659 0 0.020288732921797309 -0.0012594045623500701 0 0.020199426356622478 -0.0010494323726880194 0 0.020288732921797309 -0.0012594045623500701 0 0.020199426356622478 -0.0010494323726880194 0 0.0206279034283024 -0.0013191473571958904 0 0.020199426356622478 -0.0010494323726880194 0 0.0206279034283024 -0.0013191473571958904 0 0.020641286757672132 -0.00099414799834689422 0 0.0206279034283024 -0.0013191473571958904 0 0.020665295981168348 -0.001300389827044056 0 0.021349951836598442 -0.0015645557467369323 0 0.0206279034283024 -0.0013191473571958904 0 0.021349951836598442 -0.0015645557467369323 0 0.020641286757672132 -0.00099414799834689422 0 0.020665295981168348 -0.001300389827044056 0 0.021349951836598442 -0.0015645557467369323 0 0.020760654603837875 -0.0012450772858920538 0 0.021349951836598442 -0.0015645557467369323 0 0.021155080870689829 -0.00067261271158750783 0 0.022785057071946897 -0.00035537964373003403 0 0.021349951836598442 -0.0015645557467369323 0 0.021155080870689829 -0.00067261271158750783 0 0.020641286757672132 -0.00099414799834689422 0 0.020199426356622478 -0.0010494323726880194 0 0.020641286757672132 -0.00099414799834689422 0 0.020204340642006966 -0.00071412164903164425 0 0.021155080870689829 -0.00067261271158750783 0 0.020641286757672132 -0.00099414799834689422 0 0.02051362302985707 -0.00041319195061149255 0 0.019998800685594662 -0.00036034238432886023 0 0.02051362302985707 -0.00041319195061149255 0 0.020204340642006966 -0.00071412164903164425 0 0.020641286757672132 -0.00099414799834689422 0 0.02051362302985707 -0.00041319195061149255 0 0.020204340642006966 -0.00071412164903164425 0 0.019998800685594662 -0.00036034238432886023 0 0.02051362302985707 -0.00041319195061149255 0 0.020240468491962278 0.00031499257928638893 0 0.02051362302985707 -0.00041319195061149255 0 0.020240468491962278 0.00031499257928638893 0 0.021309877711934037 0.00025316220152164765 0 0.021155080870689829 -0.00067261271158750783 0 0.02051362302985707 -0.00041319195061149255 0 0.021309877711934037 0.00025316220152164765 0 0.021264262693145009 0.0011402660519912167 0 0.020240468491962278 0.00031499257928638893 0 0.021309877711934037 0.00025316220152164765 0 0.020397913863438154 0.0013406073022821595 0 0.019762720246065221 0.00084843890162856952 0 0.020240468491962278 0.00031499257928638893 0 0.021309877711934037 0.00025316220152164765 0 0.022785057071946897 -0.00035537964373003403 0 0.022680762862919208 0.0011569182104922359 0 0.021155080870689829 -0.00067261271158750783 0 0.021309877711934037 0.00025316220152164765 0 0.022785057071946897 -0.00035537964373003403 0 0.021264262693145009 0.0011402660519912167 0 0.021309877711934037 0.00025316220152164765 0 0.022680762862919208 0.0011569182104922359 0 0.02388469401973304 0.00062232786021238526 0 0.022785057071946897 -0.00035537964373003403 0 0.022680762862919208 0.0011569182104922359 0 0.02388469401973304 0.00062232786021238526 0 0.025564628376544968 -0.00016470361056215548 0 0.022785057071946897 -0.00035537964373003403 0 0.02388469401973304 0.00062232786021238526 0 0.025564628376544968 -0.00016470361056215548 0 0.02460243050384656 0.0018047346753747523 0 0.025564628376544968 -0.00016470361056215548 0 0.022785057071946897 -0.00035537964373003403 0 0.024601878750876181 -0.0027779392077738347 0 0.027106740083168782 -0.00018210454061689171 0 0.026805413626910097 -0.0019641158235381415 0 0.028166511884217298 -0.0012519686971645451 0 0.025079287977981375 0.00041470952493913044 0 0.023545794363317746 -0.00049824268160956965 0 0.021349951836598442 -0.0015645557467369323 0 0.022785057071946897 -0.00035537964373003403 0 0.024601878750876181 -0.0027779392077738347 0 0.021349951836598442 -0.0015645557467369323 0 0.020760654603837875 -0.0012450772858920538 0 0.019999836558858647 -0.0014778142934912131 0 0.022510777082492484 -0.00063497426967004872 0 0.023545794363317746 -0.00049824268160956965 0 0.023545794363317746 -0.00049824268160956965 0 0.021189320775027165 -0.00059314762199955628 0 0.023086776958602478 0.00050318910902370187 0 0.023088040877634147 0.00050170407581945093 0 0.023081423658509004 0.00049812204468956654 0 0.020760654603837875 -0.0012450772858920538 0 0.019999836558858647 -0.0014778142934912131 0 0.020233609757478319 -0.00058292890208946522 0 0.021072733282174766 -0.00066548953352986711 0 0.021189320775027165 -0.00059314762199955628 0 0.02035367735036954 -0.0012669121280175465 0 0.020760654603837875 -0.0012450772858920538 0 0.020361364745428146 -0.0012673061472973776 0 0.023092925237477704 0.00050177779984546277 0 0.023095896513634535 0.00050612836548137119 0 0.023107137832107216 0.0005111998581549843 0 0.025441656307634376 -5.3837394737706938e-05 0 0.026243731628860699 0.00095944808498804384 0 0.023088040877634147 0.00050170407581945093 0 0.023092925237477704 0.00050177779984546277 0 0.023095896513634535 0.00050612836548137119 0 0.026805413626910097 -0.0019641158235381415 0 0.028390401561446527 -0.0023525535060213644 0 0.028166511884217298 -0.0012519686971645451 0 0.023086776958602478 0.00050318910902370187 0 0.023088040877634147 0.00050170407581945093 0 0.023095896513634535 0.00050612836548137119 0 0.023545794363317746 -0.00049824268160956965 0 0.025441656307634376 -5.3837394737706938e-05 0 0.028390401561446527 -0.0023525535060213644 0 0.029480420751732725 -0.0013476973966761057 0 0.029884444632964295 -0.0026671761520537314 0 0.028390401561446527 -0.0023525535060213644 0 0.029480420751732725 -0.0013476973966761057 0 0.028166511884217298 -0.0012519686971645451 0 0.029480420751732725 -0.0013476973966761057 0 0.028166511884217298 -0.0012519686971645451 0 0.029039149058020835 -0.00025204912224181223 0 0.029480420751732725 -0.0013476973966761057 0 0.029039149058020835 -0.00025204912224181223 0 0.030222884040616634 0.00017879352661825333 0 0.027106740083168782 -0.00018210454061689171 0 0.028166511884217298 -0.0012519686971645451 0 0.029039149058020835 -0.00025204912224181223 0 0.027106740083168782 -0.00018210454061689171 0 0.029039149058020835 -0.00025204912224181223 0 0.029608091060018951 0.0011921307472357626 0 0.029039149058020835 -0.00025204912224181223 0 0.029608091060018951 0.0011921307472357626 0 0.030222884040616634 0.00017879352661825333 0 0.029608091060018951 0.0011921307472357626 0 0.030449505552886513 0.0011018771479229057 0 0.030308083915021419 0.00093361402201880923 0 0.029608091060018951 0.0011921307472357626 0 0.030526967023984729 0.0010592020954383551 0 0.03103171314054861 0.00099583914447642723 0 0.029526357444629975 0.0015523523250355643 0 0.029331734093489284 0.0019764638362451663 0 0.029608091060018951 0.0011921307472357626 0 0.030526967023984729 0.0010592020954383551 0 0.030449505552886513 0.0011018771479229057 0 0.030526967023984729 0.0010592020954383551 0 0.03103171314054861 0.00099583914447642723 0 0.030891234523417924 0.00084750406780029056 0 0.030526967023984729 0.0010592020954383551 0 0.030727040237054023 0.00092168818365564043 0 0.030449505552886513 0.0011018771479229057 0 0.030526967023984729 0.0010592020954383551 0 0.030727040237054023 0.00092168818365564043 0 0.030891234523417924 0.00084750406780029056 0 0.029608091060018951 0.0011921307472357626 0 0.028223889047275987 0.0038470722832785048 0 0.0271093803175135 0.0022934018036441278 0 0.028223889047275987 0.0038470722832785048 0 0.0271093803175135 0.0022934018036441278 0 0.026405927097957114 0.0039046587787975782 0 0.025079287977981375 0.00041470952493913044 0 0.025725684297977818 0.0014825064612084501 0 0.027106740083168782 -0.00018210454061689171 0 0.029608091060018951 0.0011921307472357626 0 0.0271093803175135 0.0022934018036441278 0 0.0271093803175135 0.0022934018036441278 0 0.02460243050384656 0.0018047346753747523 0 0.025558499451333424 0.0029996587182045797 0 0.025564628376544968 -0.00016470361056215548 0 0.0271093803175135 0.0022934018036441278 0 0.02460243050384656 0.0018047346753747523 0 0.02460243050384656 0.0018047346753747523 0 0.022680762862919208 0.0011569182104922359 0 0.023075425195575212 0.00255133100003543 0 0.02388469401973304 0.00062232786021238526 0 0.02460243050384656 0.0018047346753747523 0 0.022680762862919208 0.0011569182104922359 0 0.023075425195575212 0.00255133100003543 0 0.024476364520798405 0.0032163773181946541 0 0.023471824869738221 0.0039298881517190621 0 0.02460243050384656 0.0018047346753747523 0 0.023075425195575212 0.00255133100003543 0 0.024476364520798405 0.0032163773181946541 0 0.024476364520798405 0.0032163773181946541 0 0.0243359437690856 0.0040647230426128231 0 0.023471824869738221 0.0039298881517190621 0 0.022349912749355546 0.0034366022018712883 0 0.023075425195575212 0.00255133100003543 0 0.023471824869738221 0.0039298881517190621 0 0.0271093803175135 0.0022934018036441278 0 0.025558499451333424 0.0029996587182045797 0 0.026405927097957114 0.0039046587787975782 0 0.02460243050384656 0.0018047346753747523 0 0.024476364520798405 0.0032163773181946541 0 0.025558499451333424 0.0029996587182045797 0 0.024476364520798405 0.0032163773181946541 0 0.025558499451333424 0.0029996587182045797 0 0.025121939217488027 0.0042507493275083207 0 0.024476364520798405 0.0032163773181946541 0 0.0243359437690856 0.0040647230426128231 0 0.025121939217488027 0.0042507493275083207 0 0.025558499451333424 0.0029996587182045797 0 0.026405927097957114 0.0039046587787975782 0 0.025121939217488027 0.0042507493275083207 0 0.026405927097957114 0.0039046587787975782 0 0.025769845382281154 0.0048819299989216209 0 0.025121939217488027 0.0042507493275083207 0 0.026405927097957114 0.0039046587787975782 0 0.025769845382281154 0.0048819299989216209 0 0.026640769139455886 0.0051494371715996102 0 0.025121939217488027 0.0042507493275083207 0 0.025000610068458867 0.0052053921900577964 0 0.024140236188876861 0.004780686019896588 0 0.025769845382281154 0.0048819299989216209 0 0.025121939217488027 0.0042507493275083207 0 0.025000610068458867 0.0052053921900577964 0 0.025769845382281154 0.0048819299989216209 0 0.025000610068458867 0.0052053921900577964 0 0.025652170108498826 0.0056368972910042841 0 0.025000610068458867 0.0052053921900577964 0 0.024324375414983185 0.0056780671432277658 0 0.024986994143418199 0.0059845941901414575 0 0.025000610068458867 0.0052053921900577964 0 0.025652170108498826 0.0056368972910042841 0 0.024986994143418199 0.0059845941901414575 0 0.025769845382281154 0.0048819299989216209 0 0.025652170108498826 0.0056368972910042841 0 0.026640769139455886 0.0051494371715996102 0 0.025652170108498826 0.0056368972910042841 0 0.026160013597977923 0.0060805266449932473 0 0.026640769139455886 0.0051494371715996102 0 0.022599988764210439 0.0041822600927840809 0 0.023471824869738221 0.0039298881517190621 0 0.02309516082119115 0.0048422293541191073 0 0.023471824869738221 0.0039298881517190621 0 0.02309516082119115 0.0048422293541191073 0 0.024140236188876861 0.004780686019896588 0 0.0243359437690856 0.0040647230426128231 0 0.025121939217488027 0.0042507493275083207 0 0.024140236188876861 0.004780686019896588 0 0.0243359437690856 0.0040647230426128231 0 0.023471824869738221 0.0039298881517190621 0 0.024140236188876861 0.004780686019896588 0 0.024140236188876861 0.004780686019896588 0 0.024324375414983185 0.0056780671432277658 0 0.023645644212293117 0.005531143551876028 0 0.025000610068458867 0.0052053921900577964 0 0.024140236188876861 0.004780686019896588 0 0.024324375414983185 0.0056780671432277658 0 0.02309516082119115 0.0048422293541191073 0 0.024140236188876861 0.004780686019896588 0 0.023645644212293117 0.005531143551876028 0 0.022959435947867726 0.0056557867837505873 0 0.02309516082119115 0.0048422293541191073 0 0.023645644212293117 0.005531143551876028 0 0.024804633492423206 0.0020095467332066699 0 0.027803808883814483 0.0016484257492719596 0 0.022590331078253999 0.0068443653364701719 0 0.024363565803673184 0.0070175475939790125 0 0.023732340821280427 0.0067130745607953375 0 0.025152198179619761 0.00017407759218776578 0 0.024932097164314951 0.00011584159064689198 0 0.025106284837528192 0.00011777101306731514 0 0.022590331078253999 0.0068443653364701719 0 0.024363565803673184 0.0070175475939790125 0 0.025377879216758124 0.0077547422754777537 0 0.023201781808680551 0.0064604269852294623 0 0.023400791847606951 0.0060474201876601777 0 0.023672981981570043 0.0063917364077156445 0 0.022989814753259272 0.0061332330458412233 0 0.023201781808680551 0.0064604269852294623 0 0.023400791847606951 0.0060474201876601777 0 0.022989814753259272 0.0061332330458412233 0 0.022959435947867726 0.0056557867837505873 0 0.023400791847606951 0.0060474201876601777 0 0.022959435947867726 0.0056557867837505873 0 0.023645644212293117 0.005531143551876028 0 0.023400791847606951 0.0060474201876601777 0 0.023645644212293117 0.005531143551876028 0 0.023400791847606951 0.0060474201876601777 0 0.023937036500420936 0.0061173917372255747 0 0.023201781808680551 0.0064604269852294623 0 0.023672981981570043 0.0063917364077156445 0 0.023732340821280427 0.0067130745607953375 0 0.023400791847606951 0.0060474201876601777 0 0.023672981981570043 0.0063917364077156445 0 0.023937036500420936 0.0061173917372255747 0 0.023672981981570043 0.0063917364077156445 0 0.02399575672471958 0.0064754674675448209 0 0.023732340821280427 0.0067130745607953375 0 0.02399575672471958 0.0064754674675448209 0 0.023937036500420936 0.0061173917372255747 0 0.024406185204052307 0.0064430623373930348 0 0.02399575672471958 0.0064754674675448209 0 0.024406185204052307 0.0064430623373930348 0 0.024231321285154636 0.0067125056257013723 0 0.023672981981570043 0.0063917364077156445 0 0.02399575672471958 0.0064754674675448209 0 0.023937036500420936 0.0061173917372255747 0 0.024324375414983185 0.0056780671432277658 0 0.023645644212293117 0.005531143551876028 0 0.023937036500420936 0.0061173917372255747 0 0.024324375414983185 0.0056780671432277658 0 0.023937036500420936 0.0061173917372255747 0 0.024406185204052307 0.0064430623373930348 0 0.024324375414983185 0.0056780671432277658 0 0.024406185204052307 0.0064430623373930348 0 0.024986994143418199 0.0059845941901414575 0 0.024574456752257508 0.006776318953410884 0 0.024363565803673184 0.0070175475939790125 0 0.024837912779080207 0.0069368283210972798 0 0.024406185204052307 0.0064430623373930348 0 0.024574456752257508 0.006776318953410884 0 0.025015015357084221 0.0066496450259269394 0 0.024406185204052307 0.0064430623373930348 0 0.024574456752257508 0.006776318953410884 0 0.024231321285154636 0.0067125056257013723 0 0.024574456752257508 0.006776318953410884 0 0.024363565803673184 0.0070175475939790125 0 0.024231321285154636 0.0067125056257013723 0 0.024363565803673184 0.0070175475939790125 0 0.024231321285154636 0.0067125056257013723 0 0.023732340821280427 0.0067130745607953375 0 0.02399575672471958 0.0064754674675448209 0 0.024231321285154636 0.0067125056257013723 0 0.023732340821280427 0.0067130745607953375 0 0.022590331078253999 0.0068443653364701719 0 0.023201781808680551 0.0064604269852294623 0 0.023732340821280427 0.0067130745607953375 0 0.026084182489479128 0.0067553277852974341 0 0.026928975395768068 0.0060096283495257126 0 0.026131383519844117 0.0079522082299915108 0 0.026160013597977923 0.0060805266449932473 0 0.026084182489479128 0.0067553277852974341 0 0.026928975395768068 0.0060096283495257126 0 0.02552741791018636 0.0063346163971938407 0 0.025476592379245194 0.0068467871040420319 0 0.026084182489479128 0.0067553277852974341 0 0.026160013597977923 0.0060805266449932473 0 0.02552741791018636 0.0063346163971938407 0 0.026084182489479128 0.0067553277852974341 0 0.025652170108498826 0.0056368972910042841 0 0.026160013597977923 0.0060805266449932473 0 0.02552741791018636 0.0063346163971938407 0 0.025652170108498826 0.0056368972910042841 0 0.024986994143418199 0.0059845941901414575 0 0.02552741791018636 0.0063346163971938407 0 0.024406185204052307 0.0064430623373930348 0 0.024986994143418199 0.0059845941901414575 0 0.025015015357084221 0.0066496450259269394 0 0.024986994143418199 0.0059845941901414575 0 0.02552741791018636 0.0063346163971938407 0 0.025015015357084221 0.0066496450259269394 0 0.02552741791018636 0.0063346163971938407 0 0.025476592379245194 0.0068467871040420319 0 0.025015015357084221 0.0066496450259269394 0 0.025476592379245194 0.0068467871040420319 0 0.025159677205092736 0.0069589524525000418 0 0.025015015357084221 0.0066496450259269394 0 0.024363565803673184 0.0070175475939790125 0 0.025092120273038192 0.007254599157570497 0 0.025377879216758124 0.0077547422754777537 0 0.025476592379245194 0.0068467871040420319 0 0.025159677205092736 0.0069589524525000418 0 0.02540187589436636 0.0071874578353811691 0 0.024574456752257508 0.006776318953410884 0 0.025015015357084221 0.0066496450259269394 0 0.024837912779080207 0.0069368283210972798 0 0.025159677205092736 0.0069589524525000418 0 0.025015015357084221 0.0066496450259269394 0 0.024837912779080207 0.0069368283210972798 0 0.024363565803673184 0.0070175475939790125 0 0.024837912779080207 0.0069368283210972798 0 0.025092120273038192 0.007254599157570497 0 0.025159677205092736 0.0069589524525000418 0 0.024837912779080207 0.0069368283210972798 0 0.025092120273038192 0.007254599157570497 0 0.025476592379245194 0.0068467871040420319 0 0.02540187589436636 0.0071874578353811691 0 0.025693227203984925 0.0072928111428366867 0 0.025092120273038192 0.007254599157570497 0 0.02540187589436636 0.0071874578353811691 0 0.025377879216758124 0.0077547422754777537 0 0.02540187589436636 0.0071874578353811691 0 0.025693227203984925 0.0072928111428366867 0 0.025377879216758124 0.0077547422754777537 0 0.025159677205092736 0.0069589524525000418 0 0.025092120273038192 0.007254599157570497 0 0.02540187589436636 0.0071874578353811691 0 0.025693227203984925 0.0072928111428366867 0 0.026084182489479128 0.0067553277852974341 0 0.026131383519844117 0.0079522082299915108 0 0.025476592379245194 0.0068467871040420319 0 0.025693227203984925 0.0072928111428366867 0 0.026084182489479128 0.0067553277852974341 0 0.028978281169546989 0.0023613879957214918 0 0.028428434081022771 0.0018074643511594084 0 0.031564222535904421 0.00046844075644477865 0 0.031566827357892333 0.000334962185785677 0 0.031207024710687599 0.00062967582656548609 0 0.028978281169546989 0.0023613879957214918 0 0.030064710807619004 0.0014988677506956704 0 0.031564222535904421 0.00046844075644477865 0 0.031566827357892333 0.000334962185785677 0 0.031709883047695897 0.00017778701967361603 0 0.031207024710687599 0.00062967582656548609 0 0.031401478892876013 0.0001348367836744876 0 0.031227102204575755 0.00030847334498491382 0 0.031566827357892333 0.000334962185785677 0 0.031207024710687599 0.00062967582656548609 0 0.031797536764394077 0.00014647512794331135 0 0.031207024710687599 0.00062967582656548609 0 0.031227102204575755 0.00030847334498491382 0 0.031076793516054697 0.0005075456922467715 0 0.031765789192370393 0.00033777176722966218 0 0.03187871275710262 0.00014892988369578816 0 0.031207024710687599 0.00062967582656548609 0 0.030945455929233565 0.00072622377312763409 0 0.031076793516054697 0.0005075456922467715 0 0.030727040237054023 0.00092168818365564043 0 0.030945455929233565 0.00072622377312763409 0 0.030891234523417924 0.00084750406780029056 0 0.03103171314054861 0.00099583914447642723 0 0.031207024710687599 0.00062967582656548609 0 0.030891234523417924 0.00084750406780029056 0 0.031207024710687599 0.00062967582656548609 0 0.030945455929233565 0.00072622377312763409 0 0.030891234523417924 0.00084750406780029056 0 0.029331734093489284 0.0019764638362451663 0 0.028978281169546989 0.0023613879957214918 0 0.03103171314054861 0.00099583914447642723 0 0.031564222535904421 0.00046844075644477865 0 0.031207024710687599 0.00062967582656548609 0 0.028223889047275987 0.0038470722832785048 0 0.027033683671930295 0.0061937106621974929 0 0.026640769139455886 0.0051494371715996102 0 0.028223889047275987 0.0038470722832785048 0 0.026405927097957114 0.0039046587787975782 0 0.026640769139455886 0.0051494371715996102 0 0.026160013597977923 0.0060805266449932473 0 0.026928975395768068 0.0060096283495257126 0 0.026640769139455886 0.0051494371715996102 0 0.028978281169546989 0.0023613879957214918 0 0.02897169024482325 0.0026658598274973367 0 0.030056655220917026 0.0013411491655257479 0 0.030017369918354939 0.0014275317321878484 0 0.029969386901945252 0.0012921139657856165 0 0.030056655220917026 0.0013411491655257479 0 0.030027778868428865 0.0012826921419828855 0 0.029969386901945252 0.0012921139657856165 0 0.030056655220917026 0.0013411491655257479 0 0.030017369918354939 0.0014275317321878484 0 0.030065883642779383 0.0013937251943298044 0 0.030056655220917026 0.0013411491655257479 0 0.030065883642779383 0.0013937251943298044 0 0.030102550734139071 0.0013688948260851908 0 0.030056655220917026 0.0013411491655257479 0 0.03011016448083868 0.0013174799613023555 0 0.03008906529791756 0.0012821561233715159 0 0.030056655220917026 0.0013411491655257479 0 0.030027778868428865 0.0012826921419828855 0 0.03008906529791756 0.0012821561233715159 0 0.030056655220917026 0.0013411491655257479 0 0.030102550734139071 0.0013688948260851908 0 0.03011016448083868 0.0013174799613023555 0 0.031939153900169305 9.321069901560363e-05 0 0.031797536764394077 0.00014647512794331135 0 0.032401810335531647 -0.00010876511430872041 0 0.030064710807619004 0.0014988677506956704 0 0.031594515297114531 0.00096949411034138848 0 0.031939153900169305 9.321069901560363e-05 0 0.032260231281095793 -8.0930917992682696e-05 0 0.032401810335531647 -0.00010876511430872041 0 0.031939153900169305 9.321069901560363e-05 0 0.032019331756990815 0.00012500579210575507 0 0.032260231281095793 -8.0930917992682696e-05 0 0.03187871275710262 0.00014892988369578816 0 0.032190887472793035 -7.6512342907597501e-05 0 0.031939153900169305 9.321069901560363e-05 0 0.031797536764394077 0.00014647512794331135 0 0.031709883047695897 0.00017778701967361603 0 0.030328358444092231 0.0014759148549887363 0 0.030064710807619004 0.0014988677506956704 0 0.031401478892876013 0.0001348367836744876 0 0.031227102204575755 0.00030847334498491382 0 0.031319412970204061 0.00012670113274315339 0 0.031566827357892333 0.000334962185785677 0 0.031797536764394077 0.00014647512794331135 0 0.031709883047695897 0.00017778701967361603 0 0.029373194794101588 0.0019067362719974422 0 0.029150588962838057 0.001331320177737893 0 0.029556600986967229 0.0014504750138497659 0 0.030017369918354939 0.0014275317321878484 0 0.030065883642779383 0.0013937251943298044 0 0.030111117830871632 0.0014553497110129704 0 0.030064710807619004 0.0014988677506956704 0 0.028428434081022771 0.0018074643511594084 0 0.030065883642779383 0.0013937251943298044 0 0.030111117830871632 0.0014553497110129704 0 0.030102550734139071 0.0013688948260851908 0 0.030071540186806956 0.0015269110328603416 0 0.030134563524615725 0.0015443648929347506 0 0.030165968105748602 0.001326748334358842 0 0.027803808883814483 0.0016484257492719596 0 0.029034221483615629 0.0011055583881533987 0 0.028428434081022771 0.0018074643511594084 0 0.027803808883814483 0.0016484257492719596 0 0.025693227203984925 0.0072928111428366867 0 0.026131383519844117 0.0079522082299915108 0 0.025377879216758124 0.0077547422754777537 0 0.024932097164314951 0.00011584159064689198 0 0.025106284837528192 0.00011777101306731514 0 0.02504654384459672 3.5459129240547586e-05 0 0.024932097164314951 0.00011584159064689198 0 0.02504654384459672 3.5459129240547586e-05 0 0.025023926006293194 -0.00012147652955698396 0 0.025106284837528192 0.00011777101306731514 0 0.02504654384459672 3.5459129240547586e-05 0 0.025120907974936258 2.0175974687044473e-05 0 0.02504654384459672 3.5459129240547586e-05 0 0.025023926006293194 -0.00012147652955698396 0 0.025120907974936258 2.0175974687044473e-05 0 0.025023926006293194 -0.00012147652955698396 0 0.025207756841109472 -5.9134738492483847e-05 0 0.025120907974936258 2.0175974687044473e-05 0 0.028428434081022771 0.0018074643511594084 0 0.028934306834646838 0.0013536142508643757 0 0.030111117830871632 0.0014553497110129704 0 0.030102550734139071 0.0013688948260851908 0 0.030165968105748602 0.001326748334358842 0 0.030134563524615725 0.0015443648929347506 0 0.030232209884168432 0.001325610727576315 0 0.030165968105748602 0.001326748334358842 0 0.030232209884168432 0.001325610727576315 0 0.030165968105748602 0.001326748334358842 0 0.030166382122900435 0.0012682561921124964 0 0.030165968105748602 0.001326748334358842 0 0.03011016448083868 0.0013174799613023555 0 0.030166382122900435 0.0012682561921124964 0 0.030102550734139071 0.0013688948260851908 0 0.030165968105748602 0.001326748334358842 0 0.03011016448083868 0.0013174799613023555 0 0.03011016448083868 0.0013174799613023555 0 0.030166382122900435 0.0012682561921124964 0 0.03008906529791756 0.0012821561233715159 0 0.030166382122900435 0.0012682561921124964 0 0.030303351562731042 0.0011554830499128192 0 0.030115110823020021 0.0012011192103921482 0 0.030166382122900435 0.0012682561921124964 0 0.030115110823020021 0.0012011192103921482 0 0.03008906529791756 0.0012821561233715159 0 0.030232209884168432 0.001325610727576315 0 0.030166382122900435 0.0012682561921124964 0 0.030303351562731042 0.0011554830499128192 0 0.025023926006293194 -0.00012147652955698396 0 0.025129303690318461 -0.000359759298718025 0 0.025216435610782267 -0.00023058642729025325 0 0.029034221483615629 0.0011055583881533987 0 0.031310186041687865 0.00061937755842132942 0 0.031310186041687865 0.00061937755842132942 0 0.03234763070490565 0.00070351334341559101 0 0.034974719891002717 5.5480944358625283e-06 0 0.034976203703398157 6.0732646388693173e-06 0 0.034981054084123948 3.7110623693613278e-06 0 0.034976203703398157 6.0732646388693173e-06 0 0.034978155625174312 4.8258754489355501e-06 0 0.034981054084123948 3.7110623693613278e-06 0 0.034976203703398157 6.0732646388693173e-06 0 0.034978155625174312 4.8258754489355501e-06 0 0.034973116542104256 7.6772891485165294e-06 0 0.034978155625174312 4.8258754489355501e-06 0 0.034980115951818012 3.9530020339735858e-06 0 0.034982290791142859 3.3242670230815731e-06 0 0.030115110823020021 0.0012011192103921482 0 0.030027778868428865 0.0012826921419828855 0 0.029951212215728409 0.0012414044119455955 0 0.03234763070490565 0.00070351334341559101 0 0.032301542079070343 0.0010472416715821985 0 0.030115110823020021 0.0012011192103921482 0 0.030027778868428865 0.0012826921419828855 0 0.03008906529791756 0.0012821561233715159 0 0.032260231281095793 -8.0930917992682696e-05 0 0.032419216906941759 -4.7730875805698762e-05 0 0.032401810335531647 -0.00010876511430872041 0 0.031594515297114531 0.00096949411034138848 0 0.032301542079070343 0.0010472416715821985 0 0.030027778868428865 0.0012826921419828855 0 0.029969386901945252 0.0012921139657856165 0 0.029951212215728409 0.0012414044119455955 0 0.034976402494350849 5.0439508668843191e-06 0 0.034981756675175786 -5.0579800209855201e-07 0 0.034975540152058671 4.05222775735667e-06 0 0.034973116542104256 7.6772891485165294e-06 0 0.034976402494350849 5.0439508668843191e-06 0 0.034975540152058671 4.05222775735667e-06 0 0.034978155625174312 4.8258754489355501e-06 0 0.034973116542104256 7.6772891485165294e-06 0 0.034976402494350849 5.0439508668843191e-06 0 0.032301542079070343 0.0010472416715821985 0 0.032936650010723739 0.00051400392349807453 0 0.034976402494350849 5.0439508668843191e-06 0 0.034980115951818012 3.9530020339735858e-06 0 0.034982862028736891 3.1075585658015473e-06 0 0.034978155625174312 4.8258754489355501e-06 0 0.034976402494350849 5.0439508668843191e-06 0 0.034980115951818012 3.9530020339735858e-06 0 0.034986973886318322 2.1283986859448492e-06 0 0.034988976871014321 9.8360244045007705e-07 0 0.034976402494350849 5.0439508668843191e-06 0 0.034982862028736891 3.1075585658015473e-06 0 0.034985983733733489 2.3158833916717375e-06 0 0.034980115951818012 3.9530020339735858e-06 0 0.034982862028736891 3.1075585658015473e-06 0 0.034982290791142859 3.3242670230815731e-06 0 0.034982862028736891 3.1075585658015473e-06 0 0.034982290791142859 3.3242670230815731e-06 0 0.034986155384621735 2.3655928414657398e-06 0 0.034982862028736891 3.1075585658015473e-06 0 0.034985983733733489 2.3158833916717375e-06 0 0.034986155384621735 2.3655928414657398e-06 0 0.034982290791142859 3.3242670230815731e-06 0 0.034985591017018938 2.4533101615510676e-06 0 0.034981054084123948 3.7110623693613278e-06 0 0.034978155625174312 4.8258754489355501e-06 0 0.034982290791142859 3.3242670230815731e-06 0 0.034981054084123948 3.7110623693613278e-06 0 0.034982290791142859 3.3242670230815731e-06 0 0.034985591017018938 2.4533101615510676e-06 0 0.034986155384621735 2.3655928414657398e-06 0 0.034985591017018938 2.4533101615510676e-06 0 0.034989581605145391 1.749717227074655e-06 0 0.034987432729337437 1.8264336457699438e-06 0 0.034985591017018938 2.4533101615510676e-06 0 0.034989581605145391 1.749717227074655e-06 0 0.034986155384621735 2.3655928414657398e-06 0 0.034985983733733489 2.3158833916717375e-06 0 0.034990100185272051 1.7261123790207783e-06 0 0.034993797797589828 1.2176015699865741e-06 0 0.034985983733733489 2.3158833916717375e-06 0 0.034986155384621735 2.3655928414657398e-06 0 0.034990100185272051 1.7261123790207783e-06 0 0.034989581605145391 1.749717227074655e-06 0 0.034986155384621735 2.3655928414657398e-06 0 0.034990100185272051 1.7261123790207783e-06 0 0.034989581605145391 1.749717227074655e-06 0 0.034990100185272051 1.7261123790207783e-06 0 0.03499515800182796 9.868126203160505e-07 0 0.034990100185272051 1.7261123790207783e-06 0 0.03499515800182796 9.868126203160505e-07 0 0.034993797797589828 1.2176015699865741e-06 0 0.034989581605145391 1.749717227074655e-06 0 0.03499515800182796 9.868126203160505e-07 0 0.034994023368999733 9.7360732225174832e-07 0 0.034989581605145391 1.749717227074655e-06 0 0.034994023368999733 9.7360732225174832e-07 0 0.034987432729337437 1.8264336457699438e-06 0 0.034999990604823977 1.243282564763251e-09 0 0.034999992991265681 -1.7098477742244153e-10 0 0.034994023368999733 9.7360732225174832e-07 0 0.03499515800182796 9.868126203160505e-07 0 0.034999990604823977 1.243282564763251e-09 0 0.034994023368999733 9.7360732225174832e-07 0 0.03499515800182796 9.868126203160505e-07 0 0.034999990604823977 1.243282564763251e-09 0 0.034999995024352915 7.0574423764235043e-10 0 0.034999992991265681 -1.7098477742244153e-10 0 0.034991026135437718 7.2250719551522941e-07 0 0.03499998154054914 4.5749422749893639e-09 0 0.034999992991265681 -1.7098477742244153e-10 0 0.034994023368999733 9.7360732225174832e-07 0 0.034991026135437718 7.2250719551522941e-07 0 0.034994023368999733 9.7360732225174832e-07 0 0.034991026135437718 7.2250719551522941e-07 0 0.034987432729337437 1.8264336457699438e-06 0 0.034991026135437718 7.2250719551522941e-07 0 0.034983279636896701 2.0326158754491158e-06 0 0.034982467431243947 4.2232478640803788e-07 0 0.034991026135437718 7.2250719551522941e-07 0 0.034987432729337437 1.8264336457699438e-06 0 0.034983279636896701 2.0326158754491158e-06 0 0.034987432729337437 1.8264336457699438e-06 0 0.034981054084123948 3.7110623693613278e-06 0 0.034983279636896701 2.0326158754491158e-06 0 0.034985591017018938 2.4533101615510676e-06 0 0.034987432729337437 1.8264336457699438e-06 0 0.034981054084123948 3.7110623693613278e-06 0 0.034974719891002717 5.5480944358625283e-06 0 0.034981054084123948 3.7110623693613278e-06 0 0.034983279636896701 2.0326158754491158e-06 0 0.034893069213656716 6.5869524266613347e-05 0 0.034932584439051666 1.8804393775615551e-05 0 0.034946704262184242 4.8159496407261418e-05 0 0.034974719891002717 5.5480944358625283e-06 0 0.034983279636896701 2.0326158754491158e-06 0 0.034982467431243947 4.2232478640803788e-07 0 0.031310186041687865 0.00061937755842132942 0 0.033408864707127048 -0.00030584544758647397 0 0.034932584439051666 1.8804393775615551e-05 0 0.034970450069795531 1.2999625485743631e-05 0 0.034946704262184242 4.8159496407261418e-05 0 0.033408864707127048 -0.00030584544758647397 0 0.033884992965907704 -0.00034752899955353765 0 0.034932584439051666 1.8804393775615551e-05 0 0.03498318128216172 -1.7222120713283965e-07 0 0.034970450069795531 1.2999625485743631e-05 0 0.034991026135437718 7.2250719551522941e-07 0 0.034982467431243947 4.2232478640803788e-07 0 0.03498318128216172 -1.7222120713283965e-07 0 0.03498318128216172 -1.7222120713283965e-07 0 0.03499998154054914 4.5749422749893639e-09 0 0.03499997752383651 -1.4302538444178666e-09 0 0.034991026135437718 7.2250719551522941e-07 0 0.03498318128216172 -1.7222120713283965e-07 0 0.03499998154054914 4.5749422749893639e-09 0 0.03499997752383651 -1.4302538444178666e-09 0 0.034988488089152739 1.7534771140954918e-06 0 0.034999987138911393 1.517039248329007e-09 0 0.03498318128216172 -1.7222120713283965e-07 0 0.03499997752383651 -1.4302538444178666e-09 0 0.034988488089152739 1.7534771140954918e-06 0 0.034988488089152739 1.7534771140954918e-06 0 0.034984334859927427 6.5379896560694411e-06 0 0.034970450069795531 1.2999625485743631e-05 0 0.03498318128216172 -1.7222120713283965e-07 0 0.034988488089152739 1.7534771140954918e-06 0 0.034970450069795531 1.2999625485743631e-05 0 0.034988488089152739 1.7534771140954918e-06 0 0.034984334859927427 6.5379896560694411e-06 0 0.034999987138911393 1.517039248329007e-09 0 0.034984334859927427 6.5379896560694411e-06 0 0.034971149950903911 2.6962059216826284e-05 0 0.034982287033252894 1.0723617194795906e-05 0 0.034984334859927427 6.5379896560694411e-06 0 0.034970450069795531 1.2999625485743631e-05 0 0.034971149950903911 2.6962059216826284e-05 0 0.034970450069795531 1.2999625485743631e-05 0 0.034971149950903911 2.6962059216826284e-05 0 0.034946704262184242 4.8159496407261418e-05 0 0.025583249584899315 -0.00049375536393427379 0 0.025532756985656182 -0.00028119883083622629 0 0.025726847375205343 -0.00036222957559812216 0 0.025664695104245024 -0.00016367088787211636 0 0.025804764943678588 -6.7268652998542697e-05 0 0.025532756985656182 -0.00028119883083622629 0 0.025540982560108803 -0.0001255778350157349 0 0.025807372317837002 -0.00010995975221613219 0 0.025532756985656182 -0.00028119883083622629 0 0.025354608146822406 -0.00019114796227069573 0 0.025540982560108803 -0.0001255778350157349 0 0.025532756985656182 -0.00028119883083622629 0 0.025363564281538804 -0.00041730633639299142 0 0.025354608146822406 -0.00019114796227069573 0 0.025583249584899315 -0.00049375536393427379 0 0.025532756985656182 -0.00028119883083622629 0 0.025363564281538804 -0.00041730633639299142 0 0.030305882153511904 -0.00012901922860355641 0 0.030415282793230729 0.00018132119116489516 0 0.031310186041687865 0.00061937755842132942 0 0.030415282793230729 0.00018132119116489516 0 0.025129303690318461 -0.000359759298718025 0 0.025363564281538804 -0.00041730633639299142 0 0.025216435610782267 -0.00023058642729025325 0 0.025363564281538804 -0.00041730633639299142 0 0.025216435610782267 -0.00023058642729025325 0 0.025354608146822406 -0.00019114796227069573 0 0.025354608146822406 -0.00019114796227069573 0 0.025324640739611246 -4.2805075637052686e-05 0 0.02543893935329803 -2.8238536306706855e-05 0 0.025354608146822406 -0.00019114796227069573 0 0.025324640739611246 -4.2805075637052686e-05 0 0.025207756841109472 -5.9134738492483847e-05 0 0.025324640739611246 -4.2805075637052686e-05 0 0.025207756841109472 -5.9134738492483847e-05 0 0.025264674705041283 5.5783222150517658e-05 0 0.025324640739611246 -4.2805075637052686e-05 0 0.025352995568233096 2.8932650729516695e-05 0 0.02543893935329803 -2.8238536306706855e-05 0 0.025216435610782267 -0.00023058642729025325 0 0.025354608146822406 -0.00019114796227069573 0 0.025207756841109472 -5.9134738492483847e-05 0 0.025023926006293194 -0.00012147652955698396 0 0.025216435610782267 -0.00023058642729025325 0 0.025207756841109472 -5.9134738492483847e-05 0 0.025207756841109472 -5.9134738492483847e-05 0 0.025120907974936258 2.0175974687044473e-05 0 0.025188755799474015 4.5218296834578984e-05 0 0.025120907974936258 2.0175974687044473e-05 0 0.025188755799474015 4.5218296834578984e-05 0 0.025152889818339474 9.8531697062096123e-05 0 0.025207756841109472 -5.9134738492483847e-05 0 0.025188755799474015 4.5218296834578984e-05 0 0.025264674705041283 5.5783222150517658e-05 0 0.025188755799474015 4.5218296834578984e-05 0 0.025202569040896107 0.00010708616161466216 0 0.025264674705041283 5.5783222150517658e-05 0 0.025249763730897955 0.00013266618282955074 0 0.025202569040896107 0.00010708616161466216 0 0.025264674705041283 5.5783222150517658e-05 0 0.025249763730897955 0.00013266618282955074 0 0.025220131337151529 0.00013948138037426667 0 0.025202569040896107 0.00010708616161466216 0 0.025166588261132189 0.00015284617448557279 0 0.025220131337151529 0.00013948138037426667 0 0.025202569040896107 0.00010708616161466216 0 0.025106284837528192 0.00011777101306731514 0 0.025120907974936258 2.0175974687044473e-05 0 0.025152889818339474 9.8531697062096123e-05 0 0.025188755799474015 4.5218296834578984e-05 0 0.025202569040896107 0.00010708616161466216 0 0.025152889818339474 9.8531697062096123e-05 0 0.025166588261132189 0.00015284617448557279 0 0.025202569040896107 0.00010708616161466216 0 0.025152889818339474 9.8531697062096123e-05 0 0.025144406684003695 0.00013709851431616387 0 0.025166588261132189 0.00015284617448557279 0 0.025152889818339474 9.8531697062096123e-05 0 0.025144406684003695 0.00013709851431616387 0 0.025106284837528192 0.00011777101306731514 0 0.025152889818339474 9.8531697062096123e-05 0 0.025352995568233096 2.8932650729516695e-05 0 0.025329373700725178 9.5661561074358921e-05 0 0.025407686488110759 6.4526986323518599e-05 0 0.025324640739611246 -4.2805075637052686e-05 0 0.025352995568233096 2.8932650729516695e-05 0 0.025264674705041283 5.5783222150517658e-05 0 0.025352995568233096 2.8932650729516695e-05 0 0.025264674705041283 5.5783222150517658e-05 0 0.025329373700725178 9.5661561074358921e-05 0 0.025249763730897955 0.00013266618282955074 0 0.025264674705041283 5.5783222150517658e-05 0 0.025284806545130878 0.00010430003583637769 0 0.025264674705041283 5.5783222150517658e-05 0 0.025284806545130878 0.00010430003583637769 0 0.025329373700725178 9.5661561074358921e-05 0 0.025249763730897955 0.00013266618282955074 0 0.025284806545130878 0.00010430003583637769 0 0.02529847216337169 0.00013817297470357457 0 0.025284806545130878 0.00010430003583637769 0 0.02529847216337169 0.00013817297470357457 0 0.025329373700725178 9.5661561074358921e-05 0 0.025347031554100143 0.00015420038780743155 0 0.025329373700725178 9.5661561074358921e-05 0 0.025379552457438406 0.00012460933782794585 0 0.025329373700725178 9.5661561074358921e-05 0 0.025379552457438406 0.00012460933782794585 0 0.025407686488110759 6.4526986323518599e-05 0 0.025347031554100143 0.00015420038780743155 0 0.02529847216337169 0.00013817297470357457 0 0.025329373700725178 9.5661561074358921e-05 0 0.025505480554343752 8.3788312368134198e-05 0 0.025606835790638553 -9.6629519128004323e-06 0 0.02543893935329803 -2.8238536306706855e-05 0 0.025428742476497426 0.00014348411328103029 0 0.025379552457438406 0.00012460933782794585 0 0.025407686488110759 6.4526986323518599e-05 0 0.025428742476497426 0.00014348411328103029 0 0.025407686488110759 6.4526986323518599e-05 0 0.025505480554343752 8.3788312368134198e-05 0 0.025407686488110759 6.4526986323518599e-05 0 0.025505480554343752 8.3788312368134198e-05 0 0.02543893935329803 -2.8238536306706855e-05 0 0.025352995568233096 2.8932650729516695e-05 0 0.025407686488110759 6.4526986323518599e-05 0 0.02543893935329803 -2.8238536306706855e-05 0 0.025504184678031824 0.00017058538989523335 0 0.025428742476497426 0.00014348411328103029 0 0.025505480554343752 8.3788312368134198e-05 0 0.025645770209925586 0.00015531550235172925 0 0.025505480554343752 8.3788312368134198e-05 0 0.025606835790638553 -9.6629519128004323e-06 0 0.025645770209925586 0.00015531550235172925 0 0.025606835790638553 -9.6629519128004323e-06 0 0.025807372317837002 -0.00010995975221613219 0 0.025645770209925586 0.00015531550235172925 0 0.025504184678031824 0.00017058538989523335 0 0.025505480554343752 8.3788312368134198e-05 0 0.025606835790638553 -9.6629519128004323e-06 0 0.025540982560108803 -0.0001255778350157349 0 0.025807372317837002 -0.00010995975221613219 0 0.025606835790638553 -9.6629519128004323e-06 0 0.025540982560108803 -0.0001255778350157349 0 0.02543893935329803 -2.8238536306706855e-05 0 0.025354608146822406 -0.00019114796227069573 0 0.025540982560108803 -0.0001255778350157349 0 0.02543893935329803 -2.8238536306706855e-05 0 0.025804764943678588 -6.7268652998542697e-05 0 0.02603915780222138 9.5338253428762365e-05 0 0.025739138842334062 -8.6089953914070383e-05 0 0.026084967460057444 0.00019380515422876137 0 0.025962175487228303 -0.00025574736510660008 0 0.025893623743871524 0.00017019129615488887 0 0.025645770209925586 0.00015531550235172925 0 0.025807372317837002 -0.00010995975221613219 0 0.025893623743871524 0.00017019129615488887 0 0.025807372317837002 -0.00010995975221613219 0 0.026057583748583333 6.515040221448234e-05 0 0.026166993219276607 0.00018311412728111234 0 0.02603915780222138 9.5338253428762365e-05 0 0.026297714460853504 0.00029387542079263509 0 0.026084967460057444 0.00019380515422876137 0 0.026310740510686118 0.00017725941627258073 0 0.026310740510686118 0.00017725941627258073 0 0.026226892470703891 -3.6606044569273641e-05 0 0.026435454945828565 7.9062612012105107e-05 0 0.026226892470703891 -3.6606044569273641e-05 0 0.026385516548041867 -0.00016397279898037759 0 0.026435454945828565 7.9062612012105107e-05 0 0.026084967460057444 0.00019380515422876137 0 0.026310740510686118 0.00017725941627258073 0 0.026226892470703891 -3.6606044569273641e-05 0 0.026084967460057444 0.00019380515422876137 0 0.026226892470703891 -3.6606044569273641e-05 0 0.025962175487228303 -0.00025574736510660008 0 0.026226892470703891 -3.6606044569273641e-05 0 0.026225481447890237 -0.0003635179492601831 0 0.025962175487228303 -0.00025574736510660008 0 0.026226892470703891 -3.6606044569273641e-05 0 0.026385516548041867 -0.00016397279898037759 0 0.026225481447890237 -0.0003635179492601831 0 0.026385516548041867 -0.00016397279898037759 0 0.026225481447890237 -0.0003635179492601831 0 0.026525743489852861 -0.00038948639692100185 0 0.026225481447890237 -0.0003635179492601831 0 0.026463749543269761 -0.00071527410224318821 0 0.026525743489852861 -0.00038948639692100185 0 0.026225481447890237 -0.0003635179492601831 0 0.026463749543269761 -0.00071527410224318821 0 0.026182861496182208 -0.00065621994930573297 0 0.026225481447890237 -0.0003635179492601831 0 0.02603575721912223 -0.00046666922726093654 0 0.025962175487228303 -0.00025574736510660008 0 0.026225481447890237 -0.0003635179492601831 0 0.02603575721912223 -0.00046666922726093654 0 0.026182861496182208 -0.00065621994930573297 0 0.02603575721912223 -0.00046666922726093654 0 0.026182861496182208 -0.00065621994930573297 0 0.025980969234951228 -0.00063256398744468932 0 0.025901466935782706 -0.00046944694268523265 0 0.025726847375205343 -0.00036222957559812216 0 0.02583724026688141 -0.00062736598229227796 0 0.025901466935782706 -0.00046944694268523265 0 0.025962175487228303 -0.00025574736510660008 0 0.025726847375205343 -0.00036222957559812216 0 0.02603575721912223 -0.00046666922726093654 0 0.025901466935782706 -0.00046944694268523265 0 0.025980969234951228 -0.00063256398744468932 0 0.02603575721912223 -0.00046666922726093654 0 0.025901466935782706 -0.00046944694268523265 0 0.025962175487228303 -0.00025574736510660008 0 0.025532756985656182 -0.00028119883083622629 0 0.025739138842334062 -8.6089953914070383e-05 0 0.025726847375205343 -0.00036222957559812216 0 0.025739138842334062 -8.6089953914070383e-05 0 0.025962175487228303 -0.00025574736510660008 0 0.025726847375205343 -0.00036222957559812216 0 0.025583249584899315 -0.00049375536393427379 0 0.025726847375205343 -0.00036222957559812216 0 0.02583724026688141 -0.00062736598229227796 0 0.030305882153511904 -0.00012901922860355641 0 0.030196611282399546 -0.00036357324462783016 0 0.034971149950903911 2.6962059216826284e-05 0 0.034975835570640101 1.3080612353913136e-05 0 0.034982287033252894 1.0723617194795906e-05 0 0.034975835570640101 1.3080612353913136e-05 0 0.034981519801493666 7.4421607653843941e-06 0 0.034974057102133888 5.3053964323408823e-06 0 0.030196611282399546 -0.00036357324462783016 0 0.029237995720870984 -0.00050017651543856636 0 0.025901466935782706 -0.00046944694268523265 0 0.02583724026688141 -0.00062736598229227796 0 0.025980969234951228 -0.00063256398744468932 0 0.034975835570640101 1.3080612353913136e-05 0 0.034981519801493666 7.4421607653843941e-06 0 0.034982287033252894 1.0723617194795906e-05 0 0.034981519801493666 7.4421607653843941e-06 0 0.034982287033252894 1.0723617194795906e-05 0 0.034990166885662782 4.5079954183231312e-06 0 0.034984334859927427 6.5379896560694411e-06 0 0.034982287033252894 1.0723617194795906e-05 0 0.034990166885662782 4.5079954183231312e-06 0 0.034984334859927427 6.5379896560694411e-06 0 0.034990166885662782 4.5079954183231312e-06 0 0.034999987138911393 1.517039248329007e-09 0 0.034990166885662782 4.5079954183231312e-06 0 0.034999991909376076 2.0611382338105998e-09 0 0.03498712518009392 3.8746375098227152e-06 0 0.034981519801493666 7.4421607653843941e-06 0 0.034990166885662782 4.5079954183231312e-06 0 0.03498712518009392 3.8746375098227152e-06 0 0.034990166885662782 4.5079954183231312e-06 0 0.034999991909376076 2.0611382338105998e-09 0 0.034999987138911393 1.517039248329007e-09 0 0.034991663005787856 2.3326058795897833e-06 0 0.03499996925674257 8.4853809945771712e-09 0 0.03498363245282346 2.7518496052794835e-06 0 0.034997041735215131 1.1028068094985603e-06 0 0.033674539109293126 0.00011501296501198912 0 0.034999991909376076 2.0611382338105998e-09 0 0.034991663005787856 2.3326058795897833e-06 0 0.03498712518009392 3.8746375098227152e-06 0 0.034999991909376076 2.0611382338105998e-09 0 0.034991663005787856 2.3326058795897833e-06 0 0.03499996925674257 8.4853809945771712e-09 0 0.034991663005787856 2.3326058795897833e-06 0 0.034983150835188624 1.6640616755085718e-06 0 0.03498363245282346 2.7518496052794835e-06 0 0.03498712518009392 3.8746375098227152e-06 0 0.034983150835188624 1.6640616755085718e-06 0 0.034976206580548286 9.3404501540451191e-07 0 0.034991663005787856 2.3326058795897833e-06 0 0.03498712518009392 3.8746375098227152e-06 0 0.034983150835188624 1.6640616755085718e-06 0 0.030582086714964089 -0.00049044501933546536 0 0.029237995720870984 -0.00050017651543856636 0 0.03498712518009392 3.8746375098227152e-06 0 0.034976206580548286 9.3404501540451191e-07 0 0.034974057102133888 5.3053964323408823e-06 0 0.026505094150941998 -0.0013640469358245932 0 0.026062445492129691 -0.0010387216209876877 0 0.026509040478890356 -0.00113590255832723 0 0.034981519801493666 7.4421607653843941e-06 0 0.03498712518009392 3.8746375098227152e-06 0 0.034974057102133888 5.3053964323408823e-06 0 0.02583724026688141 -0.00062736598229227796 0 0.026130343466016576 -0.000757395752093496 0 0.025980969234951228 -0.00063256398744468932 0 0.026182861496182208 -0.00065621994930573297 0 0.026160170430018011 -0.00091662295602631049 0 0.025980969234951228 -0.00063256398744468932 0 0.029237995720870984 -0.00050017651543856636 0 0.028467877702367819 -0.0002085212274821083 0 0.026160170430018011 -0.00091662295602631049 0 0.026509040478890356 -0.00113590255832723 0 0.02635900681343592 -0.00087119218696396277 0 0.029237995720870984 -0.00050017651543856636 0 0.02831916237815436 -0.00044157020863417489 0 0.026509040478890356 -0.00113590255832723 0 0.02635900681343592 -0.00087119218696396277 0 0.026547252376466962 -0.00095614958300331869 0 0.026182861496182208 -0.00065621994930573297 0 0.026160170430018011 -0.00091662295602631049 0 0.02635900681343592 -0.00087119218696396277 0 0.026463749543269761 -0.00071527410224318821 0 0.026182861496182208 -0.00065621994930573297 0 0.02635900681343592 -0.00087119218696396277 0 0.026463749543269761 -0.00071527410224318821 0 0.02635900681343592 -0.00087119218696396277 0 0.026547252376466962 -0.00095614958300331869 0 0.026463749543269761 -0.00071527410224318821 0 0.026547252376466962 -0.00095614958300331869 0 0.026738104527347303 -0.00095124322108341985 0 0.026463749543269761 -0.00071527410224318821 0 0.026738104527347303 -0.00095124322108341985 0 0.026780027834044762 -0.00067057404830717148 0 0.026738104527347303 -0.00095124322108341985 0 0.027007496351870549 -0.0009334929035802851 0 0.026780027834044762 -0.00067057404830717148 0 0.026738104527347303 -0.00095124322108341985 0 0.026934183187075376 -0.0012403792603287822 0 0.026697257556785814 -0.0011834154845627252 0 0.026738104527347303 -0.00095124322108341985 0 0.026934183187075376 -0.0012403792603287822 0 0.027007496351870549 -0.0009334929035802851 0 0.026547252376466962 -0.00095614958300331869 0 0.026738104527347303 -0.00095124322108341985 0 0.026697257556785814 -0.0011834154845627252 0 0.026509040478890356 -0.00113590255832723 0 0.026547252376466962 -0.00095614958300331869 0 0.026697257556785814 -0.0011834154845627252 0 0.026934183187075376 -0.0012403792603287822 0 0.027432838236789266 -0.001162156173148915 0 0.027007496351870549 -0.0009334929035802851 0 0.027432838236789266 -0.001162156173148915 0 0.027007496351870549 -0.0009334929035802851 0 0.027208832567646554 -0.00061596157438420344 0 0.032029802128234711 -0.00024669951492726903 0 0.031995579609377787 -0.0001705888434125973 0 0.026934183187075376 -0.0012403792603287822 0 0.027432838236789266 -0.001162156173148915 0 0.026921164858429349 -0.0016558024025924763 0 0.030352847805871885 0.0010436589181557505 0 0.030222831328118177 0.0011309920834267414 0 0.029702083487221281 0.00082815781292913031 0 0.029806114932388279 0.00027316285256686544 0 0.030352847805871885 0.0010436589181557505 0 0.029702083487221281 0.00082815781292913031 0 0.029792744281433345 -0.00068634365166775617 0 0.031639448983827145 -0.00026244438507776625 0 0.030582086714964089 -0.00049044501933546536 0 0.031639448983827145 -0.00026244438507776625 0 0.026505094150941998 -0.0013640469358245932 0 0.026775518931651636 -0.0013842583562194762 0 0.026921164858429349 -0.0016558024025924763 0 0.034983150835188624 1.6640616755085718e-06 0 0.034976206580548286 9.3404501540451191e-07 0 0.034972071379370265 -6.7987923910408321e-07 0 0.026934183187075376 -0.0012403792603287822 0 0.026775518931651636 -0.0013842583562194762 0 0.026921164858429349 -0.0016558024025924763 0 0.026505094150941998 -0.0013640469358245932 0 0.026697257556785814 -0.0011834154845627252 0 0.026775518931651636 -0.0013842583562194762 0 0.026505094150941998 -0.0013640469358245932 0 0.026509040478890356 -0.00113590255832723 0 0.026697257556785814 -0.0011834154845627252 0 0.026934183187075376 -0.0012403792603287822 0 0.026697257556785814 -0.0011834154845627252 0 0.026775518931651636 -0.0013842583562194762 0 0.034983150835188624 1.6640616755085718e-06 0 0.034972071379370265 -6.7987923910408321e-07 0 0.03498363245282346 2.7518496052794835e-06 0 0.034992026462386659 -4.9995320574135036e-06 0 0.034987458739540192 -8.2161100225821371e-06 0 0.034995657740764456 -3.1038385835396757e-06 0 0.031639448983827145 -0.00026244438507776625 0 0.033674539109293126 0.00011501296501198912 0 0.034986373525170263 -1.0727669234600278e-05 0 0.034987458739540192 -8.2161100225821371e-06 0 0.034995657740764456 -3.1038385835396757e-06 0 0.032886317784235744 -2.1989605013841419e-06 0 0.032554086830437319 0.00022032085956658526 0 0.032403102631917494 -0.00028835227578250249 0 0.031639448983827145 -0.00026244438507776625 0 0.032029802128234711 -0.00024669951492726903 0 0.034986373525170263 -1.0727669234600278e-05 0 0.034987458739540192 -8.2161100225821371e-06 0 0.03498285298886418 -9.7470837406528753e-06 0 0.034987458739540192 -8.2161100225821371e-06 0 0.034987110118770912 -8.7434760470128879e-06 0 0.034989639719333478 -6.305206591371352e-06 0 0.032070963890076375 -0.00022873614971445139 0 0.032029802128234711 -0.00024669951492726903 0 0.032029802128234711 -0.00024669951492726903 0 0.033228124939078944 -0.00029457428199521681 0 0.034987110118770912 -8.7434760470128879e-06 0 0.034986088252917408 -6.2491661676236983e-06 0 0.034989639719333478 -6.305206591371352e-06 0 0.034992026462386659 -4.9995320574135036e-06 0 0.034989639719333478 -6.305206591371352e-06 0 0.034994560714074231 -2.8230589757706353e-06 0 0.034986088252917408 -6.2491661676236983e-06 0 0.034989639719333478 -6.305206591371352e-06 0 0.034994560714074231 -2.8230589757706353e-06 0 0.034992026462386659 -4.9995320574135036e-06 0 0.034987458739540192 -8.2161100225821371e-06 0 0.034989639719333478 -6.305206591371352e-06 0 0.034986088252917408 -6.2491661676236983e-06 0 0.034994560714074231 -2.8230589757706353e-06 0 0.034999966836024139 -3.9114508394020603e-09 0 0.033228124939078944 -0.00029457428199521681 0 0.034996188663642278 3.2698783914880864e-07 0 0.035000008365010861 5.0545957679030588e-10 0 0.034994560714074231 -2.8230589757706353e-06 0 0.034999966836024139 -3.9114508394020603e-09 0 0.035000008365010861 5.0545957679030588e-10 0 0.034994560714074231 -2.8230589757706353e-06 0 0.034995657740764456 -3.1038385835396757e-06 0 0.034992026462386659 -4.9995320574135036e-06 0 0.034994560714074231 -2.8230589757706353e-06 0 0.034995657740764456 -3.1038385835396757e-06 0 0.035000682726314292 -1.8625337554843825e-07 0 0.034997675416362922 3.4504805992652877e-07 0 0.034885862743785051 -6.8936506961106331e-06 0 0.034997675416362922 3.4504805992652877e-07 0 0.033446092911585353 0.00014121331082809404 0 0.031287296117743259 -5.0599428809299017e-07 0 0.034997675416362922 3.4504805992652877e-07 0 0.034885862743785051 -6.8936506961106331e-06 0 0.033446092911585353 0.00014121331082809404 0 0.034885862743785051 -6.8936506961106331e-06 0 0.033708338464392369 -3.8017016438135081e-07 0 0.033446092911585353 0.00014121331082809404 0 0.033804174298581499 -0.00034188130877686653 0 0.033657595690208229 -0.00033375268901130714 0 0.034975205654807821 -7.0690171847074523e-05 0 0.035000682726314292 -1.8625337554843825e-07 0 0.034931187661134525 -3.9429165790943668e-05 0 0.035000682726314292 -1.8625337554843825e-07 0 0.034885862743785051 -6.8936506961106331e-06 0 0.034931187661134525 -3.9429165790943668e-05 0 0.033228124939078944 -0.00029457428199521681 0 0.033657595690208229 -0.00033375268901130714 0 0.033228124939078944 -0.00029457428199521681 0 0.031995579609377787 -0.0001705888434125973 0 0.033708338464392369 -3.8017016438135081e-07 0 0.033501759336726972 9.8180250509508033e-05 0 0.033446092911585353 0.00014121331082809404 0 0.033475094853787392 8.6554911159253203e-05 0 0.033501759336726972 9.8180250509508033e-05 0 0.033409287416196344 1.8715338518895542e-05 0 0.033475094853787392 8.6554911159253203e-05 0 0.033708338464392369 -3.8017016438135081e-07 0 0.033501759336726972 9.8180250509508033e-05 0 0.033501759336726972 9.8180250509508033e-05 0 0.033446092911585353 0.00014121331082809404 0 0.033409287416196344 1.8715338518895542e-05 0 0.033446092911585353 0.00014121331082809404 0 0.032771113612846223 -0.00014437109833217041 0 0.031287296117743259 -5.0599428809299017e-07 0 0.033446092911585353 0.00014121331082809404 0 0.032771113612846223 -0.00014437109833217041 0 0.033409287416196344 1.8715338518895542e-05 0 0.031558492199822784 -0.00015541910520811949 0 0.031995579609377787 -0.0001705888434125973 0 0.031995579609377787 -0.0001705888434125973 0 0.031228200714247902 -0.0003933577791827513 0 0.029806114932388279 0.00027316285256686544 0 0.029702083487221281 0.00082815781292913031 0 0.029283713669188301 9.1842901539390266e-05 0 0.029879742904300434 -0.0010253703991949638 0 0.02907265747066461 -0.0015168268568206099 0 0.029283713669188301 9.1842901539390266e-05 0 0.029879742904300434 -0.0010253703991949638 0 0.031279994516783989 -1.8424893026963234e-06 0 0.029283713669188301 9.1842901539390266e-05 0 0.031558492199822784 -0.00015541910520811949 0 0.031284093002607087 -5.9210419042215134e-07 0 0.028644376831759674 -0.00010466561331389064 0 0.02922061302531221 4.6986511445158272e-07 0 0.029283713669188301 9.1842901539390266e-05 0 0.031279994516783989 -1.8424893026963234e-06 0 0.02922061302531221 4.6986511445158272e-07 0 0.029283713669188301 9.1842901539390266e-05 0 0.028644376831759674 -0.00010466561331389064 0 0.02922061302531221 4.6986511445158272e-07 0 0.02762727916063782 0.00015531163994644454 0 0.028644376831759674 -0.00010466561331389064 0 0.027613818175104866 7.8888615938471472e-05 0 0.02762727916063782 0.00015531163994644454 0 0.028644376831759674 -0.00010466561331389064 0 0.027613818175104866 7.8888615938471472e-05 0 0.027340781326260437 -0.00014849618436002781 0 0.027432838236789266 -0.001162156173148915 0 0.028644376831759674 -0.00010466561331389064 0 0.027208832567646554 -0.00061596157438420344 0 0.029806114932388279 0.00027316285256686544 0 0.028644376831759674 -0.00010466561331389064 0 0.029283713669188301 9.1842901539390266e-05 0 0.029792744281433345 -0.00068634365166775617 0 0.029491946853333648 -0.00049828248040983015 0 0.028644376831759674 -0.00010466561331389064 0 0.027208832567646554 -0.00061596157438420344 0 0.027340781326260437 -0.00014849618436002781 0 0.027007496351870549 -0.0009334929035802851 0 0.027208832567646554 -0.00061596157438420344 0 0.026780027834044762 -0.00067057404830717148 0 0.027208832567646554 -0.00061596157438420344 0 0.026780027834044762 -0.00067057404830717148 0 0.026858813253195498 -0.00029650222801430235 0 0.027208832567646554 -0.00061596157438420344 0 0.027340781326260437 -0.00014849618436002781 0 0.026858813253195498 -0.00029650222801430235 0 0.026463749543269761 -0.00071527410224318821 0 0.026780027834044762 -0.00067057404830717148 0 0.026525743489852861 -0.00038948639692100185 0 0.026780027834044762 -0.00067057404830717148 0 0.026525743489852861 -0.00038948639692100185 0 0.026858813253195498 -0.00029650222801430235 0 0.026385516548041867 -0.00016397279898037759 0 0.026525743489852861 -0.00038948639692100185 0 0.026601685827460288 -0.00012592114917563401 0 0.026525743489852861 -0.00038948639692100185 0 0.026601685827460288 -0.00012592114917563401 0 0.026858813253195498 -0.00029650222801430235 0 0.026601685827460288 -0.00012592114917563401 0 0.026858813253195498 -0.00029650222801430235 0 0.026869378543083706 7.9943550353043862e-05 0 0.026385516548041867 -0.00016397279898037759 0 0.026601685827460288 -0.00012592114917563401 0 0.026435454945828565 7.9062612012105107e-05 0 0.027613818175104866 7.8888615938471472e-05 0 0.027340781326260437 -0.00014849618436002781 0 0.026869378543083706 7.9943550353043862e-05 0 0.027340781326260437 -0.00014849618436002781 0 0.026858813253195498 -0.00029650222801430235 0 0.026869378543083706 7.9943550353043862e-05 0 0.027613818175104866 7.8888615938471472e-05 0 0.026869378543083706 7.9943550353043862e-05 0 0.026912644082688463 0.00026288993574812952 0 0.026869378543083706 7.9943550353043862e-05 0 0.026487834432767463 0.00025680995828983105 0 0.026912644082688463 0.00026288993574812952 0 0.026869378543083706 7.9943550353043862e-05 0 0.026435454945828565 7.9062612012105107e-05 0 0.026487834432767463 0.00025680995828983105 0 0.026310740510686118 0.00017725941627258073 0 0.026435454945828565 7.9062612012105107e-05 0 0.026487834432767463 0.00025680995828983105 0 0.026601685827460288 -0.00012592114917563401 0 0.026869378543083706 7.9943550353043862e-05 0 0.026435454945828565 7.9062612012105107e-05 0 0.026258189873929329 0.00029516884154952966 0 0.026297714460853504 0.00029387542079263509 0 0.026487834432767463 0.00025680995828983105 0 0.026297714460853504 0.00029387542079263509 0 0.026310740510686118 0.00017725941627258073 0 0.026487834432767463 0.00025680995828983105 0 0.026258189873929329 0.00029516884154952966 0 0.026487834432767463 0.00025680995828983105 0 0.026912644082688463 0.00026288993574812952 0 0.026258189873929329 0.00029516884154952966 0 0.026351254912673504 0.00024851883390149601 0 0.026912644082688463 0.00026288993574812952 0 0.026351254912673504 0.00024851883390149601 0 0.02715762516842548 4.8502944364237315e-07 0 0.02762727916063782 0.00015531163994644454 0 0.02922061302531221 4.6986511445158272e-07 0 0.02715762516842548 4.8502944364237315e-07 0 0.02762727916063782 0.00015531163994644454 0 0.027613818175104866 7.8888615938471472e-05 0 0.02762727916063782 0.00015531163994644454 0 0.026912644082688463 0.00026288993574812952 0 0.026351254912673504 0.00024851883390149601 0 0.02762727916063782 0.00015531163994644454 0 0.026912644082688463 0.00026288993574812952 0 0.032438652489908994 -0.0006860557342520193 0 0.032323498903648232 -0.00016700101008409294 0 0.033020239306412805 -0.00090680231742307649 0 0.030656643356770676 0.00057865507810019772 0 0.030428713568245724 0.00047192883105664167 0 0.032438652489908994 -0.0006860557342520193 0 0.033020239306412805 -0.00090680231742307649 0 0.032579723950376352 -0.0012022730082523758 0 0.032438652489908994 -0.0006860557342520193 0 0.031926713331588155 -0.00092328759139707179 0 0.0322516911552704 -0.0011317694553676378 0 0.032438652489908994 -0.0006860557342520193 0 0.031926713331588155 -0.00092328759139707179 0 0.031972272307666222 -0.00049268834942801801 0 0.032438652489908994 -0.0006860557342520193 0 0.031972272307666222 -0.00049268834942801801 0 0.032270784708409592 -0.00029571374520420723 0 0.031787702422610767 -0.00021718486188602928 0 0.031972272307666222 -0.00049268834942801801 0 0.032270784708409592 -0.00029571374520420723 0 0.027395782968199681 0.0024172251852802341 0 0.027403250083471564 0.0024202752705560597 0 0.027281815910689892 0.0021520643592748637 0 0.027395782968199681 0.0024172251852802341 0 0.027403250083471564 0.0024202752705560597 0 0.02745999549352383 0.0023971862893334603 0 0.03086288225390825 0.00018777192083827856 0 0.030656643356770676 0.00057865507810019772 0 0.027403250083471564 0.0024202752705560597 0 0.027434845492855547 0.0024124149198741182 0 0.027281815910689892 0.0021520643592748637 0 0.027403250083471564 0.0024202752705560597 0 0.027434845492855547 0.0024124149198741182 0 0.027426131828841901 0.0024391138064711148 0 0.027434845492855547 0.0024124149198741182 0 0.02746546020843682 0.0024908993073609934 0 0.027426131828841901 0.0024391138064711148 0 0.027558171153663932 0.0023808231853409824 0 0.02746546020843682 0.0024908993073609934 0 0.027685184828990992 0.0024989817542023533 0 0.027434845492855547 0.0024124149198741182 0 0.027558171153663932 0.0023808231853409824 0 0.02746546020843682 0.0024908993073609934 0 0.027673062649254971 0.002167055258999307 0 0.027281815910689892 0.0021520643592748637 0 0.027852699770290239 0.0018218983077692866 0 0.027558171153663932 0.0023808231853409824 0 0.027673062649254971 0.002167055258999307 0 0.027281815910689892 0.0021520643592748637 0 0.027558171153663932 0.0023808231853409824 0 0.027673062649254971 0.002167055258999307 0 0.027933037452909343 0.0022784922864295754 0 0.027673062649254971 0.002167055258999307 0 0.027852699770290239 0.0018218983077692866 0 0.027933037452909343 0.0022784922864295754 0 0.027434845492855547 0.0024124149198741182 0 0.027558171153663932 0.0023808231853409824 0 0.027281815910689892 0.0021520643592748637 0 0.033020239306412805 -0.00090680231742307649 0 0.032993602778893009 -0.0014491556415159562 0 0.033651758470454762 -0.0016962175886536537 0 0.030428713568245724 0.00047192883105664167 0 0.030769720964175497 -0.00015089991964645764 0 0.033020239306412805 -0.00090680231742307649 0 0.032993602778893009 -0.0014491556415159562 0 0.032579723950376352 -0.0012022730082523758 0 0.027281815910689892 0.0021520643592748637 0 0.027852699770290239 0.0018218983077692866 0 0.027651554022077703 0.0012241093138163934 0 0.033651758470454762 -0.0016962175886536537 0 0.032973218483840945 -0.0018686336905175244 0 0.033685457286544616 -0.0019890767234597324 0 0.032993602778893009 -0.0014491556415159562 0 0.033651758470454762 -0.0016962175886536537 0 0.032973218483840945 -0.0018686336905175244 0 0.032993602778893009 -0.0014491556415159562 0 0.032973218483840945 -0.0018686336905175244 0 0.032645783776249639 -0.0014934596844492099 0 0.034139928451137204 -0.0019573081098236849 0 0.033877084983981821 -0.0019070214151209438 0 0.033962885695116872 -0.0019238629017374464 0 0.032973218483840945 -0.0018686336905175244 0 0.032645783776249639 -0.0014934596844492099 0 0.032110650850966246 -0.0014779521389841708 0 0.034139928451137204 -0.0019573081098236849 0 0.033849265018874343 -0.0017214221657545349 0 0.033877084983981821 -0.0019070214151209438 0 0.033346769672982682 -0.0018141461287643551 0 0.032872208544313504 -0.0016169025292686115 0 0.032993602778893009 -0.0014491556415159562 0 0.032645783776249639 -0.0014934596844492099 0 0.032579723950376352 -0.0012022730082523758 0 0.032645783776249639 -0.0014934596844492099 0 0.032415120081393058 -0.0013403577436318895 0 0.032110650850966246 -0.0014779521389841708 0 0.032438652489908994 -0.0006860557342520193 0 0.032579723950376352 -0.0012022730082523758 0 0.0322516911552704 -0.0011317694553676378 0 0.032645783776249639 -0.0014934596844492099 0 0.032415120081393058 -0.0013403577436318895 0 0.032579723950376352 -0.0012022730082523758 0 0.032415120081393058 -0.0013403577436318895 0 0.032579723950376352 -0.0012022730082523758 0 0.0322516911552704 -0.0011317694553676378 0 0.031926713331588155 -0.00092328759139707179 0 0.0322516911552704 -0.0011317694553676378 0 0.032110650850966246 -0.0014779521389841708 0 0.033590971988077471 -0.0019663940892207603 0 0.033849265018874343 -0.0017214221657545349 0 0.031571408694946484 -0.0011629706394885311 0 0.032415120081393058 -0.0013403577436318895 0 0.0322516911552704 -0.0011317694553676378 0 0.032110650850966246 -0.0014779521389841708 0 0.033590971988077471 -0.0019663940892207603 0 0.033849265018874343 -0.0017214221657545349 0 0.033877084983981821 -0.0019070214151209438 0 0.033877084983981821 -0.0019070214151209438 0 0.033799913027515775 -0.0019479365624835705 0 0.033962885695116872 -0.0019238629017374464 0 0.033590971988077471 -0.0019663940892207603 0 0.033877084983981821 -0.0019070214151209438 0 0.033724498165520742 -0.0019461274738573043 0 0.033877084983981821 -0.0019070214151209438 0 0.033724498165520742 -0.0019461274738573043 0 0.033799913027515775 -0.0019479365624835705 0 0.033590971988077471 -0.0019663940892207603 0 0.033724498165520742 -0.0019461274738573043 0 0.03374688620310138 -0.0019476628499557006 0 0.033724498165520742 -0.0019461274738573043 0 0.03374688620310138 -0.0019476628499557006 0 0.033799913027515775 -0.0019479365624835705 0 0.033590971988077471 -0.0019663940892207603 0 0.03374688620310138 -0.0019476628499557006 0 0.033899913897502847 -0.0019724300683671135 0 0.033590971988077471 -0.0019663940892207603 0 0.031187362095935391 -0.0023931148806733741 0 0.031571408694946484 -0.0011629706394885311 0 0.033070819906993378 -0.0019304517870941684 0 0.032611023614788417 -0.0019892607510063019 0 0.031187362095935391 -0.0023931148806733741 0 0.0308262583638199 -0.0014885549250420336 0 0.030385752633999771 -0.0018446627462579124 0 0.031187362095935391 -0.0023931148806733741 0 0.0308262583638199 -0.0014885549250420336 0 0.031571408694946484 -0.0011629706394885311 0 0.0308262583638199 -0.0014885549250420336 0 0.031571408694946484 -0.0011629706394885311 0 0.030613313411862002 -0.00062280898624167142 0 0.032872208544313504 -0.0016169025292686115 0 0.032399370498696609 -0.0014361738835049313 0 0.031926713331588155 -0.00092328759139707179 0 0.032110650850966246 -0.0014779521389841708 0 0.031571408694946484 -0.0011629706394885311 0 0.030385752633999771 -0.0018446627462579124 0 0.02982535720373404 -0.0016455572634553211 0 0.029949490131140864 -0.0024265638157220395 0 0.02982535720373404 -0.0016455572634553211 0 0.029949490131140864 -0.0024265638157220395 0 0.029392107389994739 -0.0018895183950258868 0 0.02982535720373404 -0.0016455572634553211 0 0.029392107389994739 -0.0018895183950258868 0 0.029343283263501836 -0.0014678911883288664 0 0.031187362095935391 -0.0023931148806733741 0 0.030385752633999771 -0.0018446627462579124 0 0.029949490131140864 -0.0024265638157220395 0 0.032611023614788417 -0.0019892607510063019 0 0.032031038960582646 -0.0019593464473131707 0 0.0308262583638199 -0.0014885549250420336 0 0.030268470224993817 -0.0013160720650035435 0 0.030613313411862002 -0.00062280898624167142 0 0.0308262583638199 -0.0014885549250420336 0 0.030385752633999771 -0.0018446627462579124 0 0.030268470224993817 -0.0013160720650035435 0 0.030385752633999771 -0.0018446627462579124 0 0.030268470224993817 -0.0013160720650035435 0 0.02982535720373404 -0.0016455572634553211 0 0.02982535720373404 -0.0016455572634553211 0 0.029637363815352355 -0.00082229913934792271 0 0.029343283263501836 -0.0014678911883288664 0 0.030268470224993817 -0.0013160720650035435 0 0.02982535720373404 -0.0016455572634553211 0 0.029637363815352355 -0.00082229913934792271 0 0.029637363815352355 -0.00082229913934792271 0 0.030613313411862002 -0.00062280898624167142 0 0.029641647090641592 0.00027295319305876324 0 0.030268470224993817 -0.0013160720650035435 0 0.029637363815352355 -0.00082229913934792271 0 0.030613313411862002 -0.00062280898624167142 0 0.030613313411862002 -0.00062280898624167142 0 0.031493837715811615 -0.00036909650843807931 0 0.030824854943553876 0.00042039856080047859 0 0.031926713331588155 -0.00092328759139707179 0 0.031972272307666222 -0.00049268834942801801 0 0.031493837715811615 -0.00036909650843807931 0 0.031926713331588155 -0.00092328759139707179 0 0.031571408694946484 -0.0011629706394885311 0 0.031493837715811615 -0.00036909650843807931 0 0.031571408694946484 -0.0011629706394885311 0 0.030613313411862002 -0.00062280898624167142 0 0.031493837715811615 -0.00036909650843807931 0 0.031787702422610767 -0.00021718486188602928 0 0.031972272307666222 -0.00049268834942801801 0 0.031493837715811615 -0.00036909650843807931 0 0.031787702422610767 -0.00021718486188602928 0 0.031493837715811615 -0.00036909650843807931 0 0.031602434903615875 8.9434962942155265e-05 0 0.031493837715811615 -0.00036909650843807931 0 0.031602434903615875 8.9434962942155265e-05 0 0.031245942814065859 3.2285400502516635e-05 0 0.030816761151564738 -0.00035939348179779958 0 0.030443563988676377 -0.00015740057998637162 0 0.031245942814065859 3.2285400502516635e-05 0 0.031329296746829653 0.00018248640826491665 0 0.031190336955671749 0.00020384430258631403 0 0.031602434903615875 8.9434962942155265e-05 0 0.031245942814065859 3.2285400502516635e-05 0 0.031329296746829653 0.00018248640826491665 0 0.031602434903615875 8.9434962942155265e-05 0 0.031329296746829653 0.00018248640826491665 0 0.03148390623428874 0.00018494098024386489 0 0.030613313411862002 -0.00062280898624167142 0 0.030824854943553876 0.00042039856080047859 0 0.029641647090641592 0.00027295319305876324 0 0.030443563988676377 -0.00015740057998637162 0 0.029469337989263201 2.1788377403384225e-05 0 0.030824854943553876 0.00042039856080047859 0 0.029641647090641592 0.00027295319305876324 0 0.03021174869185117 0.0012216505204211536 0 0.029641647090641592 0.00027295319305876324 0 0.03021174869185117 0.0012216505204211536 0 0.029397257929031948 0.0012213454764707706 0 0.029469337989263201 2.1788377403384225e-05 0 0.027297728894451524 0.00016880259984120924 0 0.03021174869185117 0.0012216505204211536 0 0.029408769030392402 0.0018928986945468134 0 0.029397257929031948 0.0012213454764707706 0 0.031190336955671749 0.00020384430258631403 0 0.03120584828857273 0.00024800071168266951 0 0.031273008856489579 0.00024864243414922632 0 0.03120584828857273 0.00024800071168266951 0 0.031273008856489579 0.00024864243414922632 0 0.031242210012135251 0.00026118985807819768 0 0.031190336955671749 0.00020384430258631403 0 0.03120584828857273 0.00024800071168266951 0 0.03117069695439733 0.0002570146058666829 0 0.03021174869185117 0.0012216505204211536 0 0.029594665247394032 0.0021216589463632202 0 0.029408769030392402 0.0018928986945468134 0 0.027297728894451524 0.00016880259984120924 0 0.027463762166262392 0.00035242600796947011 0 0.03148390623428874 0.00018494098024386489 0 0.031358548208660506 0.00024184508588396099 0 0.031375968559580227 0.00025099476965641709 0 0.031329296746829653 0.00018248640826491665 0 0.03148390623428874 0.00018494098024386489 0 0.031358548208660506 0.00024184508588396099 0 0.031329296746829653 0.00018248640826491665 0 0.031190336955671749 0.00020384430258631403 0 0.031273008856489579 0.00024864243414922632 0 0.031329296746829653 0.00018248640826491665 0 0.031358548208660506 0.00024184508588396099 0 0.031273008856489579 0.00024864243414922632 0 0.031273008856489579 0.00024864243414922632 0 0.03127061013000916 0.00026192843008826522 0 0.031302524878591038 0.00026648408773518158 0 0.031273008856489579 0.00024864243414922632 0 0.031242210012135251 0.00026118985807819768 0 0.03127061013000916 0.00026192843008826522 0 0.03127061013000916 0.00026192843008826522 0 0.031279400815946698 0.00026352693021303099 0 0.031302524878591038 0.00026648408773518158 0 0.031358548208660506 0.00024184508588396099 0 0.031273008856489579 0.00024864243414922632 0 0.031302524878591038 0.00026648408773518158 0 0.031358548208660506 0.00024184508588396099 0 0.031302524878591038 0.00026648408773518158 0 0.031324226129992867 0.00026430664654732074 0 0.031358548208660506 0.00024184508588396099 0 0.031324226129992867 0.00026430664654732074 0 0.031375968559580227 0.00025099476965641709 0 0.031302524878591038 0.00026648408773518158 0 0.031324226129992867 0.00026430664654732074 0 0.031272361337509318 0.00029435984646661946 0 0.031279400815946698 0.00026352693021303099 0 0.031302524878591038 0.00026648408773518158 0 0.031272361337509318 0.00029435984646661946 0 0.031242888696779707 0.00022364724074436782 0 0.031279400815946698 0.00026352693021303099 0 0.031272361337509318 0.00029435984646661946 0 0.03114790471553696 0.00022631210115695203 0 0.031272361337509318 0.00029435984646661946 0 0.031054062905394645 0.00032780628429818247 0 0.029329686112882034 0.00030747655414674829 0 0.029162176311447633 0.00030295888870362803 0 0.031324226129992867 0.00026430664654732074 0 0.031272361337509318 0.00029435984646661946 0 0.031340768402705978 0.00029811962158588851 0 0.029162176311447633 0.00030295888870362803 0 0.028177470711924186 0.00031368440456191479 0 0.031011034641160708 0.00022473782559301835 0 0.031054062905394645 0.00032780628429818247 0 0.030847582221370077 0.00031521657317406799 0 0.028630988642991951 0.0011509929044479486 0 0.029417783776172768 0.0011800500648282465 0 0.028863077685675441 -1.9394974268109769e-06 0 0.027624656601105649 0.0019929936363593599 0 0.027676552731734912 0.002103074534306209 0 0.027546032771958284 0.0020909118958325535 0 0.028177470711924186 0.00031368440456191479 0 0.029232567845401427 0.00074846960590910282 0 0.031324226129992867 0.00026430664654732074 0 0.031340768402705978 0.00029811962158588851 0 0.031375968559580227 0.00025099476965641709 0 0.029162176311447633 0.00030295888870362803 0 0.029232567845401427 0.00074846960590910282 0 0.027624656601105649 0.0019929936363593599 0 0.027546032771958284 0.0020909118958325535 0 0.027444694339308844 0.0019783097307009322 0 0.028177470711924186 0.00031368440456191479 0 0.026093087902309822 0.00010663135417138565 0 0.027546032771958284 0.0020909118958325535 0 0.027499431793436266 0.0021982600062294155 0 0.027450616260412727 0.0020917669511261853 0 0.027546032771958284 0.0020909118958325535 0 0.027564924412942858 0.0022084238707533671 0 0.027499431793436266 0.0021982600062294155 0 0.027676552731734912 0.002103074534306209 0 0.027546032771958284 0.0020909118958325535 0 0.027564924412942858 0.0022084238707533671 0 0.027564924412942858 0.0022084238707533671 0 0.027499431793436266 0.0021982600062294155 0 0.027507384490624193 0.002308016745460403 0 0.03148390623428874 0.00018494098024386489 0 0.031555518058185343 0.00035542216207012488 0 0.031621340894559008 0.00010807453126707529 0 0.027676552731734912 0.002103074534306209 0 0.027564924412942858 0.0022084238707533671 0 0.027574035485783868 0.0023486849196195764 0 0.029617623020381678 0.00079018615709942593 0 0.029232567845401427 0.00074846960590910282 0 0.029232567845401427 0.00074846960590910282 0 0.029802622576316825 0.0010546542232575825 0 0.031602434903615875 8.9434962942155265e-05 0 0.03148390623428874 0.00018494098024386489 0 0.031621340894559008 0.00010807453126707529 0 0.027564924412942858 0.0022084238707533671 0 0.027574035485783868 0.0023486849196195764 0 0.027507384490624193 0.002308016745460403 0 0.027499431793436266 0.0021982600062294155 0 0.027507384490624193 0.002308016745460403 0 0.027446692502905358 0.002344022194384756 0 0.027507384490624193 0.002308016745460403 0 0.02745999549352383 0.0023971862893334603 0 0.027446692502905358 0.002344022194384756 0 0.027574035485783868 0.0023486849196195764 0 0.027507384490624193 0.002308016745460403 0 0.02745999549352383 0.0023971862893334603 0 0.027395782968199681 0.0024172251852802341 0 0.027574035485783868 0.0023486849196195764 0 0.02745999549352383 0.0023971862893334603 0 0.030656643356770676 0.00057865507810019772 0 0.029802622576316825 0.0010546542232575825 0 0.0316190672741299 6.8981874514621142e-05 0 0.031602434903615875 8.9434962942155265e-05 0 0.031621340894559008 0.00010807453126707529 0 0.030656643356770676 0.00057865507810019772 0 0.03126981249023783 4.6382837902392399e-05 0 0.031787702422610767 -0.00021718486188602928 0 0.032270784708409592 -0.00029571374520420723 0 0.031602434903615875 8.9434962942155265e-05 0 0.027403178693211547 0.0024279486895036435 0 0.02746546020843682 0.0024908993073609934 0 0.027309721363927401 0.0024419757642926863 0 0.02746546020843682 0.0024908993073609934 0 0.027309721363927401 0.0024419757642926863 0 0.027357280514896262 0.0025199872149929605 0 0.027403178693211547 0.0024279486895036435 0 0.02746546020843682 0.0024908993073609934 0 0.027426131828841901 0.0024391138064711148 0 0.02745999549352383 0.0023971862893334603 0 0.027426131828841901 0.0024391138064711148 0 0.027446692502905358 0.002344022194384756 0 0.027403178693211547 0.0024279486895036435 0 0.027426131828841901 0.0024391138064711148 0 0.027446692502905358 0.002344022194384756 0 0.027403250083471564 0.0024202752705560597 0 0.02745999549352383 0.0023971862893334603 0 0.027426131828841901 0.0024391138064711148 0 0.027403178693211547 0.0024279486895036435 0 0.027446692502905358 0.002344022194384756 0 0.027360688177136421 0.0023386295105003842 0 0.027446692502905358 0.002344022194384756 0 0.027360688177136421 0.0023386295105003842 0 0.027392332713688686 0.0021970472549382352 0 0.027403178693211547 0.0024279486895036435 0 0.027360688177136421 0.0023386295105003842 0 0.027309721363927401 0.0024419757642926863 0 0.027360688177136421 0.0023386295105003842 0 0.027309721363927401 0.0024419757642926863 0 0.027238484749686213 0.0022640697578302426 0 0.027238484749686213 0.0022640697578302426 0 0.02723612740166494 0.0020917893939480284 0 0.027392332713688686 0.0021970472549382352 0 0.027360688177136421 0.0023386295105003842 0 0.027238484749686213 0.0022640697578302426 0 0.027392332713688686 0.0021970472549382352 0 0.02723612740166494 0.0020917893939480284 0 0.027392332713688686 0.0021970472549382352 0 0.02735212936763887 0.0020191358809342353 0 0.027499431793436266 0.0021982600062294155 0 0.027392332713688686 0.0021970472549382352 0 0.027450616260412727 0.0020917669511261853 0 0.027499431793436266 0.0021982600062294155 0 0.027446692502905358 0.002344022194384756 0 0.027392332713688686 0.0021970472549382352 0 0.027392332713688686 0.0021970472549382352 0 0.027450616260412727 0.0020917669511261853 0 0.02735212936763887 0.0020191358809342353 0 0.026093087902309822 0.00010663135417138565 0 0.025511035923634979 0.0002265879438513839 0 0.027585572931560134 0.0018013709173423393 0 0.02735212936763887 0.0020191358809342353 0 0.027266547710735264 0.0017883996877310362 0 0.027546032771958284 0.0020909118958325535 0 0.027450616260412727 0.0020917669511261853 0 0.027444694339308844 0.0019783097307009322 0 0.027450616260412727 0.0020917669511261853 0 0.027444694339308844 0.0019783097307009322 0 0.02735212936763887 0.0020191358809342353 0 0.026093087902309822 0.00010663135417138565 0 0.026175136327598589 0.00034608661193089187 0 0.025511035923634979 0.0002265879438513839 0 0.024893862472188995 0.00039303931819173774 0 0.027154405793776829 0.0019292424423055789 0 0.027266547710735264 0.0017883996877310362 0 0.02699003009153169 0.0017612363916706144 0 0.02723612740166494 0.0020917893939480284 0 0.027154405793776829 0.0019292424423055789 0 0.02735212936763887 0.0020191358809342353 0 0.027154405793776829 0.0019292424423055789 0 0.02735212936763887 0.0020191358809342353 0 0.027266547710735264 0.0017883996877310362 0 0.02723612740166494 0.0020917893939480284 0 0.027154405793776829 0.0019292424423055789 0 0.026888328334737959 0.0019847612731950302 0 0.027154405793776829 0.0019292424423055789 0 0.02699003009153169 0.0017612363916706144 0 0.026888328334737959 0.0019847612731950302 0 0.024893862472188995 0.00039303931819173774 0 0.025103962072418416 0.0014585849260794635 0 0.025293448492544474 0.0023019513258979085 0 0.025684772541024619 0.0023683472629194516 0 0.025371951052739147 0.002347568001948179 0 0.025190906333248216 0.0022830472207640965 0 0.025293448492544474 0.0023019513258979085 0 0.025371951052739147 0.002347568001948179 0 0.024921173939480023 0.00043135875459020831 0 0.024893862472188995 0.00039303931819173774 0 0.025103962072418416 0.0014585849260794635 0 0.025188891140154098 0.0017732189120777853 0 0.026888328334737959 0.0019847612731950302 0 0.027062238618333078 0.0023796110565082757 0 0.026599799273751362 0.0023402420631138104 0 0.027238484749686213 0.0022640697578302426 0 0.02723612740166494 0.0020917893939480284 0 0.026888328334737959 0.0019847612731950302 0 0.027238484749686213 0.0022640697578302426 0 0.026888328334737959 0.0019847612731950302 0 0.027062238618333078 0.0023796110565082757 0 0.025684772541024619 0.0023683472629194516 0 0.026036171770399047 0.0023576894712122429 0 0.025479891223882875 0.002387920933189536 0 0.025684772541024619 0.0023683472629194516 0 0.026036171770399047 0.0023576894712122429 0 0.026599799273751362 0.0023402420631138104 0 0.025684772541024619 0.0023683472629194516 0 0.025479891223882875 0.002387920933189536 0 0.025371951052739147 0.002347568001948179 0 0.025128881073992908 0.0023366241270230087 0 0.025190906333248216 0.0022830472207640965 0 0.025371951052739147 0.002347568001948179 0 0.024896372239332311 0.0024081821721255317 0 0.025128881073992908 0.0023366241270230087 0 0.025479891223882875 0.002387920933189536 0 0.025128881073992908 0.0023366241270230087 0 0.025479891223882875 0.002387920933189536 0 0.025371951052739147 0.002347568001948179 0 0.024896372239332311 0.0024081821721255317 0 0.024924074439314672 0.0026143557604076705 0 0.025560376373554867 0.0024505366121201069 0 0.024896372239332311 0.0024081821721255317 0 0.025479891223882875 0.002387920933189536 0 0.025560376373554867 0.0024505366121201069 0 0.024345256217795198 0.0030001805781571735 0 0.024924074439314672 0.0026143557604076705 0 0.025490162084669629 0.0024694417384754411 0 0.024924074439314672 0.0026143557604076705 0 0.025490162084669629 0.0024694417384754411 0 0.025560376373554867 0.0024505366121201069 0 0.025959202706549625 0.0023787772211742216 0 0.025560376373554867 0.0024505366121201069 0 0.026249061113493552 0.0023716248047604225 0 0.025490162084669629 0.0024694417384754411 0 0.025959202706549625 0.0023787772211742216 0 0.025560376373554867 0.0024505366121201069 0 0.026036171770399047 0.0023576894712122429 0 0.025479891223882875 0.002387920933189536 0 0.025560376373554867 0.0024505366121201069 0 0.026036171770399047 0.0023576894712122429 0 0.025560376373554867 0.0024505366121201069 0 0.026249061113493552 0.0023716248047604225 0 0.026036171770399047 0.0023576894712122429 0 0.026249061113493552 0.0023716248047604225 0 0.026645856729648313 0.0024177245910996696 0 0.026249061113493552 0.0023716248047604225 0 0.026641701511247298 0.0023821958460605057 0 0.026645856729648313 0.0024177245910996696 0 0.026641701511247298 0.0023821958460605057 0 0.026645856729648313 0.0024177245910996696 0 0.02698781964711967 0.0024539393643331874 0 0.026249061113493552 0.0023716248047604225 0 0.026391459417108926 0.0022952182985856609 0 0.026715095193345299 0.0023151588290171456 0 0.025959202706549625 0.0023787772211742216 0 0.026249061113493552 0.0023716248047604225 0 0.026391459417108926 0.0022952182985856609 0 0.026249061113493552 0.0023716248047604225 0 0.026641701511247298 0.0023821958460605057 0 0.026715095193345299 0.0023151588290171456 0 0.026391459417108926 0.0022952182985856609 0 0.026715095193345299 0.0023151588290171456 0 0.026854696212175854 0.0022221362274830801 0 0.026715095193345299 0.0023151588290171456 0 0.027128433971767188 0.0022003706158995489 0 0.026854696212175854 0.0022221362274830801 0 0.026715095193345299 0.0023151588290171456 0 0.027095407387982898 0.0022649838518473985 0 0.02698781964711967 0.0024539393643331874 0 0.026715095193345299 0.0023151588290171456 0 0.027095407387982898 0.0022649838518473985 0 0.027128433971767188 0.0022003706158995489 0 0.02698781964711967 0.0024539393643331874 0 0.027150518080902516 0.0025029902848626587 0 0.028803423350390541 0.0018263281244642715 0 0.026645856729648313 0.0024177245910996696 0 0.02698781964711967 0.0024539393643331874 0 0.027150518080902516 0.0025029902848626587 0 0.026641701511247298 0.0023821958460605057 0 0.026715095193345299 0.0023151588290171456 0 0.02698781964711967 0.0024539393643331874 0 0.026645856729648313 0.0024177245910996696 0 0.027150518080902516 0.0025029902848626587 0 0.027019751869115042 0.0024774856581226802 0 0.027150518080902516 0.0025029902848626587 0 0.02743807408858083 0.0025332459765601764 0 0.027019751869115042 0.0024774856581226802 0 0.027150518080902516 0.0025029902848626587 0 0.02743807408858083 0.0025332459765601764 0 0.027860052835558747 0.002497111441971415 0 0.02743807408858083 0.0025332459765601764 0 0.027357280514896262 0.0025199872149929605 0 0.027685184828990992 0.0024989817542023533 0 0.02746546020843682 0.0024908993073609934 0 0.027357280514896262 0.0025199872149929605 0 0.027685184828990992 0.0024989817542023533 0 0.02743807408858083 0.0025332459765601764 0 0.027357280514896262 0.0025199872149929605 0 0.027019751869115042 0.0024774856581226802 0 0.027309721363927401 0.0024419757642926863 0 0.027357280514896262 0.0025199872149929605 0 0.027062238618333078 0.0023796110565082757 0 0.027357280514896262 0.0025199872149929605 0 0.027062238618333078 0.0023796110565082757 0 0.027019751869115042 0.0024774856581226802 0 0.027309721363927401 0.0024419757642926863 0 0.027238484749686213 0.0022640697578302426 0 0.027062238618333078 0.0023796110565082757 0 0.027062238618333078 0.0023796110565082757 0 0.026599799273751362 0.0023402420631138104 0 0.027019751869115042 0.0024774856581226802 0 0.026036171770399047 0.0023576894712122429 0 0.026645856729648313 0.0024177245910996696 0 0.026599799273751362 0.0023402420631138104 0 0.026645856729648313 0.0024177245910996696 0 0.026599799273751362 0.0023402420631138104 0 0.027019751869115042 0.0024774856581226802 0 0.029480420751732725 -0.0013476973966761057 0 0.029884444632964295 -0.0026671761520537314 0 0.03073624364358819 -0.00098894176656390384 0 0.027274786698362107 0.0023009375771816665 0 0.027236597463799559 0.0022848405663018091 0 0.027247572378664882 0.0022336303064461756 0 0.026243731628860699 0.00095944808498804384 0 0.027793866622837129 0.0010691099825526869 0 0.02310837417747898 0.00050496757899366458 0 0.023107137832107216 0.0005111998581549843 0 0.023121428814380014 0.00051387287614388418 0 0.027274786698362107 0.0023009375771816665 0 0.027205140738577986 0.0023230911465966855 0 0.027236597463799559 0.0022848405663018091 0 0.026243731628860699 0.00095944808498804384 0 0.024763973152700174 0.0018915868448317621 0 0.024763973152700174 0.0018915868448317621 0 0.024231785694183161 0.00216854680837111 0 0.024763973152700174 0.0018915868448317621 0 0.02579554082215578 0.0023025506526691917 0 0.027205140738577986 0.0023230911465966855 0 0.027236597463799559 0.0022848405663018091 0 0.027176815533655856 0.0022596706721580281 0 0.027236597463799559 0.0022848405663018091 0 0.027176815533655856 0.0022596706721580281 0 0.027247572378664882 0.0022336303064461756 0 0.026426027403401359 0.0026398871229881033 0 0.0263457684645633 0.0022204202038339808 0 0.02596254357110564 0.0023757967461277181 0 0.0263457684645633 0.0022204202038339808 0 0.02596254357110564 0.0023757967461277181 0 0.026141864319418867 0.0022961890834576125 0 0.024345256217795198 0.0030001805781571735 0 0.02596254357110564 0.0023757967461277181 0 0.026382272686787684 0.0030231307524193735 0 0.026426027403401359 0.0026398871229881033 0 0.02596254357110564 0.0023757967461277181 0 0.026215079264101292 0.0026985635130706699 0 0.024687271396849373 0.0025041562530771716 0 0.024231785694183161 0.00216854680837111 0 0.024345256217795198 0.0030001805781571735 0 0.025490162084669629 0.0024694417384754411 0 0.02596254357110564 0.0023757967461277181 0 0.025490162084669629 0.0024694417384754411 0 0.02596254357110564 0.0023757967461277181 0 0.026141864319418867 0.0022961890834576125 0 0.025959202706549625 0.0023787772211742216 0 0.026391459417108926 0.0022952182985856609 0 0.026141864319418867 0.0022961890834576125 0 0.025490162084669629 0.0024694417384754411 0 0.025959202706549625 0.0023787772211742216 0 0.026141864319418867 0.0022961890834576125 0 0.026391459417108926 0.0022952182985856609 0 0.026141864319418867 0.0022961890834576125 0 0.026571393927895211 0.0022379493458145709 0 0.026391459417108926 0.0022952182985856609 0 0.026571393927895211 0.0022379493458145709 0 0.026854696212175854 0.0022221362274830801 0 0.027128433971767188 0.0022003706158995489 0 0.026854696212175854 0.0022221362274830801 0 0.027287162250468396 0.0020979561349365877 0 0.026854696212175854 0.0022221362274830801 0 0.027287162250468396 0.0020979561349365877 0 0.027108508174905906 0.0021512487151216877 0 0.026571393927895211 0.0022379493458145709 0 0.026854696212175854 0.0022221362274830801 0 0.027108508174905906 0.0021512487151216877 0 0.02579554082215578 0.0023025506526691917 0 0.026063609998739645 0.0022702950725946264 0 0.027176815533655856 0.0022596706721580281 0 0.027108508174905906 0.0021512487151216877 0 0.027219886076779734 0.0021297496943955365 0 0.0263457684645633 0.0022204202038339808 0 0.026141864319418867 0.0022961890834576125 0 0.026571393927895211 0.0022379493458145709 0 0.0263457684645633 0.0022204202038339808 0 0.026571393927895211 0.0022379493458145709 0 0.027108508174905906 0.0021512487151216877 0 0.028500666327909516 0.0012023243199465248 0 0.027793866622837129 0.0010691099825526869 0 0.027176815533655856 0.0022596706721580281 0 0.027219886076779734 0.0021297496943955365 0 0.027247572378664882 0.0022336303064461756 0 0.031067118097685548 0.00051321726859779901 0 0.030222884040616634 0.00017879352661825333 0 0.03073624364358819 -0.00098894176656390384 0 0.031067118097685548 0.00051321726859779901 0 0.030222884040616634 0.00017879352661825333 0 0.030623824618617859 0.00081649257558475232 0 0.029480420751732725 -0.0013476973966761057 0 0.030222884040616634 0.00017879352661825333 0 0.03073624364358819 -0.00098894176656390384 0 0.030727040237054023 0.00092168818365564043 0 0.030720554452512382 0.00095865376651800289 0 0.030449505552886513 0.0011018771479229057 0 0.030720554452512382 0.00095865376651800289 0 0.030619624383721778 0.0010476749735234252 0 0.030449505552886513 0.0011018771479229057 0 0.030619624383721778 0.0010476749735234252 0 0.030449505552886513 0.0011018771479229057 0 0.030308083915021419 0.00093361402201880923 0 0.029608091060018951 0.0011921307472357626 0 0.030222884040616634 0.00017879352661825333 0 0.030308083915021419 0.00093361402201880923 0 0.030222884040616634 0.00017879352661825333 0 0.030308083915021419 0.00093361402201880923 0 0.030623824618617859 0.00081649257558475232 0 0.030619624383721778 0.0010476749735234252 0 0.030308083915021419 0.00093361402201880923 0 0.030623824618617859 0.00081649257558475232 0 0.030619624383721778 0.0010476749735234252 0 0.030623824618617859 0.00081649257558475232 0 0.030732829975158197 0.0010153807836120029 0 0.031067118097685548 0.00051321726859779901 0 0.030623824618617859 0.00081649257558475232 0 0.030732829975158197 0.0010153807836120029 0 0.030619624383721778 0.0010476749735234252 0 0.030732829975158197 0.0010153807836120029 0 0.030694297736541944 0.0010320441801733313 0 0.030720554452512382 0.00095865376651800289 0 0.030619624383721778 0.0010476749735234252 0 0.030694297736541944 0.0010320441801733313 0 0.030732829975158197 0.0010153807836120029 0 0.030694297736541944 0.0010320441801733313 0 0.030567197594357276 0.0012614121106163329 0 0.030694297736541944 0.0010320441801733313 0 0.030567197594357276 0.0012614121106163329 0 0.030506056017855023 0.00084856400639048623 0 0.030567197594357276 0.0012614121106163329 0 0.029306944326204402 0.0010275124407464603 0 0.030506056017855023 0.00084856400639048623 0 0.031067118097685548 0.00051321726859779901 0 0.030732829975158197 0.0010153807836120029 0 0.030567197594357276 0.0012614121106163329 0 0.027287162250468396 0.0020979561349365877 0 0.027108508174905906 0.0021512487151216877 0 0.027795819729348928 0.0019336424120614123 0 0.027108508174905906 0.0021512487151216877 0 0.027219886076779734 0.0021297496943955365 0 0.027795819729348928 0.0019336424120614123 0 0.028500666327909516 0.0012023243199465248 0 0.02871206671447846 0.0011049885053546849 0 0.027795819729348928 0.0019336424120614123 0 0.027550382716801065 0.0020319073515743173 0 0.02812555677353747 0.0017520328231101466 0 0.027287162250468396 0.0020979561349365877 0 0.027795819729348928 0.0019336424120614123 0 0.027550382716801065 0.0020319073515743173 0 0.027128433971767188 0.0022003706158995489 0 0.027287162250468396 0.0020979561349365877 0 0.027550382716801065 0.0020319073515743173 0 0.027795819729348928 0.0019336424120614123 0 0.02812555677353747 0.0017520328231101466 0 0.029306944326204402 0.0010275124407464603 0 0.02871206671447846 0.0011049885053546849 0 0.028705122309487002 0.00091246077382016422 0 0.02812555677353747 0.0017520328231101466 0 0.029306944326204402 0.0010275124407464603 0 0.0287121164926065 0.00075310472214685912 0 0.029306944326204402 0.0010275124407464603 0 0.030173046043487625 0.00058658352255858766 0 0.030506056017855023 0.00084856400639048623 0 0.029306944326204402 0.0010275124407464603 0 0.029921710143358527 0.00043474830673905244 0 0.030173046043487625 0.00058658352255858766 0 0.029306944326204402 0.0010275124407464603 0 0.029921710143358527 0.00043474830673905244 0 0.0287121164926065 0.00075310472214685912 0 0.029921710143358527 0.00043474830673905244 0 0.0287121164926065 0.00075310472214685912 0 0.030648806887182578 -0.00016196068439929334 0 0.029921710143358527 0.00043474830673905244 0 0.030601341012828676 0.0002681418435789684 0 0.030648806887182578 -0.00016196068439929334 0 0.029921710143358527 0.00043474830673905244 0 0.030601341012828676 0.0002681418435789684 0 0.030173046043487625 0.00058658352255858766 0 0.030601341012828676 0.0002681418435789684 0 0.030724370461564527 0.00053087116388571265 0 0.030173046043487625 0.00058658352255858766 0 0.030601341012828676 0.0002681418435789684 0 0.030724370461564527 0.00053087116388571265 0 0.031037755186193013 0.00024496453224506662 0 0.030724370461564527 0.00053087116388571265 0 0.030173046043487625 0.00058658352255858766 0 0.030506056017855023 0.00084856400639048623 0 0.030720554452512382 0.00095865376651800289 0 0.030694297736541944 0.0010320441801733313 0 0.030833767812323488 0.00069682214368218067 0 0.030724370461564527 0.00053087116388571265 0 0.030506056017855023 0.00084856400639048623 0 0.030833767812323488 0.00069682214368218067 0 0.030694297736541944 0.0010320441801733313 0 0.030506056017855023 0.00084856400639048623 0 0.030833767812323488 0.00069682214368218067 0 0.030724370461564527 0.00053087116388571265 0 0.030833767812323488 0.00069682214368218067 0 0.031037755186193013 0.00024496453224506662 0 0.030833767812323488 0.00069682214368218067 0 0.031037755186193013 0.00024496453224506662 0 0.031049242236163892 0.00043465964392002255 0 0.031037755186193013 0.00024496453224506662 0 0.031049242236163892 0.00043465964392002255 0 0.031205606423383013 0.00022043662992609852 0 0.031049242236163892 0.00043465964392002255 0 0.031227102204575755 0.00030847334498491382 0 0.031205606423383013 0.00022043662992609852 0 0.031049242236163892 0.00043465964392002255 0 0.031227102204575755 0.00030847334498491382 0 0.031076793516054697 0.0005075456922467715 0 0.031049242236163892 0.00043465964392002255 0 0.031076793516054697 0.0005075456922467715 0 0.030894365167926111 0.00071579810223295877 0 0.030945455929233565 0.00072622377312763409 0 0.031076793516054697 0.0005075456922467715 0 0.030894365167926111 0.00071579810223295877 0 0.030833767812323488 0.00069682214368218067 0 0.031049242236163892 0.00043465964392002255 0 0.030894365167926111 0.00071579810223295877 0 0.030720554452512382 0.00095865376651800289 0 0.030833767812323488 0.00069682214368218067 0 0.030894365167926111 0.00071579810223295877 0 0.030727040237054023 0.00092168818365564043 0 0.030720554452512382 0.00095865376651800289 0 0.030894365167926111 0.00071579810223295877 0 0.030727040237054023 0.00092168818365564043 0 0.030945455929233565 0.00072622377312763409 0 0.030894365167926111 0.00071579810223295877 0 0.028264995030794875 0.0023235403695052058 0 0.027860052835558747 0.002497111441971415 0 0.028695516877694199 0.0023931267802366602 0 0.028264995030794875 0.0023235403695052058 0 0.028695516877694199 0.0023931267802366602 0 0.028922511997800188 0.0018805478892791364 0 0.028264995030794875 0.0023235403695052058 0 0.028922511997800188 0.0018805478892791364 0 0.028335110195135654 0.001944188961978374 0 0.028264995030794875 0.0023235403695052058 0 0.027933037452909343 0.0022784922864295754 0 0.028335110195135654 0.001944188961978374 0 0.027852699770290239 0.0018218983077692866 0 0.027933037452909343 0.0022784922864295754 0 0.028335110195135654 0.001944188961978374 0 0.028264995030794875 0.0023235403695052058 0 0.027933037452909343 0.0022784922864295754 0 0.027685184828990992 0.0024989817542023533 0 0.027558171153663932 0.0023808231853409824 0 0.027933037452909343 0.0022784922864295754 0 0.027685184828990992 0.0024989817542023533 0 0.02743807408858083 0.0025332459765601764 0 0.027685184828990992 0.0024989817542023533 0 0.027860052835558747 0.002497111441971415 0 0.027150518080902516 0.0025029902848626587 0 0.027860052835558747 0.002497111441971415 0 0.028695516877694199 0.0023931267802366602 0 0.028264995030794875 0.0023235403695052058 0 0.027685184828990992 0.0024989817542023533 0 0.027860052835558747 0.002497111441971415 0 0.028616423493050248 0.0021450053088073861 0 0.029047848005063048 0.0017131446284908505 0 0.027150518080902516 0.0025029902848626587 0 0.028803423350390541 0.0018263281244642715 0 0.028291293306574889 0.0015883796550549849 0 0.028070506880543317 0.001961251247698173 0 0.028412557117459089 0.0016179228604216878 0 0.027095407387982898 0.0022649838518473985 0 0.02698781964711967 0.0024539393643331874 0 0.02727215831739432 0.0019264175418062994 0 0.027095407387982898 0.0022649838518473985 0 0.02738846845050677 0.0020942469481499328 0 0.02727215831739432 0.0019264175418062994 0 0.02812555677353747 0.0017520328231101466 0 0.02738846845050677 0.0020942469481499328 0 0.02727215831739432 0.0019264175418062994 0 0.027095407387982898 0.0022649838518473985 0 0.027128433971767188 0.0022003706158995489 0 0.02738846845050677 0.0020942469481499328 0 0.027128433971767188 0.0022003706158995489 0 0.027550382716801065 0.0020319073515743173 0 0.02738846845050677 0.0020942469481499328 0 0.027550382716801065 0.0020319073515743173 0 0.02812555677353747 0.0017520328231101466 0 0.02738846845050677 0.0020942469481499328 0 0.028803423350390541 0.0018263281244642715 0 0.029159441047018571 0.0010929487293609469 0 0.030089345885084409 0.00057556667588813117 0 0.02812555677353747 0.0017520328231101466 0 0.02727215831739432 0.0019264175418062994 0 0.0287121164926065 0.00075310472214685912 0 0.028412557117459089 0.0016179228604216878 0 0.029076971511096228 0.00087887510553016814 0 0.028803423350390541 0.0018263281244642715 0 0.028291293306574889 0.0015883796550549849 0 0.029159441047018571 0.0010929487293609469 0 0.028291293306574889 0.0015883796550549849 0 0.029159441047018571 0.0010929487293609469 0 0.029406869842366054 0.00034520800008777571 0 0.029159441047018571 0.0010929487293609469 0 0.030089345885084409 0.00057556667588813117 0 0.029406869842366054 0.00034520800008777571 0 0.029047848005063048 0.0017131446284908505 0 0.029956381239800468 0.00071300667413010696 0 0.030089345885084409 0.00057556667588813117 0 0.030193580343337176 7.9580715113309532e-05 0 0.030648806887182578 -0.00016196068439929334 0 0.029076971511096228 0.00087887510553016814 0 0.029464106442123959 0.00041854856463756178 0 0.030089345885084409 0.00057556667588813117 0 0.030193580343337176 7.9580715113309532e-05 0 0.029406869842366054 0.00034520800008777571 0 0.030234426211543243 0.0012327772874359013 0 0.028859709200156451 0.0010521747898523416 0 0.0301012982402977 0.00029273244962159828 0 0.030234426211543243 0.0012327772874359013 0 0.028922511997800188 0.0018805478892791364 0 0.028859709200156451 0.0010521747898523416 0 0.028922511997800188 0.0018805478892791364 0 0.028335110195135654 0.001944188961978374 0 0.028859709200156451 0.0010521747898523416 0 0.028695516877694199 0.0023931267802366602 0 0.030234426211543243 0.0012327772874359013 0 0.028922511997800188 0.0018805478892791364 0 0.027852699770290239 0.0018218983077692866 0 0.028335110195135654 0.001944188961978374 0 0.028859709200156451 0.0010521747898523416 0 0.027852699770290239 0.0018218983077692866 0 0.027651554022077703 0.0012241093138163934 0 0.028859709200156451 0.0010521747898523416 0 0.027651554022077703 0.0012241093138163934 0 0.028859709200156451 0.0010521747898523416 0 0.029142488286265693 -0.00031829067507149555 0 0.030769720964175497 -0.00015089991964645764 0 0.031195532675010195 -0.00071783334952844294 0 0.033651758470454762 -0.0016962175886536537 0 0.033498712292023204 -0.002110569564780917 0 0.033685457286544616 -0.0019890767234597324 0 0.033498712292023204 -0.002110569564780917 0 0.033704124903865075 -0.0017830882158849691 0 0.033685457286544616 -0.0019890767234597324 0 0.033498712292023204 -0.002110569564780917 0 0.033704124903865075 -0.0017830882158849691 0 0.033368862205813921 -0.0014813468804388543 0 0.033704124903865075 -0.0017830882158849691 0 0.033368862205813921 -0.0014813468804388543 0 0.033799333096956444 -0.0014225300345640333 0 0.031195532675010195 -0.00071783334952844294 0 0.031423717520563749 -0.0009257886929922598 0 0.033498712292023204 -0.002110569564780917 0 0.033368862205813921 -0.0014813468804388543 0 0.032168878157135983 -0.0013569568636708563 0 0.029142488286265693 -0.00031829067507149555 0 0.031861569895406457 -0.00085174507295075871 0 0.032168878157135983 -0.0013569568636708563 0 0.028859709200156451 0.0010521747898523416 0 0.029142488286265693 -0.00031829067507149555 0 0.0301012982402977 0.00029273244962159828 0 0.029142488286265693 -0.00031829067507149555 0 0.0301012982402977 0.00029273244962159828 0 0.031861569895406457 -0.00085174507295075871 0 0.029956381239800468 0.00071300667413010696 0 0.030948773390689292 -0.00023838493586721311 0 0.030234426211543243 0.0012327772874359013 0 0.0301012982402977 0.00029273244962159828 0 0.031861569895406457 -0.00085174507295075871 0 0.030193580343337176 7.9580715113309532e-05 0 0.029406869842366054 0.00034520800008777571 0 0.030618655513171542 -0.0002434645278828362 0 0.030193580343337176 7.9580715113309532e-05 0 0.030618655513171542 -0.0002434645278828362 0 0.030648806887182578 -0.00016196068439929334 0 0.031345961960958575 -0.00033620078114893486 0 0.030618655513171542 -0.0002434645278828362 0 0.030648806887182578 -0.00016196068439929334 0 0.031861569895406457 -0.00085174507295075871 0 0.032626656890316817 -0.0012270591645834297 0 0.032168878157135983 -0.0013569568636708563 0 0.031345961960958575 -0.00033620078114893486 0 0.030618655513171542 -0.0002434645278828362 0 0.031830674348860361 -0.00041783363472895738 0 0.032626656890316817 -0.0012270591645834297 0 0.032168878157135983 -0.0013569568636708563 0 0.032927741375531894 -0.0011293007463128032 0 0.030948773390689292 -0.00023838493586721311 0 0.03171470664297793 -0.00054175884182943042 0 0.031345961960958575 -0.00033620078114893486 0 0.031830674348860361 -0.00041783363472895738 0 0.032206759032403026 -0.00041899444641848048 0 0.031345961960958575 -0.00033620078114893486 0 0.032206759032403026 -0.00041899444641848048 0 0.031963391692748769 -0.00039443335661982115 0 0.031830674348860361 -0.00041783363472895738 0 0.032206759032403026 -0.00041899444641848048 0 0.03328288040934458 -0.00034897505643526625 0 0.032206759032403026 -0.00041899444641848048 0 0.031963391692748769 -0.00039443335661982115 0 0.032615435746534936 -0.00038973527088953676 0 0.03171470664297793 -0.00054175884182943042 0 0.032047219326068972 -0.00046361580755927776 0 0.032626656890316817 -0.0012270591645834297 0 0.03325267282730051 -0.00072519590473850014 0 0.033359668383761844 -0.0008677908667800489 0 0.032626656890316817 -0.0012270591645834297 0 0.03325267282730051 -0.00072519590473850014 0 0.03328288040934458 -0.00034897505643526625 0 0.03325267282730051 -0.00072519590473850014 0 0.033359668383761844 -0.0008677908667800489 0 0.033763911201046951 -0.00055269263877206468 0 0.033359668383761844 -0.0008677908667800489 0 0.033980158116351786 -0.00075949854280506972 0 0.033571065457655619 -0.0010784702764679379 0 0.033359668383761844 -0.0008677908667800489 0 0.033980158116351786 -0.00075949854280506972 0 0.033763911201046951 -0.00055269263877206468 0 0.033980158116351786 -0.00075949854280506972 0 0.033571065457655619 -0.0010784702764679379 0 0.033953904770564314 -0.0010976159294403887 0 0.033571065457655619 -0.0010784702764679379 0 0.033953904770564314 -0.0010976159294403887 0 0.033799333096956444 -0.0014225300345640333 0 0.033368862205813921 -0.0014813468804388543 0 0.033571065457655619 -0.0010784702764679379 0 0.033799333096956444 -0.0014225300345640333 0 0.033368862205813921 -0.0014813468804388543 0 0.033571065457655619 -0.0010784702764679379 0 0.032927741375531894 -0.0011293007463128032 0 0.032626656890316817 -0.0012270591645834297 0 0.033359668383761844 -0.0008677908667800489 0 0.032927741375531894 -0.0011293007463128032 0 0.033368862205813921 -0.0014813468804388543 0 0.032168878157135983 -0.0013569568636708563 0 0.032927741375531894 -0.0011293007463128032 0 0.033359668383761844 -0.0008677908667800489 0 0.033571065457655619 -0.0010784702764679379 0 0.032927741375531894 -0.0011293007463128032 0 0.031442317026200463 -5.9673721456032193e-05 0 0.031569535053544331 -0.00024729767186848972 0 0.031657573648694246 -0.00028394435847147809 0 0.031401478892876013 0.0001348367836744876 0 0.031442317026200463 -5.9673721456032193e-05 0 0.031657573648694246 -0.00028394435847147809 0 0.031401478892876013 0.0001348367836744876 0 0.031442317026200463 -5.9673721456032193e-05 0 0.031319412970204061 0.00012670113274315339 0 0.031227102204575755 0.00030847334498491382 0 0.031319412970204061 0.00012670113274315339 0 0.031205606423383013 0.00022043662992609852 0 0.031037755186193013 0.00024496453224506662 0 0.031205606423383013 0.00022043662992609852 0 0.031319597391922749 4.9376615793241949e-05 0 0.031319412970204061 0.00012670113274315339 0 0.031205606423383013 0.00022043662992609852 0 0.031319597391922749 4.9376615793241949e-05 0 0.031442317026200463 -5.9673721456032193e-05 0 0.031319412970204061 0.00012670113274315339 0 0.031319597391922749 4.9376615793241949e-05 0 0.031442317026200463 -5.9673721456032193e-05 0 0.031319597391922749 4.9376615793241949e-05 0 0.031305420525505404 -4.7337666919876818e-05 0 0.031037755186193013 0.00024496453224506662 0 0.031319597391922749 4.9376615793241949e-05 0 0.031305420525505404 -4.7337666919876818e-05 0 0.031037755186193013 0.00024496453224506662 0 0.031305420525505404 -4.7337666919876818e-05 0 0.031022604816277645 -2.1598020230995487e-05 0 0.031305420525505404 -4.7337666919876818e-05 0 0.031387123307404896 -0.00019759918348620793 0 0.031022604816277645 -2.1598020230995487e-05 0 0.031305420525505404 -4.7337666919876818e-05 0 0.031387123307404896 -0.00019759918348620793 0 0.031569535053544331 -0.00024729767186848972 0 0.031442317026200463 -5.9673721456032193e-05 0 0.031305420525505404 -4.7337666919876818e-05 0 0.031569535053544331 -0.00024729767186848972 0 0.031387123307404896 -0.00019759918348620793 0 0.031569535053544331 -0.00024729767186848972 0 0.031704779753108939 -0.00033524265893506881 0 0.031251979150281453 -0.00022667120376361751 0 0.03144214216808959 -0.00032269781146078013 0 0.031704779753108939 -0.00033524265893506881 0 0.031387123307404896 -0.00019759918348620793 0 0.031251979150281453 -0.00022667120376361751 0 0.031704779753108939 -0.00033524265893506881 0 0.031387123307404896 -0.00019759918348620793 0 0.031251979150281453 -0.00022667120376361751 0 0.031022604816277645 -2.1598020230995487e-05 0 0.030601341012828676 0.0002681418435789684 0 0.031037755186193013 0.00024496453224506662 0 0.031022604816277645 -2.1598020230995487e-05 0 0.030601341012828676 0.0002681418435789684 0 0.031022604816277645 -2.1598020230995487e-05 0 0.030648806887182578 -0.00016196068439929334 0 0.031251979150281453 -0.00022667120376361751 0 0.031022604816277645 -2.1598020230995487e-05 0 0.030648806887182578 -0.00016196068439929334 0 0.031251979150281453 -0.00022667120376361751 0 0.030648806887182578 -0.00016196068439929334 0 0.03144214216808959 -0.00032269781146078013 0 0.031345961960958575 -0.00033620078114893486 0 0.030648806887182578 -0.00016196068439929334 0 0.03144214216808959 -0.00032269781146078013 0 0.03144214216808959 -0.00032269781146078013 0 0.031963391692748769 -0.00039443335661982115 0 0.032093593110260006 -0.00039795570572858849 0 0.031345961960958575 -0.00033620078114893486 0 0.03144214216808959 -0.00032269781146078013 0 0.031963391692748769 -0.00039443335661982115 0 0.031963391692748769 -0.00039443335661982115 0 0.032093593110260006 -0.00039795570572858849 0 0.032615435746534936 -0.00038973527088953676 0 0.032093593110260006 -0.00039795570572858849 0 0.032652845967893605 -0.00034880467140343451 0 0.032615435746534936 -0.00038973527088953676 0 0.032093593110260006 -0.00039795570572858849 0 0.032185823613375811 -0.00038815742166150078 0 0.032652845967893605 -0.00034880467140343451 0 0.032093593110260006 -0.00039795570572858849 0 0.031704779753108939 -0.00033524265893506881 0 0.032185823613375811 -0.00038815742166150078 0 0.03144214216808959 -0.00032269781146078013 0 0.032093593110260006 -0.00039795570572858849 0 0.031704779753108939 -0.00033524265893506881 0 0.031704779753108939 -0.00033524265893506881 0 0.031845861453950013 -0.00034869236515074038 0 0.032185823613375811 -0.00038815742166150078 0 0.031569535053544331 -0.00024729767186848972 0 0.031704779753108939 -0.00033524265893506881 0 0.031845861453950013 -0.00034869236515074038 0 0.032185823613375811 -0.00038815742166150078 0 0.032096701109056588 -0.00036533440978461974 0 0.032615153876721932 -0.00030781384804570071 0 0.031845861453950013 -0.00034869236515074038 0 0.032185823613375811 -0.00038815742166150078 0 0.032096701109056588 -0.00036533440978461974 0 0.033128586902129484 4.8221260156066785e-05 0 0.032772071980768314 3.9469496945952817e-05 0 0.032401810335531647 -0.00010876511430872041 0 0.03266307830044711 -9.9354104474747495e-05 0 0.032190887472793035 -7.6512342907597501e-05 0 0.031845861453950013 -0.00034869236515074038 0 0.032096701109056588 -0.00036533440978461974 0 0.031657573648694246 -0.00028394435847147809 0 0.032419216906941759 -4.7730875805698762e-05 0 0.032772071980768314 3.9469496945952817e-05 0 0.032401810335531647 -0.00010876511430872041 0 0.031569535053544331 -0.00024729767186848972 0 0.031845861453950013 -0.00034869236515074038 0 0.031657573648694246 -0.00028394435847147809 0 0.034981756675175786 -5.0579800209855201e-07 0 0.034982825389640114 -1.0024208228983933e-06 0 0.034989775479794816 -5.4868560321917646e-07 0 0.034988976871014321 9.8360244045007705e-07 0 0.034993790002148618 -6.0181092085447431e-08 0 0.033745588531773903 0.00014982519285180882 0 0.034379623082024934 -4.6509322309075984e-06 0 0.034981756675175786 -5.0579800209855201e-07 0 0.034975540152058671 4.05222775735667e-06 0 0.034982825389640114 -1.0024208228983933e-06 0 0.033128586902129484 4.8221260156066785e-05 0 0.032772071980768314 3.9469496945952817e-05 0 0.033405328552464433 0.00017787357634748219 0 0.032936650010723739 0.00051400392349807453 0 0.033745588531773903 0.00014982519285180882 0 0.03266307830044711 -9.9354104474747495e-05 0 0.033180384631764516 -2.841074249734369e-06 0 0.032096701109056588 -0.00036533440978461974 0 0.032615153876721932 -0.00030781384804570071 0 0.032958699316895622 -0.00012010335391139516 0 0.033128586902129484 4.8221260156066785e-05 0 0.033405328552464433 0.00017787357634748219 0 0.033855062464729573 0.00018845475846794509 0 0.032615153876721932 -0.00030781384804570071 0 0.032958699316895622 -0.00012010335391139516 0 0.033167946807930782 -0.00021916596934402262 0 0.033405328552464433 0.00017787357634748219 0 0.033855062464729573 0.00018845475846794509 0 0.034083014695060837 0.00019807682837937282 0 0.032958699316895622 -0.00012010335391139516 0 0.033167946807930782 -0.00021916596934402262 0 0.033781166169537857 -4.3965270814123104e-05 0 0.033167946807930782 -0.00021916596934402262 0 0.033725418900699931 -0.00010895891260694457 0 0.033781166169537857 -4.3965270814123104e-05 0 0.032615153876721932 -0.00030781384804570071 0 0.033167946807930782 -0.00021916596934402262 0 0.032652845967893605 -0.00034880467140343451 0 0.032185823613375811 -0.00038815742166150078 0 0.032615153876721932 -0.00030781384804570071 0 0.032652845967893605 -0.00034880467140343451 0 0.033167946807930782 -0.00021916596934402262 0 0.032652845967893605 -0.00034880467140343451 0 0.033085913821986085 -0.00029104064425950296 0 0.032652845967893605 -0.00034880467140343451 0 0.032615435746534936 -0.00038973527088953676 0 0.033085913821986085 -0.00029104064425950296 0 0.033167946807930782 -0.00021916596934402262 0 0.033085913821986085 -0.00029104064425950296 0 0.033725418900699931 -0.00010895891260694457 0 0.033085913821986085 -0.00029104064425950296 0 0.033725418900699931 -0.00010895891260694457 0 0.03328288040934458 -0.00034897505643526625 0 0.033725418900699931 -0.00010895891260694457 0 0.034322224792137812 1.1187151497315591e-07 0 0.034242575151234099 -4.3583546714014161e-05 0 0.033725418900699931 -0.00010895891260694457 0 0.034322224792137812 1.1187151497315591e-07 0 0.033781166169537857 -4.3965270814123104e-05 0 0.034322224792137812 1.1187151497315591e-07 0 0.034999018574884251 4.3077641358171315e-08 0 0.034242575151234099 -4.3583546714014161e-05 0 0.034322224792137812 1.1187151497315591e-07 0 0.034999018574884251 4.3077641358171315e-08 0 0.034563222679720798 8.2359727396403339e-05 0 0.034999018574884251 4.3077641358171315e-08 0 0.034563222679720798 8.2359727396403339e-05 0 0.034998096385648304 1.4092135306823791e-07 0 0.034322224792137812 1.1187151497315591e-07 0 0.034563222679720798 8.2359727396403339e-05 0 0.033781166169537857 -4.3965270814123104e-05 0 0.032958699316895622 -0.00012010335391139516 0 0.034563222679720798 8.2359727396403339e-05 0 0.033781166169537857 -4.3965270814123104e-05 0 0.033180384631764516 -2.841074249734369e-06 0 0.033475781308130649 7.3659756370401025e-05 0 0.033855062464729573 0.00018845475846794509 0 0.034563222679720798 8.2359727396403339e-05 0 0.034083014695060837 0.00019807682837937282 0 0.03499281621937865 -5.5217721569302554e-07 0 0.035000002544057787 -1.1931782401619587e-09 0 0.034999985969792348 2.1480134580439036e-09 0 0.034563222679720798 8.2359727396403339e-05 0 0.034083014695060837 0.00019807682837937282 0 0.034998096385648304 1.4092135306823791e-07 0 0.034379623082024934 -4.6509322309075984e-06 0 0.034998787669943458 3.3431115657380864e-08 0 0.03499998737192167 5.7824037379451245e-10 0 0.034993790002148618 -6.0181092085447431e-08 0 0.03499515800182796 9.868126203160505e-07 0 0.034999995024352915 7.0574423764235043e-10 0 0.034993797797589828 1.2176015699865741e-06 0 0.03499281621937865 -5.5217721569302554e-07 0 0.034999985969792348 2.1480134580439036e-09 0 0.034989775479794816 -5.4868560321917646e-07 0 0.034982825389640114 -1.0024208228983933e-06 0 0.03499281621937865 -5.5217721569302554e-07 0 0.034989775479794816 -5.4868560321917646e-07 0 0.034158790200953512 -0.00023959713951841896 0 0.03328288040934458 -0.00034897505643526625 0 0.034403709850430904 -4.6900500127482209e-05 0 0.034158790200953512 -0.00023959713951841896 0 0.034633638686423419 -7.681206706875388e-05 0 0.03429761313445405 -0.00040267471792674496 0 0.034158790200953512 -0.00023959713951841896 0 0.033763911201046951 -0.00055269263877206468 0 0.03429761313445405 -0.00040267471792674496 0 0.033980158116351786 -0.00075949854280506972 0 0.033763911201046951 -0.00055269263877206468 0 0.03429761313445405 -0.00040267471792674496 0 0.034158790200953512 -0.00023959713951841896 0 0.033763911201046951 -0.00055269263877206468 0 0.03328288040934458 -0.00034897505643526625 0 0.03325267282730051 -0.00072519590473850014 0 0.033763911201046951 -0.00055269263877206468 0 0.03328288040934458 -0.00034897505643526625 0 0.032206759032403026 -0.00041899444641848048 0 0.032615435746534936 -0.00038973527088953676 0 0.03328288040934458 -0.00034897505643526625 0 0.032615435746534936 -0.00038973527088953676 0 0.033085913821986085 -0.00029104064425950296 0 0.03328288040934458 -0.00034897505643526625 0 0.033725418900699931 -0.00010895891260694457 0 0.03328288040934458 -0.00034897505643526625 0 0.034242575151234099 -4.3583546714014161e-05 0 0.03328288040934458 -0.00034897505643526625 0 0.034242575151234099 -4.3583546714014161e-05 0 0.034403709850430904 -4.6900500127482209e-05 0 0.034999018574884251 4.3077641358171315e-08 0 0.034242575151234099 -4.3583546714014161e-05 0 0.034999100665035289 1.1186789483844476e-08 0 0.034242575151234099 -4.3583546714014161e-05 0 0.034999100665035289 1.1186789483844476e-08 0 0.034403709850430904 -4.6900500127482209e-05 0 0.034999100665035289 1.1186789483844476e-08 0 0.034403709850430904 -4.6900500127482209e-05 0 0.034999411456927122 4.7905569995452804e-08 0 0.034158790200953512 -0.00023959713951841896 0 0.034403709850430904 -4.6900500127482209e-05 0 0.034633638686423419 -7.681206706875388e-05 0 0.034999411456927122 4.7905569995452804e-08 0 0.03499969568187427 -1.1610527752721804e-08 0 0.034633638686423419 -7.681206706875388e-05 0 0.034403709850430904 -4.6900500127482209e-05 0 0.034999411456927122 4.7905569995452804e-08 0 0.034633638686423419 -7.681206706875388e-05 0 0.03499969568187427 -1.1610527752721804e-08 0 0.03486708344441522 -6.0021149594687109e-05 0 0.034633638686423419 -7.681206706875388e-05 0 0.03499969568187427 -1.1610527752721804e-08 0 0.03486708344441522 -6.0021149594687109e-05 0 0.034999883888294475 -1.4904798355551733e-08 0 0.03486708344441522 -6.0021149594687109e-05 0 0.034868860033935946 -0.00016995349818350688 0 0.034655544572330936 -0.00024968198479666676 0 0.03486708344441522 -6.0021149594687109e-05 0 0.034633638686423419 -7.681206706875388e-05 0 0.034655544572330936 -0.00024968198479666676 0 0.034999883888294475 -1.4904798355551733e-08 0 0.034976854514630867 -5.1804897503221869e-05 0 0.035000031403719649 -3.0049386272385219e-08 0 0.03486708344441522 -6.0021149594687109e-05 0 0.034999883888294475 -1.4904798355551733e-08 0 0.034976854514630867 -5.1804897503221869e-05 0 0.03486708344441522 -6.0021149594687109e-05 0 0.034976854514630867 -5.1804897503221869e-05 0 0.034868860033935946 -0.00016995349818350688 0 0.034976854514630867 -5.1804897503221869e-05 0 0.035015026358801826 -0.00017543902858994958 0 0.034868860033935946 -0.00016995349818350688 0 0.034856159669846787 -0.00023670661189034427 0 0.034835932844094648 -0.00028042045206483915 0 0.035015026358801826 -0.00017543902858994958 0 0.034868860033935946 -0.00016995349818350688 0 0.034831147206604698 -0.00039327616044856022 0 0.034868860033935946 -0.00016995349818350688 0 0.034831147206604698 -0.00039327616044856022 0 0.034655544572330936 -0.00024968198479666676 0 0.034831147206604698 -0.00039327616044856022 0 0.034655544572330936 -0.00024968198479666676 0 0.034794397919266515 -0.00041857372624929377 0 0.034831147206604698 -0.00039327616044856022 0 0.034794397919266515 -0.00041857372624929377 0 0.034773792224610037 -0.00039525233497145283 0 0.034831147206604698 -0.00039327616044856022 0 0.034773792224610037 -0.00039525233497145283 0 0.034710053186086755 -0.00044283128050776575 0 0.034678088759931038 -0.00041844193807307655 0 0.034831147206604698 -0.00039327616044856022 0 0.034710053186086755 -0.00044283128050776575 0 0.034633638686423419 -7.681206706875388e-05 0 0.034655544572330936 -0.00024968198479666676 0 0.03429761313445405 -0.00040267471792674496 0 0.034487993956773273 -0.0005081680297549056 0 0.034510061462073589 -0.00071173420655023406 0 0.034655544572330936 -0.00024968198479666676 0 0.03436386303361337 -0.00065365548964185164 0 0.034499184133703509 -0.00076778568875630155 0 0.034655544572330936 -0.00024968198479666676 0 0.034499184133703509 -0.00076778568875630155 0 0.034683270124061458 -0.00071007323004845108 0 0.033980158116351786 -0.00075949854280506972 0 0.03429761313445405 -0.00040267471792674496 0 0.03436386303361337 -0.00065365548964185164 0 0.034655544572330936 -0.00024968198479666676 0 0.03429761313445405 -0.00040267471792674496 0 0.03436386303361337 -0.00065365548964185164 0 0.033980158116351786 -0.00075949854280506972 0 0.03436386303361337 -0.00065365548964185164 0 0.034235998847458184 -0.00094276268533069051 0 0.033980158116351786 -0.00075949854280506972 0 0.034235998847458184 -0.00094276268533069051 0 0.033953904770564314 -0.0010976159294403887 0 0.034235998847458184 -0.00094276268533069051 0 0.033953904770564314 -0.0010976159294403887 0 0.034139444142171071 -0.0012850247661128976 0 0.033953904770564314 -0.0010976159294403887 0 0.034139444142171071 -0.0012850247661128976 0 0.033799333096956444 -0.0014225300345640333 0 0.034139444142171071 -0.0012850247661128976 0 0.034422252240601373 -0.0011179446944494706 0 0.034285638991506912 -0.0015260373946937552 0 0.034422252240601373 -0.0011179446944494706 0 0.034622730116505976 -0.0012721065941062426 0 0.034285638991506912 -0.0015260373946937552 0 0.034235998847458184 -0.00094276268533069051 0 0.034139444142171071 -0.0012850247661128976 0 0.034422252240601373 -0.0011179446944494706 0 0.034422252240601373 -0.0011179446944494706 0 0.034499184133703509 -0.00076778568875630155 0 0.034647577943957647 -0.0010222060938533948 0 0.034235998847458184 -0.00094276268533069051 0 0.034422252240601373 -0.0011179446944494706 0 0.034499184133703509 -0.00076778568875630155 0 0.03436386303361337 -0.00065365548964185164 0 0.034235998847458184 -0.00094276268533069051 0 0.034499184133703509 -0.00076778568875630155 0 0.034683270124061458 -0.00071007323004845108 0 0.034647577943957647 -0.0010222060938533948 0 0.035032113661001854 -0.0012449155968808931 0 0.034510061462073589 -0.00071173420655023406 0 0.03441264091188128 -0.0011554981560793283 0 0.034499184133703509 -0.00076778568875630155 0 0.034683270124061458 -0.00071007323004845108 0 0.034647577943957647 -0.0010222060938533948 0 0.034773792224610037 -0.00039525233497145283 0 0.034770687837898454 -0.00033993814559291524 0 0.034702664993972378 -0.00038619123376667976 0 0.034794397919266515 -0.00041857372624929377 0 0.034773792224610037 -0.00039525233497145283 0 0.034770687837898454 -0.00033993814559291524 0 0.034647577943957647 -0.0010222060938533948 0 0.035032113661001854 -0.0012449155968808931 0 0.034622730116505976 -0.0012721065941062426 0 0.035032113661001854 -0.0012449155968808931 0 0.034622730116505976 -0.0012721065941062426 0 0.034717230898512461 -0.0015639839244257208 0 0.034422252240601373 -0.0011179446944494706 0 0.034647577943957647 -0.0010222060938533948 0 0.034622730116505976 -0.0012721065941062426 0 0.034622730116505976 -0.0012721065941062426 0 0.034717230898512461 -0.0015639839244257208 0 0.034285638991506912 -0.0015260373946937552 0 0.034717230898512461 -0.0015639839244257208 0 0.034183458731384384 -0.0018872368139133326 0 0.034285638991506912 -0.0015260373946937552 0 0.034290103375378619 -0.0014150058238465864 0 0.034245660523830913 -0.0015013441694167724 0 0.033896381581028451 -0.0019168444424962345 0 0.033894921395485993 -0.0018849591479979844 0 0.033917935265133321 -0.0017911989550993147 0 0.03441264091188128 -0.0011554981560793283 0 0.034374448900940671 -0.001279615961135346 0 0.03441264091188128 -0.0011554981560793283 0 0.034290103375378619 -0.0014150058238465864 0 0.033896381581028451 -0.0019168444424962345 0 0.0339509547325458 -0.0019454643954122739 0 0.033894921395485993 -0.0018849591479979844 0 0.0339509547325458 -0.0019454643954122739 0 0.033894921395485993 -0.0018849591479979844 0 0.033892196440032066 -0.0019273418642944695 0 0.033894921395485993 -0.0018849591479979844 0 0.033826954092966204 -0.0019435527424881054 0 0.033917935265133321 -0.0017911989550993147 0 0.033894921395485993 -0.0018849591479979844 0 0.033892196440032066 -0.0019273418642944695 0 0.033826954092966204 -0.0019435527424881054 0 0.033892196440032066 -0.0019273418642944695 0 0.033799913027515775 -0.0019479365624835705 0 0.033962885695116872 -0.0019238629017374464 0 0.03374688620310138 -0.0019476628499557006 0 0.033799913027515775 -0.0019479365624835705 0 0.033826954092966204 -0.0019435527424881054 0 0.033892196440032066 -0.0019273418642944695 0 0.033799913027515775 -0.0019479365624835705 0 0.033826954092966204 -0.0019435527424881054 0 0.0339509547325458 -0.0019454643954122739 0 0.034036870889436362 -0.0019067889483918474 0 0.034183458731384384 -0.0018872368139133326 0 0.0339509547325458 -0.0019454643954122739 0 0.033892196440032066 -0.0019273418642944695 0 0.034036870889436362 -0.0019067889483918474 0 0.034139928451137204 -0.0019573081098236849 0 0.034036870889436362 -0.0019067889483918474 0 0.034183458731384384 -0.0018872368139133326 0 0.033892196440032066 -0.0019273418642944695 0 0.034036870889436362 -0.0019067889483918474 0 0.033962885695116872 -0.0019238629017374464 0 0.034139928451137204 -0.0019573081098236849 0 0.034036870889436362 -0.0019067889483918474 0 0.033962885695116872 -0.0019238629017374464 0 0.033346769672982682 -0.0018141461287643551 0 0.033492601853020831 -0.0018790922684573024 0 0.034139928451137204 -0.0019573081098236849 0 0.034183458731384384 -0.0018872368139133326 0 0.034003399382200226 -0.0018274583928729574 0 0.034139928451137204 -0.0019573081098236849 0 0.034003399382200226 -0.0018274583928729574 0 0.033685457286544616 -0.0019890767234597324 0 0.033704124903865075 -0.0017830882158849691 0 0.034003399382200226 -0.0018274583928729574 0 0.033685457286544616 -0.0019890767234597324 0 0.033704124903865075 -0.0017830882158849691 0 0.034003399382200226 -0.0018274583928729574 0 0.033988991896364673 -0.001598901914035993 0 0.033704124903865075 -0.0017830882158849691 0 0.033799333096956444 -0.0014225300345640333 0 0.033988991896364673 -0.001598901914035993 0 0.034139444142171071 -0.0012850247661128976 0 0.033799333096956444 -0.0014225300345640333 0 0.033988991896364673 -0.001598901914035993 0 0.034139444142171071 -0.0012850247661128976 0 0.033988991896364673 -0.001598901914035993 0 0.034285638991506912 -0.0015260373946937552 0 0.034183458731384384 -0.0018872368139133326 0 0.034003399382200226 -0.0018274583928729574 0 0.034285638991506912 -0.0015260373946937552 0 0.034003399382200226 -0.0018274583928729574 0 0.033988991896364673 -0.001598901914035993 0 0.034285638991506912 -0.0015260373946937552 0 0.034729512923662824 -0.0017743483858016027 0 0.034781414178867785 -0.0014965017789982868 0 0.034999829051679698 -0.0016562066943727621 0 0.034729512923662824 -0.0017743483858016027 0 0.034781414178867785 -0.0014965017789982868 0 0.034576864531815923 -0.001632283499572792 0 0.034781414178867785 -0.0014965017789982868 0 0.034576864531815923 -0.001632283499572792 0 0.03452905159507292 -0.0014362036197473008 0 0.034781414178867785 -0.0014965017789982868 0 0.034999829051679698 -0.0016562066943727621 0 0.035011296791042958 -0.0013952842959569075 0 0.035194367876415548 -0.0015307166212566098 0 0.034999829051679698 -0.0016562066943727621 0 0.035011296791042958 -0.0013952842959569075 0 0.035194367876415548 -0.0015307166212566098 0 0.035207232874037223 -0.0013161038713530441 0 0.035371417939362597 -0.0014426625238669331 0 0.035194367876415548 -0.0015307166212566098 0 0.035207232874037223 -0.0013161038713530441 0 0.035011296791042958 -0.0013952842959569075 0 0.035194367876415548 -0.0015307166212566098 0 0.035203297835224072 -0.0017464858362123839 0 0.035354933430051902 -0.0016288580013995785 0 0.035194367876415548 -0.0015307166212566098 0 0.034999829051679698 -0.0016562066943727621 0 0.035203297835224072 -0.0017464858362123839 0 0.032031038960582646 -0.0019593464473131707 0 0.03208560919345884 -0.0018293931308579103 0 0.035022247702132213 -0.0020247836820566308 0 0.035203297835224072 -0.0017464858362123839 0 0.035422590972626775 -0.0018516596095825085 0 0.034999829051679698 -0.0016562066943727621 0 0.035022247702132213 -0.0020247836820566308 0 0.035203297835224072 -0.0017464858362123839 0 0.034729512923662824 -0.0017743483858016027 0 0.035022247702132213 -0.0020247836820566308 0 0.034467387428305143 -0.0020588795786326657 0 0.032031038960582646 -0.0019593464473131707 0 0.033632916484125433 -0.0020380367799195283 0 0.033899913897502847 -0.0019724300683671135 0 0.033906499104875615 -0.0019498813321632046 0 0.033902781089318185 -0.0019559805212104263 0 0.034729512923662824 -0.0017743483858016027 0 0.034999829051679698 -0.0016562066943727621 0 0.035022247702132213 -0.0020247836820566308 0 0.033899913897502847 -0.0019724300683671135 0 0.033902781089318185 -0.0019559805212104263 0 0.033826954092966204 -0.0019435527424881054 0 0.034729512923662824 -0.0017743483858016027 0 0.034467387428305143 -0.0020588795786326657 0 0.034484707390936863 -0.0018059405620076527 0 0.034467387428305143 -0.0020588795786326657 0 0.034255561538552901 -0.0018849316461674564 0 0.034484707390936863 -0.0018059405620076527 0 0.034255561538552901 -0.0018849316461674564 0 0.033826954092966204 -0.0019435527424881054 0 0.034084322262728686 -0.0018376835997031638 0 0.03374688620310138 -0.0019476628499557006 0 0.033899913897502847 -0.0019724300683671135 0 0.033826954092966204 -0.0019435527424881054 0 0.034467387428305143 -0.0020588795786326657 0 0.034255561538552901 -0.0018849316461674564 0 0.033826954092966204 -0.0019435527424881054 0 0.033632916484125433 -0.0020380367799195283 0 0.033816614356109227 -0.0020343733477729549 0 0.033826954092966204 -0.0019435527424881054 0 0.033917935265133321 -0.0017911989550993147 0 0.034084322262728686 -0.0018376835997031638 0 0.033615926757308977 -0.0013256483731813827 0 0.033917935265133321 -0.0017911989550993147 0 0.034164180933065218 -0.001397201364389506 0 0.033917935265133321 -0.0017911989550993147 0 0.034084322262728686 -0.0018376835997031638 0 0.034303901105728916 -0.0016919633111651526 0 0.033917935265133321 -0.0017911989550993147 0 0.034303901105728916 -0.0016919633111651526 0 0.034164180933065218 -0.001397201364389506 0 0.034484707390936863 -0.0018059405620076527 0 0.034576864531815923 -0.001632283499572792 0 0.034303901105728916 -0.0016919633111651526 0 0.034729512923662824 -0.0017743483858016027 0 0.034484707390936863 -0.0018059405620076527 0 0.034576864531815923 -0.001632283499572792 0 0.034255561538552901 -0.0018849316461674564 0 0.034484707390936863 -0.0018059405620076527 0 0.034303901105728916 -0.0016919633111651526 0 0.034255561538552901 -0.0018849316461674564 0 0.034084322262728686 -0.0018376835997031638 0 0.034303901105728916 -0.0016919633111651526 0 0.034303901105728916 -0.0016919633111651526 0 0.03452905159507292 -0.0014362036197473008 0 0.034164180933065218 -0.001397201364389506 0 0.034576864531815923 -0.001632283499572792 0 0.034303901105728916 -0.0016919633111651526 0 0.03452905159507292 -0.0014362036197473008 0 0.03452905159507292 -0.0014362036197473008 0 0.034433722015291268 -0.00118794597203149 0 0.034816262491173137 -0.001208485667637647 0 0.034433722015291268 -0.00118794597203149 0 0.034676481080782279 -0.00092194348763253628 0 0.034816262491173137 -0.001208485667637647 0 0.03452905159507292 -0.0014362036197473008 0 0.034433722015291268 -0.00118794597203149 0 0.034164180933065218 -0.001397201364389506 0 0.033615926757308977 -0.0013256483731813827 0 0.034164180933065218 -0.001397201364389506 0 0.03408437576439937 -0.00091379474082709802 0 0.034433722015291268 -0.00118794597203149 0 0.034164180933065218 -0.001397201364389506 0 0.03408437576439937 -0.00091379474082709802 0 0.03441264091188128 -0.0011554981560793283 0 0.03450664050980131 -0.00088699541853680267 0 0.034773792224610037 -0.00039525233497145283 0 0.034702664993972378 -0.00038619123376667976 0 0.034710053186086755 -0.00044283128050776575 0 0.034433722015291268 -0.00118794597203149 0 0.03408437576439937 -0.00091379474082709802 0 0.034676481080782279 -0.00092194348763253628 0 0.03408437576439937 -0.00091379474082709802 0 0.034676481080782279 -0.00092194348763253628 0 0.03463635938997519 -0.00053127187348316789 0 0.03450664050980131 -0.00088699541853680267 0 0.034570016049164293 -0.00078030476412982734 0 0.034676481080782279 -0.00092194348763253628 0 0.034855686239945533 -0.00075303451087267703 0 0.03463635938997519 -0.00053127187348316789 0 0.034676481080782279 -0.00092194348763253628 0 0.034816262491173137 -0.001208485667637647 0 0.035012652962162952 -0.0009667252807674414 0 0.034855686239945533 -0.00075303451087267703 0 0.035012652962162952 -0.0009667252807674414 0 0.034989530216687353 -0.00060296257459478849 0 0.034676481080782279 -0.00092194348763253628 0 0.034855686239945533 -0.00075303451087267703 0 0.035012652962162952 -0.0009667252807674414 0 0.034816262491173137 -0.001208485667637647 0 0.035061636558620261 -0.0011904289800804386 0 0.035012652962162952 -0.0009667252807674414 0 0.034816262491173137 -0.001208485667637647 0 0.035011296791042958 -0.0013952842959569075 0 0.035061636558620261 -0.0011904289800804386 0 0.034781414178867785 -0.0014965017789982868 0 0.034816262491173137 -0.001208485667637647 0 0.035011296791042958 -0.0013952842959569075 0 0.034781414178867785 -0.0014965017789982868 0 0.03452905159507292 -0.0014362036197473008 0 0.034816262491173137 -0.001208485667637647 0 0.035207232874037223 -0.0013161038713530441 0 0.035011296791042958 -0.0013952842959569075 0 0.035061636558620261 -0.0011904289800804386 0 0.035061636558620261 -0.0011904289800804386 0 0.035244428000334102 -0.001072618570316176 0 0.035012652962162952 -0.0009667252807674414 0 0.035207232874037223 -0.0013161038713530441 0 0.035061636558620261 -0.0011904289800804386 0 0.035244428000334102 -0.001072618570316176 0 0.035244428000334102 -0.001072618570316176 0 0.035012652962162952 -0.0009667252807674414 0 0.035288645700976645 -0.00076425734048203911 0 0.035012652962162952 -0.0009667252807674414 0 0.034989530216687353 -0.00060296257459478849 0 0.035288645700976645 -0.00076425734048203911 0 0.035175674045771432 -0.00053202187226978974 0 0.034989530216687353 -0.00060296257459478849 0 0.035288645700976645 -0.00076425734048203911 0 0.035175674045771432 -0.00053202187226978974 0 0.034989530216687353 -0.00060296257459478849 0 0.034962163719234787 -0.00041774069358306169 0 0.034855686239945533 -0.00075303451087267703 0 0.034816357875134159 -0.00048238020595886571 0 0.034989530216687353 -0.00060296257459478849 0 0.034855686239945533 -0.00075303451087267703 0 0.034816357875134159 -0.00048238020595886571 0 0.03463635938997519 -0.00053127187348316789 0 0.034816357875134159 -0.00048238020595886571 0 0.034989530216687353 -0.00060296257459478849 0 0.034962163719234787 -0.00041774069358306169 0 0.034816357875134159 -0.00048238020595886571 0 0.034962163719234787 -0.00041774069358306169 0 0.034877884643739823 -0.00033977161668906288 0 0.034962163719234787 -0.00041774069358306169 0 0.034877884643739823 -0.00033977161668906288 0 0.035003594312492656 -0.00026336082235715592 0 0.034962163719234787 -0.00041774069358306169 0 0.035116126825174419 -0.00037257678627602287 0 0.035003594312492656 -0.00026336082235715592 0 0.035116126825174419 -0.00037257678627602287 0 0.035111352821433656 -0.00024633512508914356 0 0.03537678659844036 -0.00045772866192303084 0 0.035116126825174419 -0.00037257678627602287 0 0.035111352821433656 -0.00024633512508914356 0 0.035003594312492656 -0.00026336082235715592 0 0.035175674045771432 -0.00053202187226978974 0 0.035116126825174419 -0.00037257678627602287 0 0.03537678659844036 -0.00045772866192303084 0 0.035175674045771432 -0.00053202187226978974 0 0.034962163719234787 -0.00041774069358306169 0 0.035116126825174419 -0.00037257678627602287 0 0.034702664993972378 -0.00038619123376667976 0 0.034710053186086755 -0.00044283128050776575 0 0.03463635938997519 -0.00053127187348316789 0 0.034710053186086755 -0.00044283128050776575 0 0.03463635938997519 -0.00053127187348316789 0 0.034715395234616919 -0.00041044909475408328 0 0.034816357875134159 -0.00048238020595886571 0 0.03463635938997519 -0.00053127187348316789 0 0.034715395234616919 -0.00041044909475408328 0 0.034816357875134159 -0.00048238020595886571 0 0.034877884643739823 -0.00033977161668906288 0 0.034715395234616919 -0.00041044909475408328 0 0.034877884643739823 -0.00033977161668906288 0 0.034715395234616919 -0.00041044909475408328 0 0.034836722565859325 -0.00023940346641903806 0 0.034678088759931038 -0.00041844193807307655 0 0.034710053186086755 -0.00044283128050776575 0 0.034715395234616919 -0.00041044909475408328 0 0.034976854514630867 -5.1804897503221869e-05 0 0.035015026358801826 -0.00017543902858994958 0 0.035033021221520404 -4.5499722185652194e-05 0 0.034678088759931038 -0.00041844193807307655 0 0.034715395234616919 -0.00041044909475408328 0 0.034717433415131761 -0.00020938998032454391 0 0.034856159669846787 -0.00023670661189034427 0 0.034907363059140675 -0.00013727775477334256 0 0.034715395234616919 -0.00041044909475408328 0 0.034717433415131761 -0.00020938998032454391 0 0.034836722565859325 -0.00023940346641903806 0 0.034907363059140675 -0.00013727775477334256 0 0.034999889657478724 -1.8172799263505789e-07 0 0.035033021221520404 -4.5499722185652194e-05 0 0.035000049608640137 -6.688796330672159e-09 0 0.035000031403719649 -3.0049386272385219e-08 0 0.034717433415131761 -0.00020938998032454391 0 0.034836722565859325 -0.00023940346641903806 0 0.034999432858466163 1.2719691722915115e-09 0 0.034976854514630867 -5.1804897503221869e-05 0 0.035033021221520404 -4.5499722185652194e-05 0 0.035000031403719649 -3.0049386272385219e-08 0 0.035168647056019409 -0.00012388017394344058 0 0.035111352821433656 -0.00024633512508914356 0 0.03537678659844036 -0.00045772866192303084 0 0.035028019831996209 -0.00015395564846397026 0 0.03510870045817515 -0.0001409494124797477 0 0.035111352821433656 -0.00024633512508914356 0 0.03510870045817515 -0.0001409494124797477 0 0.035141250477397606 -0.00013141882956585227 0 0.035015622395814891 -7.0476440401747874e-05 0 0.035028019831996209 -0.00015395564846397026 0 0.03510870045817515 -0.0001409494124797477 0 0.035015622395814891 -7.0476440401747874e-05 0 0.03510870045817515 -0.0001409494124797477 0 0.035168647056019409 -0.00012388017394344058 0 0.035111352821433656 -0.00024633512508914356 0 0.035053232702288488 -8.2245016458124369e-05 0 0.035051343854580613 -8.2121875677568796e-05 0 0.035028019831996209 -0.00015395564846397026 0 0.035111352821433656 -0.00024633512508914356 0 0.035003594312492656 -0.00026336082235715592 0 0.034877884643739823 -0.00033977161668906288 0 0.035003594312492656 -0.00026336082235715592 0 0.034958510457004564 -0.00016254912484729478 0 0.034877884643739823 -0.00033977161668906288 0 0.034836722565859325 -0.00023940346641903806 0 0.034958510457004564 -0.00016254912484729478 0 0.035028019831996209 -0.00015395564846397026 0 0.035003594312492656 -0.00026336082235715592 0 0.034958510457004564 -0.00016254912484729478 0 0.035028019831996209 -0.00015395564846397026 0 0.034958510457004564 -0.00016254912484729478 0 0.035015622395814891 -7.0476440401747874e-05 0 0.034999432858466163 1.2719691722915115e-09 0 0.03500046041005369 -7.6806714135035583e-08 0 0.035015622395814891 -7.0476440401747874e-05 0 0.034836722565859325 -0.00023940346641903806 0 0.034999432858466163 1.2719691722915115e-09 0 0.034958510457004564 -0.00016254912484729478 0 0.034999432858466163 1.2719691722915115e-09 0 0.034958510457004564 -0.00016254912484729478 0 0.035015622395814891 -7.0476440401747874e-05 0 0.035141250477397606 -0.00013141882956585227 0 0.03500046041005369 -7.6806714135035583e-08 0 0.035015622395814891 -7.0476440401747874e-05 0 0.035051343854580613 -8.2121875677568796e-05 0 0.035000096278580514 -1.1264117309947899e-07 0 0.035000121224940159 -1.6499621567834823e-07 0 0.035000000041652643 -6.0099963983981696e-11 0 0.035000000443770489 -1.6070577179999998e-10 0 0.035000121224940159 -1.6499621567834823e-07 0 0.035000000443770489 -1.6070577179999998e-10 0 0.035000057974363577 -5.7604112800369115e-08 0 0.035051343854580613 -8.2121875677568796e-05 0 0.035020222847303099 -4.0206986961526463e-05 0 0.035010751298267889 -3.7896094469527984e-06 0 0.035016636798986776 -6.3822932325246597e-06 0 0.035012583019028945 -1.1758768382095374e-05 0 0.035010751298267889 -3.7896094469527984e-06 0 0.035016636798986776 -6.3822932325246597e-06 0 0.035018244029367825 -2.7255043305745088e-06 0 0.035016636798986776 -6.3822932325246597e-06 0 0.035018244029367825 -2.7255043305745088e-06 0 0.035019909106026571 -3.1727421281043143e-06 0 0.035000000443770489 -1.6070577179999998e-10 0 0.035000057974363577 -5.7604112800369115e-08 0 0.034999999079415811 2.2982253311774905e-10 0 0.035018244029367825 -2.7255043305745088e-06 0 0.035015479379639808 -4.548552940037742e-06 0 0.035016598570998245 -2.175248252882583e-06 0 0.035020222847303099 -4.0206986961526463e-05 0 0.035012021121042285 -2.1750519107948681e-05 0 0.035000057974363577 -5.7604112800369115e-08 0 0.034999999079415811 2.2982253311774905e-10 0 0.034999879085028919 4.7236102552813035e-08 0 0.034999999079415811 2.2982253311774905e-10 0 0.034999879085028919 4.7236102552813035e-08 0 0.035000002375444164 -9.1185513417599166e-10 0 0.035015479379639808 -4.548552940037742e-06 0 0.0350105370960355 -9.7767607612299576e-07 0 0.035016598570998245 -2.175248252882583e-06 0 0.035016598570998245 -2.175248252882583e-06 0 0.035012508474631998 2.9924972241161958e-06 0 0.035019909106026571 -3.1727421281043143e-06 0 0.035294165827848722 -0.00012720568206537288 0 0.035160674871602932 -9.5670777667985818e-05 0 0.0350105370960355 -9.7767607612299576e-07 0 0.035016598570998245 -2.175248252882583e-06 0 0.035012508474631998 2.9924972241161958e-06 0 0.035018244029367825 -2.7255043305745088e-06 0 0.035016598570998245 -2.175248252882583e-06 0 0.035019909106026571 -3.1727421281043143e-06 0 0.035016636798986776 -6.3822932325246597e-06 0 0.035019909106026571 -3.1727421281043143e-06 0 0.03502171501741095 -1.3633984451721951e-05 0 0.035030786210661059 -4.8100768698214066e-06 0 0.035019909106026571 -3.1727421281043143e-06 0 0.03502171501741095 -1.3633984451721951e-05 0 0.035294165827848722 -0.00012720568206537288 0 0.03536213522989242 -0.00033719302904265864 0 0.036206962927772458 -0.000497677745133178 0 0.03614167929712498 -0.0009131675664078413 0 0.035921830650940942 -0.00077406746018290288 0 0.03614167929712498 -0.0009131675664078413 0 0.035921830650940942 -0.00077406746018290288 0 0.035970305931988959 -0.0011278558951351094 0 0.035016636798986776 -6.3822932325246597e-06 0 0.03502171501741095 -1.3633984451721951e-05 0 0.035012583019028945 -1.1758768382095374e-05 0 0.03536213522989242 -0.00033719302904265864 0 0.035224028984593314 -0.00061879207374344446 0 0.03502171501741095 -1.3633984451721951e-05 0 0.035012583019028945 -1.1758768382095374e-05 0 0.035015970050462419 -2.2241963574319103e-05 0 0.035145043009945344 -0.00030228601611157331 0 0.035224028984593314 -0.00061879207374344446 0 0.035175674045771432 -0.00053202187226978974 0 0.035288645700976645 -0.00076425734048203911 0 0.03537678659844036 -0.00045772866192303084 0 0.035288645700976645 -0.00076425734048203911 0 0.03537678659844036 -0.00045772866192303084 0 0.03561207664818257 -0.00094968993899008933 0 0.035051343854580613 -8.2121875677568796e-05 0 0.035145043009945344 -0.00030228601611157331 0 0.034972375676221301 -5.3776779713931038e-06 0 0.034961128366445875 -1.0181070372781978e-05 0 0.034981403187494244 -2.1615423975811852e-06 0 0.034961128366445875 -1.0181070372781978e-05 0 0.034981403187494244 -2.1615423975811852e-06 0 0.034980542063822728 -7.6740334175369631e-06 0 0.034981403187494244 -2.1615423975811852e-06 0 0.034990316178145027 -2.4873944080144484e-06 0 0.034980542063822728 -7.6740334175369631e-06 0 0.034999983230914376 -4.6585659099410999e-09 0 0.034990316178145027 -2.4873944080144484e-06 0 0.034999989124246692 5.9062100993964982e-09 0 0.034981403187494244 -2.1615423975811852e-06 0 0.034990316178145027 -2.4873944080144484e-06 0 0.034999989124246692 5.9062100993964982e-09 0 0.034999983230914376 -4.6585659099410999e-09 0 0.034990316178145027 -2.4873944080144484e-06 0 0.034993428787294223 -4.6836719773786703e-06 0 0.034990316178145027 -2.4873944080144484e-06 0 0.034993428787294223 -4.6836719773786703e-06 0 0.034980542063822728 -7.6740334175369631e-06 0 0.034999983230914376 -4.6585659099410999e-09 0 0.034993428787294223 -4.6836719773786703e-06 0 0.034999974891869949 -9.8053935780142347e-09 0 0.03499228942784053 -5.4337350634855836e-06 0 0.034995647051440579 1.2033728958935719e-06 0 0.034980265501064374 1.7791240969433616e-06 0 0.034993428787294223 -4.6836719773786703e-06 0 0.034980542063822728 -7.6740334175369631e-06 0 0.03499228942784053 -5.4337350634855836e-06 0 0.034961128366445875 -1.0181070372781978e-05 0 0.034980542063822728 -7.6740334175369631e-06 0 0.034980265501064374 1.7791240969433616e-06 0 0.034980542063822728 -7.6740334175369631e-06 0 0.03499228942784053 -5.4337350634855836e-06 0 0.034980265501064374 1.7791240969433616e-06 0 0.034993428787294223 -4.6836719773786703e-06 0 0.03499228942784053 -5.4337350634855836e-06 0 0.034993692855851563 -5.3336243830151256e-06 0 0.03499228942784053 -5.4337350634855836e-06 0 0.034993692855851563 -5.3336243830151256e-06 0 0.034992992151791698 -5.0872860701579505e-06 0 0.03505840994793983 -0.00028091096211964474 0 0.035046236073578353 -0.00032392288502682118 0 0.035000003050194323 -4.353481155029654e-09 0 0.035000496497187374 -5.9901179205212292e-07 0 0.035000002375444164 -9.1185513417599166e-10 0 0.034993428787294223 -4.6836719773786703e-06 0 0.034999974891869949 -9.8053935780142347e-09 0 0.034993692855851563 -5.3336243830151256e-06 0 0.035000210229751368 -1.7940977317821095e-07 0 0.035108534056624889 -6.8272835668134748e-05 0 0.035000003050194323 -4.353481155029654e-09 0 0.035000496497187374 -5.9901179205212292e-07 0 0.035003569421409642 2.0579328745075804e-07 0 0.035012021121042285 -2.1750519107948681e-05 0 0.035008819031274716 -1.6668781115837309e-05 0 0.0350105370960355 -9.7767607612299576e-07 0 0.035000496497187374 -5.9901179205212292e-07 0 0.035003569421409642 2.0579328745075804e-07 0 0.035015479379639808 -4.548552940037742e-06 0 0.0350105370960355 -9.7767607612299576e-07 0 0.035000496497187374 -5.9901179205212292e-07 0 0.034999879085028919 4.7236102552813035e-08 0 0.035000496497187374 -5.9901179205212292e-07 0 0.035000002375444164 -9.1185513417599166e-10 0 0.035294165827848722 -0.00012720568206537288 0 0.035108534056624889 -6.8272835668134748e-05 0 0.034995148415847707 -5.2779888518796433e-06 0 0.034993692855851563 -5.3336243830151256e-06 0 0.034992992151791698 -5.0872860701579505e-06 0 0.0350105370960355 -9.7767607612299576e-07 0 0.035012508474631998 2.9924972241161958e-06 0 0.035003569421409642 2.0579328745075804e-07 0 0.035294165827848722 -0.00012720568206537288 0 0.035046236073578353 -0.00032392288502682118 0 0.036206962927772458 -0.000497677745133178 0 0.0363907950410318 -0.00087315243778320777 0 0.036552652761166239 -0.00054567977682758347 0 0.036206962927772458 -0.000497677745133178 0 0.03614167929712498 -0.0009131675664078413 0 0.0363907950410318 -0.00087315243778320777 0 0.034169880546414177 -0.00032387987125379308 0 0.034337551772526197 2.3130980653678681e-05 0 0.03444401026745899 -0.00023932407431299785 0 0.034169880546414177 -0.00032387987125379308 0 0.03444401026745899 -0.00023932407431299785 0 0.03451068584871414 -0.00051061644740635814 0 0.034780268865312852 -0.00042918957390394939 0 0.035046236073578353 -0.00032392288502682118 0 0.034337551772526197 2.3130980653678681e-05 0 0.034589358643732977 3.0003851291418901e-06 0 0.03444401026745899 -0.00023932407431299785 0 0.035046236073578353 -0.00032392288502682118 0 0.034900529633857667 -0.00022991920227662653 0 0.034589358643732977 3.0003851291418901e-06 0 0.03444401026745899 -0.00023932407431299785 0 0.034677765738852707 -0.00033582719922081212 0 0.03444401026745899 -0.00023932407431299785 0 0.034677765738852707 -0.00033582719922081212 0 0.03451068584871414 -0.00051061644740635814 0 0.034677765738852707 -0.00033582719922081212 0 0.034795031684769259 -0.00022298729514040106 0 0.034792085116182869 -0.00029130510461055996 0 0.034677765738852707 -0.00033582719922081212 0 0.034747369287180113 -0.00049162711839978999 0 0.034790843823541369 -0.00035905746706032247 0 0.034677765738852707 -0.00033582719922081212 0 0.034792085116182869 -0.00029130510461055996 0 0.034790843823541369 -0.00035905746706032247 0 0.034677765738852707 -0.00033582719922081212 0 0.034917292689644303 -2.5263141675745732e-05 0 0.034989425549808217 -2.1435935993255203e-05 0 0.034900529633857667 -0.00022991920227662653 0 0.034890517187601763 -0.0002059126291287828 0 0.034589358643732977 3.0003851291418901e-06 0 0.034677765738852707 -0.00033582719922081212 0 0.034917292689644303 -2.5263141675745732e-05 0 0.034811669769951203 -0.0002133256568221543 0 0.034872690107877802 -0.00014273176685703864 0 0.034961128366445875 -1.0181070372781978e-05 0 0.034980265501064374 1.7791240969433616e-06 0 0.034917292689644303 -2.5263141675745732e-05 0 0.034972375676221301 -5.3776779713931038e-06 0 0.034917292689644303 -2.5263141675745732e-05 0 0.034989425549808217 -2.1435935993255203e-05 0 0.034972375676221301 -5.3776779713931038e-06 0 0.034961128366445875 -1.0181070372781978e-05 0 0.034917292689644303 -2.5263141675745732e-05 0 0.034677765738852707 -0.00033582719922081212 0 0.034747369287180113 -0.00049162711839978999 0 0.03451068584871414 -0.00051061644740635814 0 0.034727495646604163 -0.00068134183411763436 0 0.034747369287180113 -0.00049162711839978999 0 0.03451068584871414 -0.00051061644740635814 0 0.031297099699474029 -0.00078814764736014357 0 0.030935452824385753 -0.0011388109054714906 0 0.034727495646604163 -0.00068134183411763436 0 0.03451068584871414 -0.00051061644740635814 0 0.034454110179491439 -0.00079050777112347917 0 0.03451068584871414 -0.00051061644740635814 0 0.03425683003531857 -0.0006310287391686724 0 0.034454110179491439 -0.00079050777112347917 0 0.03425683003531857 -0.0006310287391686724 0 0.03414080625897125 -0.00089054859585707355 0 0.034454110179491439 -0.00079050777112347917 0 0.034169880546414177 -0.00032387987125379308 0 0.03451068584871414 -0.00051061644740635814 0 0.03425683003531857 -0.0006310287391686724 0 0.034780268865312852 -0.00042918957390394939 0 0.034060481043844973 -0.0006530021706646317 0 0.03614167929712498 -0.0009131675664078413 0 0.0363907950410318 -0.00087315243778320777 0 0.036234167190132671 -0.0012152870139503229 0 0.034169880546414177 -0.00032387987125379308 0 0.03425683003531857 -0.0006310287391686724 0 0.033996593043444739 -0.00064055227825167871 0 0.03425683003531857 -0.0006310287391686724 0 0.03414080625897125 -0.00089054859585707355 0 0.033996593043444739 -0.00064055227825167871 0 0.027102533922060575 -0.0020237676442736723 0 0.027506471969727709 -0.0019470220365415867 0 0.027259634391801589 -0.0016667060173053314 0 0.027102533922060575 -0.0020237676442736723 0 0.026819544366987351 -0.0016969677731196345 0 0.027259634391801589 -0.0016667060173053314 0 0.027102533922060575 -0.0020237676442736723 0 0.026819544366987351 -0.0016969677731196345 0 0.026609521680704754 -0.0017305858298287352 0 0.031096311347710969 -0.0013704013014955337 0 0.030935452824385753 -0.0011388109054714906 0 0.026609521680704754 -0.0017305858298287352 0 0.026641649660365748 -0.0017081786295583342 0 0.026746956206213313 -0.0014645776227126038 0 0.026819544366987351 -0.0016969677731196345 0 0.026609521680704754 -0.0017305858298287352 0 0.026641649660365748 -0.0017081786295583342 0 0.026819544366987351 -0.0016969677731196345 0 0.026641649660365748 -0.0017081786295583342 0 0.026666469361377971 -0.0016975189127657541 0 0.026641649660365748 -0.0017081786295583342 0 0.026666469361377971 -0.0016975189127657541 0 0.026651945415998284 -0.0018401071731401549 0 0.026641649660365748 -0.0017081786295583342 0 0.026651945415998284 -0.0018401071731401549 0 0.02695096526425507 -0.001926569751119764 0 0.026641649660365748 -0.0017081786295583342 0 0.026746956206213313 -0.0014645776227126038 0 0.02695096526425507 -0.001926569751119764 0 0.026805345837711901 -0.00076220998063188724 0 0.026746956206213313 -0.0014645776227126038 0 0.027778188207529857 -0.00098026056080314822 0 0.026805345837711901 -0.00076220998063188724 0 0.026609521680704754 -0.0017305858298287352 0 0.026746956206213313 -0.0014645776227126038 0 0.035673640609526512 -0.0011668435291389977 0 0.035769941194530384 -0.0012739754048200999 0 0.035610421737391672 -0.0012791675836606158 0 0.035673640609526512 -0.0011668435291389977 0 0.035610421737391672 -0.0012791675836606158 0 0.035560166096586319 -0.0011657046697437388 0 0.035673640609526512 -0.0011668435291389977 0 0.035560166096586319 -0.0011657046697437388 0 0.03554030075477678 -0.0010340129657724472 0 0.035673640609526512 -0.0011668435291389977 0 0.035769941194530384 -0.0012739754048200999 0 0.035791978687922332 -0.0010772262827988643 0 0.035769941194530384 -0.0012739754048200999 0 0.035631859391592684 -0.0014264087110152919 0 0.035776652376348646 -0.0015041115668070096 0 0.035769941194530384 -0.0012739754048200999 0 0.035610421737391672 -0.0012791675836606158 0 0.035631859391592684 -0.0014264087110152919 0 0.035610421737391672 -0.0012791675836606158 0 0.035506156197285192 -0.0013757014803671285 0 0.035631859391592684 -0.0014264087110152919 0 0.035506156197285192 -0.0013757014803671285 0 0.035377392657331433 -0.0012658892723458371 0 0.035495626947821587 -0.0012434978089663619 0 0.035610421737391672 -0.0012791675836606158 0 0.035506156197285192 -0.0013757014803671285 0 0.035495626947821587 -0.0012434978089663619 0 0.035207232874037223 -0.0013161038713530441 0 0.035377392657331433 -0.0012658892723458371 0 0.035371417939362597 -0.0014426625238669331 0 0.035506156197285192 -0.0013757014803671285 0 0.035377392657331433 -0.0012658892723458371 0 0.035371417939362597 -0.0014426625238669331 0 0.035207232874037223 -0.0013161038713530441 0 0.035244428000334102 -0.001072618570316176 0 0.035377392657331433 -0.0012658892723458371 0 0.035244428000334102 -0.001072618570316176 0 0.035377392657331433 -0.0012658892723458371 0 0.035426175091682645 -0.0011136204392645397 0 0.035610421737391672 -0.0012791675836606158 0 0.035495626947821587 -0.0012434978089663619 0 0.035560166096586319 -0.0011657046697437388 0 0.035377392657331433 -0.0012658892723458371 0 0.035495626947821587 -0.0012434978089663619 0 0.035426175091682645 -0.0011136204392645397 0 0.035495626947821587 -0.0012434978089663619 0 0.035426175091682645 -0.0011136204392645397 0 0.035560166096586319 -0.0011657046697437388 0 0.03554030075477678 -0.0010340129657724472 0 0.035411040702756955 -0.0009686214292856408 0 0.03561207664818257 -0.00094968993899008933 0 0.035288645700976645 -0.00076425734048203911 0 0.035411040702756955 -0.0009686214292856408 0 0.03561207664818257 -0.00094968993899008933 0 0.035426175091682645 -0.0011136204392645397 0 0.035560166096586319 -0.0011657046697437388 0 0.03554030075477678 -0.0010340129657724472 0 0.035244428000334102 -0.001072618570316176 0 0.035288645700976645 -0.00076425734048203911 0 0.035411040702756955 -0.0009686214292856408 0 0.035426175091682645 -0.0011136204392645397 0 0.03554030075477678 -0.0010340129657724472 0 0.035411040702756955 -0.0009686214292856408 0 0.035244428000334102 -0.001072618570316176 0 0.035426175091682645 -0.0011136204392645397 0 0.035411040702756955 -0.0009686214292856408 0 0.035921830650940942 -0.00077406746018290288 0 0.035628917689997763 -0.0010526165225285833 0 0.035791978687922332 -0.0010772262827988643 0 0.035673640609526512 -0.0011668435291389977 0 0.035628917689997763 -0.0010526165225285833 0 0.035791978687922332 -0.0010772262827988643 0 0.035673640609526512 -0.0011668435291389977 0 0.03554030075477678 -0.0010340129657724472 0 0.035615945699610123 -0.00096036133562460641 0 0.035261256852295142 -0.00069177353657278937 0 0.035224028984593314 -0.00061879207374344446 0 0.035226735538704888 -0.00062399172050285807 0 0.035224028984593314 -0.00061879207374344446 0 0.035921830650940942 -0.00077406746018290288 0 0.035791978687922332 -0.0010772262827988643 0 0.035970305931988959 -0.0011278558951351094 0 0.035769941194530384 -0.0012739754048200999 0 0.035791978687922332 -0.0010772262827988643 0 0.035970305931988959 -0.0011278558951351094 0 0.03614167929712498 -0.0009131675664078413 0 0.035970305931988959 -0.0011278558951351094 0 0.036234167190132671 -0.0012152870139503229 0 0.036234167190132671 -0.0012152870139503229 0 0.036043420889024631 -0.0013263594830568502 0 0.036067657954063831 -0.0015932208470891265 0 0.035970305931988959 -0.0011278558951351094 0 0.036234167190132671 -0.0012152870139503229 0 0.036043420889024631 -0.0013263594830568502 0 0.035769941194530384 -0.0012739754048200999 0 0.035970305931988959 -0.0011278558951351094 0 0.03590230403542851 -0.001371996559707643 0 0.035970305931988959 -0.0011278558951351094 0 0.036043420889024631 -0.0013263594830568502 0 0.03590230403542851 -0.001371996559707643 0 0.035769941194530384 -0.0012739754048200999 0 0.03590230403542851 -0.001371996559707643 0 0.035776652376348646 -0.0015041115668070096 0 0.036043420889024631 -0.0013263594830568502 0 0.03590230403542851 -0.001371996559707643 0 0.036067657954063831 -0.0015932208470891265 0 0.03590230403542851 -0.001371996559707643 0 0.036067657954063831 -0.0015932208470891265 0 0.035776652376348646 -0.0015041115668070096 0 0.032285603462766092 -0.0013676301244176362 0 0.03208849505219008 -0.0016669399501875615 0 0.036067657954063831 -0.0015932208470891265 0 0.035763758395584183 -0.0017036841200954757 0 0.035776652376348646 -0.0015041115668070096 0 0.027102533922060575 -0.0020237676442736723 0 0.027723135772586414 -0.0021481932411599961 0 0.027506471969727709 -0.0019470220365415867 0 0.034060481043844973 -0.0006530021706646317 0 0.032285603462766092 -0.0013676301244176362 0 0.031096311347710969 -0.0013704013014955337 0 0.032285603462766092 -0.0013676301244176362 0 0.03414080625897125 -0.00089054859585707355 0 0.033996593043444739 -0.00064055227825167871 0 0.033814054097801138 -0.00097766140364669604 0 0.032285603462766092 -0.0013676301244176362 0 0.032190442292771231 -0.0014576122151564882 0 0.027506471969727709 -0.0019470220365415867 0 0.027701320232613239 -0.0018359417216108453 0 0.027259634391801589 -0.0016667060173053314 0 0.027506471969727709 -0.0019470220365415867 0 0.027701320232613239 -0.0018359417216108453 0 0.027803220985108311 -0.0020707875729521702 0 0.027723135772586414 -0.0021481932411599961 0 0.027506471969727709 -0.0019470220365415867 0 0.027803220985108311 -0.0020707875729521702 0 0.027738252692691836 -0.0021904571529920607 0 0.027803220985108311 -0.0020707875729521702 0 0.028289101496788909 -0.0021300088509376603 0 0.028047745882058182 -0.0019881945967091031 0 0.027803220985108311 -0.0020707875729521702 0 0.028289101496788909 -0.0021300088509376603 0 0.027701320232613239 -0.0018359417216108453 0 0.028047745882058182 -0.0019881945967091031 0 0.027803220985108311 -0.0020707875729521702 0 0.027701320232613239 -0.0018359417216108453 0 0.028047745882058182 -0.0019881945967091031 0 0.027976355351760247 -0.0017967504977749603 0 0.03208849505219008 -0.0016669399501875615 0 0.03208560919345884 -0.0018293931308579103 0 0.028047745882058182 -0.0019881945967091031 0 0.028675880707196663 -0.0017914223462182105 0 0.027976355351760247 -0.0017967504977749603 0 0.028047745882058182 -0.0019881945967091031 0 0.028289101496788909 -0.0021300088509376603 0 0.028675880707196663 -0.0017914223462182105 0 0.028289101496788909 -0.0021300088509376603 0 0.028675880707196663 -0.0017914223462182105 0 0.028872474298884628 -0.0020199016304557099 0 0.035763758395584183 -0.0017036841200954757 0 0.035538244525212717 -0.0015902235984252488 0 0.035422590972626775 -0.0018516596095825085 0 0.035763758395584183 -0.0017036841200954757 0 0.035776652376348646 -0.0015041115668070096 0 0.035538244525212717 -0.0015902235984252488 0 0.035631859391592684 -0.0014264087110152919 0 0.035776652376348646 -0.0015041115668070096 0 0.035538244525212717 -0.0015902235984252488 0 0.035506156197285192 -0.0013757014803671285 0 0.035631859391592684 -0.0014264087110152919 0 0.035538244525212717 -0.0015902235984252488 0 0.035194367876415548 -0.0015307166212566098 0 0.035371417939362597 -0.0014426625238669331 0 0.035354933430051902 -0.0016288580013995785 0 0.035506156197285192 -0.0013757014803671285 0 0.035371417939362597 -0.0014426625238669331 0 0.035538244525212717 -0.0015902235984252488 0 0.035371417939362597 -0.0014426625238669331 0 0.035538244525212717 -0.0015902235984252488 0 0.035354933430051902 -0.0016288580013995785 0 0.035538244525212717 -0.0015902235984252488 0 0.035354933430051902 -0.0016288580013995785 0 0.035422590972626775 -0.0018516596095825085 0 0.035203297835224072 -0.0017464858362123839 0 0.035354933430051902 -0.0016288580013995785 0 0.035422590972626775 -0.0018516596095825085 0 0.032031038960582646 -0.0019593464473131707 0 0.029410964070099702 -0.0018570740171398004 0 0.029536236866696673 -0.0018570597408136677 0 0.028675880707196663 -0.0017914223462182105 0 0.028872474298884628 -0.0020199016304557099 0 0.028926285412099798 -0.0021727180338853725 0 0.029392107389994739 -0.0018895183950258868 0 0.02894133714228482 -0.0015394543243209731 0 0.029949490131140864 -0.0024265638157220395 0 0.028926285412099798 -0.0021727180338853725 0 0.029392107389994739 -0.0018895183950258868 0 0.029392107389994739 -0.0018895183950258868 0 0.029343283263501836 -0.0014678911883288664 0 0.02894133714228482 -0.0015394543243209731 0 0.029410964070099702 -0.0018570740171398004 0 0.028714063247929741 -0.0018193404302727708 0 0.028926285412099798 -0.0021727180338853725 0 0.028474728345581984 -0.0016557357501758186 0 0.02894133714228482 -0.0015394543243209731 0 0.028926285412099798 -0.0021727180338853725 0 0.028474728345581984 -0.0016557357501758186 0 0.027976355351760247 -0.0017967504977749603 0 0.028478914818336969 -0.0011497356163526621 0 0.02894133714228482 -0.0015394543243209731 0 0.029044464413274126 -0.0010527585613736023 0 0.028474728345581984 -0.0016557357501758186 0 0.028478914818336969 -0.0011497356163526621 0 0.02894133714228482 -0.0015394543243209731 0 0.028474728345581984 -0.0016557357501758186 0 0.028478914818336969 -0.0011497356163526621 0 0.028063653313430918 -0.0014833062222001823 0 0.029637363815352355 -0.00082229913934792271 0 0.029343283263501836 -0.0014678911883288664 0 0.029044464413274126 -0.0010527585613736023 0 0.029343283263501836 -0.0014678911883288664 0 0.02894133714228482 -0.0015394543243209731 0 0.029044464413274126 -0.0010527585613736023 0 0.029637363815352355 -0.00082229913934792271 0 0.029044464413274126 -0.0010527585613736023 0 0.028766750749261282 -0.00044913161539287297 0 0.029637363815352355 -0.00082229913934792271 0 0.029641647090641592 0.00027295319305876324 0 0.028766750749261282 -0.00044913161539287297 0 0.028478914818336969 -0.0011497356163526621 0 0.029044464413274126 -0.0010527585613736023 0 0.028766750749261282 -0.00044913161539287297 0 0.028478914818336969 -0.0011497356163526621 0 0.028766750749261282 -0.00044913161539287297 0 0.027975315133057111 -0.00076109632064591559 0 0.027559505807830224 -0.00089517107988683244 0 0.026285376858075898 -0.0019098897488120531 0 0.026550515928455223 -0.00077998006977445574 0 0.027649481015606631 -0.00057166021560197224 0 0.027007103419385822 -0.001098701639706867 0 0.028002073170899717 -0.00011930891257006456 0 0.027975315133057111 -0.00076109632064591559 0 0.027404662491242904 -0.00062554997167491922 0 0.028766750749261282 -0.00044913161539287297 0 0.028002073170899717 -0.00011930891257006456 0 0.027975315133057111 -0.00076109632064591559 0 0.027975315133057111 -0.00076109632064591559 0 0.027471017528106656 -0.0010109811552227546 0 0.027810212065210279 -0.0012037830370046985 0 0.027975315133057111 -0.00076109632064591559 0 0.027471017528106656 -0.0010109811552227546 0 0.027404662491242904 -0.00062554997167491922 0 0.027810212065210279 -0.0012037830370046985 0 0.027648042842174737 -0.0015599490348948417 0 0.027329854425872064 -0.00133826616516268 0 0.027471017528106656 -0.0010109811552227546 0 0.027810212065210279 -0.0012037830370046985 0 0.027329854425872064 -0.00133826616516268 0 0.027810212065210279 -0.0012037830370046985 0 0.028063653313430918 -0.0014833062222001823 0 0.027648042842174737 -0.0015599490348948417 0 0.028478914818336969 -0.0011497356163526621 0 0.027975315133057111 -0.00076109632064591559 0 0.027810212065210279 -0.0012037830370046985 0 0.028478914818336969 -0.0011497356163526621 0 0.027810212065210279 -0.0012037830370046985 0 0.028063653313430918 -0.0014833062222001823 0 0.028474728345581984 -0.0016557357501758186 0 0.028063653313430918 -0.0014833062222001823 0 0.027976355351760247 -0.0017967504977749603 0 0.028063653313430918 -0.0014833062222001823 0 0.027976355351760247 -0.0017967504977749603 0 0.027648042842174737 -0.0015599490348948417 0 0.027701320232613239 -0.0018359417216108453 0 0.027648042842174737 -0.0015599490348948417 0 0.027259634391801589 -0.0016667060173053314 0 0.027701320232613239 -0.0018359417216108453 0 0.027976355351760247 -0.0017967504977749603 0 0.027648042842174737 -0.0015599490348948417 0 0.027648042842174737 -0.0015599490348948417 0 0.027259634391801589 -0.0016667060173053314 0 0.027329854425872064 -0.00133826616516268 0 0.027259634391801589 -0.0016667060173053314 0 0.026971562193460162 -0.0014705895043342844 0 0.027329854425872064 -0.00133826616516268 0 0.026819544366987351 -0.0016969677731196345 0 0.027259634391801589 -0.0016667060173053314 0 0.026971562193460162 -0.0014705895043342844 0 0.026819544366987351 -0.0016969677731196345 0 0.026971562193460162 -0.0014705895043342844 0 0.026650647281987357 -0.0015103954415540358 0 0.026560022605332113 -0.0014620343277407569 0 0.026405949863767948 -0.0016345271300113378 0 0.026971562193460162 -0.0014705895043342844 0 0.026934932823599579 -0.0011074650819181925 0 0.026650647281987357 -0.0015103954415540358 0 0.027471017528106656 -0.0010109811552227546 0 0.026934932823599579 -0.0011074650819181925 0 0.027329854425872064 -0.00133826616516268 0 0.026971562193460162 -0.0014705895043342844 0 0.026934932823599579 -0.0011074650819181925 0 0.027329854425872064 -0.00133826616516268 0 0.026651945415998284 -0.0018401071731401549 0 0.026362088299397676 -0.0018008088563262606 0 0.025962996666392065 -0.0017709672608552942 0 0.026666469361377971 -0.0016975189127657541 0 0.026651945415998284 -0.0018401071731401549 0 0.026650647281987357 -0.0015103954415540358 0 0.026412612188836827 -0.001683299055005132 0 0.026405949863767948 -0.0016345271300113378 0 0.026819544366987351 -0.0016969677731196345 0 0.026666469361377971 -0.0016975189127657541 0 0.026650647281987357 -0.0015103954415540358 0 0.025645734219979066 -0.002007165091589273 0 0.025962996666392065 -0.0017709672608552942 0 0.025803315141472001 -0.0019778869268122319 0 0.025962996666392065 -0.0017709672608552942 0 0.026041975644974732 -0.0019011114726947107 0 0.025803315141472001 -0.0019778869268122319 0 0.026285082573998038 -0.0028823421755334285 0 0.02610404100613465 -0.0029897826708133305 0 0.026362088299397676 -0.0018008088563262606 0 0.026041975644974732 -0.0019011114726947107 0 0.026049804583749843 -0.0020079054435504788 0 0.026362088299397676 -0.0018008088563262606 0 0.025962996666392065 -0.0017709672608552942 0 0.026041975644974732 -0.0019011114726947107 0 0.026041975644974732 -0.0019011114726947107 0 0.026049804583749843 -0.0020079054435504788 0 0.025803315141472001 -0.0019778869268122319 0 0.026049804583749843 -0.0020079054435504788 0 0.025803315141472001 -0.0019778869268122319 0 0.025734641554122469 -0.0020842439169092789 0 0.025803315141472001 -0.0019778869268122319 0 0.025734641554122469 -0.0020842439169092789 0 0.025557372215448924 -0.001830715304274381 0 0.026049804583749843 -0.0020079054435504788 0 0.025734641554122469 -0.0020842439169092789 0 0.025922133838960141 -0.0022444089599942003 0 0.02610404100613465 -0.0029897826708133305 0 0.025964384126028431 -0.0029193160295601611 0 0.025645734219979066 -0.002007165091589273 0 0.026285376858075898 -0.0019098897488120531 0 0.025557372215448924 -0.001830715304274381 0 0.026560022605332113 -0.0014620343277407569 0 0.027007103419385822 -0.001098701639706867 0 0.027471017528106656 -0.0010109811552227546 0 0.026934932823599579 -0.0011074650819181925 0 0.027404662491242904 -0.00062554997167491922 0 0.025645734219979066 -0.002007165091589273 0 0.025803315141472001 -0.0019778869268122319 0 0.025557372215448924 -0.001830715304274381 0 0.025734641554122469 -0.0020842439169092789 0 0.025557372215448924 -0.001830715304274381 0 0.025539228138543632 -0.0021582424653994133 0 0.02547359965429399 -0.0015381882167479495 0 0.025483315559229728 -0.0014077766017039251 0 0.025557372215448924 -0.001830715304274381 0 0.025249724374051485 -0.0023375645111193928 0 0.025539228138543632 -0.0021582424653994133 0 0.026285376858075898 -0.0019098897488120531 0 0.025557372215448924 -0.001830715304274381 0 0.026550515928455223 -0.00077998006977445574 0 0.025557372215448924 -0.001830715304274381 0 0.025695296523428505 -0.0003069870064659815 0 0.026550515928455223 -0.00077998006977445574 0 0.025695296523428505 -0.0003069870064659815 0 0.026550515928455223 -0.00077998006977445574 0 0.026580070468780713 0.00031720708272684232 0 0.025539228138543632 -0.0021582424653994133 0 0.025437316625136874 -0.0024652923326132065 0 0.025629793443052749 -0.0023330241295487588 0 0.025249724374051485 -0.0023375645111193928 0 0.025539228138543632 -0.0021582424653994133 0 0.025437316625136874 -0.0024652923326132065 0 0.025437316625136874 -0.0024652923326132065 0 0.025263592884414807 -0.0025326363628965032 0 0.025372212211802945 -0.0026389989121342545 0 0.025249724374051485 -0.0023375645111193928 0 0.025437316625136874 -0.0024652923326132065 0 0.025263592884414807 -0.0025326363628965032 0 0.025695296523428505 -0.0003069870064659815 0 0.026035141189904337 0.0010570840914459539 0 0.026580070468780713 0.00031720708272684232 0 0.025483315559229728 -0.0014077766017039251 0 0.025446160192238994 -0.0014802805087313095 0 0.025249724374051485 -0.0023375645111193928 0 0.025263592884414807 -0.0025326363628965032 0 0.025151256742212587 -0.0026281438176953983 0 0.025263592884414807 -0.0025326363628965032 0 0.025097047200741594 -0.0026084798225882414 0 0.025223642519024144 -0.0026303795299123058 0 0.025344601130771607 -0.0016163687829407784 0 0.025446160192238994 -0.0014802805087313095 0 0.026035141189904337 0.0010570840914459539 0 0.026894010160208023 0.0010803725366712019 0 0.026580070468780713 0.00031720708272684232 0 0.025734641554122469 -0.0020842439169092789 0 0.025922133838960141 -0.0022444089599942003 0 0.025629793443052749 -0.0023330241295487588 0 0.025922133838960141 -0.0022444089599942003 0 0.025629793443052749 -0.0023330241295487588 0 0.025567891888029357 -0.0026043025006536628 0 0.025734641554122469 -0.0020842439169092789 0 0.025539228138543632 -0.0021582424653994133 0 0.025629793443052749 -0.0023330241295487588 0 0.025567891888029357 -0.0026043025006536628 0 0.025653685133915364 -0.0028121715811367568 0 0.025531632095141792 -0.0026942520730996421 0 0.025437316625136874 -0.0024652923326132065 0 0.025567891888029357 -0.0026043025006536628 0 0.025372212211802945 -0.0026389989121342545 0 0.025437316625136874 -0.0024652923326132065 0 0.025629793443052749 -0.0023330241295487588 0 0.025567891888029357 -0.0026043025006536628 0 0.025964384126028431 -0.0029193160295601611 0 0.025906821987646836 -0.0028634287432721568 0 0.025922133838960141 -0.0022444089599942003 0 0.025567891888029357 -0.0026043025006536628 0 0.025653685133915364 -0.0028121715811367568 0 0.025731332610975679 -0.0035125340650723441 0 0.025653685133915364 -0.0028121715811367568 0 0.02525344258023143 -0.003097821985357063 0 0.025653685133915364 -0.0028121715811367568 0 0.025579792326990477 -0.0025928622844748907 0 0.02525344258023143 -0.003097821985357063 0 0.025653685133915364 -0.0028121715811367568 0 0.025579792326990477 -0.0025928622844748907 0 0.025531632095141792 -0.0026942520730996421 0 0.025579792326990477 -0.0025928622844748907 0 0.025531632095141792 -0.0026942520730996421 0 0.025513495685272655 -0.0027239214070446972 0 0.025567891888029357 -0.0026043025006536628 0 0.025531632095141792 -0.0026942520730996421 0 0.025372212211802945 -0.0026389989121342545 0 0.025531632095141792 -0.0026942520730996421 0 0.025372212211802945 -0.0026389989121342545 0 0.025317965901100102 -0.0027463072166184323 0 0.025381915539463635 -0.0027734326761862942 0 0.025513495685272655 -0.0027239214070446972 0 0.02559720421693264 -0.0029476970135112919 0 0.025531632095141792 -0.0026942520730996421 0 0.025381915539463635 -0.0027734326761862942 0 0.025317965901100102 -0.0027463072166184323 0 0.025381915539463635 -0.0027734326761862942 0 0.025235371715788435 -0.0028328427708825834 0 0.025299457007224829 -0.0029740919596784078 0 0.025381915539463635 -0.0027734326761862942 0 0.025317965901100102 -0.0027463072166184323 0 0.025235371715788435 -0.0028328427708825834 0 0.025531632095141792 -0.0026942520730996421 0 0.025381915539463635 -0.0027734326761862942 0 0.025513495685272655 -0.0027239214070446972 0 0.025579792326990477 -0.0025928622844748907 0 0.025007626244027852 -0.0021755753997790045 0 0.025882853923368098 -0.0013271568766392925 0 0.024620328193166802 -0.0025776047001588643 0 0.02425994269093433 -0.0030001737501702107 0 0.025579792326990477 -0.0025928622844748907 0 0.025513495685272655 -0.0027239214070446972 0 0.02559720421693264 -0.0029476970135112919 0 0.024790192395649637 -0.0021626325965204713 0 0.024684876388792461 -0.0026284403978691952 0 0.024413338542189009 -0.0025173321323804557 0 0.025446160192238994 -0.0014802805087313095 0 0.025035490751201154 -0.0025396613274536657 0 0.025154095427152724 -0.0027470728068739762 0 0.025097047200741594 -0.0026084798225882414 0 0.02493893466520411 -0.0028827314095139752 0 0.025154095427152724 -0.0027470728068739762 0 0.025097047200741594 -0.0026084798225882414 0 0.025223642519024144 -0.0026303795299123058 0 0.025154095427152724 -0.0027470728068739762 0 0.025223642519024144 -0.0026303795299123058 0 0.025372212211802945 -0.0026389989121342545 0 0.025154095427152724 -0.0027470728068739762 0 0.025372212211802945 -0.0026389989121342545 0 0.025118224899530948 -0.002971963623695477 0 0.025263592884414807 -0.0025326363628965032 0 0.025223642519024144 -0.0026303795299123058 0 0.025372212211802945 -0.0026389989121342545 0 0.025372212211802945 -0.0026389989121342545 0 0.025317965901100102 -0.0027463072166184323 0 0.025019017710383343 -0.0028204974455134403 0 0.02510353930224948 -0.0027923991885627016 0 0.024982532064932443 -0.0029575526244009177 0 0.025317965901100102 -0.0027463072166184323 0 0.025235371715788435 -0.0028328427708825834 0 0.025019017710383343 -0.0028204974455134403 0 0.025235371715788435 -0.0028328427708825834 0 0.025019017710383343 -0.0028204974455134403 0 0.025138329109084586 -0.0029232600856187048 0 0.025154095427152724 -0.0027470728068739762 0 0.025118224899530948 -0.002971963623695477 0 0.02493893466520411 -0.0028827314095139752 0 0.024684876388792461 -0.0026284403978691952 0 0.024413338542189009 -0.0025173321323804557 0 0.024403019186744614 -0.0028278557259147404 0 0.024413338542189009 -0.0025173321323804557 0 0.024403019186744614 -0.0028278557259147404 0 0.024066883152401422 -0.0028635740530188985 0 0.026035141189904337 0.0010570840914459539 0 0.027068233707676484 0.0018616022310761525 0 0.026894010160208023 0.0010803725366712019 0 0.025446160192238994 -0.0014802805087313095 0 0.025931695873976063 -0.00085187316112471335 0 0.027068233707676484 0.0018616022310761525 0 0.026894010160208023 0.0010803725366712019 0 0.027540741540307456 0.0013577527851816515 0 0.026894010160208023 0.0010803725366712019 0 0.027540741540307456 0.0013577527851816515 0 0.02720415739753914 0.0007401160536733819 0 0.027068233707676484 0.0018616022310761525 0 0.027540741540307456 0.0013577527851816515 0 0.027897003963751558 0.0018278805422143503 0 0.027540741540307456 0.0013577527851816515 0 0.02832874504918689 0.0014119691667481039 0 0.028039758227259671 0.00081896206083444817 0 0.027540741540307456 0.0013577527851816515 0 0.027897003963751558 0.0018278805422143503 0 0.02832874504918689 0.0014119691667481039 0 0.027540741540307456 0.0013577527851816515 0 0.02720415739753914 0.0007401160536733819 0 0.028039758227259671 0.00081896206083444817 0 0.027897003963751558 0.0018278805422143503 0 0.028562303255815286 0.0019678934125602681 0 0.027936440780757361 0.0025202626122259493 0 0.025931695873976063 -0.00085187316112471335 0 0.026258153642651282 -0.00070687541123645422 0 0.027068233707676484 0.0018616022310761525 0 0.027897003963751558 0.0018278805422143503 0 0.027936440780757361 0.0025202626122259493 0 0.028562303255815286 0.0019678934125602681 0 0.027936440780757361 0.0025202626122259493 0 0.028579618294525093 0.0024545274579007154 0 0.028562303255815286 0.0019678934125602681 0 0.029097158994849322 0.0021292035279433233 0 0.028579618294525093 0.0024545274579007154 0 0.027897003963751558 0.0018278805422143503 0 0.028562303255815286 0.0019678934125602681 0 0.02832874504918689 0.0014119691667481039 0 0.029332845260818443 0.0021454095864013715 0 0.029097158994849322 0.0021292035279433233 0 0.029226807838383669 0.0025606780334781814 0 0.029332845260818443 0.0021454095864013715 0 0.029097158994849322 0.0021292035279433233 0 0.029408769030392402 0.0018928986945468134 0 0.029565186034966204 0.0021328465669801957 0 0.029332845260818443 0.0021454095864013715 0 0.029408769030392402 0.0018928986945468134 0 0.028562303255815286 0.0019678934125602681 0 0.029097158994849322 0.0021292035279433233 0 0.029087799346285755 0.001724502846520785 0 0.028562303255815286 0.0019678934125602681 0 0.029087799346285755 0.001724502846520785 0 0.028925974270526952 0.0014357183844495326 0 0.029097158994849322 0.0021292035279433233 0 0.029087799346285755 0.001724502846520785 0 0.029408769030392402 0.0018928986945468134 0 0.029087799346285755 0.001724502846520785 0 0.029408769030392402 0.0018928986945468134 0 0.029397257929031948 0.0012213454764707706 0 0.029087799346285755 0.001724502846520785 0 0.028925974270526952 0.0014357183844495326 0 0.029397257929031948 0.0012213454764707706 0 0.028925974270526952 0.0014357183844495326 0 0.029397257929031948 0.0012213454764707706 0 0.028908893962542131 0.0008836512578274386 0 0.02832874504918689 0.0014119691667481039 0 0.028908893962542131 0.0008836512578274386 0 0.028039758227259671 0.00081896206083444817 0 0.028562303255815286 0.0019678934125602681 0 0.028925974270526952 0.0014357183844495326 0 0.02832874504918689 0.0014119691667481039 0 0.028925974270526952 0.0014357183844495326 0 0.02832874504918689 0.0014119691667481039 0 0.028908893962542131 0.0008836512578274386 0 0.028908893962542131 0.0008836512578274386 0 0.028602211083862603 0.00033064090970504468 0 0.028039758227259671 0.00081896206083444817 0 0.029641647090641592 0.00027295319305876324 0 0.028908893962542131 0.0008836512578274386 0 0.028602211083862603 0.00033064090970504468 0 0.029641647090641592 0.00027295319305876324 0 0.029397257929031948 0.0012213454764707706 0 0.028908893962542131 0.0008836512578274386 0 0.029641647090641592 0.00027295319305876324 0 0.028766750749261282 -0.00044913161539287297 0 0.028602211083862603 0.00033064090970504468 0 0.028766750749261282 -0.00044913161539287297 0 0.028002073170899717 -0.00011930891257006456 0 0.028602211083862603 0.00033064090970504468 0 0.027559505807830224 -0.00089517107988683244 0 0.028602211083862603 0.00033064090970504468 0 0.027435196024459658 0.0001188265465303172 0 0.027649481015606631 -0.00057166021560197224 0 0.028042359822845832 -0.00023823317116880842 0 0.027559505807830224 -0.00089517107988683244 0 0.027435196024459658 0.0001188265465303172 0 0.026550515928455223 -0.00077998006977445574 0 0.027435196024459658 0.0001188265465303172 0 0.026550515928455223 -0.00077998006977445574 0 0.026580070468780713 0.00031720708272684232 0 0.027435196024459658 0.0001188265465303172 0 0.026580070468780713 0.00031720708272684232 0 0.02720415739753914 0.0007401160536733819 0 0.026894010160208023 0.0010803725366712019 0 0.026580070468780713 0.00031720708272684232 0 0.02720415739753914 0.0007401160536733819 0 0.027435196024459658 0.0001188265465303172 0 0.02720415739753914 0.0007401160536733819 0 0.028039758227259671 0.00081896206083444817 0 0.028602211083862603 0.00033064090970504468 0 0.027435196024459658 0.0001188265465303172 0 0.028039758227259671 0.00081896206083444817 0 0.021792664997182284 -0.003588985626447082 0 0.021489915639866249 -0.0036785624658893586 0 0.021529268343429078 -0.0033847482716547776 0 0.021792664997182284 -0.003588985626447082 0 0.021529268343429078 -0.0033847482716547776 0 0.021773087512901156 -0.0033665060169350293 0 0.021792664997182284 -0.003588985626447082 0 0.021773087512901156 -0.0033665060169350293 0 0.021937614595488517 -0.0034406238074215149 0 0.024786739391348657 -0.0033381764382291817 0 0.024684616674174587 -0.00353220712767236 0 0.024978065668861252 -0.0034978433247840426 0 0.023333538489160015 -0.0034629191599730717 0 0.023029437815596136 -0.0035376009446138573 0 0.024684616674174587 -0.00353220712767236 0 0.02443051283397683 -0.0034882047609849898 0 0.024546516844076834 -0.0036713841622328671 0 0.024786739391348657 -0.0033381764382291817 0 0.024684616674174587 -0.00353220712767236 0 0.02443051283397683 -0.0034882047609849898 0 0.02089286283974788 -0.0042433501921621776 0 0.020698102135759892 -0.0043727965204785309 0 0.020672587759854248 -0.004260373313991833 0 0.021489915639866249 -0.0036785624658893586 0 0.021379377799771494 -0.0035885649438029137 0 0.021236975027644416 -0.0037593765563372667 0 0.023029437815596136 -0.0035376009446138573 0 0.023078249161494906 -0.0034680589447204121 0 0.02183566444967272 -0.0039695804587468429 0 0.023078249161494906 -0.0034680589447204121 0 0.02089286283974788 -0.0042433501921621776 0 0.020672587759854248 -0.004260373313991833 0 0.020619762573954748 -0.0041162763056626795 0 0.02089286283974788 -0.0042433501921621776 0 0.020867883535167726 -0.0039963401396055937 0 0.020619762573954748 -0.0041162763056626795 0 0.021489915639866249 -0.0036785624658893586 0 0.021379377799771494 -0.0035885649438029137 0 0.021529268343429078 -0.0033847482716547776 0 0.02089286283974788 -0.0042433501921621776 0 0.020867883535167726 -0.0039963401396055937 0 0.021188154230053418 -0.0039780190876684005 0 0.02183566444967272 -0.0039695804587468429 0 0.02162220212228786 -0.003770309296688929 0 0.020925029801967549 -0.003791225934923623 0 0.020867883535167726 -0.0039963401396055937 0 0.021188154230053418 -0.0039780190876684005 0 0.020925029801967549 -0.003791225934923623 0 0.021128496634884694 -0.0036269235154052877 0 0.021188154230053418 -0.0039780190876684005 0 0.020867883535167726 -0.0039963401396055937 0 0.020619762573954748 -0.0041162763056626795 0 0.020635449137219583 -0.0038108626252740525 0 0.020925029801967549 -0.003791225934923623 0 0.020867883535167726 -0.0039963401396055937 0 0.020635449137219583 -0.0038108626252740525 0 0.020925029801967549 -0.003791225934923623 0 0.020806119695695822 -0.0035410110664942812 0 0.020635449137219583 -0.0038108626252740525 0 0.020806119695695822 -0.0035410110664942812 0 0.021128496634884694 -0.0036269235154052877 0 0.02104837046148739 -0.0034354265758396408 0 0.020925029801967549 -0.003791225934923623 0 0.020806119695695822 -0.0035410110664942812 0 0.021128496634884694 -0.0036269235154052877 0 0.021128496634884694 -0.0036269235154052877 0 0.021188154230053418 -0.0039780190876684005 0 0.021467823917633903 -0.0036328264294165644 0 0.021128496634884694 -0.0036269235154052877 0 0.021467823917633903 -0.0036328264294165644 0 0.021298881953268813 -0.0033296244781609984 0 0.02162220212228786 -0.003770309296688929 0 0.021690454558650017 -0.0034722231278776139 0 0.021529268343429078 -0.0033847482716547776 0 0.021773087512901156 -0.0033665060169350293 0 0.021739079977361679 -0.0031007253564449299 0 0.021773087512901156 -0.0033665060169350293 0 0.021739079977361679 -0.0031007253564449299 0 0.022007770120465689 -0.003149398741474063 0 0.021739079977361679 -0.0031007253564449299 0 0.022007770120465689 -0.003149398741474063 0 0.021991542654219598 -0.0028988158273572685 0 0.022007770120465689 -0.003149398741474063 0 0.022275483477781702 -0.0029742991798118578 0 0.021991542654219598 -0.0028988158273572685 0 0.022007770120465689 -0.003149398741474063 0 0.022275483477781702 -0.0029742991798118578 0 0.022356997600346255 -0.0031164255853925165 0 0.022275483477781702 -0.0029742991798118578 0 0.022356997600346255 -0.0031164255853925165 0 0.022661369626291353 -0.0030189685485042354 0 0.022356997600346255 -0.0031164255853925165 0 0.021937614595488517 -0.0034406238074215149 0 0.022088821148525638 -0.003661718088220728 0 0.022356997600346255 -0.0031164255853925165 0 0.023369824417482307 -0.0032206118417240589 0 0.022088821148525638 -0.003661718088220728 0 0.022007770120465689 -0.003149398741474063 0 0.022356997600346255 -0.0031164255853925165 0 0.021937614595488517 -0.0034406238074215149 0 0.021773087512901156 -0.0033665060169350293 0 0.022007770120465689 -0.003149398741474063 0 0.021937614595488517 -0.0034406238074215149 0 0.02236921483164795 -0.0029689178448014664 0 0.022174037964227386 -0.0030375624083798084 0 0.022340468647643982 -0.0030188876045382411 0 0.023842057919955223 -0.0030283323070407339 0 0.02425994269093433 -0.0030001737501702107 0 0.022275483477781702 -0.0029742991798118578 0 0.022661369626291353 -0.0030189685485042354 0 0.022340468647643982 -0.0030188876045382411 0 0.02236921483164795 -0.0029689178448014664 0 0.022661369626291353 -0.0030189685485042354 0 0.022340468647643982 -0.0030188876045382411 0 0.022356997600346255 -0.0031164255853925165 0 0.022661369626291353 -0.0030189685485042354 0 0.023369824417482307 -0.0032206118417240589 0 0.024301225016472604 -0.0031603428116285335 0 0.02380494071497884 -0.0033275260797444848 0 0.025007626244027852 -0.0021755753997790045 0 0.023369824417482307 -0.0032206118417240589 0 0.024757065581788307 -0.0030162767291223675 0 0.023369824417482307 -0.0032206118417240589 0 0.024757065581788307 -0.0030162767291223675 0 0.022088821148525638 -0.003661718088220728 0 0.02236921483164795 -0.0029689178448014664 0 0.022661369626291353 -0.0030189685485042354 0 0.023369824417482307 -0.0032206118417240589 0 0.023842057919955223 -0.0030283323070407339 0 0.023559017216710627 -0.0032293309564635116 0 0.025579792326990477 -0.0025928622844748907 0 0.024757065581788307 -0.0030162767291223675 0 0.02525344258023143 -0.003097821985357063 0 0.025579792326990477 -0.0025928622844748907 0 0.025007626244027852 -0.0021755753997790045 0 0.024757065581788307 -0.0030162767291223675 0 0.024757065581788307 -0.0030162767291223675 0 0.02525344258023143 -0.003097821985357063 0 0.025024082895816622 -0.0031671228561894575 0 0.02525344258023143 -0.003097821985357063 0 0.025024082895816622 -0.0031671228561894575 0 0.025272987850099005 -0.0033171144085067951 0 0.025024082895816622 -0.0031671228561894575 0 0.025272987850099005 -0.0033171144085067951 0 0.025103270735752505 -0.0032999021073800714 0 0.024757065581788307 -0.0030162767291223675 0 0.025024082895816622 -0.0031671228561894575 0 0.02508480273393001 -0.00324278635545882 0 0.025293380234224137 -0.0034671903552415855 0 0.025272987850099005 -0.0033171144085067951 0 0.025103270735752505 -0.0032999021073800714 0 0.025293380234224137 -0.0034671903552415855 0 0.025103270735752505 -0.0032999021073800714 0 0.025165414816317001 -0.0035319888138754221 0 0.025293380234224137 -0.0034671903552415855 0 0.025272987850099005 -0.0033171144085067951 0 0.025632956494249633 -0.0036457656794858387 0 0.025731332610975679 -0.0035125340650723441 0 0.02525344258023143 -0.003097821985357063 0 0.025272987850099005 -0.0033171144085067951 0 0.025731332610975679 -0.0035125340650723441 0 0.025272987850099005 -0.0033171144085067951 0 0.025632956494249633 -0.0036457656794858387 0 0.021792664997182284 -0.003588985626447082 0 0.021937614595488517 -0.0034406238074215149 0 0.022088821148525638 -0.003661718088220728 0 0.023333538489160015 -0.0034629191599730717 0 0.02380494071497884 -0.0033275260797444848 0 0.024786739391348657 -0.0033381764382291817 0 0.02508480273393001 -0.00324278635545882 0 0.025016364906436338 -0.0033478206083820236 0 0.025024082895816622 -0.0031671228561894575 0 0.02508480273393001 -0.00324278635545882 0 0.025103270735752505 -0.0032999021073800714 0 0.02508480273393001 -0.00324278635545882 0 0.025103270735752505 -0.0032999021073800714 0 0.025016364906436338 -0.0033478206083820236 0 0.025103270735752505 -0.0032999021073800714 0 0.02497523548026542 -0.0035072335631296872 0 0.025165414816317001 -0.0035319888138754221 0 0.025103270735752505 -0.0032999021073800714 0 0.024978065668861252 -0.0034978433247840426 0 0.025016364906436338 -0.0033478206083820236 0 0.02501211644490035 -0.0034744485678710143 0 0.024923360348742762 -0.0035505635216115075 0 0.024786739391348657 -0.0033381764382291817 0 0.024978065668861252 -0.0034978433247840426 0 0.025016364906436338 -0.0033478206083820236 0 0.02497523548026542 -0.0035072335631296872 0 0.025161525651388846 -0.0038169359432655668 0 0.024824713624197269 -0.0039814865506472633 0 0.024923360348742762 -0.0035505635216115075 0 0.024733457514363146 -0.0037048901608048466 0 0.025165414816317001 -0.0035319888138754221 0 0.025161525651388846 -0.0038169359432655668 0 0.025365774764748761 -0.0036839968589606458 0 0.02497523548026542 -0.0035072335631296872 0 0.025165414816317001 -0.0035319888138754221 0 0.025161525651388846 -0.0038169359432655668 0 0.025161525651388846 -0.0038169359432655668 0 0.025593709602370653 -0.0040393533003241855 0 0.02506539385868738 -0.0041978325562021723 0 0.025161525651388846 -0.0038169359432655668 0 0.02506539385868738 -0.0041978325562021723 0 0.024824713624197269 -0.0039814865506472633 0 0.026063984572681484 -0.0039294848709535962 0 0.025731332610975679 -0.0035125340650723441 0 0.025632956494249633 -0.0036457656794858387 0 0.025293380234224137 -0.0034671903552415855 0 0.025632956494249633 -0.0036457656794858387 0 0.025365774764748761 -0.0036839968589606458 0 0.025293380234224137 -0.0034671903552415855 0 0.025165414816317001 -0.0035319888138754221 0 0.025365774764748761 -0.0036839968589606458 0 0.025161525651388846 -0.0038169359432655668 0 0.025365774764748761 -0.0036839968589606458 0 0.025593709602370653 -0.0040393533003241855 0 0.025632956494249633 -0.0036457656794858387 0 0.025365774764748761 -0.0036839968589606458 0 0.025593709602370653 -0.0040393533003241855 0 0.026063984572681484 -0.0039294848709535962 0 0.025632956494249633 -0.0036457656794858387 0 0.025593709602370653 -0.0040393533003241855 0 0.026299872808237396 -0.0047139380310196998 0 0.026063984572681484 -0.0039294848709535962 0 0.026113495976931137 -0.0043685449776024576 0 0.026063984572681484 -0.0039294848709535962 0 0.025593709602370653 -0.0040393533003241855 0 0.026113495976931137 -0.0043685449776024576 0 0.025593709602370653 -0.0040393533003241855 0 0.026113495976931137 -0.0043685449776024576 0 0.0254435325030836 -0.0046275446131069983 0 0.026113495976931137 -0.0043685449776024576 0 0.026640893501518041 -0.0044671802644091979 0 0.0254435325030836 -0.0046275446131069983 0 0.027399123554327668 -0.004282035001288478 0 0.027989628544141318 -0.0041746947910946287 0 0.026640893501518041 -0.0044671802644091979 0 0.030564483010299594 -0.0044254796680827015 0 0.028587500847188852 -0.0031719205627260185 0 0.026640893501518041 -0.0044671802644091979 0 0.02711768394893762 -0.0031688517101986723 0 0.028587500847188852 -0.0031719205627260185 0 0.026299872808237396 -0.0047139380310196998 0 0.026640893501518041 -0.0044671802644091979 0 0.02711768394893762 -0.0031688517101986723 0 0.026299872808237396 -0.0047139380310196998 0 0.026113495976931137 -0.0043685449776024576 0 0.026640893501518041 -0.0044671802644091979 0 0.02506539385868738 -0.0041978325562021723 0 0.024891815438233007 -0.0044993237007638345 0 0.024702395065041436 -0.0042279649044808095 0 0.02506539385868738 -0.0041978325562021723 0 0.024702395065041436 -0.0042279649044808095 0 0.024824713624197269 -0.0039814865506472633 0 0.025593709602370653 -0.0040393533003241855 0 0.02506539385868738 -0.0041978325562021723 0 0.0254435325030836 -0.0046275446131069983 0 0.027989628544141318 -0.0041746947910946287 0 0.028842437289840921 -0.0038595030022891591 0 0.02506539385868738 -0.0041978325562021723 0 0.0254435325030836 -0.0046275446131069983 0 0.024891815438233007 -0.0044993237007638345 0 0.030564483010299594 -0.0044254796680827015 0 0.033344100289132102 -0.0037167208100980743 0 0.032910927005886152 -0.0027699935126903569 0 0.033344100289132102 -0.0037167208100980743 0 0.034743024169751134 -0.0030123911350351156 0 0.0343554077557593 -0.0027318788626519374 0 0.028842437289840921 -0.0038595030022891591 0 0.029403364897251132 -0.0033808650023855412 0 0.024891815438233007 -0.0044993237007638345 0 0.024523317174830441 -0.0044123625890620374 0 0.024702395065041436 -0.0042279649044808095 0 0.024523317174830441 -0.0044123625890620374 0 0.024474352054045936 -0.0041975935117361191 0 0.024702395065041436 -0.0042279649044808095 0 0.024474352054045936 -0.0041975935117361191 0 0.024702395065041436 -0.0042279649044808095 0 0.024477703779456385 -0.0039390647783772853 0 0.024702395065041436 -0.0042279649044808095 0 0.024824713624197269 -0.0039814865506472633 0 0.024477703779456385 -0.0039390647783772853 0 0.024824713624197269 -0.0039814865506472633 0 0.024477703779456385 -0.0039390647783772853 0 0.024718050969539794 -0.0037338515866951944 0 0.024536116435520977 -0.0038589178707319509 0 0.024733457514363146 -0.0037048901608048466 0 0.024531046408294455 -0.0038877256817783324 0 0.024546516844076834 -0.0036713841622328671 0 0.024762744392017866 -0.0036946817937002011 0 0.024684616674174587 -0.00353220712767236 0 0.024546516844076834 -0.0036713841622328671 0 0.024762744392017866 -0.0036946817937002011 0 0.02497523548026542 -0.0035072335631296872 0 0.024824713624197269 -0.0039814865506472633 0 0.024718050969539794 -0.0037338515866951944 0 0.024684616674174587 -0.00353220712767236 0 0.024978065668861252 -0.0034978433247840426 0 0.024762744392017866 -0.0036946817937002011 0 0.024318928286156363 -0.0037556599215649708 0 0.024122256744227712 -0.0038941144509306584 0 0.024074481433304661 -0.0036428397369437592 0 0.02443051283397683 -0.0034882047609849898 0 0.024318928286156363 -0.0037556599215649708 0 0.024074481433304661 -0.0036428397369437592 0 0.02443051283397683 -0.0034882047609849898 0 0.024546516844076834 -0.0036713841622328671 0 0.024318928286156363 -0.0037556599215649708 0 0.024531046408294455 -0.0038877256817783324 0 0.024546516844076834 -0.0036713841622328671 0 0.024318928286156363 -0.0037556599215649708 0 0.024531046408294455 -0.0038877256817783324 0 0.024318928286156363 -0.0037556599215649708 0 0.024283939718794612 -0.0040800231145375005 0 0.024536116435520977 -0.0038589178707319509 0 0.024432072110828047 -0.0039371342762146624 0 0.024318928286156363 -0.0037556599215649708 0 0.024122256744227712 -0.0038941144509306584 0 0.024283939718794612 -0.0040800231145375005 0 0.024122256744227712 -0.0038941144509306584 0 0.024283939718794612 -0.0040800231145375005 0 0.024050768540007626 -0.0041044576085377711 0 0.024283939718794612 -0.0040800231145375005 0 0.024189616443991483 -0.0042218675092515331 0 0.024050768540007626 -0.0041044576085377711 0 0.024283939718794612 -0.0040800231145375005 0 0.024342040117701896 -0.004264376875901971 0 0.024189616443991483 -0.0042218675092515331 0 0.024474352054045936 -0.0041975935117361191 0 0.024283939718794612 -0.0040800231145375005 0 0.024342040117701896 -0.004264376875901971 0 0.024474352054045936 -0.0041975935117361191 0 0.024477703779456385 -0.0039390647783772853 0 0.024283939718794612 -0.0040800231145375005 0 0.024523317174830441 -0.0044123625890620374 0 0.024474352054045936 -0.0041975935117361191 0 0.024342040117701896 -0.004264376875901971 0 0.034743024169751134 -0.0030123911350351156 0 0.035204007731703894 -0.0028080554913956623 0 0.034922630896081532 -0.0028812458500088109 0 0.029403364897251132 -0.0033808650023855412 0 0.029682932271827146 -0.0026514827129649394 0 0.024523317174830441 -0.0044123625890620374 0 0.024342040117701896 -0.004264376875901971 0 0.024215103700770044 -0.0043807422934812696 0 0.024189616443991483 -0.0042218675092515331 0 0.024215103700770044 -0.0043807422934812696 0 0.024055922044368305 -0.0042677621947719594 0 0.024342040117701896 -0.004264376875901971 0 0.024189616443991483 -0.0042218675092515331 0 0.024215103700770044 -0.0043807422934812696 0 0.035204007731703894 -0.0028080554913956623 0 0.035130555591811066 -0.0025988800250154797 0 0.035279724924427928 -0.0026660858087379719 0 0.035394769043866819 -0.0020648063407172814 0 0.035609582582249943 -0.001392120371404384 0 0.03526914311061416 -0.00154284724136706 0 0.034857789603447299 -0.0020572771707960051 0 0.034836160244288296 -0.001600828887303885 0 0.035130555591811066 -0.0025988800250154797 0 0.035279724924427928 -0.0026660858087379719 0 0.035269914949150757 -0.0025772817205668062 0 0.035130555591811066 -0.0025988800250154797 0 0.035247042742253092 -0.0024472714555388787 0 0.035269914949150757 -0.0025772817205668062 0 0.034972208183637971 -0.0016262956949218256 0 0.034964816960442936 -0.0020719555331795291 0 0.034696328280842702 -0.001662855224971792 0 0.034972208183637971 -0.0016262956949218256 0 0.034964816960442936 -0.0020719555331795291 0 0.03526914311061416 -0.00154284724136706 0 0.035394769043866819 -0.0020648063407172814 0 0.034964816960442936 -0.0020719555331795291 0 0.03526914311061416 -0.00154284724136706 0 0.035204007731703894 -0.0028080554913956623 0 0.035130555591811066 -0.0025988800250154797 0 0.034922630896081532 -0.0028812458500088109 0 0.034964816960442936 -0.0020719555331795291 0 0.034922630896081532 -0.0028812458500088109 0 0.034734770645146636 -0.0025988150134525724 0 0.034857789603447299 -0.0020572771707960051 0 0.034795879458809728 -0.0022912560940768767 0 0.035394769043866819 -0.0020648063407172814 0 0.034964816960442936 -0.0020719555331795291 0 0.034922630896081532 -0.0028812458500088109 0 0.034743024169751134 -0.0030123911350351156 0 0.034922630896081532 -0.0028812458500088109 0 0.034734770645146636 -0.0025988150134525724 0 0.034743024169751134 -0.0030123911350351156 0 0.0343554077557593 -0.0027318788626519374 0 0.034734770645146636 -0.0025988150134525724 0 0.0343554077557593 -0.0027318788626519374 0 0.034002242829548744 -0.0022495151905101247 0 0.034636763005109664 -0.0022296671094831806 0 0.0343554077557593 -0.0027318788626519374 0 0.034734770645146636 -0.0025988150134525724 0 0.034636763005109664 -0.0022296671094831806 0 0.034964816960442936 -0.0020719555331795291 0 0.034734770645146636 -0.0025988150134525724 0 0.034636763005109664 -0.0022296671094831806 0 0.033344100289132102 -0.0037167208100980743 0 0.0343554077557593 -0.0027318788626519374 0 0.034002242829548744 -0.0022495151905101247 0 0.034002242829548744 -0.0022495151905101247 0 0.033789358800825627 -0.0015658237596511298 0 0.033310830277757629 -0.0020072081818777532 0 0.034002242829548744 -0.0022495151905101247 0 0.034216666467642293 -0.0016321439547930007 0 0.034396429559302673 -0.0019360183435094703 0 0.034002242829548744 -0.0022495151905101247 0 0.034216666467642293 -0.0016321439547930007 0 0.033789358800825627 -0.0015658237596511298 0 0.034002242829548744 -0.0022495151905101247 0 0.034636763005109664 -0.0022296671094831806 0 0.034396429559302673 -0.0019360183435094703 0 0.034636763005109664 -0.0022296671094831806 0 0.034396429559302673 -0.0019360183435094703 0 0.034696328280842702 -0.001662855224971792 0 0.034964816960442936 -0.0020719555331795291 0 0.034636763005109664 -0.0022296671094831806 0 0.034696328280842702 -0.001662855224971792 0 0.034216666467642293 -0.0016321439547930007 0 0.034396429559302673 -0.0019360183435094703 0 0.034696328280842702 -0.001662855224971792 0 0.034696328280842702 -0.001662855224971792 0 0.034524299418459921 -0.001184965920147472 0 0.034956709199383477 -0.0012572985587371074 0 0.034216666467642293 -0.0016321439547930007 0 0.034696328280842702 -0.001662855224971792 0 0.034524299418459921 -0.001184965920147472 0 0.034524299418459921 -0.001184965920147472 0 0.034776573487342477 -0.0010292599858079275 0 0.034956709199383477 -0.0012572985587371074 0 0.033789358800825627 -0.0015658237596511298 0 0.034165185867139652 -0.0012171624304954671 0 0.03373891555739772 -0.0011658336694329895 0 0.034216666467642293 -0.0016321439547930007 0 0.034524299418459921 -0.001184965920147472 0 0.034165185867139652 -0.0012171624304954671 0 0.034216666467642293 -0.0016321439547930007 0 0.033789358800825627 -0.0015658237596511298 0 0.034165185867139652 -0.0012171624304954671 0 0.034524299418459921 -0.001184965920147472 0 0.034165185867139652 -0.0012171624304954671 0 0.034234267038215416 -0.0008475503338570172 0 0.034165185867139652 -0.0012171624304954671 0 0.034010962449715777 -0.0010090185001305312 0 0.034234267038215416 -0.0008475503338570172 0 0.034010962449715777 -0.0010090185001305312 0 0.03373891555739772 -0.0011658336694329895 0 0.033907003368337366 -0.00083685890976456425 0 0.034165185867139652 -0.0012171624304954671 0 0.034010962449715777 -0.0010090185001305312 0 0.03373891555739772 -0.0011658336694329895 0 0.034234267038215416 -0.0008475503338570172 0 0.034102756395398157 -0.0005677789144638689 0 0.034563163177718584 -0.00051438712787320209 0 0.034010962449715777 -0.0010090185001305312 0 0.034234267038215416 -0.0008475503338570172 0 0.033907003368337366 -0.00083685890976456425 0 0.034234267038215416 -0.0008475503338570172 0 0.033907003368337366 -0.00083685890976456425 0 0.034102756395398157 -0.0005677789144638689 0 0.034234267038215416 -0.0008475503338570172 0 0.0346480426638393 -0.00082875326786205187 0 0.034563163177718584 -0.00051438712787320209 0 0.034524299418459921 -0.001184965920147472 0 0.034776573487342477 -0.0010292599858079275 0 0.0346480426638393 -0.00082875326786205187 0 0.034776573487342477 -0.0010292599858079275 0 0.0346480426638393 -0.00082875326786205187 0 0.034968647406085004 -0.00086758313070281468 0 0.034524299418459921 -0.001184965920147472 0 0.034234267038215416 -0.0008475503338570172 0 0.0346480426638393 -0.00082875326786205187 0 0.0346480426638393 -0.00082875326786205187 0 0.034968647406085004 -0.00086758313070281468 0 0.034811780176214023 -0.00061971624884616392 0 0.034776573487342477 -0.0010292599858079275 0 0.034968647406085004 -0.00086758313070281468 0 0.034956709199383477 -0.0012572985587371074 0 0.034968647406085004 -0.00086758313070281468 0 0.035279134246281027 -0.00078164389283777696 0 0.035258789384340253 -0.0011068530684231542 0 0.034968647406085004 -0.00086758313070281468 0 0.035258789384340253 -0.0011068530684231542 0 0.034956709199383477 -0.0012572985587371074 0 0.034968647406085004 -0.00086758313070281468 0 0.035279134246281027 -0.00078164389283777696 0 0.035058178167106289 -0.00055944301379098828 0 0.035279134246281027 -0.00078164389283777696 0 0.035493195399443393 -0.00098232228717248663 0 0.035502848887032694 -0.00073651545299795401 0 0.035279134246281027 -0.00078164389283777696 0 0.035493195399443393 -0.00098232228717248663 0 0.035258789384340253 -0.0011068530684231542 0 0.035493195399443393 -0.00098232228717248663 0 0.035258789384340253 -0.0011068530684231542 0 0.035609582582249943 -0.001392120371404384 0 0.035258789384340253 -0.0011068530684231542 0 0.035609582582249943 -0.001392120371404384 0 0.03526914311061416 -0.00154284724136706 0 0.034972208183637971 -0.0016262956949218256 0 0.03526914311061416 -0.00154284724136706 0 0.034956709199383477 -0.0012572985587371074 0 0.034972208183637971 -0.0016262956949218256 0 0.034696328280842702 -0.001662855224971792 0 0.034956709199383477 -0.0012572985587371074 0 0.035258789384340253 -0.0011068530684231542 0 0.03526914311061416 -0.00154284724136706 0 0.034956709199383477 -0.0012572985587371074 0 0.026746956206213313 -0.0014645776227126038 0 0.027778188207529857 -0.00098026056080314822 0 0.02695096526425507 -0.001926569751119764 0 0.027778188207529857 -0.00098026056080314822 0 0.02695096526425507 -0.001926569751119764 0 0.028292183683650638 -0.0019779782498867558 0 0.02695096526425507 -0.001926569751119764 0 0.02711768394893762 -0.0031688517101986723 0 0.028292183683650638 -0.0019779782498867558 0 0.026651945415998284 -0.0018401071731401549 0 0.026362088299397676 -0.0018008088563262606 0 0.02695096526425507 -0.001926569751119764 0 0.026299872808237396 -0.0047139380310196998 0 0.02695096526425507 -0.001926569751119764 0 0.02711768394893762 -0.0031688517101986723 0 0.026285082573998038 -0.0028823421755334285 0 0.026420029712203627 -0.0025015110640871233 0 0.02711768394893762 -0.0031688517101986723 0 0.028292183683650638 -0.0019779782498867558 0 0.028587500847188852 -0.0031719205627260185 0 0.030564483010299594 -0.0044254796680827015 0 0.028587500847188852 -0.0031719205627260185 0 0.02990728413104712 -0.0025809058918684694 0 0.028292183683650638 -0.0019779782498867558 0 0.028587500847188852 -0.0031719205627260185 0 0.02990728413104712 -0.0025809058918684694 0 0.027778188207529857 -0.00098026056080314822 0 0.029534608041212756 -0.0012718900833532387 0 0.028686804943853002 0.00055990514251823655 0 0.027778188207529857 -0.00098026056080314822 0 0.028292183683650638 -0.0019779782498867558 0 0.029534608041212756 -0.0012718900833532387 0 0.028292183683650638 -0.0019779782498867558 0 0.02990728413104712 -0.0025809058918684694 0 0.029534608041212756 -0.0012718900833532387 0 0.029534608041212756 -0.0012718900833532387 0 0.031935155672986278 -0.0021030364065613297 0 0.031552889349374662 -0.00033246361333970147 0 0.032677110770963386 -0.0012733514042614408 0 0.032728390364406078 -0.00089423184262591858 0 0.02990728413104712 -0.0025809058918684694 0 0.029534608041212756 -0.0012718900833532387 0 0.031935155672986278 -0.0021030364065613297 0 0.031935155672986278 -0.0021030364065613297 0 0.033167635751618539 -0.0015112540046957554 0 0.03266752963257645 -0.0014239048231952291 0 0.030564483010299594 -0.0044254796680827015 0 0.02990728413104712 -0.0025809058918684694 0 0.031935155672986278 -0.0021030364065613297 0 0.030564483010299594 -0.0044254796680827015 0 0.031935155672986278 -0.0021030364065613297 0 0.032910927005886152 -0.0027699935126903569 0 0.031935155672986278 -0.0021030364065613297 0 0.032910927005886152 -0.0027699935126903569 0 0.033310830277757629 -0.0020072081818777532 0 0.034002242829548744 -0.0022495151905101247 0 0.032910927005886152 -0.0027699935126903569 0 0.033310830277757629 -0.0020072081818777532 0 0.033344100289132102 -0.0037167208100980743 0 0.034002242829548744 -0.0022495151905101247 0 0.032910927005886152 -0.0027699935126903569 0 0.031935155672986278 -0.0021030364065613297 0 0.033310830277757629 -0.0020072081818777532 0 0.033167635751618539 -0.0015112540046957554 0 0.033789358800825627 -0.0015658237596511298 0 0.033310830277757629 -0.0020072081818777532 0 0.033167635751618539 -0.0015112540046957554 0 0.033789358800825627 -0.0015658237596511298 0 0.033167635751618539 -0.0015112540046957554 0 0.03373891555739772 -0.0011658336694329895 0 0.033167635751618539 -0.0015112540046957554 0 0.033302297848437558 -0.0011393102896686776 0 0.03373891555739772 -0.0011658336694329895 0 0.033167635751618539 -0.0015112540046957554 0 0.033302297848437558 -0.0011393102896686776 0 0.03266752963257645 -0.0014239048231952291 0 0.033302297848437558 -0.0011393102896686776 0 0.033577893388338456 -0.00075382041096130556 0 0.033014798442445183 -0.00080887376273880819 0 0.033302297848437558 -0.0011393102896686776 0 0.033635272278160822 -0.00092799944192116057 0 0.033577893388338456 -0.00075382041096130556 0 0.033302297848437558 -0.0011393102896686776 0 0.033635272278160822 -0.00092799944192116057 0 0.03373891555739772 -0.0011658336694329895 0 0.033635272278160822 -0.00092799944192116057 0 0.03373891555739772 -0.0011658336694329895 0 0.033907003368337366 -0.00083685890976456425 0 0.033844756384573842 -0.00066685091341258426 0 0.033577893388338456 -0.00075382041096130556 0 0.033995377788603121 -0.00042621812987737629 0 0.033635272278160822 -0.00092799944192116057 0 0.033907003368337366 -0.00083685890976456425 0 0.033844756384573842 -0.00066685091341258426 0 0.033907003368337366 -0.00083685890976456425 0 0.033844756384573842 -0.00066685091341258426 0 0.034102756395398157 -0.0005677789144638689 0 0.033635272278160822 -0.00092799944192116057 0 0.033844756384573842 -0.00066685091341258426 0 0.033577893388338456 -0.00075382041096130556 0 0.033577893388338456 -0.00075382041096130556 0 0.03355665601921469 -0.00075448535419251109 0 0.033995377788603121 -0.00042621812987737629 0 0.035099942334394785 -0.00052781619461346777 0 0.034987738270224833 -0.00044977182642459018 0 0.03508198141900877 -0.00032692613791138468 0 0.032899526867619329 -0.00028188736235432101 0 0.033909401249276258 -0.00043570676578900448 0 0.032944513911083835 -0.00028851835531380787 0 0.032899526867619329 -0.00028188736235432101 0 0.031407708624728879 0.0014013097584141686 0 0.031552889349374662 -0.00033246361333970147 0 0.028686804943853002 0.00055990514251823655 0 0.033302297848437558 -0.0011393102896686776 0 0.033014798442445183 -0.00080887376273880819 0 0.03266752963257645 -0.0014239048231952291 0 0.032899526867619329 -0.00028188736235432101 0 0.032728390364406078 -0.00089423184262591858 0 0.032899526867619329 -0.00028188736235432101 0 0.032082820800045771 -0.00043027732955018078 0 0.029534608041212756 -0.0012718900833532387 0 0.031552889349374662 -0.00033246361333970147 0 0.028686804943853002 0.00055990514251823655 0 0.034926379602201831 -0.0005871482642611696 0 0.034987738270224833 -0.00044977182642459018 0 0.034870938853194228 -0.00041358945006326396 0 0.035099942334394785 -0.00052781619461346777 0 0.034926379602201831 -0.0005871482642611696 0 0.034987738270224833 -0.00044977182642459018 0 0.034747369287180113 -0.00049162711839978999 0 0.034926379602201831 -0.0005871482642611696 0 0.034870938853194228 -0.00041358945006326396 0 0.034747369287180113 -0.00049162711839978999 0 0.034790843823541369 -0.00035905746706032247 0 0.034870938853194228 -0.00041358945006326396 0 0.034727495646604163 -0.00068134183411763436 0 0.034747369287180113 -0.00049162711839978999 0 0.034926379602201831 -0.0005871482642611696 0 0.026805345837711901 -0.00076220998063188724 0 0.027778188207529857 -0.00098026056080314822 0 0.028686804943853002 0.00055990514251823655 0 0.031297099699474029 -0.00078814764736014357 0 0.032082820800045771 -0.00043027732955018078 0 0.034795031684769259 -0.00022298729514040106 0 0.034874718829502549 -0.00021503591106424147 0 0.034833522685411476 -0.00025083140649771415 0 0.034874718829502549 -0.00021503591106424147 0 0.034833522685411476 -0.00025083140649771415 0 0.03486036550883076 -0.00029280414714648811 0 0.034874718829502549 -0.00021503591106424147 0 0.03486036550883076 -0.00029280414714648811 0 0.034947617462641703 -0.00023084326903791789 0 0.034795031684769259 -0.00022298729514040106 0 0.034833522685411476 -0.00025083140649771415 0 0.034792085116182869 -0.00029130510461055996 0 0.034833522685411476 -0.00025083140649771415 0 0.034792085116182869 -0.00029130510461055996 0 0.03486036550883076 -0.00029280414714648811 0 0.034792085116182869 -0.00029130510461055996 0 0.034790843823541369 -0.00035905746706032247 0 0.03486036550883076 -0.00029280414714648811 0 0.034790843823541369 -0.00035905746706032247 0 0.034870938853194228 -0.00041358945006326396 0 0.03486036550883076 -0.00029280414714648811 0 0.034870938853194228 -0.00041358945006326396 0 0.03486036550883076 -0.00029280414714648811 0 0.03494983856908894 -0.00034204079300380617 0 0.034987738270224833 -0.00044977182642459018 0 0.03494983856908894 -0.00034204079300380617 0 0.03508198141900877 -0.00032692613791138468 0 0.03494983856908894 -0.00034204079300380617 0 0.034947617462641703 -0.00023084326903791789 0 0.03508198141900877 -0.00032692613791138468 0 0.034987738270224833 -0.00044977182642459018 0 0.034870938853194228 -0.00041358945006326396 0 0.03494983856908894 -0.00034204079300380617 0 0.03486036550883076 -0.00029280414714648811 0 0.03494983856908894 -0.00034204079300380617 0 0.034947617462641703 -0.00023084326903791789 0 0.034947617462641703 -0.00023084326903791789 0 0.03508198141900877 -0.00032692613791138468 0 0.035049408318812078 -0.00013684784911235795 0 0.033995377788603121 -0.00042621812987737629 0 0.034509977635435771 -0.00017360303615172507 0 0.034500549198765072 -0.00011374451526951538 0 0.033909401249276258 -0.00043570676578900448 0 0.034529781261035022 -0.00026404796183207276 0 0.033844756384573842 -0.00066685091341258426 0 0.033995377788603121 -0.00042621812987737629 0 0.034102756395398157 -0.0005677789144638689 0 0.033995377788603121 -0.00042621812987737629 0 0.034102756395398157 -0.0005677789144638689 0 0.034442400495654467 -0.00032490523902942256 0 0.033995377788603121 -0.00042621812987737629 0 0.034509977635435771 -0.00017360303615172507 0 0.034442400495654467 -0.00032490523902942256 0 0.034509977635435771 -0.00017360303615172507 0 0.034751133487889573 -5.1426526693548176e-05 0 0.034500549198765072 -0.00011374451526951538 0 0.034509977635435771 -0.00017360303615172507 0 0.034751133487889573 -5.1426526693548176e-05 0 0.034790169972361305 -7.5908238234084836e-05 0 0.034751133487889573 -5.1426526693548176e-05 0 0.034999387750183499 -9.3936389017280021e-09 0 0.034999648804133358 -2.5236172426033687e-08 0 0.035000240401956872 -5.7418462072402768e-08 0 0.035049408318812078 -0.00013684784911235795 0 0.034999767221345957 5.0857211201881225e-08 0 0.034751133487889573 -5.1426526693548176e-05 0 0.034999387750183499 -9.3936389017280021e-09 0 0.034500549198765072 -0.00011374451526951538 0 0.034999120189273487 -3.7987621653438432e-07 0 0.034529781261035022 -0.00026404796183207276 0 0.034947617462641703 -0.00023084326903791789 0 0.035049408318812078 -0.00013684784911235795 0 0.03490682829656469 -9.8765986320377227e-05 0 0.034874718829502549 -0.00021503591106424147 0 0.034947617462641703 -0.00023084326903791789 0 0.03490682829656469 -9.8765986320377227e-05 0 0.034999936620056488 -6.0069581118480967e-08 0 0.034942839041298482 -6.2987721076977843e-05 0 0.035000004090331584 -3.0941008301632462e-09 0 0.034999989124246692 5.9062100993964982e-09 0 0.034996820222570703 -6.7984623594918707e-07 0 0.035049408318812078 -0.00013684784911235795 0 0.034999767221345957 5.0857211201881225e-08 0 0.03490682829656469 -9.8765986320377227e-05 0 0.034981403187494244 -2.1615423975811852e-06 0 0.034999989124246692 5.9062100993964982e-09 0 0.034996820222570703 -6.7984623594918707e-07 0 0.034872690107877802 -0.00014273176685703864 0 0.034942839041298482 -6.2987721076977843e-05 0 0.034795031684769259 -0.00022298729514040106 0 0.034874718829502549 -0.00021503591106424147 0 0.03490682829656469 -9.8765986320377227e-05 0 0.034972375676221301 -5.3776779713931038e-06 0 0.034981403187494244 -2.1615423975811852e-06 0 0.034996820222570703 -6.7984623594918707e-07 0 0.034972375676221301 -5.3776779713931038e-06 0 0.034989425549808217 -2.1435935993255203e-05 0 0.034996820222570703 -6.7984623594918707e-07 0 0.035062618785213696 -0.00029400097167052094 0 0.034875110064863109 -0.00042183894923097508 0 0.034784183024148659 -0.00025342078022260172 0 0.035062618785213696 -0.00029400097167052094 0 0.034784183024148659 -0.00025342078022260172 0 0.034990135332437798 -7.9056239815375386e-05 0 0.035062618785213696 -0.00029400097167052094 0 0.035297872666949212 -0.00049429783894592303 0 0.035285636843012461 -0.00013064205329318829 0 0.035062618785213696 -0.00029400097167052094 0 0.035297872666949212 -0.00049429783894592303 0 0.035058178167106289 -0.00055944301379098828 0 0.035279134246281027 -0.00078164389283777696 0 0.035297872666949212 -0.00049429783894592303 0 0.035502848887032694 -0.00073651545299795401 0 0.035279134246281027 -0.00078164389283777696 0 0.035297872666949212 -0.00049429783894592303 0 0.035058178167106289 -0.00055944301379098828 0 0.035062618785213696 -0.00029400097167052094 0 0.035058178167106289 -0.00055944301379098828 0 0.034875110064863109 -0.00042183894923097508 0 0.035058178167106289 -0.00055944301379098828 0 0.034875110064863109 -0.00042183894923097508 0 0.034811780176214023 -0.00061971624884616392 0 0.034968647406085004 -0.00086758313070281468 0 0.035058178167106289 -0.00055944301379098828 0 0.034811780176214023 -0.00061971624884616392 0 0.034875110064863109 -0.00042183894923097508 0 0.034563163177718584 -0.00051438712787320209 0 0.034784183024148659 -0.00025342078022260172 0 0.0346480426638393 -0.00082875326786205187 0 0.034811780176214023 -0.00061971624884616392 0 0.034563163177718584 -0.00051438712787320209 0 0.034875110064863109 -0.00042183894923097508 0 0.034811780176214023 -0.00061971624884616392 0 0.034563163177718584 -0.00051438712787320209 0 0.034102756395398157 -0.0005677789144638689 0 0.034563163177718584 -0.00051438712787320209 0 0.034442400495654467 -0.00032490523902942256 0 0.034509977635435771 -0.00017360303615172507 0 0.034442400495654467 -0.00032490523902942256 0 0.034790169972361305 -7.5908238234084836e-05 0 0.034563163177718584 -0.00051438712787320209 0 0.034442400495654467 -0.00032490523902942256 0 0.034784183024148659 -0.00025342078022260172 0 0.034442400495654467 -0.00032490523902942256 0 0.034784183024148659 -0.00025342078022260172 0 0.034790169972361305 -7.5908238234084836e-05 0 0.034784183024148659 -0.00025342078022260172 0 0.034790169972361305 -7.5908238234084836e-05 0 0.034990135332437798 -7.9056239815375386e-05 0 0.034751133487889573 -5.1426526693548176e-05 0 0.034790169972361305 -7.5908238234084836e-05 0 0.034999648804133358 -2.5236172426033687e-08 0 0.034790169972361305 -7.5908238234084836e-05 0 0.034999648804133358 -2.5236172426033687e-08 0 0.034999844294860839 -2.228790225545259e-08 0 0.034790169972361305 -7.5908238234084836e-05 0 0.034999844294860839 -2.228790225545259e-08 0 0.034990135332437798 -7.9056239815375386e-05 0 0.034999844294860839 -2.228790225545259e-08 0 0.034990135332437798 -7.9056239815375386e-05 0 0.035000508141071925 8.0477702086754218e-08 0 0.035062618785213696 -0.00029400097167052094 0 0.034990135332437798 -7.9056239815375386e-05 0 0.035285636843012461 -0.00013064205329318829 0 0.034990135332437798 -7.9056239815375386e-05 0 0.035000508141071925 8.0477702086754218e-08 0 0.035285636843012461 -0.00013064205329318829 0 0.034999982851751349 5.8191353107140933e-09 0 0.034997897989921832 -5.2760678553336524e-06 0 0.034999994104638631 -8.8307838686242821e-09 0 0.034999982851751349 5.8191353107140933e-09 0 0.034997897989921832 -5.2760678553336524e-06 0 0.034990918266649323 -2.2012916683526181e-05 0 0.034999875775387358 -2.5063045082574919e-07 0 0.034929107296519206 -0.00021918853296419631 0 0.034997897989921832 -5.2760678553336524e-06 0 0.034992400979708231 -5.1594756240222685e-06 0 0.034991516237515112 -6.5029504053954947e-06 0 0.034997897989921832 -5.2760678553336524e-06 0 0.034999994104638631 -8.8307838686242821e-09 0 0.034992400979708231 -5.1594756240222685e-06 0 0.034999994104638631 -8.8307838686242821e-09 0 0.034992400979708231 -5.1594756240222685e-06 0 0.034995467325753281 -2.4103227937387623e-06 0 0.034992400979708231 -5.1594756240222685e-06 0 0.03498873605977116 -6.1440989357327794e-06 0 0.034995467325753281 -2.4103227937387623e-06 0 0.034992400979708231 -5.1594756240222685e-06 0 0.034988914533844104 -7.3432129053634084e-06 0 0.034991516237515112 -6.5029504053954947e-06 0 0.034992400979708231 -5.1594756240222685e-06 0 0.034988914533844104 -7.3432129053634084e-06 0 0.034986745936443096 -7.9607843304455755e-06 0 0.034988914533844104 -7.3432129053634084e-06 0 0.034986745936443096 -7.9607843304455755e-06 0 0.034984561206385011 -9.5787949504764639e-06 0 0.034992400979708231 -5.1594756240222685e-06 0 0.034986745936443096 -7.9607843304455755e-06 0 0.03498873605977116 -6.1440989357327794e-06 0 0.034833354138682035 -9.4157504521147828e-05 0 0.0348055015528985 -0.00016644238818967695 0 0.034997897989921832 -5.2760678553336524e-06 0 0.034990918266649323 -2.2012916683526181e-05 0 0.034993686589506162 -2.7755652206090778e-05 0 0.034997897989921832 -5.2760678553336524e-06 0 0.034991516237515112 -6.5029504053954947e-06 0 0.034986957034530246 -8.3768434989164346e-06 0 0.034988914533844104 -7.3432129053634084e-06 0 0.034991516237515112 -6.5029504053954947e-06 0 0.034986957034530246 -8.3768434989164346e-06 0 0.034988914533844104 -7.3432129053634084e-06 0 0.034986957034530246 -8.3768434989164346e-06 0 0.034984561206385011 -9.5787949504764639e-06 0 0.034986957034530246 -8.3768434989164346e-06 0 0.034984561206385011 -9.5787949504764639e-06 0 0.034982803011202393 -1.0443970019165093e-05 0 0.035297872666949212 -0.00049429783894592303 0 0.035285636843012461 -0.00013064205329318829 0 0.035609344773903491 -0.00052268563389982732 0 0.034929107296519206 -0.00021918853296419631 0 0.034723150880775593 -0.00051246456248747816 0 0.0348055015528985 -0.00016644238818967695 0 0.034723150880775593 -0.00051246456248747816 0 0.034990918266649323 -2.2012916683526181e-05 0 0.034993686589506162 -2.7755652206090778e-05 0 0.034988760702777101 -6.1434952416207893e-05 0 0.034986745936443096 -7.9607843304455755e-06 0 0.034976138364569802 -1.0919628529292318e-05 0 0.03498873605977116 -6.1440989357327794e-06 0 0.034986745936443096 -7.9607843304455755e-06 0 0.034984561206385011 -9.5787949504764639e-06 0 0.034976138364569802 -1.0919628529292318e-05 0 0.034984561206385011 -9.5787949504764639e-06 0 0.034982803011202393 -1.0443970019165093e-05 0 0.034976138364569802 -1.0919628529292318e-05 0 0.034888226345320149 -0.0002984320219966055 0 0.034523149661138459 -0.00084833551090488207 0 0.034976138364569802 -1.0919628529292318e-05 0 0.034943138944224912 -2.7761743551146236e-05 0 0.034963108494614745 -2.3213084006438676e-05 0 0.034982803011202393 -1.0443970019165093e-05 0 0.034976138364569802 -1.0919628529292318e-05 0 0.034980815462319521 -8.7230834192456926e-06 0 0.034723150880775593 -0.00051246456248747816 0 0.034548859557980455 -0.0010302237571827735 0 0.035297872666949212 -0.00049429783894592303 0 0.035609344773903491 -0.00052268563389982732 0 0.035502848887032694 -0.00073651545299795401 0 0.035609344773903491 -0.00052268563389982732 0 0.03577106434213994 -0.00092480540022075856 0 0.035502848887032694 -0.00073651545299795401 0 0.034723150880775593 -0.00051246456248747816 0 0.034523149661138459 -0.00084833551090488207 0 0.03497878875803459 -1.5517823709289681e-05 0 0.03497898052808078 -1.8853564586399818e-05 0 0.034973125044943626 -2.50814368794293e-05 0 0.03497878875803459 -1.5517823709289681e-05 0 0.034971132092296568 -2.0581253219976391e-05 0 0.034973125044943626 -2.50814368794293e-05 0 0.034971132092296568 -2.0581253219976391e-05 0 0.034976138364569802 -1.0919628529292318e-05 0 0.034963108494614745 -2.3213084006438676e-05 0 0.03497878875803459 -1.5517823709289681e-05 0 0.034971132092296568 -2.0581253219976391e-05 0 0.034976138364569802 -1.0919628529292318e-05 0 0.034976138364569802 -1.0919628529292318e-05 0 0.034987047609229271 -7.9269649193029811e-06 0 0.03498873605977116 -6.1440989357327794e-06 0 0.03497878875803459 -1.5517823709289681e-05 0 0.034976138364569802 -1.0919628529292318e-05 0 0.034987047609229271 -7.9269649193029811e-06 0 0.034979550043743597 -4.1328578834306541e-06 0 0.034974987732903431 -2.2428783834358241e-06 0 0.03497878875803459 -1.5517823709289681e-05 0 0.034987047609229271 -7.9269649193029811e-06 0 0.034981427669237015 -1.4035343562185923e-05 0 0.034987047609229271 -7.9269649193029811e-06 0 0.034995700911297098 -1.9997768446261295e-06 0 0.034996312050452082 -3.1488418532982364e-06 0 0.034987047609229271 -7.9269649193029811e-06 0 0.034995700911297098 -1.9997768446261295e-06 0 0.03498873605977116 -6.1440989357327794e-06 0 0.034995700911297098 -1.9997768446261295e-06 0 0.03498873605977116 -6.1440989357327794e-06 0 0.034995467325753281 -2.4103227937387623e-06 0 0.034995700911297098 -1.9997768446261295e-06 0 0.034999991975391664 1.2396657003988131e-09 0 0.034995467325753281 -2.4103227937387623e-06 0 0.034999994104638631 -8.8307838686242821e-09 0 0.034999991975391664 1.2396657003988131e-09 0 0.034995467325753281 -2.4103227937387623e-06 0 0.034995700911297098 -1.9997768446261295e-06 0 0.034999991975391664 1.2396657003988131e-09 0 0.034999991827077567 -5.9842810709332226e-09 0 0.034995700911297098 -1.9997768446261295e-06 0 0.034999991827077567 -5.9842810709332226e-09 0 0.034997369649751586 -1.7541559924006655e-06 0 0.034999995162789815 -9.2110388078118996e-10 0 0.034996782819273313 5.0707545872173306e-08 0 0.034999991827077567 -5.9842810709332226e-09 0 0.034997369649751586 -1.7541559924006655e-06 0 0.034995137890526391 -3.6083034156678457e-06 0 0.0349999990414573 -6.0279842401020389e-10 0 0.035000002620159218 1.4903823231393272e-09 0 0.035000120632651406 3.4054146594962401e-07 0 0.034997369649751586 -1.7541559924006655e-06 0 0.034995137890526391 -3.6083034156678457e-06 0 0.034995448043147116 -1.8795938108505424e-06 0 0.034997369649751586 -1.7541559924006655e-06 0 0.034995448043147116 -1.8795938108505424e-06 0 0.034996551409589245 -1.9449472476836938e-06 0 0.034995448043147116 -1.8795938108505424e-06 0 0.034994393371411109 -2.4779198147302598e-07 0 0.034996551409589245 -1.9449472476836938e-06 0 0.034995700911297098 -1.9997768446261295e-06 0 0.034997369649751586 -1.7541559924006655e-06 0 0.034996551409589245 -1.9449472476836938e-06 0 0.034995700911297098 -1.9997768446261295e-06 0 0.034996551409589245 -1.9449472476836938e-06 0 0.034996312050452082 -3.1488418532982364e-06 0 0.034999992281991132 -2.4777143354382809e-09 0 0.034992980686682031 1.3387912271861074e-06 0 0.03499952531282096 1.9355313499794772e-06 0 0.035000002620159218 1.4903823231393272e-09 0 0.035000120632651406 3.4054146594962401e-07 0 0.03499952531282096 1.9355313499794772e-06 0 0.034995137890526391 -3.6083034156678457e-06 0 0.034995448043147116 -1.8795938108505424e-06 0 0.034988825645838093 -2.4785431702668626e-06 0 0.035000002620159218 1.4903823231393272e-09 0 0.034999992281991132 -2.4777143354382809e-09 0 0.03499952531282096 1.9355313499794772e-06 0 0.034996782819273313 5.0707545872173306e-08 0 0.034993762626707496 4.5845812762754233e-07 0 0.034995448043147116 -1.8795938108505424e-06 0 0.034994393371411109 -2.4779198147302598e-07 0 0.034988825645838093 -2.4785431702668626e-06 0 0.034994393371411109 -2.4779198147302598e-07 0 0.034988825645838093 -2.4785431702668626e-06 0 0.034989103611542914 2.8034286714601541e-06 0 0.034993762626707496 4.5845812762754233e-07 0 0.034990915673504201 1.2342859175162056e-06 0 0.034988825645838093 -2.4785431702668626e-06 0 0.034984178253453777 2.5015454523434988e-06 0 0.034982162607178693 2.4383807500580095e-06 0 0.034992980686682031 1.3387912271861074e-06 0 0.03499952531282096 1.9355313499794772e-06 0 0.034982162607178693 2.4383807500580095e-06 0 0.034988825645838093 -2.4785431702668626e-06 0 0.034984178253453777 2.5015454523434988e-06 0 0.034989103611542914 2.8034286714601541e-06 0 0.0349847269872283 5.4373949354452028e-06 0 0.034989103611542914 2.8034286714601541e-06 0 0.034987827632262956 7.4799372798782389e-06 0 0.0349847269872283 5.4373949354452028e-06 0 0.034984178253453777 2.5015454523434988e-06 0 0.034989103611542914 2.8034286714601541e-06 0 0.034994393371411109 -2.4779198147302598e-07 0 0.034989103611542914 2.8034286714601541e-06 0 0.034993636049292946 3.4034636943095998e-06 0 0.034988097001706124 -2.1204689125096992e-05 0 0.034992794641619002 -1.9351277165919493e-05 0 0.034985915998349701 -1.6939206198266295e-05 0 0.034830659710959187 5.1759188896577298e-05 0 0.034946952594241118 8.621685366182653e-06 0 0.034989103611542914 2.8034286714601541e-06 0 0.034987827632262956 7.4799372798782389e-06 0 0.034993636049292946 3.4034636943095998e-06 0 0.034847456376583506 -3.8544700732011989e-05 0 0.034869995317525479 -6.8506649214174984e-05 0 0.034922892926642926 -5.3683814527913041e-05 0 0.034929144817814617 -1.4337474939602773e-05 0 0.034898369023251531 -4.1621781012921823e-05 0 0.034941475271817055 -3.2910563939863931e-05 0 0.034830659710959187 5.1759188896577298e-05 0 0.034864436621276917 3.1687805502121943e-05 0 0.034898369023251531 -4.1621781012921823e-05 0 0.034922892926642926 -5.3683814527913041e-05 0 0.034941475271817055 -3.2910563939863931e-05 0 0.034870116933176216 4.5132682471044088e-05 0 0.034830659710959187 5.1759188896577298e-05 0 0.034994393371411109 -2.4779198147302598e-07 0 0.034996312050452082 -3.1488418532982364e-06 0 0.034993636049292946 3.4034636943095998e-06 0 0.034974987732903431 -2.2428783834358241e-06 0 0.034946952594241118 8.621685366182653e-06 0 0.034994393371411109 -2.4779198147302598e-07 0 0.034996551409589245 -1.9449472476836938e-06 0 0.034996312050452082 -3.1488418532982364e-06 0 0.034988097001706124 -2.1204689125096992e-05 0 0.034985915998349701 -1.6939206198266295e-05 0 0.034983976485005112 -2.2634317318555635e-05 0 0.034985915998349701 -1.6939206198266295e-05 0 0.03498179535148007 -1.8660649983174503e-05 0 0.034983976485005112 -2.2634317318555635e-05 0 0.034981427669237015 -1.4035343562185923e-05 0 0.034985915998349701 -1.6939206198266295e-05 0 0.03498179535148007 -1.8660649983174503e-05 0 0.034981427669237015 -1.4035343562185923e-05 0 0.03498179535148007 -1.8660649983174503e-05 0 0.03497898052808078 -1.8853564586399818e-05 0 0.03498179535148007 -1.8660649983174503e-05 0 0.03497898052808078 -1.8853564586399818e-05 0 0.034978477443669297 -2.521859230535362e-05 0 0.03497878875803459 -1.5517823709289681e-05 0 0.034981427669237015 -1.4035343562185923e-05 0 0.03497898052808078 -1.8853564586399818e-05 0 0.03497898052808078 -1.8853564586399818e-05 0 0.034978477443669297 -2.521859230535362e-05 0 0.034973125044943626 -2.50814368794293e-05 0 0.034978477443669297 -2.521859230535362e-05 0 0.034973208222791215 -3.2185611929631652e-05 0 0.03497651412695877 -3.2933978165942313e-05 0 0.034978477443669297 -2.521859230535362e-05 0 0.034973208222791215 -3.2185611929631652e-05 0 0.034973125044943626 -2.50814368794293e-05 0 0.034978477443669297 -2.521859230535362e-05 0 0.034980377990915523 -3.0595830464540988e-05 0 0.03497651412695877 -3.2933978165942313e-05 0 0.03498179535148007 -1.8660649983174503e-05 0 0.034978477443669297 -2.521859230535362e-05 0 0.034983976485005112 -2.2634317318555635e-05 0 0.034983976485005112 -2.2634317318555635e-05 0 0.034980377990915523 -3.0595830464540988e-05 0 0.034987522084095411 -2.7176756678816907e-05 0 0.034988097001706124 -2.1204689125096992e-05 0 0.034983976485005112 -2.2634317318555635e-05 0 0.034987522084095411 -2.7176756678816907e-05 0 0.034978477443669297 -2.521859230535362e-05 0 0.034983976485005112 -2.2634317318555635e-05 0 0.034980377990915523 -3.0595830464540988e-05 0 0.034889560626173745 -5.6279855288437615e-05 0 0.034829848179001491 -9.5260459026301933e-05 0 0.034845310525891092 -6.7799081421926634e-05 0 0.034980377990915523 -3.0595830464540988e-05 0 0.034978739490658557 -3.9187786347152475e-05 0 0.034987522084095411 -2.7176756678816907e-05 0 0.033771948602725498 0.00012732555906630846 0 0.034507388461320912 0.00014666289877725885 0 0.034980377990915523 -3.0595830464540988e-05 0 0.034978739490658557 -3.9187786347152475e-05 0 0.03497629428440948 -3.8703997752047844e-05 0 0.033771948602725498 0.00012732555906630846 0 0.033813738740084441 0.00011417789553214943 0 0.034978830958342561 -3.9922272315849234e-05 0 0.03497629428440948 -3.8703997752047844e-05 0 0.034972695719593383 -4.1122325755383331e-05 0 0.03497629428440948 -3.8703997752047844e-05 0 0.034973597526231852 -3.6765160343566486e-05 0 0.03497651412695877 -3.2933978165942313e-05 0 0.03497629428440948 -3.8703997752047844e-05 0 0.034973597526231852 -3.6765160343566486e-05 0 0.034972695719593383 -4.1122325755383331e-05 0 0.034973597526231852 -3.6765160343566486e-05 0 0.034973208222791215 -3.2185611929631652e-05 0 0.034969291945465386 -3.9297945652522454e-05 0 0.034973597526231852 -3.6765160343566486e-05 0 0.034972695719593383 -4.1122325755383331e-05 0 0.034969291945465386 -3.9297945652522454e-05 0 0.034973597526231852 -3.6765160343566486e-05 0 0.034973208222791215 -3.2185611929631652e-05 0 0.03497651412695877 -3.2933978165942313e-05 0 0.034980377990915523 -3.0595830464540988e-05 0 0.03497629428440948 -3.8703997752047844e-05 0 0.03497651412695877 -3.2933978165942313e-05 0 0.034847456376583506 -3.8544700732011989e-05 0 0.034869995317525479 -6.8506649214174984e-05 0 0.034842682516599922 -8.4400278128603229e-05 0 0.034877103570721046 -9.5509735599126543e-05 0 0.034869995317525479 -6.8506649214174984e-05 0 0.034922892926642926 -5.3683814527913041e-05 0 0.034877103570721046 -9.5509735599126543e-05 0 0.034869995317525479 -6.8506649214174984e-05 0 0.034842682516599922 -8.4400278128603229e-05 0 0.034830659710959187 5.1759188896577298e-05 0 0.034507388461320912 0.00014666289877725885 0 0.034988097001706124 -2.1204689125096992e-05 0 0.034992794641619002 -1.9351277165919493e-05 0 0.034987522084095411 -2.7176756678816907e-05 0 0.034847456376583506 -3.8544700732011989e-05 0 0.034842682516599922 -8.4400278128603229e-05 0 0.034829848179001491 -9.5260459026301933e-05 0 0.034842682516599922 -8.4400278128603229e-05 0 0.034829848179001491 -9.5260459026301933e-05 0 0.034805375565380603 -8.7336216823013041e-05 0 0.034829848179001491 -9.5260459026301933e-05 0 0.034845310525891092 -6.7799081421926634e-05 0 0.034805375565380603 -8.7336216823013041e-05 0 0.034845310525891092 -6.7799081421926634e-05 0 0.034805375565380603 -8.7336216823013041e-05 0 0.034849742199669131 -2.0193975327894445e-05 0 0.034877103570721046 -9.5509735599126543e-05 0 0.034842682516599922 -8.4400278128603229e-05 0 0.034805375565380603 -8.7336216823013041e-05 0 0.034644813188199952 -0.00025121041924366884 0 0.034805375565380603 -8.7336216823013041e-05 0 0.034642932679796727 -5.8472483473437356e-05 0 0.034720388848286828 -0.00012616024889746682 0 0.034748611064037829 -0.00010719293028819054 0 0.0346289860779753 5.7792350372193022e-05 0 0.034745521439324863 7.6343297968317064e-05 0 0.034512191277789095 0.00017354825504573964 0 0.034805375565380603 -8.7336216823013041e-05 0 0.034642932679796727 -5.8472483473437356e-05 0 0.034744565494279928 5.9536869460021789e-05 0 0.034642932679796727 -5.8472483473437356e-05 0 0.0346289860779753 5.7792350372193022e-05 0 0.034744565494279928 5.9536869460021789e-05 0 0.033361507902021713 0.00045167910442069417 0 0.033118515797324957 0.00043933762144936721 0 0.033220067536541373 0.00033278951950936001 0 0.033101505533556293 0.00037537919543735696 0 0.033034024434725341 0.00029719610471976379 0 0.033118515797324957 0.00043933762144936721 0 0.032261294287960922 0.00035507697739517327 0 0.033118515797324957 0.00043933762144936721 0 0.033623428216507691 0.00022632894901291343 0 0.034805375565380603 -8.7336216823013041e-05 0 0.034744565494279928 5.9536869460021789e-05 0 0.034849742199669131 -2.0193975327894445e-05 0 0.031136721205847411 0.0014892549950898297 0 0.030741378197191298 0.0014650981783790797 0 0.030941886939661978 0.0012157337509870482 0 0.033118515797324957 0.00043933762144936721 0 0.032998691634821865 0.00065640779252753407 0 0.031136721205847411 0.0014892549950898297 0 0.031438952553814424 0.0013173120135571913 0 0.031306881563517221 0.0011199842711517919 0 0.031136721205847411 0.0014892549950898297 0 0.031306881563517221 0.0011199842711517919 0 0.030941886939661978 0.0012157337509870482 0 0.034978830958342561 -3.9922272315849234e-05 0 0.034972695719593383 -4.1122325755383331e-05 0 0.034966837378114311 -4.7608060798585942e-05 0 0.032982402371532459 0.0004199328193125009 0 0.033034024434725341 0.00029719610471976379 0 0.032845400643580186 0.00026267402298991109 0 0.033771948602725498 0.00012732555906630846 0 0.032370259404570882 0.0001003967692364749 0 0.034978830958342561 -3.9922272315849234e-05 0 0.034963434230240398 -5.7636276603344269e-05 0 0.034966837378114311 -4.7608060798585942e-05 0 0.034972695719593383 -4.1122325755383331e-05 0 0.034966837378114311 -4.7608060798585942e-05 0 0.034969291945465386 -3.9297945652522454e-05 0 0.032982402371532459 0.0004199328193125009 0 0.033101505533556293 0.00037537919543735696 0 0.033034024434725341 0.00029719610471976379 0 0.033771948602725498 0.00012732555906630846 0 0.033623428216507691 0.00022632894901291343 0 0.034889560626173745 -5.6279855288437615e-05 0 0.034845310525891092 -6.7799081421926634e-05 0 0.034849742199669131 -2.0193975327894445e-05 0 0.030741378197191298 0.0014650981783790797 0 0.030590200913444218 0.0011626179149988761 0 0.030941886939661978 0.0012157337509870482 0 0.030741378197191298 0.0014650981783790797 0 0.030332975689361271 0.0014108520618874069 0 0.030590200913444218 0.0011626179149988761 0 0.032261294287960922 0.00035507697739517327 0 0.032370259404570882 0.0001003967692364749 0 0.031551889851516385 -7.1655324836755318e-05 0 0.031083991076920104 -0.00015387357019882423 0 0.031216395782651632 -0.00045612263929268562 0 0.032370259404570882 0.0001003967692364749 0 0.03240790720679556 -0.00040235542107682133 0 0.032370259404570882 0.0001003967692364749 0 0.030957026628652837 -3.1450425529888594e-05 0 0.034963434230240398 -5.7636276603344269e-05 0 0.034953676198779177 -5.1108147005052499e-05 0 0.034950054832281925 -6.1678233784182796e-05 0 0.034966837378114311 -4.7608060798585942e-05 0 0.034962384673854215 -4.2856179457551512e-05 0 0.034953676198779177 -5.1108147005052499e-05 0 0.034963434230240398 -5.7636276603344269e-05 0 0.034966837378114311 -4.7608060798585942e-05 0 0.034953676198779177 -5.1108147005052499e-05 0 0.034966837378114311 -4.7608060798585942e-05 0 0.034962384673854215 -4.2856179457551512e-05 0 0.034969291945465386 -3.9297945652522454e-05 0 0.034953676198779177 -5.1108147005052499e-05 0 0.034940010347848695 -4.6354420491503423e-05 0 0.034956718264195837 -3.9709725762672652e-05 0 0.034962384673854215 -4.2856179457551512e-05 0 0.034953676198779177 -5.1108147005052499e-05 0 0.034956718264195837 -3.9709725762672652e-05 0 0.03240790720679556 -0.00040235542107682133 0 0.03166844933374667 -0.0010882024763290883 0 0.034953676198779177 -5.1108147005052499e-05 0 0.034950054832281925 -6.1678233784182796e-05 0 0.03493437336792659 -6.5231912701763545e-05 0 0.031083991076920104 -0.00015387357019882423 0 0.030833276550221719 -0.00027454417103175993 0 0.030622924852167006 -0.00023776553173635208 0 0.031006262569932153 -0.00034602506845471821 0 0.031083991076920104 -0.00015387357019882423 0 0.031216395782651632 -0.00045612263929268562 0 0.031006262569932153 -0.00034602506845471821 0 0.031083991076920104 -0.00015387357019882423 0 0.030833276550221719 -0.00027454417103175993 0 0.030833276550221719 -0.00027454417103175993 0 0.030622924852167006 -0.00023776553173635208 0 0.030634917362768608 -0.00029160613771536984 0 0.030082510094333718 -0.0019469113285222593 0 0.030673093342344956 -0.0019035235564081282 0 0.030001322516196423 -0.0015815239953113904 0 0.030833276550221719 -0.00027454417103175993 0 0.030632660196645539 -0.00028944401759243302 0 0.030659588198159702 -0.00041204948932542143 0 0.035450515651276722 -0.0027136208340531724 0 0.035391179469961363 -0.0026529032880092591 0 0.035423102485533618 -0.002581183218978681 0 0.03166844933374667 -0.0010882024763290883 0 0.033203349692890856 -0.0017288282147842372 0 0.031140418348311338 -0.00094883508644778912 0 0.031172557821432925 -0.00096268876313551264 0 0.031172557821432925 -0.00096268876313551264 0 0.03043707342936006 -0.00090889238430605238 0 0.035450515651276722 -0.0027136208340531724 0 0.035452377420267023 -0.0027266323548408387 0 0.035400415314654363 -0.0027313441458209392 0 0.03166844933374667 -0.0010882024763290883 0 0.031172557821432925 -0.00096268876313551264 0 0.035450515651276722 -0.0027136208340531724 0 0.035391852641769375 -0.0027213570339076304 0 0.035376637591349319 -0.0026926538571912608 0 0.035450515651276722 -0.0027136208340531724 0 0.035400415314654363 -0.0027313441458209392 0 0.035391852641769375 -0.0027213570339076304 0 0.031172557821432925 -0.00096268876313551264 0 0.030273797877431941 -0.0012317902508031688 0 0.030273797877431941 -0.0012317902508031688 0 0.030297831416011233 -0.0012521699106668224 0 0.035450515651276722 -0.0027136208340531724 0 0.035391179469961363 -0.0026529032880092591 0 0.035376637591349319 -0.0026926538571912608 0 0.035204007731703894 -0.0028080554913956623 0 0.035400870392239617 -0.0027293804213790454 0 0.035336013835278846 -0.0027146234394157163 0 0.029682932271827146 -0.0026514827129649394 0 0.030273797877431941 -0.0012317902508031688 0 0.035204007731703894 -0.0028080554913956623 0 0.035336013835278846 -0.0027146234394157163 0 0.035279724924427928 -0.0026660858087379719 0 0.035391852641769375 -0.0027213570339076304 0 0.035336013835278846 -0.0027146234394157163 0 0.035376637591349319 -0.0026926538571912608 0 0.035400870392239617 -0.0027293804213790454 0 0.035391852641769375 -0.0027213570339076304 0 0.035336013835278846 -0.0027146234394157163 0 0.035336013835278846 -0.0027146234394157163 0 0.035356158771048488 -0.0026672941236145914 0 0.035376637591349319 -0.0026926538571912608 0 0.035391179469961363 -0.0026529032880092591 0 0.035356158771048488 -0.0026672941236145914 0 0.035376637591349319 -0.0026926538571912608 0 0.035391179469961363 -0.0026529032880092591 0 0.035364060736477396 -0.0026392772573053769 0 0.035375305048539876 -0.0026101249415398007 0 0.035391179469961363 -0.0026529032880092591 0 0.035356158771048488 -0.0026672941236145914 0 0.035364060736477396 -0.0026392772573053769 0 0.035356158771048488 -0.0026672941236145914 0 0.035364060736477396 -0.0026392772573053769 0 0.035333068414246861 -0.0026266914894474678 0 0.035356158771048488 -0.0026672941236145914 0 0.035279724924427928 -0.0026660858087379719 0 0.035333068414246861 -0.0026266914894474678 0 0.035336013835278846 -0.0027146234394157163 0 0.035356158771048488 -0.0026672941236145914 0 0.035279724924427928 -0.0026660858087379719 0 0.035355360601717407 -0.0025179974135652945 0 0.035387782994111945 -0.0025730433440440655 0 0.035378437265431523 -0.0024236130824155169 0 0.034364591175767581 -0.0021017267066022528 0 0.034228595483472256 -0.0018520509444030439 0 0.035279724924427928 -0.0026660858087379719 0 0.035269914949150757 -0.0025772817205668062 0 0.035333068414246861 -0.0026266914894474678 0 0.035269914949150757 -0.0025772817205668062 0 0.035340794400699635 -0.0025733471969290483 0 0.035333068414246861 -0.0026266914894474678 0 0.035340794400699635 -0.0025733471969290483 0 0.035333068414246861 -0.0026266914894474678 0 0.035375305048539876 -0.0026101249415398007 0 0.035364060736477396 -0.0026392772573053769 0 0.035333068414246861 -0.0026266914894474678 0 0.035375305048539876 -0.0026101249415398007 0 0.035340794400699635 -0.0025733471969290483 0 0.035375305048539876 -0.0026101249415398007 0 0.035387782994111945 -0.0025730433440440655 0 0.035340794400699635 -0.0025733471969290483 0 0.035355360601717407 -0.0025179974135652945 0 0.035387782994111945 -0.0025730433440440655 0 0.035355360601717407 -0.0025179974135652945 0 0.035313972438656319 -0.0025228405765081578 0 0.035330506251325965 -0.0024555328806607998 0 0.035340794400699635 -0.0025733471969290483 0 0.035355360601717407 -0.0025179974135652945 0 0.035313972438656319 -0.0025228405765081578 0 0.035269914949150757 -0.0025772817205668062 0 0.035340794400699635 -0.0025733471969290483 0 0.035313972438656319 -0.0025228405765081578 0 0.035247042742253092 -0.0024472714555388787 0 0.035269914949150757 -0.0025772817205668062 0 0.035313972438656319 -0.0025228405765081578 0 0.033326461533850271 -0.0012488998124160959 0 0.03332147204807874 -0.0011577344087665762 0 0.033396248669580589 -0.0013353537183528699 0 0.033235981124331175 -0.00098108370005295614 0 0.033326461533850271 -0.0012488998124160959 0 0.03332147204807874 -0.0011577344087665762 0 0.035387782994111945 -0.0025730433440440655 0 0.035423102485533618 -0.002581183218978681 0 0.035365926239598472 -0.0023935748785558651 0 0.03166844933374667 -0.0010882024763290883 0 0.033329642042419637 -0.00085574095640832484 0 0.033203349692890856 -0.0017288282147842372 0 0.034228595483472256 -0.0018520509444030439 0 0.034953676198779177 -5.1108147005052499e-05 0 0.03493437336792659 -6.5231912701763545e-05 0 0.034940010347848695 -4.6354420491503423e-05 0 0.035391179469961363 -0.0026529032880092591 0 0.035375305048539876 -0.0026101249415398007 0 0.035423102485533618 -0.002581183218978681 0 0.035375305048539876 -0.0026101249415398007 0 0.035387782994111945 -0.0025730433440440655 0 0.035423102485533618 -0.002581183218978681 0 0.033326461533850271 -0.0012488998124160959 0 0.033396248669580589 -0.0013353537183528699 0 0.033407800953718828 -0.0015160414104616092 0 0.033329642042419637 -0.00085574095640832484 0 0.034523149661138459 -0.00084833551090488207 0 0.034940010347848695 -4.6354420491503423e-05 0 0.034954043439778731 -3.3592090835678531e-05 0 0.034956718264195837 -3.9709725762672652e-05 0 0.034940010347848695 -4.6354420491503423e-05 0 0.034954043439778731 -3.3592090835678531e-05 0 0.034943138944224912 -2.7761743551146236e-05 0 0.035247042742253092 -0.0024472714555388787 0 0.035357532828819212 -0.0023633399289976721 0 0.035360240218008217 -0.0022841308237016729 0 0.034836160244288296 -0.001600828887303885 0 0.034548859557980455 -0.0010302237571827735 0 0.035247042742253092 -0.0024472714555388787 0 0.035313972438656319 -0.0025228405765081578 0 0.035330506251325965 -0.0024555328806607998 0 0.035247042742253092 -0.0024472714555388787 0 0.035330506251325965 -0.0024555328806607998 0 0.035357532828819212 -0.0023633399289976721 0 0.035355360601717407 -0.0025179974135652945 0 0.035330506251325965 -0.0024555328806607998 0 0.035378437265431523 -0.0024236130824155169 0 0.035375800714598546 -0.0024211364198734684 0 0.035357532828819212 -0.0023633399289976721 0 0.035360240218008217 -0.0022841308237016729 0 0.035330506251325965 -0.0024555328806607998 0 0.035378437265431523 -0.0024236130824155169 0 0.035357532828819212 -0.0023633399289976721 0 0.034228595483472256 -0.0018520509444030439 0 0.034548859557980455 -0.0010302237571827735 0 0.034228595483472256 -0.0018520509444030439 0 0.034262049415199489 -0.0019029509478287027 0 0.035493195399443393 -0.00098232228717248663 0 0.035609582582249943 -0.001392120371404384 0 0.03577106434213994 -0.00092480540022075856 0 0.034668899980631607 -0.00061605016667340374 0 0.034688709870293905 -0.00081952390779932004 0 0.034706986886067138 -0.00079534301722782811 0 0.033396248669580589 -0.0013353537183528699 0 0.03342441414878157 -0.0014922581925262831 0 0.033407800953718828 -0.0015160414104616092 0 0.034548859557980455 -0.0010302237571827735 0 0.034523149661138459 -0.00084833551090488207 0 0.035493195399443393 -0.00098232228717248663 0 0.03577106434213994 -0.00092480540022075856 0 0.035502848887032694 -0.00073651545299795401 0 0.034954043439778731 -3.3592090835678531e-05 0 0.034943138944224912 -2.7761743551146236e-05 0 0.034963108494614745 -2.3213084006438676e-05 0 0.034954043439778731 -3.3592090835678531e-05 0 0.034963108494614745 -2.3213084006438676e-05 0 0.034964704468363805 -2.9775777695118358e-05 0 0.034971132092296568 -2.0581253219976391e-05 0 0.034963108494614745 -2.3213084006438676e-05 0 0.034964704468363805 -2.9775777695118358e-05 0 0.034971132092296568 -2.0581253219976391e-05 0 0.034964704468363805 -2.9775777695118358e-05 0 0.034973125044943626 -2.50814368794293e-05 0 0.034973208222791215 -3.2185611929631652e-05 0 0.034973125044943626 -2.50814368794293e-05 0 0.034966763981135719 -3.4575078792491269e-05 0 0.034964704468363805 -2.9775777695118358e-05 0 0.034973125044943626 -2.50814368794293e-05 0 0.034966763981135719 -3.4575078792491269e-05 0 0.034973208222791215 -3.2185611929631652e-05 0 0.034966763981135719 -3.4575078792491269e-05 0 0.034969291945465386 -3.9297945652522454e-05 0 0.034962384673854215 -4.2856179457551512e-05 0 0.034966763981135719 -3.4575078792491269e-05 0 0.034969291945465386 -3.9297945652522454e-05 0 0.034962384673854215 -4.2856179457551512e-05 0 0.034966763981135719 -3.4575078792491269e-05 0 0.034956718264195837 -3.9709725762672652e-05 0 0.034954043439778731 -3.3592090835678531e-05 0 0.034964704468363805 -2.9775777695118358e-05 0 0.034956718264195837 -3.9709725762672652e-05 0 0.034964704468363805 -2.9775777695118358e-05 0 0.034966763981135719 -3.4575078792491269e-05 0 0.034956718264195837 -3.9709725762672652e-05 0 0.034998045158283461 -1.4675878072212305e-06 0 0.033916725129367851 -0.00023788184394107792 0 0.031398647724600749 -3.5935662243479172e-05 0 0.034998045158283461 -1.4675878072212305e-06 0 0.029230510916107694 1.34773004117178e-06 0 0.031398647724600749 -3.5935662243479172e-05 0 0.033916725129367851 -0.00023788184394107792 0 0.03299558194050372 -0.00021041919871236532 0 0.031398647724600749 -3.5935662243479172e-05 0 0.031456725827657496 -0.00074346847746108939 0 0.030575376719358411 -0.00051011067995489418 0 0.034998045158283461 -1.4675878072212305e-06 0 0.033916725129367851 -0.00023788184394107792 0 0.034995411361447348 8.9481223547291343e-07 0 0.033916725129367851 -0.00023788184394107792 0 0.033870175669171339 -0.00029558357401749741 0 0.033158387169463503 -0.00071407335131268008 0 0.033916725129367851 -0.00023788184394107792 0 0.034995411361447348 8.9481223547291343e-07 0 0.033870175669171339 -0.00029558357401749741 0 0.034998793989498206 -4.6676330661293417e-07 0 0.03428129893350601 -0.00042495999194888136 0 0.034995411361447348 8.9481223547291343e-07 0 0.033870175669171339 -0.00029558357401749741 0 0.032960663060514928 -0.00030895079394201695 0 0.033870175669171339 -0.00029558357401749741 0 0.033158387169463503 -0.00071407335131268008 0 0.032960663060514928 -0.00030895079394201695 0 0.033158387169463503 -0.00071407335131268008 0 0.032370023299005707 -0.00093150983768651668 0 0.032563334532812231 -0.00085476839242272593 0 0.031784362279709648 -0.00080013859987456239 0 0.031456725827657496 -0.00074346847746108939 0 0.033916725129367851 -0.00023788184394107792 0 0.033158387169463503 -0.00071407335131268008 0 0.03299558194050372 -0.00021041919871236532 0 0.031378420194204448 -0.0011531390307881885 0 0.032370023299005707 -0.00093150983768651668 0 0.031131541718415836 -0.00059202160161618545 0 0.033158387169463503 -0.00071407335131268008 0 0.031378420194204448 -0.0011531390307881885 0 0.032370023299005707 -0.00093150983768651668 0 0.032370023299005707 -0.00093150983768651668 0 0.032124525414063597 -0.0010577459961136119 0 0.032563334532812231 -0.00085476839242272593 0 0.032370023299005707 -0.00093150983768651668 0 0.032124525414063597 -0.0010577459961136119 0 0.032204638218753634 -0.00052304458173527547 0 0.032124525414063597 -0.0010577459961136119 0 0.032118432924206027 -0.00089891145237480207 0 0.032563334532812231 -0.00085476839242272593 0 0.033997426182620236 -0.00056181203189420903 0 0.034178572854615896 -0.00044452900043901995 0 0.032124525414063597 -0.0010577459961136119 0 0.032118432924206027 -0.00089891145237480207 0 0.032168989794090004 -0.0010119004167772226 0 0.034997151530943231 -3.1770911381397314e-05 0 0.034990802543991978 -1.9220439017458403e-05 0 0.035002599826783456 -6.6866035119383662e-06 0 0.034997151530943231 -3.1770911381397314e-05 0 0.034990802543991978 -1.9220439017458403e-05 0 0.034957576106986549 -4.2943318850567116e-05 0 0.033158387169463503 -0.00071407335131268008 0 0.032563334532812231 -0.00085476839242272593 0 0.032960663060514928 -0.00030895079394201695 0 0.032118432924206027 -0.00089891145237480207 0 0.032563334532812231 -0.00085476839242272593 0 0.032960663060514928 -0.00030895079394201695 0 0.033997426182620236 -0.00056181203189420903 0 0.03428129893350601 -0.00042495999194888136 0 0.035000003918109202 -4.5776984982522373e-10 0 0.035002599826783456 -6.6866035119383662e-06 0 0.035000001693211928 -3.1479260598537058e-09 0 0.035000001693211928 -3.1479260598537058e-09 0 0.034995866899097464 -5.6440369920232062e-06 0 0.034999979567485032 -1.4740584142055756e-09 0 0.035002599826783456 -6.6866035119383662e-06 0 0.035000001693211928 -3.1479260598537058e-09 0 0.034995866899097464 -5.6440369920232062e-06 0 0.034990802543991978 -1.9220439017458403e-05 0 0.035002599826783456 -6.6866035119383662e-06 0 0.034995866899097464 -5.6440369920232062e-06 0 0.034990802543991978 -1.9220439017458403e-05 0 0.034995866899097464 -5.6440369920232062e-06 0 0.034988122085827474 -1.0537217331829764e-05 0 0.034988290851665278 5.0671134434421799e-06 0 0.034987484361864649 2.8738944912893102e-06 0 0.034979108804443812 5.631713204046286e-07 0 0.034988290851665278 5.0671134434421799e-06 0 0.034999977274063433 4.3119067738773344e-09 0 0.034993140827890817 1.9109033931173307e-06 0 0.034995866899097464 -5.6440369920232062e-06 0 0.034988122085827474 -1.0537217331829764e-05 0 0.034999979567485032 -1.4740584142055756e-09 0 0.034833313340019829 -3.5466205652479396e-05 0 0.034999666855213427 -3.8445074758542901e-08 0 0.034999992281991132 -2.4777143354382809e-09 0 0.034999977274063433 4.3119067738773344e-09 0 0.034993140827890817 1.9109033931173307e-06 0 0.034999992281991132 -2.4777143354382809e-09 0 0.034992980686682031 1.3387912271861074e-06 0 0.034993140827890817 1.9109033931173307e-06 0 0.034992980686682031 1.3387912271861074e-06 0 0.034987484361864649 2.8738944912893102e-06 0 0.034982162607178693 2.4383807500580095e-06 0 0.034992980686682031 1.3387912271861074e-06 0 0.034993140827890817 1.9109033931173307e-06 0 0.034987484361864649 2.8738944912893102e-06 0 0.034988290851665278 5.0671134434421799e-06 0 0.034993140827890817 1.9109033931173307e-06 0 0.034987484361864649 2.8738944912893102e-06 0 0.034987484361864649 2.8738944912893102e-06 0 0.034982162607178693 2.4383807500580095e-06 0 0.034979108804443812 5.631713204046286e-07 0 0.034976814265475525 3.0905127593957805e-06 0 0.034982162607178693 2.4383807500580095e-06 0 0.034979108804443812 5.631713204046286e-07 0 0.034984178253453777 2.5015454523434988e-06 0 0.034976814265475525 3.0905127593957805e-06 0 0.034982162607178693 2.4383807500580095e-06 0 0.0349847269872283 5.4373949354452028e-06 0 0.034984178253453777 2.5015454523434988e-06 0 0.034976814265475525 3.0905127593957805e-06 0 0.034870116933176216 4.5132682471044088e-05 0 0.034883162955259152 4.3460142405557196e-05 0 0.034929144817814617 -1.4337474939602773e-05 0 0.034964585064334856 -1.58612131011869e-05 0 0.034941475271817055 -3.2910563939863931e-05 0 0.034929144817814617 -1.4337474939602773e-05 0 0.034976814265475525 3.0905127593957805e-06 0 0.034964585064334856 -1.58612131011869e-05 0 0.034976814265475525 3.0905127593957805e-06 0 0.034964585064334856 -1.58612131011869e-05 0 0.034979108804443812 5.631713204046286e-07 0 0.034990802543991978 -1.9220439017458403e-05 0 0.034988122085827474 -1.0537217331829764e-05 0 0.034984440854974999 -2.5008161335313241e-05 0 0.034833313340019829 -3.5466205652479396e-05 0 0.034595209394930812 -0.00012668800684678954 0 0.034988290851665278 5.0671134434421799e-06 0 0.034979108804443812 5.631713204046286e-07 0 0.034989573768106137 -1.9641892836283795e-05 0 0.034689866347776412 -6.1124143440488538e-05 0 0.034595209394930812 -0.00012668800684678954 0 0.034964585064334856 -1.58612131011869e-05 0 0.034979108804443812 5.631713204046286e-07 0 0.034989573768106137 -1.9641892836283795e-05 0 0.034997151530943231 -3.1770911381397314e-05 0 0.034957576106986549 -4.2943318850567116e-05 0 0.034958460112422957 -9.1327459352909078e-05 0 0.034595209394930812 -0.00012668800684678954 0 0.034178572854615896 -0.00044452900043901995 0 0.034339800492303049 -0.00054348481493033134 0 0.034489147516270212 -0.00039896269948115263 0 0.03432967331355205 -0.00036072505966306388 0 0.034595209394930812 -0.00012668800684678954 0 0.034662566786838246 -0.0001454804827482943 0 0.034964585064334856 -1.58612131011869e-05 0 0.034955158811610737 -5.2713454327470354e-05 0 0.034941475271817055 -3.2910563939863931e-05 0 0.034964585064334856 -1.58612131011869e-05 0 0.034989573768106137 -1.9641892836283795e-05 0 0.034955158811610737 -5.2713454327470354e-05 0 0.034955158811610737 -5.2713454327470354e-05 0 0.034922892926642926 -5.3683814527913041e-05 0 0.034941475271817055 -3.2910563939863931e-05 0 0.034490299005967881 -0.00028137776449892074 0 0.03432967331355205 -0.00036072505966306388 0 0.034500633901101294 -0.00011408590331044947 0 0.034644813188199952 -0.00025121041924366884 0 0.034489147516270212 -0.00039896269948115263 0 0.034490299005967881 -0.00028137776449892074 0 0.034877103570721046 -9.5509735599126543e-05 0 0.034955158811610737 -5.2713454327470354e-05 0 0.034922892926642926 -5.3683814527913041e-05 0 0.034720388848286828 -0.00012616024889746682 0 0.034662566786838246 -0.0001454804827482943 0 0.034489147516270212 -0.00039896269948115263 0 0.034490299005967881 -0.00028137776449892074 0 0.03432967331355205 -0.00036072505966306388 0 0.034178572854615896 -0.00044452900043901995 0 0.034338014530547641 -0.00025375345835515565 0 0.034178572854615896 -0.00044452900043901995 0 0.033512683583221729 -5.981889121563144e-05 0 0.034309321651908121 -0.00038354591310419095 0 0.034293071906261519 -5.6861565680362459e-05 0 0.034500633901101294 -0.00011408590331044947 0 0.034644813188199952 -0.00025121041924366884 0 0.034490299005967881 -0.00028137776449892074 0 0.034500633901101294 -0.00011408590331044947 0 0.034644813188199952 -0.00025121041924366884 0 0.034642932679796727 -5.8472483473437356e-05 0 0.034500633901101294 -0.00011408590331044947 0 0.034642932679796727 -5.8472483473437356e-05 0 0.0346289860779753 5.7792350372193022e-05 0 0.034489204865423999 2.9570932017810625e-05 0 0.034293071906261519 -5.6861565680362459e-05 0 0.034500633901101294 -0.00011408590331044947 0 0.034489204865423999 2.9570932017810625e-05 0 0.034642932679796727 -5.8472483473437356e-05 0 0.034500633901101294 -0.00011408590331044947 0 0.034489204865423999 2.9570932017810625e-05 0 0.0346289860779753 5.7792350372193022e-05 0 0.034489204865423999 2.9570932017810625e-05 0 0.034512191277789095 0.00017354825504573964 0 0.034489204865423999 2.9570932017810625e-05 0 0.034512191277789095 0.00017354825504573964 0 0.034272388037615259 0.00026722579246650204 0 0.032998691634821865 0.00065640779252753407 0 0.033047525166170176 0.00077842702444606306 0 0.031438952553814424 0.0013173120135571913 0 0.031684249993852547 0.0010594711023891297 0 0.03159661328107443 0.0010346760852551172 0 0.033047525166170176 0.00077842702444606306 0 0.033003772235056274 0.00079179194825547959 0 0.031702143282273609 0.00098720945452732264 0 0.031695242585183726 0.00099856107730571502 0 0.031751622070046441 0.00087273648979600783 0 0.033047525166170176 0.00077842702444606306 0 0.033042691159074752 0.00078187856825229229 0 0.034293071906261519 -5.6861565680362459e-05 0 0.034489204865423999 2.9570932017810625e-05 0 0.034272388037615259 0.00026722579246650204 0 0.033512683583221729 -5.981889121563144e-05 0 0.033047525166170176 0.00077842702444606306 0 0.032177980502705109 -0.00032337317303589817 0 0.031520253002168062 0.00046398249061527387 0 0.031360959941892225 -0.00027922803796381234 0 0.032177980502705109 -0.00032337317303589817 0 0.031953774705749678 0.00077696208506590795 0 0.031520253002168062 0.00046398249061527387 0 0.031520253002168062 0.00046398249061527387 0 0.03119246692685777 0.00096567551370286338 0 0.031496149846690157 0.00089106121970043424 0 0.031520253002168062 0.00046398249061527387 0 0.031751622070046441 0.00087273648979600783 0 0.031496149846690157 0.00089106121970043424 0 0.031953774705749678 0.00077696208506590795 0 0.031520253002168062 0.00046398249061527387 0 0.031751622070046441 0.00087273648979600783 0 0.031520253002168062 0.00046398249061527387 0 0.030874685566094861 0.0003156141819143212 0 0.03119246692685777 0.00096567551370286338 0 0.031520253002168062 0.00046398249061527387 0 0.031360959941892225 -0.00027922803796381234 0 0.030874685566094861 0.0003156141819143212 0 0.031360959941892225 -0.00027922803796381234 0 0.031827810291987391 -0.0007937140126279737 0 0.030948807208725872 -0.001009967599466089 0 0.032168989794090004 -0.0010119004167772226 0 0.032177980502705109 -0.00032337317303589817 0 0.031827810291987391 -0.0007937140126279737 0 0.032177980502705109 -0.00032337317303589817 0 0.031360959941892225 -0.00027922803796381234 0 0.031827810291987391 -0.0007937140126279737 0 0.032124525414063597 -0.0010577459961136119 0 0.032168989794090004 -0.0010119004167772226 0 0.031827810291987391 -0.0007937140126279737 0 0.031432305240376081 -0.00088238391494300237 0 0.031108496723189907 -0.00073228915942796595 0 0.032124525414063597 -0.0010577459961136119 0 0.031827810291987391 -0.0007937140126279737 0 0.030948807208725872 -0.001009967599466089 0 0.032370023299005707 -0.00093150983768651668 0 0.032204638218753634 -0.00052304458173527547 0 0.031131541718415836 -0.00059202160161618545 0 0.032204638218753634 -0.00052304458173527547 0 0.031131541718415836 -0.00059202160161618545 0 0.030413983047893049 0.00013566665121258033 0 0.031108496723189907 -0.00073228915942796595 0 0.030307734332591433 -0.00036899660610354969 0 0.030948807208725872 -0.001009967599466089 0 0.029812556317948012 -0.00065828006831120426 0 0.030608975554647769 -0.00029648222513679293 0 0.031360959941892225 -0.00027922803796381234 0 0.030948807208725872 -0.001009967599466089 0 0.030608975554647769 -0.00029648222513679293 0 0.031360959941892225 -0.00027922803796381234 0 0.030608975554647769 -0.00029648222513679293 0 0.030874685566094861 0.0003156141819143212 0 0.030608975554647769 -0.00029648222513679293 0 0.030874685566094861 0.0003156141819143212 0 0.029931865396190502 0.00024516824403611064 0 0.030874685566094861 0.0003156141819143212 0 0.030393042058073479 0.00084747943637136498 0 0.03119246692685777 0.00096567551370286338 0 0.030874685566094861 0.0003156141819143212 0 0.029931865396190502 0.00024516824403611064 0 0.030393042058073479 0.00084747943637136498 0 0.029931865396190502 0.00024516824403611064 0 0.029087979596742541 0.0012730761568243599 0 0.030393042058073479 0.00084747943637136498 0 0.029812556317948012 -0.00065828006831120426 0 0.030608975554647769 -0.00029648222513679293 0 0.029931865396190502 0.00024516824403611064 0 0.030307734332591433 -0.00036899660610354969 0 0.029752081217854224 -0.00012107788519696406 0 0.029812556317948012 -0.00065828006831120426 0 0.029931865396190502 0.00024516824403611064 0 0.028512338362408799 -9.2661736789387516e-05 0 0.029931865396190502 0.00024516824403611064 0 0.028512338362408799 -9.2661736789387516e-05 0 0.029087979596742541 0.0012730761568243599 0 0.026326129253989 3.1622071754870722e-06 0 0.028512338362408799 -9.2661736789387516e-05 0 0.029087979596742541 0.0012730761568243599 0 0.026326129253989 3.1622071754870722e-06 0 0.027774593587380846 -6.8137584241323125e-07 0 0.028512338362408799 -9.2661736789387516e-05 0 0.027774593587380846 -6.8137584241323125e-07 0 0.028512338362408799 -9.2661736789387516e-05 0 0.029221475492514637 -1.2149076422929161e-06 0 0.030413983047893049 0.00013566665121258033 0 0.029221475492514637 -1.2149076422929161e-06 0 0.030031500350182868 -0.00062645814420279867 0 0.030413983047893049 0.00013566665121258033 0 0.028512338362408799 -9.2661736789387516e-05 0 0.029221475492514637 -1.2149076422929161e-06 0 0.031131541718415836 -0.00059202160161618545 0 0.030413983047893049 0.00013566665121258033 0 0.030031500350182868 -0.00062645814420279867 0 0.031378420194204448 -0.0011531390307881885 0 0.031131541718415836 -0.00059202160161618545 0 0.030031500350182868 -0.00062645814420279867 0 0.029226587646606763 -3.3460946496989843e-07 0 0.030575376719358411 -0.00051011067995489418 0 0.022550325031022125 -3.2152393836458789e-07 0 0.022210783395528202 -0.00010869617239269798 0 0.021252269749704355 -0.0002719714916907597 0 0.022210783395528202 -0.00010869617239269798 0 0.021088926381763635 -0.00032368090098233167 0 0.021252269749704355 -0.0002719714916907597 0 0.022550325031022125 -3.2152393836458789e-07 0 0.022210783395528202 -0.00010869617239269798 0 0.024436761631907316 -7.5082994842052282e-07 0 0.026318824765972575 3.1403205309876285e-06 0 0.024436761631907316 -7.5082994842052282e-07 0 0.022982859111955627 0.00080956757162983502 0 0.026321939871031156 7.5291978736917933e-07 0 0.025967440610143555 0.00039642069887970777 0 0.022210783395528202 -0.00010869617239269798 0 0.024436761631907316 -7.5082994842052282e-07 0 0.022982859111955627 0.00080956757162983502 0 0.022210783395528202 -0.00010869617239269798 0 0.022982859111955627 0.00080956757162983502 0 0.02117295687029571 0.00058637182395927876 0 0.025967440610143555 0.00039642069887970777 0 0.025877538021892146 0.00059930091383978486 0 0.029087979596742541 0.0012730761568243599 0 0.030393042058073479 0.00084747943637136498 0 0.030503936950824449 0.0014804316254174062 0 0.030393042058073479 0.00084747943637136498 0 0.030503936950824449 0.0014804316254174062 0 0.03119246692685777 0.00096567551370286338 0 0.02117295687029571 0.00058637182395927876 0 0.021011936095026777 -4.7466888889124378e-05 0 0.020366650883350997 0.00016873060774034253 0 0.022210783395528202 -0.00010869617239269798 0 0.02117295687029571 0.00058637182395927876 0 0.021011936095026777 -4.7466888889124378e-05 0 0.022210783395528202 -0.00010869617239269798 0 0.021011936095026777 -4.7466888889124378e-05 0 0.021088926381763635 -0.00032368090098233167 0 0.021011936095026777 -4.7466888889124378e-05 0 0.021088926381763635 -0.00032368090098233167 0 0.020512145436215889 -0.000278392524848311 0 0.021088926381763635 -0.00032368090098233167 0 0.020512145436215889 -0.000278392524848311 0 0.020478167906815201 -0.00044851054284722973 0 0.020512145436215889 -0.000278392524848311 0 0.020205819501255901 -0.00026629984744572189 0 0.020222790400389403 -0.00043904595008942315 0 0.020205819501255901 -0.00026629984744572189 0 0.020366650883350997 0.00016873060774034253 0 0.020097363271921249 -5.535905360742084e-05 0 0.025827308559836004 0.00055453538337828776 0 0.025720174000090381 0.00036783775416758335 0 0.021011936095026777 -4.7466888889124378e-05 0 0.020512145436215889 -0.000278392524848311 0 0.020366650883350997 0.00016873060774034253 0 0.020512145436215889 -0.000278392524848311 0 0.020205819501255901 -0.00026629984744572189 0 0.020366650883350997 0.00016873060774034253 0 0.030503936950824449 0.0014804316254174062 0 0.03139446526243727 0.0013364409795423261 0 0.03119246692685777 0.00096567551370286338 0 0.025877538021892146 0.00059930091383978486 0 0.025827308559836004 0.00055453538337828776 0 0.03119246692685777 0.00096567551370286338 0 0.031496149846690157 0.00089106121970043424 0 0.03158967657211622 0.0010525488873610604 0 0.031653052149401645 0.00097965456178196767 0 0.031496149846690157 0.00089106121970043424 0 0.03158967657211622 0.0010525488873610604 0 0.031751622070046441 0.00087273648979600783 0 0.031653052149401645 0.00097965456178196767 0 0.031496149846690157 0.00089106121970043424 0 0.031695242585183726 0.00099856107730571502 0 0.031751622070046441 0.00087273648979600783 0 0.031653052149401645 0.00097965456178196767 0 0.031653052149401645 0.00097965456178196767 0 0.03158967657211622 0.0010525488873610604 0 0.031635560644442028 0.0010095317531253478 0 0.03139446526243727 0.0013364409795423261 0 0.03158967657211622 0.0010525488873610604 0 0.031579574145736915 0.0010346178754679211 0 0.03139446526243727 0.0013364409795423261 0 0.03119246692685777 0.00096567551370286338 0 0.03158967657211622 0.0010525488873610604 0 0.03139446526243727 0.0013364409795423261 0 0.031579574145736915 0.0010346178754679211 0 0.03156977234144602 0.00091969059506132273 0 0.031579574145736915 0.0010346178754679211 0 0.031491552485849887 0.0009899553966927811 0 0.03156977234144602 0.00091969059506132273 0 0.031579574145736915 0.0010346178754679211 0 0.03159661328107443 0.0010346760852551172 0 0.031491552485849887 0.0009899553966927811 0 0.03158967657211622 0.0010525488873610604 0 0.03159661328107443 0.0010346760852551172 0 0.031635560644442028 0.0010095317531253478 0 0.03158967657211622 0.0010525488873610604 0 0.031579574145736915 0.0010346178754679211 0 0.03159661328107443 0.0010346760852551172 0 0.031695242585183726 0.00099856107730571502 0 0.03159661328107443 0.0010346760852551172 0 0.031635560644442028 0.0010095317531253478 0 0.031684249993852547 0.0010594711023891297 0 0.031695242585183726 0.00099856107730571502 0 0.03159661328107443 0.0010346760852551172 0 0.031695242585183726 0.00099856107730571502 0 0.031653052149401645 0.00097965456178196767 0 0.031635560644442028 0.0010095317531253478 0 0.031438952553814424 0.0013173120135571913 0 0.03159661328107443 0.0010346760852551172 0 0.031306881563517221 0.0011199842711517919 0 0.03159661328107443 0.0010346760852551172 0 0.031491552485849887 0.0009899553966927811 0 0.031306881563517221 0.0011199842711517919 0 0.031491552485849887 0.0009899553966927811 0 0.03156977234144602 0.00091969059506132273 0 0.031295848315263164 0.00086390218434065846 0 0.031491552485849887 0.0009899553966927811 0 0.031306881563517221 0.0011199842711517919 0 0.031295848315263164 0.00086390218434065846 0 0.025720174000090381 0.00036783775416758335 0 0.025495288966612621 9.9012504465560166e-05 0 0.03156977234144602 0.00091969059506132273 0 0.031295848315263164 0.00086390218434065846 0 0.031272112848478369 0.00058320821011046623 0 0.020205819501255901 -0.00026629984744572189 0 0.020097363271921249 -5.535905360742084e-05 0 0.020091089270917739 -0.00042104568607723023 0 0.020097363271921249 -5.535905360742084e-05 0 0.020091089270917739 -0.00042104568607723023 0 0.019810281928928246 -0.00015556738825059924 0 0.020091089270917739 -0.00042104568607723023 0 0.019810281928928246 -0.00015556738825059924 0 0.019795067121017796 -0.00045847291207004619 0 0.020091089270917739 -0.00042104568607723023 0 0.019870593852128839 -0.00076911107727608392 0 0.019795067121017796 -0.00045847291207004619 0 0.020205819501255901 -0.00026629984744572189 0 0.020091089270917739 -0.00042104568607723023 0 0.020222790400389403 -0.00043904595008942315 0 0.020091089270917739 -0.00042104568607723023 0 0.020155934447900172 -0.00041380698636084501 0 0.020222790400389403 -0.00043904595008942315 0 0.020155934447900172 -0.00041380698636084501 0 0.020183937482193329 -0.00034399426240126356 0 0.020164330630746092 -0.0004055126157197559 0 0.020155934447900172 -0.00041380698636084501 0 0.020250496169949068 -0.0004020795562446646 0 0.020217070510018649 -0.00035673193619321973 0 0.020091089270917739 -0.00042104568607723023 0 0.020155934447900172 -0.00041380698636084501 0 0.020250496169949068 -0.0004020795562446646 0 0.017569245747749741 0.00022037137179450127 0 0.016604393393557765 -0.00026332716614306902 0 0.020250496169949068 -0.0004020795562446646 0 0.020271020905059226 -0.00032498006005252745 0 0.020217070510018649 -0.00035673193619321973 0 0.020271020905059226 -0.00032498006005252745 0 0.020217070510018649 -0.00035673193619321973 0 0.020233439234773984 -0.00029510667390399647 0 0.020271020905059226 -0.00032498006005252745 0 0.020233439234773984 -0.00029510667390399647 0 0.020284017030342251 -0.00025294412065208897 0 0.020233439234773984 -0.00029510667390399647 0 0.020284017030342251 -0.00025294412065208897 0 0.02024029255651286 -0.00019430781796200583 0 0.020284017030342251 -0.00025294412065208897 0 0.02024029255651286 -0.00019430781796200583 0 0.020316434195489019 -0.0001451295515291569 0 0.020187772863952964 -0.00013180440773289507 0 0.020190375254061119 -0.00025751757338455568 0 0.020114524505641423 -0.00018590247793912363 0 0.02024029255651286 -0.00019430781796200583 0 0.020187772863952964 -0.00013180440773289507 0 0.020220608819584172 -7.1070823793265424e-05 0 0.02024029255651286 -0.00019430781796200583 0 0.020187772863952964 -0.00013180440773289507 0 0.020190375254061119 -0.00025751757338455568 0 0.020233439234773984 -0.00029510667390399647 0 0.02024029255651286 -0.00019430781796200583 0 0.020190375254061119 -0.00025751757338455568 0 0.020190375254061119 -0.00025751757338455568 0 0.020183937482193329 -0.00034399426240126356 0 0.02015070658571784 -0.00033020670685551611 0 0.020233439234773984 -0.00029510667390399647 0 0.020190375254061119 -0.00025751757338455568 0 0.020183937482193329 -0.00034399426240126356 0 0.020155934447900172 -0.00041380698636084501 0 0.020217070510018649 -0.00035673193619321973 0 0.020183937482193329 -0.00034399426240126356 0 0.020217070510018649 -0.00035673193619321973 0 0.020233439234773984 -0.00029510667390399647 0 0.020183937482193329 -0.00034399426240126356 0 0.020183937482193329 -0.00034399426240126356 0 0.02015070658571784 -0.00033020670685551611 0 0.020164330630746092 -0.0004055126157197559 0 0.02015070658571784 -0.00033020670685551611 0 0.020114524505641423 -0.00018590247793912363 0 0.020085067964933655 -0.00040211075046211629 0 0.02015070658571784 -0.00033020670685551611 0 0.020085067964933655 -0.00040211075046211629 0 0.020164330630746092 -0.0004055126157197559 0 0.020190375254061119 -0.00025751757338455568 0 0.02015070658571784 -0.00033020670685551611 0 0.020114524505641423 -0.00018590247793912363 0 0.020187772863952964 -0.00013180440773289507 0 0.020114524505641423 -0.00018590247793912363 0 0.020138831629475749 -6.0861190024410038e-05 0 0.020114524505641423 -0.00018590247793912363 0 0.019899409540528115 -0.00019182574538727904 0 0.020031416060823256 -1.799368700657317e-05 0 0.020114524505641423 -0.00018590247793912363 0 0.019899409540528115 -0.00019182574538727904 0 0.020085067964933655 -0.00040211075046211629 0 0.019899409540528115 -0.00019182574538727904 0 0.020085067964933655 -0.00040211075046211629 0 0.019753090491011684 -0.00039872404291733455 0 0.020085067964933655 -0.00040211075046211629 0 0.020222790400389403 -0.00043904595008942315 0 0.020128501510485078 -0.0004634052649502544 0 0.020222790400389403 -0.00043904595008942315 0 0.020478167906815201 -0.00044851054284722973 0 0.020128501510485078 -0.0004634052649502544 0 0.020155934447900172 -0.00041380698636084501 0 0.020164330630746092 -0.0004055126157197559 0 0.020222790400389403 -0.00043904595008942315 0 0.020085067964933655 -0.00040211075046211629 0 0.020164330630746092 -0.0004055126157197559 0 0.020222790400389403 -0.00043904595008942315 0 0.020512145436215889 -0.000278392524848311 0 0.020222790400389403 -0.00043904595008942315 0 0.020478167906815201 -0.00044851054284722973 0 0.021088926381763635 -0.00032368090098233167 0 0.020478167906815201 -0.00044851054284722973 0 0.020121788417947463 -0.00045471750669156196 0 0.020478167906815201 -0.00044851054284722973 0 0.020121788417947463 -0.00045471750669156196 0 0.020128501510485078 -0.0004634052649502544 0 0.020085067964933655 -0.00040211075046211629 0 0.020128501510485078 -0.0004634052649502544 0 0.019753090491011684 -0.00039872404291733455 0 0.020121788417947463 -0.00045471750669156196 0 0.020128501510485078 -0.0004634052649502544 0 0.019753090491011684 -0.00039872404291733455 0 0.019899409540528115 -0.00019182574538727904 0 0.019753090491011684 -0.00039872404291733455 0 0.019345753193499172 -6.0287946045181463e-06 0 0.019753090491011684 -0.00039872404291733455 0 0.019022628692242041 -0.00030426451810446244 0 0.019345753193499172 -6.0287946045181463e-06 0 0.020121788417947463 -0.00045471750669156196 0 0.019753090491011684 -0.00039872404291733455 0 0.019022628692242041 -0.00030426451810446244 0 0.020121788417947463 -0.00045471750669156196 0 0.019022628692242041 -0.00030426451810446244 0 0.019272582487652866 -0.00030238372761542736 0 0.019022628692242041 -0.00030426451810446244 0 0.019272582487652866 -0.00030238372761542736 0 0.018025947305612616 -0.00013887057142652925 0 0.019022628692242041 -0.00030426451810446244 0 0.018025947305612616 -0.00013887057142652925 0 0.017794914072063926 3.7951447493886073e-05 0 0.018025947305612616 -0.00013887057142652925 0 0.018779168145477899 -4.8702768505759465e-07 0 0.016893002080518596 1.0646012571331844e-07 0 0.019272582487652866 -0.00030238372761542736 0 0.018025947305612616 -0.00013887057142652925 0 0.018779168145477899 -4.8702768505759465e-07 0 0.019272582487652866 -0.00030238372761542736 0 0.018779168145477899 -4.8702768505759465e-07 0 0.020664637121359072 -6.2686968231377511e-07 0 0.020121788417947463 -0.00045471750669156196 0 0.019272582487652866 -0.00030238372761542736 0 0.020664637121359072 -6.2686968231377511e-07 0 0.020121788417947463 -0.00045471750669156196 0 0.020664637121359072 -6.2686968231377511e-07 0 0.021252269749704355 -0.0002719714916907597 0 0.021088926381763635 -0.00032368090098233167 0 0.020121788417947463 -0.00045471750669156196 0 0.021252269749704355 -0.0002719714916907597 0 0.022550325031022125 -3.2152393836458789e-07 0 0.020664637121359072 -6.2686968231377511e-07 0 0.021252269749704355 -0.0002719714916907597 0 0.029407439803561957 0.00084290868316070939 0 0.029795597905017637 0.00086250479998381774 0 0.0293172545474394 0.0013914264928375833 0 0.029407439803561957 0.00084290868316070939 0 0.029352600538358295 0.00072622720064007093 0 0.029263588162063644 0.0011762749193105573 0 0.025674629891223558 -0.0012597634246057144 0 0.028486450067749129 -0.0010340403048691208 0 0.025674629891223558 -0.0012597634246057144 0 0.026330550167242117 -0.00099595564957796062 0 0.029407439803561957 0.00084290868316070939 0 0.029352600538358295 0.00072622720064007093 0 0.029601111721358136 0.00079719499040567477 0 0.029291370592717188 0.00069387531040585721 0 0.029601111721358136 0.00079719499040567477 0 0.029596192462618885 0.00052078098708182945 0 0.030194325899618183 0.00063804358973658132 0 0.030177084779529732 0.0008393921457407232 0 0.030381003867609079 0.00079732542934649638 0 0.029795597905017637 0.00086250479998381774 0 0.029601111721358136 0.00079719499040567477 0 0.029829986148905443 0.00056038440194290152 0 0.029407439803561957 0.00084290868316070939 0 0.029795597905017637 0.00086250479998381774 0 0.029601111721358136 0.00079719499040567477 0 0.029596192462618885 0.00052078098708182945 0 0.029829986148905443 0.00056038440194290152 0 0.029865481818828574 0.00034995004343721354 0 0.029829986148905443 0.00056038440194290152 0 0.029865481818828574 0.00034995004343721354 0 0.03040681328652408 0.00023537051196059267 0 0.029795597905017637 0.00086250479998381774 0 0.029829986148905443 0.00056038440194290152 0 0.03040681328652408 0.00023537051196059267 0 0.029601111721358136 0.00079719499040567477 0 0.029596192462618885 0.00052078098708182945 0 0.029829986148905443 0.00056038440194290152 0 0.029865481818828574 0.00034995004343721354 0 0.029392140362852568 0.00019292628649027684 0 0.02983962411822632 8.4001683297481487e-05 0 0.029596192462618885 0.00052078098708182945 0 0.029865481818828574 0.00034995004343721354 0 0.029392140362852568 0.00019292628649027684 0 0.020485740972852263 -0.0044053903063438126 0 0.020516373770671552 -0.0043390270883984427 0 0.02045574038977177 -0.0043127596709126286 0 0.029291370592717188 0.00069387531040585721 0 0.029596192462618885 0.00052078098708182945 0 0.029392140362852568 0.00019292628649027684 0 0.025674629891223558 -0.0012597634246057144 0 0.023986084802291328 -0.0021023528835646421 0 0.025674629891223558 -0.0012597634246057144 0 0.02373026008883632 -0.0027111954722603628 0 0.020485740972852263 -0.0044053903063438126 0 0.020516373770671552 -0.0043390270883984427 0 0.020580074663125995 -0.0043819388205024179 0 0.020516373770671552 -0.0043390270883984427 0 0.020580074663125995 -0.0043819388205024179 0 0.020548120019990009 -0.0042884592353852726 0 0.020580074663125995 -0.0043819388205024179 0 0.02061440716705212 -0.004314541588188313 0 0.020548120019990009 -0.0042884592353852726 0 0.02373026008883632 -0.0027111954722603628 0 0.023078249161494906 -0.0034680589447204121 0 0.020580074663125995 -0.0043819388205024179 0 0.020698102135759892 -0.0043727965204785309 0 0.02061440716705212 -0.004314541588188313 0 0.02549505582294305 -0.0030215670454836994 0 0.024218121616102765 -0.0034783751668892482 0 0.025319477944455236 -0.0022169289961656122 0 0.023078249161494906 -0.0034680589447204121 0 0.025222903120629796 -0.0027870207073865286 0 0.024122256744227712 -0.0038941144509306584 0 0.023901527263087512 -0.0038806070038692473 0 0.024050768540007626 -0.0041044576085377711 0 0.024122256744227712 -0.0038941144509306584 0 0.024074481433304661 -0.0036428397369437592 0 0.023901527263087512 -0.0038806070038692473 0 0.026764784717622409 -0.0025649712378705749 0 0.02549505582294305 -0.0030215670454836994 0 0.025319477944455236 -0.0022169289961656122 0 0.025222903120629796 -0.0027870207073865286 0 0.028486450067749129 -0.0010340403048691208 0 0.026764784717622409 -0.0025649712378705749 0 0.025319477944455236 -0.0022169289961656122 0 0.026415558461985643 -0.00096167497642733648 0 0.023901527263087512 -0.0038806070038692473 0 0.02388477270655728 -0.0040940262265931554 0 0.023741643551661855 -0.0040949119881728141 0 0.02388477270655728 -0.0040940262265931554 0 0.023778244017366546 -0.0042427735541933423 0 0.023741643551661855 -0.0040949119881728141 0 0.029734233808358483 -0.00087122908388321076 0 0.028486450067749129 -0.0010340403048691208 0 0.023901527263087512 -0.0038806070038692473 0 0.02388477270655728 -0.0040940262265931554 0 0.024050768540007626 -0.0041044576085377711 0 0.02388477270655728 -0.0040940262265931554 0 0.024050768540007626 -0.0041044576085377711 0 0.02392073424965991 -0.0042452358435466006 0 0.024215103700770044 -0.0043807422934812696 0 0.023902535202252807 -0.0043853360384787541 0 0.024055922044368305 -0.0042677621947719594 0 0.024189616443991483 -0.0042218675092515331 0 0.024050768540007626 -0.0041044576085377711 0 0.024055922044368305 -0.0042677621947719594 0 0.024050768540007626 -0.0041044576085377711 0 0.024055922044368305 -0.0042677621947719594 0 0.02392073424965991 -0.0042452358435466006 0 0.023902535202252807 -0.0043853360384787541 0 0.024055922044368305 -0.0042677621947719594 0 0.02392073424965991 -0.0042452358435466006 0 0.029254619636229374 -0.0012590646064813238 0 0.029122054910160417 -0.0011035233085667524 0 0.028960592622615473 4.7705545988947228e-05 0 0.030120302799653526 -0.00079256497436274484 0 0.030101303841454548 -0.00077062348500223207 0 0.030148496055712192 -0.00091134591850171884 0 0.029734233808358483 -0.00087122908388321076 0 0.029711621903354683 -0.00078243643895728183 0 0.02388477270655728 -0.0040940262265931554 0 0.023778244017366546 -0.0042427735541933423 0 0.02392073424965991 -0.0042452358435466006 0 0.023902535202252807 -0.0043853360384787541 0 0.023778244017366546 -0.0042427735541933423 0 0.02392073424965991 -0.0042452358435466006 0 0.029734233808358483 -0.00087122908388321076 0 0.03043707342936006 -0.00090889238430605238 0 0.030673093342344956 -0.0019035235564081282 0 0.029859660258625527 -0.00094331415596405504 0 0.030001322516196423 -0.0015815239953113904 0 0.030273797877431941 -0.0012317902508031688 0 0.029734233808358483 -0.00087122908388321076 0 0.029711621903354683 -0.00078243643895728183 0 0.03043707342936006 -0.00090889238430605238 0 0.030833276550221719 -0.00027454417103175993 0 0.030659588198159702 -0.00041204948932542143 0 0.030892390258837797 -0.00049974860289233669 0 0.029935248063278259 0.0009627126652959801 0 0.03020094965466092 0.00095928569690401447 0 0.030127351851702181 0.0011851692934300856 0 0.030738919338838044 -0.00066479162087896432 0 0.030659588198159702 -0.00041204948932542143 0 0.030892390258837797 -0.00049974860289233669 0 0.031006262569932153 -0.00034602506845471821 0 0.030833276550221719 -0.00027454417103175993 0 0.030892390258837797 -0.00049974860289233669 0 0.031006262569932153 -0.00034602506845471821 0 0.030892390258837797 -0.00049974860289233669 0 0.031216395782651632 -0.00045612263929268562 0 0.030892390258837797 -0.00049974860289233669 0 0.030882857440771582 -0.00083566973076561668 0 0.031216395782651632 -0.00045612263929268562 0 0.029546023563217436 -0.0003831240467089415 0 0.030957026628652837 -3.1450425529888594e-05 0 0.030738919338838044 -0.00066479162087896432 0 0.030892390258837797 -0.00049974860289233669 0 0.030882857440771582 -0.00083566973076561668 0 0.029711621903354683 -0.00078243643895728183 0 0.029546023563217436 -0.0003831240467089415 0 0.029711621903354683 -0.00078243643895728183 0 0.029043274317879713 -0.00064094389764300923 0 0.028955326263667154 1.3445425668451475e-05 0 0.029043274317879713 -0.00064094389764300923 0 0.029407439803561957 0.00084290868316070939 0 0.029292272609887995 0.0012087828222787503 0 0.029263588162063644 0.0011762749193105573 0 0.029122054910160417 -0.0011035233085667524 0 0.028807597726081189 -0.00012920920626822348 0 0.028960592622615473 4.7705545988947228e-05 0 0.029692029966920244 0.00026870573641865983 0 0.029546023563217436 -0.0003831240467089415 0 0.029410430523805212 -0.00087743341360671133 0 0.029075566484301239 0.00016704498663311341 0 0.028796740267375397 -0.0001548717104335144 0 0.029407439803561957 0.00084290868316070939 0 0.029254224738911327 0.0013182283926748066 0 0.0293172545474394 0.0013914264928375833 0 0.029043274317879713 -0.00064094389764300923 0 0.029546023563217436 -0.0003831240467089415 0 0.029043274317879713 -0.00064094389764300923 0 0.028486450067749129 -0.0010340403048691208 0 0.03020094965466092 0.00095928569690401447 0 0.030363435822545946 0.0010764469200723933 0 0.030381003867609079 0.00079732542934649638 0 0.029935248063278259 0.0009627126652959801 0 0.030177084779529732 0.0008393921457407232 0 0.03020094965466092 0.00095928569690401447 0 0.030194325899618183 0.00063804358973658132 0 0.029935248063278259 0.0009627126652959801 0 0.030177084779529732 0.0008393921457407232 0 0.030177084779529732 0.0008393921457407232 0 0.03020094965466092 0.00095928569690401447 0 0.030381003867609079 0.00079732542934649638 0 0.030332975689361271 0.0014108520618874069 0 0.030127351851702181 0.0011851692934300856 0 0.030363435822545946 0.0010764469200723933 0 0.03020094965466092 0.00095928569690401447 0 0.030127351851702181 0.0011851692934300856 0 0.030363435822545946 0.0010764469200723933 0 0.030332975689361271 0.0014108520618874069 0 0.030363435822545946 0.0010764469200723933 0 0.030590200913444218 0.0011626179149988761 0 0.030363435822545946 0.0010764469200723933 0 0.030590200913444218 0.0011626179149988761 0 0.030543654584614235 0.0009526179884989871 0 0.030590200913444218 0.0011626179149988761 0 0.030803561551658247 0.00097165253399109379 0 0.030543654584614235 0.0009526179884989871 0 0.030590200913444218 0.0011626179149988761 0 0.030803561551658247 0.00097165253399109379 0 0.030941886939661978 0.0012157337509870482 0 0.030803561551658247 0.00097165253399109379 0 0.030957204268946787 0.00072114062215999583 0 0.030636694600473073 0.00073528681845119617 0 0.030803561551658247 0.00097165253399109379 0 0.030543654584614235 0.0009526179884989871 0 0.030636694600473073 0.00073528681845119617 0 0.030381003867609079 0.00079732542934649638 0 0.030543654584614235 0.0009526179884989871 0 0.030636694600473073 0.00073528681845119617 0 0.030363435822545946 0.0010764469200723933 0 0.030381003867609079 0.00079732542934649638 0 0.030543654584614235 0.0009526179884989871 0 0.031306881563517221 0.0011199842711517919 0 0.030941886939661978 0.0012157337509870482 0 0.031078831113054983 0.00099405681942187855 0 0.030803561551658247 0.00097165253399109379 0 0.030941886939661978 0.0012157337509870482 0 0.031078831113054983 0.00099405681942187855 0 0.030803561551658247 0.00097165253399109379 0 0.031078831113054983 0.00099405681942187855 0 0.030957204268946787 0.00072114062215999583 0 0.031078831113054983 0.00099405681942187855 0 0.031295848315263164 0.00086390218434065846 0 0.030957204268946787 0.00072114062215999583 0 0.031306881563517221 0.0011199842711517919 0 0.031078831113054983 0.00099405681942187855 0 0.031295848315263164 0.00086390218434065846 0 0.031295848315263164 0.00086390218434065846 0 0.030957204268946787 0.00072114062215999583 0 0.031272112848478369 0.00058320821011046623 0 0.019390055749722763 -0.00035360751273631893 0 0.019810281928928246 -0.00015556738825059924 0 0.019578805130269529 -0.0004132274388179638 0 0.025162971481722102 -0.00028164195010805252 0 0.025495288966612621 9.9012504465560166e-05 0 0.030957204268946787 0.00072114062215999583 0 0.030877205746030204 0.00032441281159671729 0 0.031272112848478369 0.00058320821011046623 0 0.019810281928928246 -0.00015556738825059924 0 0.019795067121017796 -0.00045847291207004619 0 0.019578805130269529 -0.0004132274388179638 0 0.030381003867609079 0.00079732542934649638 0 0.030450233752128131 0.00057535026321633867 0 0.030636694600473073 0.00073528681845119617 0 0.030194325899618183 0.00063804358973658132 0 0.030381003867609079 0.00079732542934649638 0 0.030450233752128131 0.00057535026321633867 0 0.030957204268946787 0.00072114062215999583 0 0.030636694600473073 0.00073528681845119617 0 0.030668229100206112 0.00051226062111046032 0 0.030450233752128131 0.00057535026321633867 0 0.030636694600473073 0.00073528681845119617 0 0.030668229100206112 0.00051226062111046032 0 0.030877205746030204 0.00032441281159671729 0 0.030668229100206112 0.00051226062111046032 0 0.03040681328652408 0.00023537051196059267 0 0.030957204268946787 0.00072114062215999583 0 0.030877205746030204 0.00032441281159671729 0 0.030668229100206112 0.00051226062111046032 0 0.030450233752128131 0.00057535026321633867 0 0.030668229100206112 0.00051226062111046032 0 0.03040681328652408 0.00023537051196059267 0 0.029692029966920244 0.00026870573641865983 0 0.02993612148272241 0.00019937981192680242 0 0.029865481818828574 0.00034995004343721354 0 0.03040681328652408 0.00023537051196059267 0 0.03011338140651575 0.00017256135865813688 0 0.030194325899618183 0.00063804358973658132 0 0.030450233752128131 0.00057535026321633867 0 0.03040681328652408 0.00023537051196059267 0 0.03040681328652408 0.00023537051196059267 0 0.030335699957997782 2.0266728100364236e-05 0 0.03011338140651575 0.00017256135865813688 0 0.030335699957997782 2.0266728100364236e-05 0 0.03011338140651575 0.00017256135865813688 0 0.02983962411822632 8.4001683297481487e-05 0 0.019390055749722763 -0.00035360751273631893 0 0.019392329852721185 -0.00045448322133691396 0 0.019373741917182913 -0.00043873783344429667 0 0.019392329852721185 -0.00045448322133691396 0 0.019393533854264549 -0.00043647915112947724 0 0.019373741917182913 -0.00043873783344429667 0 0.030877205746030204 0.00032441281159671729 0 0.03040681328652408 0.00023537051196059267 0 0.030335699957997782 2.0266728100364236e-05 0 0.01942308993735373 -0.0018689099685004552 0 0.01933919448167222 -0.0015498614836944034 0 0.025162971481722102 -0.00028164195010805252 0 0.02456142998462825 -0.00095385167384983284 0 0.01787382994577771 -0.00067403603626828279 0 0.018622896238087685 -0.00089515906239183147 0 0.019373741917182913 -0.00043873783344429667 0 0.018622896238087685 -0.00089515906239183147 0 0.019091537690655962 -0.0008162946355092139 0 0.019373741917182913 -0.00043873783344429667 0 0.018622896238087685 -0.00089515906239183147 0 0.019091537690655962 -0.0008162946355092139 0 0.019133096224229838 -0.0012334846050812941 0 0.019091537690655962 -0.0008162946355092139 0 0.019133096224229838 -0.0012334846050812941 0 0.019352091731674025 -0.00064682376992219483 0 0.018622896238087685 -0.00089515906239183147 0 0.019133096224229838 -0.0012334846050812941 0 0.018777896823427558 -0.0017413467460916062 0 0.018622896238087685 -0.00089515906239183147 0 0.018098965227205638 -0.0012866891443253179 0 0.018777896823427558 -0.0017413467460916062 0 0.018098965227205638 -0.0012866891443253179 0 0.01760645408024044 -0.0011266209162720928 0 0.017323502188489024 -0.0016629065083165224 0 0.01787382994577771 -0.00067403603626828279 0 0.01760645408024044 -0.0011266209162720928 0 0.018050054208233451 -0.00099560621307139409 0 0.018622896238087685 -0.00089515906239183147 0 0.018098965227205638 -0.0012866891443253179 0 0.018050054208233451 -0.00099560621307139409 0 0.01787382994577771 -0.00067403603626828279 0 0.018622896238087685 -0.00089515906239183147 0 0.018050054208233451 -0.00099560621307139409 0 0.018098965227205638 -0.0012866891443253179 0 0.01760645408024044 -0.0011266209162720928 0 0.018050054208233451 -0.00099560621307139409 0 0.019795067121017796 -0.00045847291207004619 0 0.019609888540337822 -0.00055324166553052121 0 0.019578805130269529 -0.0004132274388179638 0 0.019795067121017796 -0.00045847291207004619 0 0.019609888540337822 -0.00055324166553052121 0 0.019716644295667177 -0.00064837905157610876 0 0.019502728850697829 -0.00054059945812779189 0 0.019578805130269529 -0.0004132274388179638 0 0.019373741917182913 -0.00043873783344429667 0 0.019502728850697829 -0.00054059945812779189 0 0.019352091731674025 -0.00064682376992219483 0 0.019532411793605542 -0.00068972492047832926 0 0.019609888540337822 -0.00055324166553052121 0 0.019502728850697829 -0.00054059945812779189 0 0.019578805130269529 -0.0004132274388179638 0 0.019609888540337822 -0.00055324166553052121 0 0.019502728850697829 -0.00054059945812779189 0 0.019532411793605542 -0.00068972492047832926 0 0.019390055749722763 -0.00035360751273631893 0 0.019578805130269529 -0.0004132274388179638 0 0.019373741917182913 -0.00043873783344429667 0 0.019502728850697829 -0.00054059945812779189 0 0.019373741917182913 -0.00043873783344429667 0 0.019352091731674025 -0.00064682376992219483 0 0.019091537690655962 -0.0008162946355092139 0 0.019373741917182913 -0.00043873783344429667 0 0.019352091731674025 -0.00064682376992219483 0 0.019352091731674025 -0.00064682376992219483 0 0.019532411793605542 -0.00068972492047832926 0 0.019528729565947665 -0.00087988070194929381 0 0.019133096224229838 -0.0012334846050812941 0 0.019352091731674025 -0.00064682376992219483 0 0.019940733184256185 -0.0016464892790803533 0 0.019133096224229838 -0.0012334846050812941 0 0.019940733184256185 -0.0016464892790803533 0 0.018777896823427558 -0.0017413467460916062 0 0.014110487884330419 -0.0027804477791281636 0 0.012842646073704217 -0.0024850697184023692 0 0.019532411793605542 -0.00068972492047832926 0 0.019592346571493002 -0.00079406861105914468 0 0.019528729565947665 -0.00087988070194929381 0 0.013141781845560953 -0.0022229829462054439 0 0.012842646073704217 -0.0024850697184023692 0 0.019870593852128839 -0.00076911107727608392 0 0.019795067121017796 -0.00045847291207004619 0 0.019716644295667177 -0.00064837905157610876 0 0.019870593852128839 -0.00076911107727608392 0 0.019592346571493002 -0.00079406861105914468 0 0.019622062312055238 -0.0010967879352899819 0 0.019611777927293961 -0.00067823625762927005 0 0.019592346571493002 -0.00079406861105914468 0 0.019716644295667177 -0.00064837905157610876 0 0.019609888540337822 -0.00055324166553052121 0 0.019611777927293961 -0.00067823625762927005 0 0.019716644295667177 -0.00064837905157610876 0 0.019609888540337822 -0.00055324166553052121 0 0.019532411793605542 -0.00068972492047832926 0 0.019611777927293961 -0.00067823625762927005 0 0.019532411793605542 -0.00068972492047832926 0 0.019611777927293961 -0.00067823625762927005 0 0.019592346571493002 -0.00079406861105914468 0 0.019870593852128839 -0.00076911107727608392 0 0.019592346571493002 -0.00079406861105914468 0 0.019716644295667177 -0.00064837905157610876 0 0.016604393393557765 -0.00026332716614306902 0 0.012513158638275571 -0.0029821111889351683 0 0.020250496169949068 -0.0004020795562446646 0 0.020271020905059226 -0.00032498006005252745 0 0.020364940685083516 -0.0003025707013583207 0 0.019592346571493002 -0.00079406861105914468 0 0.019622062312055238 -0.0010967879352899819 0 0.019507271839519717 -0.00089696945333064327 0 0.020271020905059226 -0.00032498006005252745 0 0.020284017030342251 -0.00025294412065208897 0 0.020364940685083516 -0.0003025707013583207 0 0.012513158638275571 -0.0029821111889351683 0 0.012842646073704217 -0.0024850697184023692 0 0.012842646073704217 -0.0024850697184023692 0 0.012270947975245817 -0.0038671062347112595 0 0.0059989856769070218 -0.0057867064713179213 0 0.0059410019710556781 -0.0056704042063235038 0 0.0057813318403027794 -0.0058973495931379481 0 0.019940733184256185 -0.0016464892790803533 0 0.018777896823427558 -0.0017413467460916062 0 0.01905256641170857 -0.0028283058440911296 0 0.012513158638275571 -0.0029821111889351683 0 0.0081524621366449168 -0.0063358252260957886 0 0.0059989856769070218 -0.0057867064713179213 0 0.0058114276981525367 -0.0059614814339446114 0 0.0057813318403027794 -0.0058973495931379481 0 0.0042280878893021416 -0.0079179505315756342 0 0.0049253482098550764 -0.0069723847614929762 0 0.0042524133006474618 -0.0066814161767282422 0 0.020284017030342251 -0.00025294412065208897 0 0.020364940685083516 -0.0003025707013583207 0 0.020316434195489019 -0.0001451295515291569 0 0.0042280878893021416 -0.0079179505315756342 0 0.0042524133006474618 -0.0066814161767282422 0 0.0035739431649799707 -0.0068908780256262941 0 0.012513158638275571 -0.0029821111889351683 0 0.01221931709678999 -0.0031452419397849239 0 0.018098965227205638 -0.0012866891443253179 0 0.01786980284355439 -0.002528632014785624 0 0.018777896823427558 -0.0017413467460916062 0 0.018098965227205638 -0.0012866891443253179 0 0.01786980284355439 -0.002528632014785624 0 0.017323502188489024 -0.0016629065083165224 0 0.01786980284355439 -0.002528632014785624 0 0.018777896823427558 -0.0017413467460916062 0 0.01905256641170857 -0.0028283058440911296 0 0.012270947975245817 -0.0038671062347112595 0 0.012040567003765811 -0.0043939059194847696 0 0.01786980284355439 -0.002528632014785624 0 0.01905256641170857 -0.0028283058440911296 0 0.018163756066232887 -0.0040045733149910202 0 0.0058114276981525367 -0.0059614814339446114 0 0.0057813318403027794 -0.0058973495931379481 0 0.0057980043227062097 -0.0060092750285068138 0 0.01786980284355439 -0.002528632014785624 0 0.016985504399279878 -0.0037827506040494837 0 0.018163756066232887 -0.0040045733149910202 0 0.018668733146678738 -0.0031133014676825092 0 0.016214621469336925 -0.0037463881008418204 0 0.01993785168290706 -0.0035895491248203984 0 0.019743397371668352 -0.0038573797381713931 0 0.019629919494625808 -0.0034399296439374377 0 0.01786980284355439 -0.002528632014785624 0 0.016692880073091308 -0.0023864037264688708 0 0.016985504399279878 -0.0037827506040494837 0 0.01993785168290706 -0.0035895491248203984 0 0.020053592021096633 -0.003795453390999258 0 0.019743397371668352 -0.0038573797381713931 0 0.01993785168290706 -0.0035895491248203984 0 0.020053592021096633 -0.003795453390999258 0 0.020157687828694957 -0.0035487833245220757 0 0.020053592021096633 -0.003795453390999258 0 0.020012744502651825 -0.0040271845613007989 0 0.019743397371668352 -0.0038573797381713931 0 0.020012744502651825 -0.0040271845613007989 0 0.019743397371668352 -0.0038573797381713931 0 0.0198480116040675 -0.0042901904105555368 0 0.020053592021096633 -0.003795453390999258 0 0.020012744502651825 -0.0040271845613007989 0 0.020214567993432735 -0.0039403095835106559 0 0.01786980284355439 -0.002528632014785624 0 0.016692880073091308 -0.0023864037264688708 0 0.017323502188489024 -0.0016629065083165224 0 0.016692880073091308 -0.0023864037264688708 0 0.017323502188489024 -0.0016629065083165224 0 0.016392784636349893 -0.00098769276082727128 0 0.018668733146678738 -0.0031133014676825092 0 0.021411609272639937 -0.0026830019224804162 0 0.01942308993735373 -0.0018689099685004552 0 0.021411609272639937 -0.0026830019224804162 0 0.01760645408024044 -0.0011266209162720928 0 0.017323502188489024 -0.0016629065083165224 0 0.016392784636349893 -0.00098769276082727128 0 0.01787382994577771 -0.00067403603626828279 0 0.01760645408024044 -0.0011266209162720928 0 0.016392784636349893 -0.00098769276082727128 0 0.019393533854264549 -0.00043647915112947724 0 0.019534660830681103 -0.00044092971542357596 0 0.019537341757939641 -0.00045383586398424806 0 0.020012744502651825 -0.0040271845613007989 0 0.020064922193639808 -0.0042486940101544518 0 0.0198480116040675 -0.0042901904105555368 0 0.020012744502651825 -0.0040271845613007989 0 0.020064922193639808 -0.0042486940101544518 0 0.020215409735072888 -0.004218913969343722 0 0.02124844141807114 -0.003043636728972272 0 0.022032262824756045 -0.0028085734081506452 0 0.020492675813313224 -0.0041858083585135071 0 0.020431238518840145 -0.0042137222710634586 0 0.020494860664227066 -0.0042619251681450844 0 0.021389757035296629 -0.0034281569411137355 0 0.022208295397245989 -0.0032607078900547572 0 0.022169931618873609 -0.0030871495458403035 0 0.02124844141807114 -0.003043636728972272 0 0.021411609272639937 -0.0026830019224804162 0 0.021411609272639937 -0.0026830019224804162 0 0.022032262824756045 -0.0028085734081506452 0 0.022032262824756045 -0.0028085734081506452 0 0.023986084802291328 -0.0021023528835646421 0 0.020431238518840145 -0.0042137222710634586 0 0.020494860664227066 -0.0042619251681450844 0 0.02045574038977177 -0.0043127596709126286 0 0.02949076246685808 -0.00035106572788815054 0 0.029392140362852568 0.00019292628649027684 0 0.02983962411822632 8.4001683297481487e-05 0 0.020516373770671552 -0.0043390270883984427 0 0.020494860664227066 -0.0042619251681450844 0 0.02045574038977177 -0.0043127596709126286 0 0.030335699957997782 2.0266728100364236e-05 0 0.02949076246685808 -0.00035106572788815054 0 0.02983962411822632 8.4001683297481487e-05 0 0.019392329852721185 -0.00045448322133691396 0 0.019393533854264549 -0.00043647915112947724 0 0.019537341757939641 -0.00045383586398424806 0 0.02456142998462825 -0.00095385167384983284 0 0.022032262824756045 -0.0028085734081506452 0 0.029865481818828574 0.00034995004343721354 0 0.03011338140651575 0.00017256135865813688 0 0.02983962411822632 8.4001683297481487e-05 0 0.020585382434143349 -0.0042297179627935836 0 0.020672587759854248 -0.004260373313991833 0 0.02061440716705212 -0.004314541588188313 0 0.020698102135759892 -0.0043727965204785309 0 0.020672587759854248 -0.004260373313991833 0 0.02061440716705212 -0.004314541588188313 0 0.020585382434143349 -0.0042297179627935836 0 0.02061440716705212 -0.004314541588188313 0 0.020548120019990009 -0.0042884592353852726 0 0.020516373770671552 -0.0043390270883984427 0 0.020494860664227066 -0.0042619251681450844 0 0.020548120019990009 -0.0042884592353852726 0 0.020492675813313224 -0.0041858083585135071 0 0.020494860664227066 -0.0042619251681450844 0 0.020530574123152442 -0.0042279673312355017 0 0.020494860664227066 -0.0042619251681450844 0 0.020548120019990009 -0.0042884592353852726 0 0.020530574123152442 -0.0042279673312355017 0 0.020585382434143349 -0.0042297179627935836 0 0.020548120019990009 -0.0042884592353852726 0 0.020530574123152442 -0.0042279673312355017 0 0.020585382434143349 -0.0042297179627935836 0 0.020530574123152442 -0.0042279673312355017 0 0.020532461831981451 -0.0041752358027252025 0 0.02124844141807114 -0.003043636728972272 0 0.020931314911961863 -0.0032353434476416316 0 0.020492675813313224 -0.0041858083585135071 0 0.020530574123152442 -0.0042279673312355017 0 0.020532461831981451 -0.0041752358027252025 0 0.020931314911961863 -0.0032353434476416316 0 0.020702483852284945 -0.0034058353464508587 0 0.020585382434143349 -0.0042297179627935836 0 0.020532461831981451 -0.0041752358027252025 0 0.020619762573954748 -0.0041162763056626795 0 0.020585382434143349 -0.0042297179627935836 0 0.020672587759854248 -0.004260373313991833 0 0.020619762573954748 -0.0041162763056626795 0 0.020215409735072888 -0.004218913969343722 0 0.020619762573954748 -0.0041162763056626795 0 0.020452508934101266 -0.0039103941950558484 0 0.020619762573954748 -0.0041162763056626795 0 0.020452508934101266 -0.0039103941950558484 0 0.020635449137219583 -0.0038108626252740525 0 0.020452508934101266 -0.0039103941950558484 0 0.020635449137219583 -0.0038108626252740525 0 0.020351260163685228 -0.0037555808393987728 0 0.020053592021096633 -0.003795453390999258 0 0.020214567993432735 -0.0039403095835106559 0 0.020351260163685228 -0.0037555808393987728 0 0.020215409735072888 -0.004218913969343722 0 0.020452508934101266 -0.0039103941950558484 0 0.020214567993432735 -0.0039403095835106559 0 0.020012744502651825 -0.0040271845613007989 0 0.020215409735072888 -0.004218913969343722 0 0.020214567993432735 -0.0039403095835106559 0 0.020452508934101266 -0.0039103941950558484 0 0.020214567993432735 -0.0039403095835106559 0 0.020351260163685228 -0.0037555808393987728 0 0.020053592021096633 -0.003795453390999258 0 0.020351260163685228 -0.0037555808393987728 0 0.020157687828694957 -0.0035487833245220757 0 0.020351260163685228 -0.0037555808393987728 0 0.020157687828694957 -0.0035487833245220757 0 0.020468829244336403 -0.0034807741059165974 0 0.020806119695695822 -0.0035410110664942812 0 0.020635449137219583 -0.0038108626252740525 0 0.020468829244336403 -0.0034807741059165974 0 0.020635449137219583 -0.0038108626252740525 0 0.020351260163685228 -0.0037555808393987728 0 0.020468829244336403 -0.0034807741059165974 0 0.020806119695695822 -0.0035410110664942812 0 0.020468829244336403 -0.0034807741059165974 0 0.020659751962829917 -0.0032613514766811642 0 0.020468829244336403 -0.0034807741059165974 0 0.020399476353799711 -0.0031308913573100251 0 0.020659751962829917 -0.0032613514766811642 0 0.020468829244336403 -0.0034807741059165974 0 0.020173911993642227 -0.0033084528803752982 0 0.020399476353799711 -0.0031308913573100251 0 0.020157687828694957 -0.0035487833245220757 0 0.020468829244336403 -0.0034807741059165974 0 0.020173911993642227 -0.0033084528803752982 0 0.020157687828694957 -0.0035487833245220757 0 0.020173911993642227 -0.0033084528803752982 0 0.019965545880245402 -0.00337293261520215 0 0.020117818224081704 -0.0030727679125741214 0 0.020371762147406016 -0.0029024349303086072 0 0.019861892986232338 -0.0028678096104171515 0 0.020173911993642227 -0.0033084528803752982 0 0.020117818224081704 -0.0030727679125741214 0 0.020399476353799711 -0.0031308913573100251 0 0.020117818224081704 -0.0030727679125741214 0 0.020399476353799711 -0.0031308913573100251 0 0.020371762147406016 -0.0029024349303086072 0 0.020399476353799711 -0.0031308913573100251 0 0.02058522913235096 -0.0030643512373090846 0 0.020659751962829917 -0.0032613514766811642 0 0.020399476353799711 -0.0031308913573100251 0 0.02058522913235096 -0.0030643512373090846 0 0.020371762147406016 -0.0029024349303086072 0 0.019384635303155325 -0.0023163306000135533 0 0.018303094760968953 -0.003137291242227756 0 0.018444618549002853 -0.0011967248897731513 0 0.018726852168885224 -0.0031047241443802765 0 0.019507376948680794 -0.0030558417392150218 0 0.02058522913235096 -0.0030643512373090846 0 0.020371762147406016 -0.0029024349303086072 0 0.020738915104762039 -0.0029214140949017451 0 0.019384635303155325 -0.0023163306000135533 0 0.018303094760968953 -0.003137291242227756 0 0.020287504553834688 -0.0028260678785033207 0 0.018303094760968953 -0.003137291242227756 0 0.020287504553834688 -0.0028260678785033207 0 0.020738915104762039 -0.0029214140949017451 0 0.019384635303155325 -0.0023163306000135533 0 0.018444618549002853 -0.0011967248897731513 0 0.020782707683605343 -0.0022659118275052091 0 0.016494445522232188 -0.0046558502702323985 0 0.018659784960073245 -0.0044039312936695338 0 0.018726852168885224 -0.0031047241443802765 0 0.016741365520482863 -0.0032353886613188708 0 0.018303094760968953 -0.003137291242227756 0 0.016458800291528148 -0.0023641186646875638 0 0.015750978600503271 -0.0032674312506352165 0 0.018303094760968953 -0.003137291242227756 0 0.016458800291528148 -0.0023641186646875638 0 0.016828714720242621 -0.0015216021984720501 0 0.018303094760968953 -0.003137291242227756 0 0.016828714720242621 -0.0015216021984720501 0 0.018444618549002853 -0.0011967248897731513 0 0.016494445522232188 -0.0046558502702323985 0 0.011931738016320205 -0.0039719583745470351 0 0.016749350948994469 -0.0083932128537734171 0 0.01591297622684823 -0.0080034906991870679 0 0.016633846604647468 -0.0078586249783038839 0 0.016828714720242621 -0.0015216021984720501 0 0.018444618549002853 -0.0011967248897731513 0 0.016022214395075562 -9.2396588901191674e-05 0 0.016749350948994469 -0.0083932128537734171 0 0.01758030785432534 -0.0087707165254151016 0 0.017297079437649823 -0.0081739857213855814 0 0.016749350948994469 -0.0083932128537734171 0 0.016983197587085577 -0.0079600507656953489 0 0.016633846604647468 -0.0078586249783038839 0 0.016749350948994469 -0.0083932128537734171 0 0.016983197587085577 -0.0079600507656953489 0 0.017297079437649823 -0.0081739857213855814 0 0.016983197587085577 -0.0079600507656953489 0 0.017297079437649823 -0.0081739857213855814 0 0.017288294610680169 -0.0078447361448202302 0 0.0059137225092290606 -0.0017629239138253503 0 0.0064314789289094945 -0.0020155497258100099 0 0.0060941438781073618 -0.0021751770667750264 0 0.0059137225092290606 -0.0017629239138253503 0 0.0060941438781073618 -0.0021751770667750264 0 0.0057845899186935012 -0.0022129189738117317 0 0.0059137225092290606 -0.0017629239138253503 0 0.0064314789289094945 -0.0020155497258100099 0 0.0064497492008291826 -0.0014822149935288817 0 0.0064314789289094945 -0.0020155497258100099 0 0.0064497492008291826 -0.0014822149935288817 0 0.0068089048073082473 -0.0017448038243549297 0 0.0064314789289094945 -0.0020155497258100099 0 0.0063448597747778725 -0.0024126649655932214 0 0.0069821114612374979 -0.0025186363417211009 0 0.0064314789289094945 -0.0020155497258100099 0 0.0063448597747778725 -0.0024126649655932214 0 0.0060941438781073618 -0.0021751770667750264 0 0.0063448597747778725 -0.0024126649655932214 0 0.0060941438781073618 -0.0021751770667750264 0 0.0060109635739479588 -0.0025198306356964801 0 0.0060941438781073618 -0.0021751770667750264 0 0.0058099820476038601 -0.0023609568758093751 0 0.0057845899186935012 -0.0022129189738117317 0 0.0060109635739479588 -0.0025198306356964801 0 0.0058099820476038601 -0.0023609568758093751 0 0.0057441520685987428 -0.0025578071296397226 0 0.0060941438781073618 -0.0021751770667750264 0 0.0060109635739479588 -0.0025198306356964801 0 0.0058099820476038601 -0.0023609568758093751 0 0.011791391099182418 -0.0032437290030983847 0 0.011374321085706039 -0.0036510693033003608 0 0.0059137225092290606 -0.0017629239138253503 0 0.0057845899186935012 -0.0022129189738117317 0 0.0053266394881770285 -0.0025525772534030805 0 0.0058099820476038601 -0.0023609568758093751 0 0.0057845899186935012 -0.0022129189738117317 0 0.0053266394881770285 -0.0025525772534030805 0 0.0058099820476038601 -0.0023609568758093751 0 0.0053266394881770285 -0.0025525772534030805 0 0.0057441520685987428 -0.0025578071296397226 0 0.011931738016320205 -0.0039719583745470351 0 0.012508232409176678 -0.0032901718970929652 0 0.016022214395075562 -9.2396588901191674e-05 0 0.016007159834289606 -0.001093532237157171 0 0.015213190733916082 -0.0011674038198029998 0 0.015981311234407401 -0.00015038260524878979 0 0.015213190733916082 -0.0011674038198029998 0 0.015736055883129166 -3.5205438758582837e-05 0 0.011931738016320205 -0.0039719583745470351 0 0.011374321085706039 -0.0036510693033003608 0 0.016828714720242621 -0.0015216021984720501 0 0.016022214395075562 -9.2396588901191674e-05 0 0.016007159834289606 -0.001093532237157171 0 0.015964467560870169 -0.0015915157519734114 0 0.015213190733916082 -0.0011674038198029998 0 0.015440167756214736 -0.0020784261371835006 0 0.016007159834289606 -0.001093532237157171 0 0.015964467560870169 -0.0015915157519734114 0 0.015213190733916082 -0.0011674038198029998 0 0.016828714720242621 -0.0015216021984720501 0 0.016007159834289606 -0.001093532237157171 0 0.015964467560870169 -0.0015915157519734114 0 0.014506186335021033 -0.0016752602791704244 0 0.015213190733916082 -0.0011674038198029998 0 0.015736055883129166 -3.5205438758582837e-05 0 0.014506186335021033 -0.0016752602791704244 0 0.015213190733916082 -0.0011674038198029998 0 0.015440167756214736 -0.0020784261371835006 0 0.014506186335021033 -0.0016752602791704244 0 0.015440167756214736 -0.0020784261371835006 0 0.014962451051721101 -0.0024152747248234159 0 0.015440167756214736 -0.0020784261371835006 0 0.014962451051721101 -0.0024152747248234159 0 0.015750978600503271 -0.0032674312506352165 0 0.014506186335021033 -0.0016752602791704244 0 0.014962451051721101 -0.0024152747248234159 0 0.01448572193482465 -0.0027905519273292287 0 0.016458800291528148 -0.0023641186646875638 0 0.015440167756214736 -0.0020784261371835006 0 0.015750978600503271 -0.0032674312506352165 0 0.016458800291528148 -0.0023641186646875638 0 0.015964467560870169 -0.0015915157519734114 0 0.015440167756214736 -0.0020784261371835006 0 0.016458800291528148 -0.0023641186646875638 0 0.016828714720242621 -0.0015216021984720501 0 0.015964467560870169 -0.0015915157519734114 0 0.014962451051721101 -0.0024152747248234159 0 0.015750978600503271 -0.0032674312506352165 0 0.01448572193482465 -0.0027905519273292287 0 0.016741365520482863 -0.0032353886613188708 0 0.012502256037869837 -0.0035163014499673103 0 0.015750978600503271 -0.0032674312506352165 0 0.01448572193482465 -0.0027905519273292287 0 0.013229376206821403 -0.0033719274526386863 0 0.014506186335021033 -0.0016752602791704244 0 0.01448572193482465 -0.0027905519273292287 0 0.013229376206821403 -0.0033719274526386863 0 0.011791391099182418 -0.0032437290030983847 0 0.012502256037869837 -0.0035163014499673103 0 0.0064497492008291826 -0.0014822149935288817 0 0.0066472172946258042 -0.00096739026811796603 0 0.0068089048073082473 -0.0017448038243549297 0 0.0059137225092290606 -0.0017629239138253503 0 0.0064497492008291826 -0.0014822149935288817 0 0.0065185233324967186 -0.00097251006459810692 0 0.0064497492008291826 -0.0014822149935288817 0 0.0065185233324967186 -0.00097251006459810692 0 0.0066472172946258042 -0.00096739026811796603 0 0.012502256037869837 -0.0035163014499673103 0 0.011801233949936747 -0.0034964588512743236 0 0.010742513746414117 -0.0061685633271858584 0 0.014659873221100834 -0.0059952416156768083 0 0.013777685309565281 -0.0021689754593098793 0 0.012475022745793193 -0.0037163078623557366 0 0.016214621469336925 -0.0037463881008418204 0 0.019220083675445837 -0.0028784651365488956 0 0.019163916106756537 -0.0029498903179209415 0 0.019700905356507425 -0.0031706382305928711 0 0.012475022745793193 -0.0037163078623557366 0 0.01690298910354766 -0.0044652985763816624 0 0.019508163511482414 -0.003008568604467003 0 0.01985338272550586 -0.0031553009715294409 0 0.019629919494625808 -0.0034399296439374377 0 0.011801233949936747 -0.0034964588512743236 0 0.012475022745793193 -0.0037163078623557366 0 0.012502256037869837 -0.0035163014499673103 0 0.012475022745793193 -0.0037163078623557366 0 0.017992477704213739 -0.0045817915173610975 0 0.01690298910354766 -0.0044652985763816624 0 0.020117818224081704 -0.0030727679125741214 0 0.019861892986232338 -0.0028678096104171515 0 0.019700905356507425 -0.0031706382305928711 0 0.020173911993642227 -0.0033084528803752982 0 0.020117818224081704 -0.0030727679125741214 0 0.019700905356507425 -0.0031706382305928711 0 0.019861892986232338 -0.0028678096104171515 0 0.019220083675445837 -0.0028784651365488956 0 0.019700905356507425 -0.0031706382305928711 0 0.020173911993642227 -0.0033084528803752982 0 0.01985338272550586 -0.0031553009715294409 0 0.019965545880245402 -0.00337293261520215 0 0.01993785168290706 -0.0035895491248203984 0 0.019965545880245402 -0.00337293261520215 0 0.019629919494625808 -0.0034399296439374377 0 0.01985338272550586 -0.0031553009715294409 0 0.019965545880245402 -0.00337293261520215 0 0.019629919494625808 -0.0034399296439374377 0 0.01993785168290706 -0.0035895491248203984 0 0.020157687828694957 -0.0035487833245220757 0 0.019965545880245402 -0.00337293261520215 0 0.017276988238046218 -0.0051745385753972761 0 0.016985504399279878 -0.0037827506040494837 0 0.018163756066232887 -0.0040045733149910202 0 0.0081524621366449168 -0.0063358252260957886 0 0.0073525501603461706 -0.0066765989891233246 0 0.0058114276981525367 -0.0059614814339446114 0 0.0057980043227062097 -0.0060092750285068138 0 0.0056722036777748508 -0.0059212965619902377 0 0.0057980043227062097 -0.0060092750285068138 0 0.0056722036777748508 -0.0059212965619902377 0 0.0059394956973863678 -0.0056494074357600092 0 0.0056722036777748508 -0.0059212965619902377 0 0.0052418741159956546 -0.005535905146706108 0 0.0050052437609967504 -0.0058413289657969353 0 0.0056722036777748508 -0.0059212965619902377 0 0.0052418741159956546 -0.005535905146706108 0 0.0055668170057413709 -0.0054807140587367692 0 0.0052418741159956546 -0.005535905146706108 0 0.0055668170057413709 -0.0054807140587367692 0 0.0051444321691914126 -0.0051967579771683755 0 0.0055668170057413709 -0.0054807140587367692 0 0.0059394956973863678 -0.0056494074357600092 0 0.0059541505817019237 -0.0054188249980296884 0 0.0056722036777748508 -0.0059212965619902377 0 0.0055668170057413709 -0.0054807140587367692 0 0.0059394956973863678 -0.0056494074357600092 0 0.0063569662804667448 -0.0055188375311622708 0 0.0057980043227062097 -0.0060092750285068138 0 0.0059394956973863678 -0.0056494074357600092 0 0.012475022745793193 -0.0037163078623557366 0 0.012040567003765811 -0.0043939059194847696 0 0.0059394956973863678 -0.0056494074357600092 0 0.0062160812933159454 -0.0054397433655640742 0 0.0059541505817019237 -0.0054188249980296884 0 0.0063569662804667448 -0.0055188375311622708 0 0.0059394956973863678 -0.0056494074357600092 0 0.0062160812933159454 -0.0054397433655640742 0 0.012475022745793193 -0.0037163078623557366 0 0.010873715755295216 -0.0035802980389537668 0 0.0038040723647857037 -0.00627509475358181 0 0.0042524133006474618 -0.0066814161767282422 0 0.0035739431649799707 -0.0068908780256262941 0 0.0038040723647857037 -0.00627509475358181 0 0.0042524133006474618 -0.0066814161767282422 0 0.0043993877957840977 -0.0059963080562317663 0 0.0049253482098550764 -0.0069723847614929762 0 0.0056722036777748508 -0.0059212965619902377 0 0.0048445874002471618 -0.006283527879716787 0 0.0042524133006474618 -0.0066814161767282422 0 0.0048445874002471618 -0.006283527879716787 0 0.0043993877957840977 -0.0059963080562317663 0 0.0049253482098550764 -0.0069723847614929762 0 0.0042524133006474618 -0.0066814161767282422 0 0.0048445874002471618 -0.006283527879716787 0 0.0056722036777748508 -0.0059212965619902377 0 0.0048445874002471618 -0.006283527879716787 0 0.0050052437609967504 -0.0058413289657969353 0 0.0052418741159956546 -0.005535905146706108 0 0.0047519340662282705 -0.0054842815130134361 0 0.0051444321691914126 -0.0051967579771683755 0 0.0052418741159956546 -0.005535905146706108 0 0.0050052437609967504 -0.0058413289657969353 0 0.0047519340662282705 -0.0054842815130134361 0 0.0047519340662282705 -0.0054842815130134361 0 0.0041913510344093134 -0.0056232897501498763 0 0.0043110942380111391 -0.0052605481000508611 0 0.0047519340662282705 -0.0054842815130134361 0 0.0043993877957840977 -0.0059963080562317663 0 0.0041913510344093134 -0.0056232897501498763 0 0.0050052437609967504 -0.0058413289657969353 0 0.0047519340662282705 -0.0054842815130134361 0 0.0043993877957840977 -0.0059963080562317663 0 0.0048445874002471618 -0.006283527879716787 0 0.0050052437609967504 -0.0058413289657969353 0 0.0043993877957840977 -0.0059963080562317663 0 0.0043993877957840977 -0.0059963080562317663 0 0.0041913510344093134 -0.0056232897501498763 0 0.003805673099008994 -0.0058063684121042181 0 0.0041913510344093134 -0.0056232897501498763 0 0.003805673099008994 -0.0058063684121042181 0 0.0037463123935955545 -0.0052978482501233343 0 0.003805673099008994 -0.0058063684121042181 0 0.0037463123935955545 -0.0052978482501233343 0 0.0032965758872995467 -0.0055622821053666217 0 0.0038040723647857037 -0.00627509475358181 0 0.003805673099008994 -0.0058063684121042181 0 0.0035656652774569016 -0.0059635618734325772 0 0.0038040723647857037 -0.00627509475358181 0 0.0043993877957840977 -0.0059963080562317663 0 0.003805673099008994 -0.0058063684121042181 0 0.0037463123935955545 -0.0052978482501233343 0 0.0040393094938788211 -0.0047950662527901653 0 0.0034668525132435265 -0.0047498595774252295 0 0.0041913510344093134 -0.0056232897501498763 0 0.0037463123935955545 -0.0052978482501233343 0 0.0043110942380111391 -0.0052605481000508611 0 0.0043110942380111391 -0.0052605481000508611 0 0.0040393094938788211 -0.0047950662527901653 0 0.0047107792364614667 -0.0049993778403701981 0 0.0037463123935955545 -0.0052978482501233343 0 0.0043110942380111391 -0.0052605481000508611 0 0.0040393094938788211 -0.0047950662527901653 0 0.0034033526755550617 -0.0034522315089703989 0 0.0048854630277743831 -0.0035834715250537201 0 0.0047107792364614667 -0.0049993778403701981 0 0.0045103451559760652 -0.0043904504073385576 0 0.0055063141154839601 -0.0048343363558989048 0 0.0040393094938788211 -0.0047950662527901653 0 0.0047107792364614667 -0.0049993778403701981 0 0.0045103451559760652 -0.0043904504073385576 0 0.0047519340662282705 -0.0054842815130134361 0 0.0043110942380111391 -0.0052605481000508611 0 0.0047107792364614667 -0.0049993778403701981 0 0.0047107792364614667 -0.0049993778403701981 0 0.0051444321691914126 -0.0051967579771683755 0 0.0055063141154839601 -0.0048343363558989048 0 0.0047519340662282705 -0.0054842815130134361 0 0.0047107792364614667 -0.0049993778403701981 0 0.0051444321691914126 -0.0051967579771683755 0 0.00023745452698834663 -0.0034698883867995364 0 0.00066395083950808247 -0.0033606635581334555 0 1.5634233590074777e-06 -0.0030736850695155067 0 0.00023745452698834663 -0.0034698883867995364 0 0.00046616953241740514 -0.0037831967973664927 0 -4.0982621602349659e-05 -0.0038229169240240816 0 0.00023745452698834663 -0.0034698883867995364 0 0.00046616953241740514 -0.0037831967973664927 0 0.00066395083950808247 -0.0033606635581334555 0 0.0040393094938788211 -0.0047950662527901653 0 0.0034668525132435265 -0.0047498595774252295 0 0.0034488162908675093 -0.0039742495555079912 0 0.00046616953241740514 -0.0037831967973664927 0 0.00066395083950808247 -0.0033606635581334555 0 0.0013416893606813724 -0.0035338392072480599 0 0.0034033526755550617 -0.0034522315089703989 0 0.002877443102148877 -0.0034752525605486794 0 0.0040393094938788211 -0.0047950662527901653 0 0.0045103451559760652 -0.0043904504073385576 0 0.0034488162908675093 -0.0039742495555079912 0 0.010873715755295216 -0.0035802980389537668 0 0.0048854630277743831 -0.0035834715250537201 0 0.0075229469416480338 -0.0025119675299187976 0 0.0079094839595025192 -0.0026899614533279471 0 0.0075007696794577782 -0.0027790289585029118 0 0.0063033606949583652 -0.0054203440817560027 0 0.0059541505817019237 -0.0054188249980296884 0 0.0054442245747781106 -0.0049552181227094936 0 0.011801233949936747 -0.0034964588512743236 0 0.0084679810958150515 -0.0030443051487654841 0 0.0074486549294614192 -0.0025156303410752896 0 0.0075229469416480338 -0.0025119675299187976 0 0.0075007696794577782 -0.0027790289585029118 0 0.011801233949936747 -0.0034964588512743236 0 0.010873715755295216 -0.0035802980389537668 0 0.010938029486304767 -0.0036163975963032302 0 0.010570871966269336 -0.0020211293472835925 0 0.013787554418371104 -0.0034896252226706828 0 0.010873715755295216 -0.0035802980389537668 0 0.010303978889399407 -0.0036559845967366108 0 0.0055668170057413709 -0.0054807140587367692 0 0.0059541505817019237 -0.0054188249980296884 0 0.0054442245747781106 -0.0049552181227094936 0 0.0055668170057413709 -0.0054807140587367692 0 0.0051444321691914126 -0.0051967579771683755 0 0.0054442245747781106 -0.0049552181227094936 0 0.0048402759964879197 -0.0036954705159513322 0 0.0048854630277743831 -0.0035834715250537201 0 0.00023745452698834663 -0.0034698883867995364 0 1.5634233590074777e-06 -0.0030736850695155067 0 -4.0982621602349659e-05 -0.0038229169240240816 0 0.0048854630277743831 -0.0035834715250537201 0 0.0055303373465613904 -0.0034033736009497972 0 1.5634233590074777e-06 -0.0030736850695155067 0 -4.0982621602349659e-05 -0.0038229169240240816 0 -0.00077647722128824307 -0.0038587242192863825 0 0.0079094839595025192 -0.0026899614533279471 0 0.0075007696794577782 -0.0027790289585029118 0 0.0075549643048856687 -0.0030431763409599116 0 0.0084679810958150515 -0.0030443051487654841 0 0.0055303373465613904 -0.0034033736009497972 0 0.0064314789289094945 -0.0020155497258100099 0 0.0068089048073082473 -0.0017448038243549297 0 0.0069821114612374979 -0.0025186363417211009 0 -0.00077647722128824307 -0.0038587242192863825 0 -0.00028992618057785343 -0.0042513382109630191 0 -0.00048218668723865927 -0.0048265553287046344 0 -0.00044476480512882895 -0.0049969330286136846 0 -0.00044026178727264275 -0.0049571599590470883 0 -0.00048218668723865927 -0.0048265553287046344 0 0.0055303373465613904 -0.0034033736009497972 0 0.0046010458961319271 -0.0035739527225835256 0 -4.0982621602349659e-05 -0.0038229169240240816 0 -0.00077647722128824307 -0.0038587242192863825 0 -0.00028992618057785343 -0.0042513382109630191 0 4.6265517117156508e-05 -0.0044483259957414619 0 -0.00028992618057785343 -0.0042513382109630191 0 -0.00048218668723865927 -0.0048265553287046344 0 0.00046616953241740514 -0.0037831967973664927 0 -4.0982621602349659e-05 -0.0038229169240240816 0 4.6265517117156508e-05 -0.0044483259957414619 0 -4.0982621602349659e-05 -0.0038229169240240816 0 4.6265517117156508e-05 -0.0044483259957414619 0 -0.00028992618057785343 -0.0042513382109630191 0 4.6265517117156508e-05 -0.0044483259957414619 0 3.6384292527993063e-05 -0.0049354069709785994 0 -0.00039385180539711312 -0.0050264285652775621 0 4.6265517117156508e-05 -0.0044483259957414619 0 -0.00048218668723865927 -0.0048265553287046344 0 -0.00039385180539711312 -0.0050264285652775621 0 -0.00048218668723865927 -0.0048265553287046344 0 -0.00039385180539711312 -0.0050264285652775621 0 -0.00044927811857182565 -0.0050589949798721893 0 -0.00044026178727264275 -0.0049571599590470883 0 -0.00048218668723865927 -0.0048265553287046344 0 -0.00044927811857182565 -0.0050589949798721893 0 0.00046616953241740514 -0.0037831967973664927 0 0.00066263882247657795 -0.004161296071166957 0 0.0013416893606813724 -0.0035338392072480599 0 0.00066263882247657795 -0.004161296071166957 0 0.0010667954560712935 -0.0043356814772827325 0 0.0013416893606813724 -0.0035338392072480599 0 0.0010667954560712935 -0.0043356814772827325 0 0.0013416893606813724 -0.0035338392072480599 0 0.001550706065903095 -0.0041744232132083711 0 0.00046616953241740514 -0.0037831967973664927 0 4.6265517117156508e-05 -0.0044483259957414619 0 0.00066263882247657795 -0.004161296071166957 0 4.6265517117156508e-05 -0.0044483259957414619 0 0.00066263882247657795 -0.004161296071166957 0 0.00050613765179020106 -0.0046487692835948348 0 4.6265517117156508e-05 -0.0044483259957414619 0 0.00050613765179020106 -0.0046487692835948348 0 3.6384292527993063e-05 -0.0049354069709785994 0 0.00066263882247657795 -0.004161296071166957 0 0.00050613765179020106 -0.0046487692835948348 0 0.0010667954560712935 -0.0043356814772827325 0 0.00050613765179020106 -0.0046487692835948348 0 0.0010135008325227424 -0.0048051514824090221 0 0.0010667954560712935 -0.0043356814772827325 0 0.0010135008325227424 -0.0048051514824090221 0 0.0010667954560712935 -0.0043356814772827325 0 0.0014138190744151656 -0.0045728849290959305 0 0.00098507058194726859 -0.0052015206438489796 0 0.00047469311009304041 -0.0052688640965892234 0 0.0011945218600946505 -0.0055867547684036812 0 0.00050613765179020106 -0.0046487692835948348 0 0.0010135008325227424 -0.0048051514824090221 0 0.00047469311009304041 -0.0052688640965892234 0 0.00098507058194726859 -0.0052015206438489796 0 0.0011945218600946505 -0.0055867547684036812 0 0.0015378459330618042 -0.0050568356073769916 0 0.0010135008325227424 -0.0048051514824090221 0 0.00098507058194726859 -0.0052015206438489796 0 0.0015378459330618042 -0.0050568356073769916 0 0.0010135008325227424 -0.0048051514824090221 0 0.00098507058194726859 -0.0052015206438489796 0 0.00047469311009304041 -0.0052688640965892234 0 3.6384292527993063e-05 -0.0049354069709785994 0 0.00047469311009304041 -0.0052688640965892234 0 -0.00028872031190802199 -0.0052507369302751856 0 0.00050613765179020106 -0.0046487692835948348 0 3.6384292527993063e-05 -0.0049354069709785994 0 0.00047469311009304041 -0.0052688640965892234 0 4.6200879711155286e-05 -0.0054880459992917748 0 0.00076537449245853151 -0.0058482842591927155 0 0.00022554638356507404 -0.0059654112355046881 0 0.00047469311009304041 -0.0052688640965892234 0 4.6200879711155286e-05 -0.0054880459992917748 0 -0.00028872031190802199 -0.0052507369302751856 0 0.00047469311009304041 -0.0052688640965892234 0 4.6200879711155286e-05 -0.0054880459992917748 0 0.00076537449245853151 -0.0058482842591927155 0 4.6200879711155286e-05 -0.0054880459992917748 0 -0.00052059171056487142 -0.005490991503851142 0 0.00022554638356507404 -0.0059654112355046881 0 0.00047469311009304041 -0.0052688640965892234 0 0.00076537449245853151 -0.0058482842591927155 0 0.0011945218600946505 -0.0055867547684036812 0 0.00076537449245853151 -0.0058482842591927155 0 0.0011945218600946505 -0.0055867547684036812 0 0.001653802820610388 -0.0059575376960036711 0 -0.0004593334911153446 -0.0051899376576588739 0 -0.00039385180539711312 -0.0050264285652775621 0 -0.00044927811857182565 -0.0050589949798721893 0 -0.00048004776915312367 -0.0052101149804310862 0 -0.0004593334911153446 -0.0051899376576588739 0 -0.00048483370664089846 -0.0052602967898770512 0 -0.00048004776915312367 -0.0052101149804310862 0 -0.0004593334911153446 -0.0051899376576588739 0 -0.00039385180539711312 -0.0050264285652775621 0 3.6384292527993063e-05 -0.0049354069709785994 0 -0.00039385180539711312 -0.0050264285652775621 0 -0.00028872031190802199 -0.0052507369302751856 0 -0.00048004776915312367 -0.0052101149804310862 0 -0.00039385180539711312 -0.0050264285652775621 0 -0.00028872031190802199 -0.0052507369302751856 0 -0.00048004776915312367 -0.0052101149804310862 0 -0.00028872031190802199 -0.0052507369302751856 0 -0.0006063694565754884 -0.0053333188832092602 0 -0.00028872031190802199 -0.0052507369302751856 0 -0.00052059171056487142 -0.005490991503851142 0 -0.0006063694565754884 -0.0053333188832092602 0 4.6200879711155286e-05 -0.0054880459992917748 0 -0.00028872031190802199 -0.0052507369302751856 0 -0.00052059171056487142 -0.005490991503851142 0 -0.00052059171056487142 -0.005490991503851142 0 -0.0006063694565754884 -0.0053333188832092602 0 -0.00078145535514919013 -0.0052568257756755556 0 -0.00048004776915312367 -0.0052101149804310862 0 -0.0006063694565754884 -0.0053333188832092602 0 -0.00048483370664089846 -0.0052602967898770512 0 -0.0006063694565754884 -0.0053333188832092602 0 -0.00051852155887569613 -0.0052051280333864289 0 -0.00073681537808912125 -0.0051230666889158956 0 -0.0006063694565754884 -0.0053333188832092602 0 -0.00048483370664089846 -0.0052602967898770512 0 -0.00051852155887569613 -0.0052051280333864289 0 -0.00051852155887569613 -0.0052051280333864289 0 -0.00031224855184487475 -0.0052578730367860444 0 -0.0003157511713005669 -0.0050850950132397595 0 -0.00031224855184487475 -0.0052578730367860444 0 -9.3276643390381749e-05 -0.005185190321690545 0 -0.0003157511713005669 -0.0050850950132397595 0 -0.00048483370664089846 -0.0052602967898770512 0 -0.00051852155887569613 -0.0052051280333864289 0 -0.00031224855184487475 -0.0052578730367860444 0 -0.00048483370664089846 -0.0052602967898770512 0 -0.00031224855184487475 -0.0052578730367860444 0 -0.00038469776424282092 -0.0052410486158457614 0 -0.0004593334911153446 -0.0051899376576588739 0 -0.00048483370664089846 -0.0052602967898770512 0 -0.00038469776424282092 -0.0052410486158457614 0 -0.00038469776424282092 -0.0052410486158457614 0 -0.0003384613183039724 -0.005211368763659012 0 -0.00024480684723919289 -0.0052948615686721073 0 -0.00031224855184487475 -0.0052578730367860444 0 -0.00038469776424282092 -0.0052410486158457614 0 -0.00024480684723919289 -0.0052948615686721073 0 -0.00038469776424282092 -0.0052410486158457614 0 -0.0003384613183039724 -0.005211368763659012 0 -0.00044927811857182565 -0.0050589949798721893 0 -0.0004593334911153446 -0.0051899376576588739 0 -0.00038469776424282092 -0.0052410486158457614 0 -0.00044927811857182565 -0.0050589949798721893 0 -0.0003384613183039724 -0.005211368763659012 0 -0.00016801022713825451 -0.0053506283682001003 0 -0.00024480684723919289 -0.0052948615686721073 0 -0.00016801022713825451 -0.0053506283682001003 0 -0.00024480684723919289 -0.0052948615686721073 0 -4.7007474410172854e-05 -0.0053203741168330173 0 -0.00031224855184487475 -0.0052578730367860444 0 -0.00024480684723919289 -0.0052948615686721073 0 -4.7007474410172854e-05 -0.0053203741168330173 0 -0.00031224855184487475 -0.0052578730367860444 0 -4.7007474410172854e-05 -0.0053203741168330173 0 -9.3276643390381749e-05 -0.005185190321690545 0 -4.7007474410172854e-05 -0.0053203741168330173 0 0.00019019315161963109 -0.0052334724251800642 0 -9.3276643390381749e-05 -0.005185190321690545 0 -0.00016801022713825451 -0.0053506283682001003 0 -4.7007474410172854e-05 -0.0053203741168330173 0 0.00031500235176471679 -0.0053690740731357637 0 -0.000139586711329847 -0.0080959914244267371 0 0.00049078938333549935 -0.0067666257424258153 0 0.00084964437368206943 -0.0071255020582882307 0 -4.7007474410172854e-05 -0.0053203741168330173 0 0.00031500235176471679 -0.0053690740731357637 0 0.00019019315161963109 -0.0052334724251800642 0 0.00049078938333549935 -0.0067666257424258153 0 0.00084964437368206943 -0.0071255020582882307 0 0.0019683684771723995 -0.0060878111763702208 0 0.0042591169741975328 -0.0048062305951460989 0 0.0037857261704949594 -0.0049015826770208784 0 0.0036107139015975316 -0.0052069474298340711 0 0.0026579617808606157 -0.0055350878458426756 0 0.0028176913654456817 -0.0054618681789936714 0 0.0042591169741975328 -0.0048062305951460989 0 0.0037857261704949594 -0.0049015826770208784 0 0.0040040081013862448 -0.0045527051893979572 0 0.0037857261704949594 -0.0049015826770208784 0 0.0036535425064661495 -0.0045622708007392321 0 0.0040040081013862448 -0.0045527051893979572 0 0.010491845277429272 -0.0052534634556008052 0 0.010755638738513993 -0.0051593907329355072 0 0.0036535425064661495 -0.0045622708007392321 0 0.0041680970438583943 -0.0042056760598285685 0 0.0043669834334491078 -0.0035902849350831541 0 0.017258626630259469 -0.0062554109181161234 0 0.016589870561286607 -0.0071335368360011149 0 0.017221806355011225 -0.0069175314923353515 0 0.0036535425064661495 -0.0045622708007392321 0 0.0040040081013862448 -0.0045527051893979572 0 0.0041680970438583943 -0.0042056760598285685 0 0.0042591169741975328 -0.0048062305951460989 0 0.0040040081013862448 -0.0045527051893979572 0 0.0041680970438583943 -0.0042056760598285685 0 0.0050041706822633687 -0.0042016837514625722 0 0.0042591169741975328 -0.0048062305951460989 0 0.0041680970438583943 -0.0042056760598285685 0 0.0050041706822633687 -0.0042016837514625722 0 0.0041680970438583943 -0.0042056760598285685 0 0.0044689886765786144 -0.0039338884896296059 0 0.0028659210292689345 -0.005114047739320708 0 0.0017400461351799608 -0.0058857480994022006 0 0.0028659210292689345 -0.005114047739320708 0 0.0026579617808606157 -0.0055350878458426756 0 0.0050041706822633687 -0.0042016837514625722 0 0.0047085192677638471 -0.0037436290430447427 0 0.0051013692396155701 -0.0035685207048861941 0 0.0050041706822633687 -0.0042016837514625722 0 0.0047085192677638471 -0.0037436290430447427 0 0.0044689886765786144 -0.0039338884896296059 0 0.0047085192677638471 -0.0037436290430447427 0 0.0044689886765786144 -0.0039338884896296059 0 0.0043669834334491078 -0.0035902849350831541 0 0.0041680970438583943 -0.0042056760598285685 0 0.0044689886765786144 -0.0039338884896296059 0 0.0043669834334491078 -0.0035902849350831541 0 0.0047085192677638471 -0.0037436290430447427 0 0.0043669834334491078 -0.0035902849350831541 0 0.004678405555796428 -0.003413463931896094 0 0.0047085192677638471 -0.0037436290430447427 0 0.004678405555796428 -0.003413463931896094 0 0.0051013692396155701 -0.0035685207048861941 0 0.004678405555796428 -0.003413463931896094 0 0.0050407589261754421 -0.0033368564483714606 0 0.0051013692396155701 -0.0035685207048861941 0 0.016589870561286607 -0.0071335368360011149 0 0.017221806355011225 -0.0069175314923353515 0 0.016925388626547952 -0.0072965230040430628 0 0.016589870561286607 -0.0071335368360011149 0 0.016925388626547952 -0.0072965230040430628 0 0.016615638086327718 -0.007540034230803988 0 0.017221806355011225 -0.0069175314923353515 0 0.016925388626547952 -0.0072965230040430628 0 0.017239587889461561 -0.0072963190422672122 0 0.016991709766742916 -0.0075620110074405261 0 0.017442785462956099 -0.0075460874176242285 0 0.017288294610680169 -0.0078447361448202302 0 0.017239587889461561 -0.0072963190422672122 0 0.016991709766742916 -0.0075620110074405261 0 0.017442785462956099 -0.0075460874176242285 0 0.016925388626547952 -0.0072965230040430628 0 0.017239587889461561 -0.0072963190422672122 0 0.016991709766742916 -0.0075620110074405261 0 0.016925388626547952 -0.0072965230040430628 0 0.016991709766742916 -0.0075620110074405261 0 0.016615638086327718 -0.007540034230803988 0 0.016991709766742916 -0.0075620110074405261 0 0.016615638086327718 -0.007540034230803988 0 0.016633846604647468 -0.0078586249783038839 0 0.016991709766742916 -0.0075620110074405261 0 0.016983197587085577 -0.0079600507656953489 0 0.016633846604647468 -0.0078586249783038839 0 0.016991709766742916 -0.0075620110074405261 0 0.016983197587085577 -0.0079600507656953489 0 0.017288294610680169 -0.0078447361448202302 0 0.01591297622684823 -0.0080034906991870679 0 0.016615638086327718 -0.007540034230803988 0 0.016633846604647468 -0.0078586249783038839 0 0.011931738016320205 -0.0039719583745470351 0 0.010755638738513993 -0.0051593907329355072 0 0.01591297622684823 -0.0080034906991870679 0 0.016589870561286607 -0.0071335368360011149 0 0.016615638086327718 -0.007540034230803988 0 0.004678405555796428 -0.003413463931896094 0 0.0053178738285315167 -0.0025816542664167733 0 0.0051383958322322688 -0.003108674451284973 0 0.0053236844563587212 -0.0024085308436017647 0 0.0043669834334491078 -0.0035902849350831541 0 0.004678405555796428 -0.003413463931896094 0 0.0094730941803756862 -0.0045201418858059703 0 0.011374321085706039 -0.0036510693033003608 0 0.004678405555796428 -0.003413463931896094 0 0.0050407589261754421 -0.0033368564483714606 0 0.0051383958322322688 -0.003108674451284973 0 0.0053178738285315167 -0.0025816542664167733 0 0.0053850933525694663 -0.0028992316990303036 0 0.0051383958322322688 -0.003108674451284973 0 0.0053236844563587212 -0.0024085308436017647 0 0.004678405555796428 -0.003413463931896094 0 0.0054459335919011705 -0.0024645444614467332 0 0.0053178738285315167 -0.0025816542664167733 0 0.0053850933525694663 -0.0028992316990303036 0 0.0055271305886000349 -0.0027912293432530324 0 0.0052486279678993974 -0.0032555932659123904 0 0.0057050423419084837 -0.003008954315344938 0 0.0051013692396155701 -0.0035685207048861941 0 0.0053850933525694663 -0.0028992316990303036 0 0.0051383958322322688 -0.003108674451284973 0 0.0053861840813125179 -0.0030842127074750085 0 0.0051383958322322688 -0.003108674451284973 0 0.0053861840813125179 -0.0030842127074750085 0 0.0052486279678993974 -0.0032555932659123904 0 0.0050407589261754421 -0.0033368564483714606 0 0.0051383958322322688 -0.003108674451284973 0 0.0052486279678993974 -0.0032555932659123904 0 0.0053861840813125179 -0.0030842127074750085 0 0.0052486279678993974 -0.0032555932659123904 0 0.0057050423419084837 -0.003008954315344938 0 0.0053861840813125179 -0.0030842127074750085 0 0.0055083178784273512 -0.0029787578225852866 0 0.0057050423419084837 -0.003008954315344938 0 0.0053850933525694663 -0.0028992316990303036 0 0.0053861840813125179 -0.0030842127074750085 0 0.0055083178784273512 -0.0029787578225852866 0 0.0055083178784273512 -0.0029787578225852866 0 0.0057050423419084837 -0.003008954315344938 0 0.0055767808507787469 -0.0028821683821774052 0 0.0053266394881770285 -0.0025525772534030805 0 0.0057441520685987428 -0.0025578071296397226 0 0.0058358649043308928 -0.0027973359952211366 0 0.0053178738285315167 -0.0025816542664167733 0 0.0055271305886000349 -0.0027912293432530324 0 0.0058358649043308928 -0.0027973359952211366 0 0.0055767808507787469 -0.0028821683821774052 0 0.0055271305886000349 -0.0027912293432530324 0 0.0058358649043308928 -0.0027973359952211366 0 0.0057050423419084837 -0.003008954315344938 0 0.0055767808507787469 -0.0028821683821774052 0 0.0058358649043308928 -0.0027973359952211366 0 0.011374321085706039 -0.0036510693033003608 0 0.010444841321067027 -0.0033045748527393715 0 0.0053850933525694663 -0.0028992316990303036 0 0.0055767808507787469 -0.0028821683821774052 0 0.0055271305886000349 -0.0027912293432530324 0 0.0053850933525694663 -0.0028992316990303036 0 0.0055083178784273512 -0.0029787578225852866 0 0.0055767808507787469 -0.0028821683821774052 0 0.0069821114612374979 -0.0025186363417211009 0 0.0062407639730830073 -0.0028335464954733773 0 0.0059918918031710584 -0.0035159255391213422 0 0.0060109635739479588 -0.0025198306356964801 0 0.0057441520685987428 -0.0025578071296397226 0 0.0058358649043308928 -0.0027973359952211366 0 0.0063448597747778725 -0.0024126649655932214 0 0.0060109635739479588 -0.0025198306356964801 0 0.0062407639730830073 -0.0028335464954733773 0 -0.00044476480512882895 -0.0049969330286136846 0 -0.00044026178727264275 -0.0049571599590470883 0 -0.00040381697349246712 -0.0050553451247070244 0 0.0060109635739479588 -0.0025198306356964801 0 0.0062407639730830073 -0.0028335464954733773 0 0.0058358649043308928 -0.0027973359952211366 0 0.0055303373465613904 -0.0034033736009497972 0 0.003615454238506388 -0.0045345524332201662 0 0.0057050423419084837 -0.003008954315344938 0 0.0058358649043308928 -0.0027973359952211366 0 0.0059427392362434561 -0.0030361624904674538 0 0.0062407639730830073 -0.0028335464954733773 0 0.0058358649043308928 -0.0027973359952211366 0 0.0059427392362434561 -0.0030361624904674538 0 0.0063448597747778725 -0.0024126649655932214 0 0.0069821114612374979 -0.0025186363417211009 0 0.0062407639730830073 -0.0028335464954733773 0 0.0062407639730830073 -0.0028335464954733773 0 0.0059427392362434561 -0.0030361624904674538 0 0.0059918918031710584 -0.0035159255391213422 0 0.0057050423419084837 -0.003008954315344938 0 0.0059427392362434561 -0.0030361624904674538 0 0.0059918918031710584 -0.0035159255391213422 0 -0.00044026178727264275 -0.0049571599590470883 0 -0.00040381697349246712 -0.0050553451247070244 0 -0.00044927811857182565 -0.0050589949798721893 0 -0.0003384613183039724 -0.005211368763659012 0 -0.00040381697349246712 -0.0050553451247070244 0 -0.00044927811857182565 -0.0050589949798721893 0 0.0048958028839494521 -0.0045873120229523246 0 0.0057050423419084837 -0.003008954315344938 0 0.0059918918031710584 -0.0035159255391213422 0 0.0028659210292689345 -0.005114047739320708 0 0.003615454238506388 -0.0045345524332201662 0 -0.0003384613183039724 -0.005211368763659012 0 -0.00016801022713825451 -0.0053506283682001003 0 -0.00040381697349246712 -0.0050553451247070244 0 0.0028659210292689345 -0.005114047739320708 0 0.0041387697847789237 -0.0035830769416808845 0 0.0050041706822633687 -0.0042016837514625722 0 0.0057050423419084837 -0.003008954315344938 0 0.0051013692396155701 -0.0035685207048861941 0 0.0050407589261754421 -0.0033368564483714606 0 0.0052486279678993974 -0.0032555932659123904 0 0.0051013692396155701 -0.0035685207048861941 0 0.015007271922518014 1.0362823239636354e-06 0 0.014425015574225259 -9.9251092190675533e-05 0 0.013120855370006984 -1.2884019292913545e-06 0 0.013743310842524616 -0.00018225958219549881 0 0.014425015574225259 -9.9251092190675533e-05 0 0.013120855370006984 -1.2884019292913545e-06 0 0.013743310842524616 -0.00018225958219549881 0 0.01363416196071621 -0.00012550364152674365 0 0.012938167379574537 -0.00046124046077645564 0 0.013743310842524616 -0.00018225958219549881 0 0.01363416196071621 -0.00012550364152674365 0 0.014425015574225259 -9.9251092190675533e-05 0 0.01408687296835574 0.0003764632722448296 0 0.014425015574225259 -9.9251092190675533e-05 0 0.015814611554707207 0.00061760997935337019 0 0.01363416196071621 -0.00012550364152674365 0 0.01408687296835574 0.0003764632722448296 0 0.014425015574225259 -9.9251092190675533e-05 0 0.015007271922518014 1.0362823239636354e-06 0 0.014425015574225259 -9.9251092190675533e-05 0 0.015814611554707207 0.00061760997935337019 0 0.015007271922518014 1.0362823239636354e-06 0 0.016781512693408281 0.00018365410733812767 0 0.016893002080518596 1.0646012571331844e-07 0 0.015007271922518014 1.0362823239636354e-06 0 0.016781512693408281 0.00018365410733812767 0 0.015814611554707207 0.00061760997935337019 0 0.018025947305612616 -0.00013887057142652925 0 0.016781512693408281 0.00018365410733812767 0 0.016893002080518596 1.0646012571331844e-07 0 0.018025947305612616 -0.00013887057142652925 0 0.016781512693408281 0.00018365410733812767 0 0.017794914072063926 3.7951447493886073e-05 0 0.017794914072063926 3.7951447493886073e-05 0 0.015814611554707207 0.00061760997935337019 0 0.018814324032300454 0.00090475686241838708 0 0.01408687296835574 0.0003764632722448296 0 0.015814611554707207 0.00061760997935337019 0 0.012842903290382231 0.0012844180316708283 0 0.016781512693408281 0.00018365410733812767 0 0.017794914072063926 3.7951447493886073e-05 0 0.015814611554707207 0.00061760997935337019 0 0.015732574324883768 0.00036059356076773556 0 0.015576897319251886 0.00027273027248879108 0 0.01408687296835574 0.0003764632722448296 0 0.012842903290382231 0.0012844180316708283 0 0.011594878928398526 0.00057278276629584967 0 0.019022628692242041 -0.00030426451810446244 0 0.017794914072063926 3.7951447493886073e-05 0 0.018727844909411578 9.4766016161454425e-05 0 0.018814324032300454 0.00090475686241838708 0 0.018727844909411578 9.4766016161454425e-05 0 0.019345753193499172 -6.0287946045181463e-06 0 0.019022628692242041 -0.00030426451810446244 0 0.018727844909411578 9.4766016161454425e-05 0 0.019345753193499172 -6.0287946045181463e-06 0 0.017794914072063926 3.7951447493886073e-05 0 0.018814324032300454 0.00090475686241838708 0 0.018727844909411578 9.4766016161454425e-05 0 0.019345753193499172 -6.0287946045181463e-06 0 0.019780954060766104 0.00050856547572120071 0 0.01984472234762457 8.4786456530762329e-05 0 0.019899409540528115 -0.00019182574538727904 0 0.019345753193499172 -6.0287946045181463e-06 0 0.01984472234762457 8.4786456530762329e-05 0 0.015576897319251886 0.00027273027248879108 0 0.015194706762473869 -0.00015317249256438474 0 0.011594878928398526 0.00057278276629584967 0 0.010114957147496157 -3.2052774145987146e-05 0 0.010564078955161257 0.0014257427804803332 0 0.012842903290382231 0.0012844180316708283 0 0.011594878928398526 0.00057278276629584967 0 0.010564078955161257 0.0014257427804803332 0 0.018814324032300454 0.00090475686241838708 0 0.019345753193499172 -6.0287946045181463e-06 0 0.019780954060766104 0.00050856547572120071 0 0.011380856196974693 -0.00081127691313589349 0 0.011594878928398526 0.00057278276629584967 0 0.010114957147496157 -3.2052774145987146e-05 0 0.012981994000857091 -9.0817096580307521e-05 0 0.012169210542195344 -0.00050544012905051183 0 0.01408687296835574 0.0003764632722448296 0 0.011380856196974693 -0.00081127691313589349 0 0.011594878928398526 0.00057278276629584967 0 0.01363416196071621 -0.00012550364152674365 0 0.01408687296835574 0.0003764632722448296 0 0.012299459166216914 -9.6638967325296109e-05 0 0.01363416196071621 -0.00012550364152674365 0 0.012299459166216914 -9.6638967325296109e-05 0 0.012938167379574537 -0.00046124046077645564 0 0.012299459166216914 -9.6638967325296109e-05 0 0.012186712931865813 -0.00040618787913000915 0 0.012275062419556124 -0.00041899854943217561 0 0.012299459166216914 -9.6638967325296109e-05 0 0.012438971393159486 -0.00044804542369095444 0 0.012275062419556124 -0.00041899854943217561 0 0.012299459166216914 -9.6638967325296109e-05 0 0.012938167379574537 -0.00046124046077645564 0 0.012438971393159486 -0.00044804542369095444 0 0.011380856196974693 -0.00081127691313589349 0 0.008965389364889732 -0.001987692610867035 0 0.0097820494411259753 -0.00075107178239442786 0 0.012169210542195344 -0.00050544012905051183 0 0.011991534168449763 -0.00072265484128243476 0 0.012299459166216914 -9.6638967325296109e-05 0 0.012093133371416582 -0.00035312699698657592 0 0.012186712931865813 -0.00040618787913000915 0 0.008965389364889732 -0.001987692610867035 0 0.008680063857103102 -0.00017815121380220135 0 0.0097820494411259753 -0.00075107178239442786 0 0.011246856619171285 -0.0016306548716645761 0 0.011533940277964602 -0.0022714433402143972 0 0.011991534168449763 -0.00072265484128243476 0 0.013728521329124979 -0.00054115980324507737 0 0.019831422070743957 0.00053252047292566454 0 0.019902665935903951 0.00056848400634829316 0 0.019905577315471074 0.00026698941055926901 0 0.019902665935903951 0.00056848400634829316 0 0.019905577315471074 0.00026698941055926901 0 0.020102960350951389 0.00028928923499560856 0 0.011991534168449763 -0.00072265484128243476 0 0.011246856619171285 -0.0016306548716645761 0 0.019905577315471074 0.00026698941055926901 0 0.020070346881596514 0.00013811947270371726 0 0.020102960350951389 0.00028928923499560856 0 0.008680063857103102 -0.00017815121380220135 0 0.0097820494411259753 -0.00075107178239442786 0 0.010114957147496157 -3.2052774145987146e-05 0 0.008680063857103102 -0.00017815121380220135 0 0.010114957147496157 -3.2052774145987146e-05 0 0.0094216197802142309 0.00062816212092196247 0 0.011380856196974693 -0.00081127691313589349 0 0.0097820494411259753 -0.00075107178239442786 0 0.010114957147496157 -3.2052774145987146e-05 0 0.010114957147496157 -3.2052774145987146e-05 0 0.0094216197802142309 0.00062816212092196247 0 0.010564078955161257 0.0014257427804803332 0 0.019780954060766104 0.00050856547572120071 0 0.019988812803050881 0.00017764457208572785 0 0.020158030403699768 0.00018504567988827315 0 0.015194706762473869 -0.00015317249256438474 0 0.015376045568343672 -0.0011941533132255519 0 0.0094216197802142309 0.00062816212092196247 0 0.010564078955161257 0.0014257427804803332 0 0.0084059816639760459 0.0016280671791832138 0 0.019780954060766104 0.00050856547572120071 0 0.01984472234762457 8.4786456530762329e-05 0 0.019988812803050881 0.00017764457208572785 0 0.01984472234762457 8.4786456530762329e-05 0 0.019988812803050881 0.00017764457208572785 0 0.020031416060823256 -1.799368700657317e-05 0 0.019899409540528115 -0.00019182574538727904 0 0.01984472234762457 8.4786456530762329e-05 0 0.020031416060823256 -1.799368700657317e-05 0 0.020114524505641423 -0.00018590247793912363 0 0.020031416060823256 -1.799368700657317e-05 0 0.020138831629475749 -6.0861190024410038e-05 0 0.020031416060823256 -1.799368700657317e-05 0 0.020138831629475749 -6.0861190024410038e-05 0 0.02014570690378556 6.338775744850658e-05 0 0.019988812803050881 0.00017764457208572785 0 0.02014570690378556 6.338775744850658e-05 0 0.020158030403699768 0.00018504567988827315 0 0.019988812803050881 0.00017764457208572785 0 0.020031416060823256 -1.799368700657317e-05 0 0.02014570690378556 6.338775744850658e-05 0 0.020138831629475749 -6.0861190024410038e-05 0 0.02014570690378556 6.338775744850658e-05 0 0.020162539265372627 -3.6645308475163767e-05 0 0.013728521329124979 -0.00054115980324507737 0 0.015376045568343672 -0.0011941533132255519 0 0.02014570690378556 6.338775744850658e-05 0 0.020148139763068382 3.1981576079792157e-05 0 0.020114543970011032 2.8619128673659094e-05 0 0.019979776248327766 2.8385899907688132e-05 0 0.020070346881596514 0.00013811947270371726 0 0.020114543970011032 2.8619128673659094e-05 0 0.015376045568343672 -0.0011941533132255519 0 0.015919759963661406 -0.0011982535034160548 0 0.019905577315471074 0.00026698941055926901 0 0.019979776248327766 2.8385899907688132e-05 0 0.020070346881596514 0.00013811947270371726 0 0.008680063857103102 -0.00017815121380220135 0 0.0094216197802142309 0.00062816212092196247 0 0.0084059816639760459 0.0016280671791832138 0 0.015442378000440507 -0.0011521576620465567 0 0.015376045568343672 -0.0011941533132255519 0 0.020070346881596514 0.00013811947270371726 0 0.020249492067800478 4.1322965523634468e-05 0 0.020102960350951389 0.00028928923499560856 0 0.020070346881596514 0.00013811947270371726 0 0.020114543970011032 2.8619128673659094e-05 0 0.020249492067800478 4.1322965523634468e-05 0 0.011856969543004631 -0.0027944252701873886 0 0.011533940277964602 -0.0022714433402143972 0 0.020114543970011032 2.8619128673659094e-05 0 0.020220608819584172 -7.1070823793265424e-05 0 0.020162539265372627 -3.6645308475163767e-05 0 0.02014570690378556 6.338775744850658e-05 0 0.020114543970011032 2.8619128673659094e-05 0 0.020162539265372627 -3.6645308475163767e-05 0 0.020114543970011032 2.8619128673659094e-05 0 0.020220608819584172 -7.1070823793265424e-05 0 0.020249492067800478 4.1322965523634468e-05 0 0.020187772863952964 -0.00013180440773289507 0 0.020138831629475749 -6.0861190024410038e-05 0 0.020162539265372627 -3.6645308475163767e-05 0 0.020187772863952964 -0.00013180440773289507 0 0.020220608819584172 -7.1070823793265424e-05 0 0.020162539265372627 -3.6645308475163767e-05 0 0.01221931709678999 -0.0031452419397849239 0 0.011856969543004631 -0.0027944252701873886 0 0.020220608819584172 -7.1070823793265424e-05 0 0.020316434195489019 -0.0001451295515291569 0 0.020249492067800478 4.1322965523634468e-05 0 0.0035739431649799707 -0.0068908780256262941 0 0.0033437586721612876 -0.0061899406643802545 0 0.0030636998925596126 -0.0059385182373454465 0 0.02024029255651286 -0.00019430781796200583 0 0.020220608819584172 -7.1070823793265424e-05 0 0.020316434195489019 -0.0001451295515291569 0 0.0038040723647857037 -0.00627509475358181 0 0.0035739431649799707 -0.0068908780256262941 0 0.0033437586721612876 -0.0061899406643802545 0 0.0033437586721612876 -0.0061899406643802545 0 0.0035656652774569016 -0.0059635618734325772 0 0.0032965758872995467 -0.0055622821053666217 0 0.0033437586721612876 -0.0061899406643802545 0 0.0032965758872995467 -0.0055622821053666217 0 0.0025185865407424614 -0.0049584360222601166 0 0.0033437586721612876 -0.0061899406643802545 0 0.0030636998925596126 -0.0059385182373454465 0 0.0029583112873689515 -0.0050512988580003436 0 0.0038040723647857037 -0.00627509475358181 0 0.0033437586721612876 -0.0061899406643802545 0 0.0035656652774569016 -0.0059635618734325772 0 0.0050175710221202615 -0.0045164015905683674 0 0.0054892887177055115 -0.003696037372375715 0 0.003805673099008994 -0.0058063684121042181 0 0.0035656652774569016 -0.0059635618734325772 0 0.0032965758872995467 -0.0055622821053666217 0 0.0037463123935955545 -0.0052978482501233343 0 0.0032965758872995467 -0.0055622821053666217 0 0.003181618328966726 -0.0050307026500310808 0 0.0037463123935955545 -0.0052978482501233343 0 0.003181618328966726 -0.0050307026500310808 0 0.0034668525132435265 -0.0047498595774252295 0 0.003181618328966726 -0.0050307026500310808 0 0.0034668525132435265 -0.0047498595774252295 0 0.0028769220843133203 -0.0045862565707948085 0 0.003181618328966726 -0.0050307026500310808 0 0.0025185865407424614 -0.0049584360222601166 0 0.0028769220843133203 -0.0045862565707948085 0 0.0032965758872995467 -0.0055622821053666217 0 0.003181618328966726 -0.0050307026500310808 0 0.0025185865407424614 -0.0049584360222601166 0 0.0030636998925596126 -0.0059385182373454465 0 0.0026696906158592427 -0.0050178058396380312 0 0.0029583112873689515 -0.0050512988580003436 0 0.0054892887177055115 -0.003696037372375715 0 0.0080001893800677373 -0.0022149066089335295 0 0.0025185865407424614 -0.0049584360222601166 0 0.0021606590141032209 -0.0041116484868348171 0 0.0028769220843133203 -0.0045862565707948085 0 0.0022269349024172584 -0.0042007742005187353 0 0.0029583112873689515 -0.0050512988580003436 0 0.0025335196979919079 -0.0040458269536957541 0 0.0021606590141032209 -0.0041116484868348171 0 0.0027442492191913277 -0.0041425272148825944 0 0.0028769220843133203 -0.0045862565707948085 0 0.0025185865407424614 -0.0049584360222601166 0 0.0021606590141032209 -0.0041116484868348171 0 0.0018428983759858526 -0.0037041282098517233 0 0.0022269349024172584 -0.0042007742005187353 0 0.0026696906158592427 -0.0050178058396380312 0 0.0029583112873689515 -0.0050512988580003436 0 0.0021606590141032209 -0.0041116484868348171 0 0.0024082103332133727 -0.0039962012271102937 0 0.0027442492191913277 -0.0041425272148825944 0 0.0021606590141032209 -0.0041116484868348171 0 0.0024082103332133727 -0.0039962012271102937 0 0.0021501502034828412 -0.0037578093639226238 0 0.0024082103332133727 -0.0039962012271102937 0 0.0027442492191913277 -0.0041425272148825944 0 0.0022776333710720405 -0.0037591507019031291 0 0.0027442492191913277 -0.0041425272148825944 0 0.0034488162908675093 -0.0039742495555079912 0 0.0022776333710720405 -0.0037591507019031291 0 0.0034668525132435265 -0.0047498595774252295 0 0.0034488162908675093 -0.0039742495555079912 0 0.0028769220843133203 -0.0045862565707948085 0 0.0027442492191913277 -0.0041425272148825944 0 0.0034488162908675093 -0.0039742495555079912 0 0.0028769220843133203 -0.0045862565707948085 0 0.0013416893606813724 -0.0035338392072480599 0 0.0018792648904517731 -0.0039704995657918116 0 0.001550706065903095 -0.0041744232132083711 0 0.002877443102148877 -0.0034752525605486794 0 0.0027412136303289281 -0.0034938637543909302 0 0.0013416893606813724 -0.0035338392072480599 0 0.0018792648904517731 -0.0039704995657918116 0 0.0022776333710720405 -0.0037591507019031291 0 0.0018792648904517731 -0.0039704995657918116 0 0.0022509253973260822 -0.0038721114213087614 0 0.0019132929285137934 -0.0044960756906139302 0 0.0018792648904517731 -0.0039704995657918116 0 0.001550706065903095 -0.0041744232132083711 0 0.0019132929285137934 -0.0044960756906139302 0 0.0018792648904517731 -0.0039704995657918116 0 0.0022776333710720405 -0.0037591507019031291 0 0.0022509253973260822 -0.0038721114213087614 0 0.0024979364317690949 -0.0037474131222991957 0 0.0022509253973260822 -0.0038721114213087614 0 0.002533179036388613 -0.0047361942644564689 0 0.0024082103332133727 -0.0039962012271102937 0 0.0022776333710720405 -0.0037591507019031291 0 0.0021501502034828412 -0.0037578093639226238 0 0.0022776333710720405 -0.0037591507019031291 0 0.0021501502034828412 -0.0037578093639226238 0 0.0022509253973260822 -0.0038721114213087614 0 0.0068654507374663679 -0.0022126579779484456 0 0.0065382987926158936 -0.0023646959176847736 0 0.0066806225753795554 -0.0024156384494252478 0 0.0068654507374663679 -0.0022126579779484456 0 0.0021606590141032209 -0.0041116484868348171 0 0.0018428983759858526 -0.0037041282098517233 0 0.002079210631099167 -0.0035835070846116871 0 0.0080001893800677373 -0.0022149066089335295 0 0.0068654507374663679 -0.0022126579779484456 0 0.0022509253973260822 -0.0038721114213087614 0 0.002533179036388613 -0.0047361942644564689 0 0.0019132929285137934 -0.0044960756906139302 0 0.0068654507374663679 -0.0022126579779484456 0 0.0062146918924621672 -0.0024999993804536054 0 0.002533179036388613 -0.0047361942644564689 0 0.0019132929285137934 -0.0044960756906139302 0 0.002105456952843776 -0.0051560595958632894 0 0.001550706065903095 -0.0041744232132083711 0 0.0019132929285137934 -0.0044960756906139302 0 0.0014138190744151656 -0.0045728849290959305 0 0.0010667954560712935 -0.0043356814772827325 0 0.001550706065903095 -0.0041744232132083711 0 0.0014138190744151656 -0.0045728849290959305 0 0.0010135008325227424 -0.0048051514824090221 0 0.0014138190744151656 -0.0045728849290959305 0 0.0015378459330618042 -0.0050568356073769916 0 0.0019132929285137934 -0.0044960756906139302 0 0.0014138190744151656 -0.0045728849290959305 0 0.0015378459330618042 -0.0050568356073769916 0 0.0019132929285137934 -0.0044960756906139302 0 0.0015378459330618042 -0.0050568356073769916 0 0.002105456952843776 -0.0051560595958632894 0 0.0015378459330618042 -0.0050568356073769916 0 0.0016938870432753794 -0.0055113725353497459 0 0.002105456952843776 -0.0051560595958632894 0 0.0011945218600946505 -0.0055867547684036812 0 0.0015378459330618042 -0.0050568356073769916 0 0.0016938870432753794 -0.0055113725353497459 0 0.0011945218600946505 -0.0055867547684036812 0 0.0016938870432753794 -0.0055113725353497459 0 0.001653802820610388 -0.0059575376960036711 0 0.0016938870432753794 -0.0055113725353497459 0 0.001653802820610388 -0.0059575376960036711 0 0.0021444572409142649 -0.0055864954817732336 0 0.0021924358298446331 -0.0059452219119815082 0 0.0021444572409142649 -0.0055864954817732336 0 0.002630185218648798 -0.0056460949603365281 0 0.0021924358298446331 -0.0059452219119815082 0 0.002630185218648798 -0.0056460949603365281 0 0.0026811125050330118 -0.0059978035001743068 0 0.001653802820610388 -0.0059575376960036711 0 0.0021924358298446331 -0.0059452219119815082 0 0.0021444572409142649 -0.0055864954817732336 0 0.0016938870432753794 -0.0055113725353497459 0 0.0021444572409142649 -0.0055864954817732336 0 0.002105456952843776 -0.0051560595958632894 0 0.0021444572409142649 -0.0055864954817732336 0 0.002105456952843776 -0.0051560595958632894 0 0.0026266897540149874 -0.0056569315651396768 0 0.0044490982476833533 -0.0026419100561917118 0 0.0049214531202333833 -0.002506773094087646 0 0.002533179036388613 -0.0047361942644564689 0 0.002105456952843776 -0.0051560595958632894 0 0.0026266897540149874 -0.0056569315651396768 0 0.0062146918924621672 -0.0024999993804536054 0 0.0049214531202333833 -0.002506773094087646 0 0.012219239685213443 -0.0002444448653401586 0 0.012186606305290296 -0.00022660301128581335 0 0.012189878679895311 -0.00018835290332422385 0 0.012219239685213443 -0.0002444448653401586 0 0.012189878679895311 -0.00018835290332422385 0 0.012201355207712044 -0.00015624069467891607 0 0.012186606305290296 -0.00022660301128581335 0 0.012174826692607723 -0.00020772930467931628 0 0.012189878679895311 -0.00018835290332422385 0 0.012174826692607723 -0.00020772930467931628 0 0.012114378110335104 -0.00027866066976225289 0 0.012167570051203823 -0.0002416251250576448 0 0.012186606305290296 -0.00022660301128581335 0 0.012174826692607723 -0.00020772930467931628 0 0.012167570051203823 -0.0002416251250576448 0 0.012174826692607723 -0.00020772930467931628 0 0.012189878679895311 -0.00018835290332422385 0 0.012178118400800025 -0.00016169312934022009 0 0.012189878679895311 -0.00018835290332422385 0 0.012201355207712044 -0.00015624069467891607 0 0.012184145060217987 -0.00015391455002742313 0 0.012189878679895311 -0.00018835290332422385 0 0.012184145060217987 -0.00015391455002742313 0 0.012178118400800025 -0.00016169312934022009 0 0.0049214531202333833 -0.002506773094087646 0 0.0062715499232206722 -0.0014058385965399294 0 0.00055097807600326535 0.0023346526924103417 0 -0.00031713963493089961 0.0017500531475736901 0 0.00019829239138413097 0.0011784281238514233 0 0.0062715499232206722 -0.0014058385965399294 0 0.0039531968407960083 -0.0021475017245730262 0 0.0045111819261155215 -0.0017079686654044655 0 0.0041279703652683493 -0.0016495319580382634 0 0.0044707412160949565 -0.0014248707156863528 0 0.0049214531202333833 -0.002506773094087646 0 0.0039531968407960083 -0.0021475017245730262 0 0.012184145060217987 -0.00015391455002742313 0 0.012178118400800025 -0.00016169312934022009 0 0.012120370685823008 -0.00011726569148926588 0 0.0062715499232206722 -0.0014058385965399294 0 0.0071607892144633419 -0.00018349336090479028 0 0.00055097807600326535 0.0023346526924103417 0 0.0027631719021122213 0.002050583615110799 0 0.001727446720919335 0.0010206632274035871 0 0.0062715499232206722 -0.0014058385965399294 0 0.0094667741352762302 0.00011575515650375275 0 0.012716620100619566 0.00029086447841203351 0 0.012120370685823008 -0.00011726569148926588 0 0.011980907457372493 0.00043427314081593329 0 0.012174826692607723 -0.00020772930467931628 0 0.012178118400800025 -0.00016169312934022009 0 0.012114378110335104 -0.00027866066976225289 0 0.011790762484880103 -0.0005260943729713481 0 0.01175865096129434 -0.00063580245429991115 0 0.012178118400800025 -0.00016169312934022009 0 0.012188094754526726 -0.00023876083142337735 0 0.012120370685823008 -0.00011726569148926588 0 0.012178118400800025 -0.00016169312934022009 0 0.012188094754526726 -0.00023876083142337735 0 0.012257395703372901 -0.00030148336344330286 0 0.012188094754526726 -0.00023876083142337735 0 0.012203853189642736 -0.00031500517602606334 0 0.012158607729553766 -0.00037543338869570734 0 0.012222413628745852 -0.00041318063270540741 0 0.012257395703372901 -0.00030148336344330286 0 0.012236831799272957 -0.00045804053215355549 0 0.012188094754526726 -0.00023876083142337735 0 0.012203853189642736 -0.00031500517602606334 0 0.012257395703372901 -0.00030148336344330286 0 0.01175865096129434 -0.00063580245429991115 0 0.011659498537124722 -0.0010000063077098386 0 0.012209166211549317 -0.00036944617334204406 0 0.012206992777434447 -0.0004295711846103736 0 0.012158607729553766 -0.00037543338869570734 0 0.012203853189642736 -0.00031500517602606334 0 0.012209166211549317 -0.00036944617334204406 0 0.012158607729553766 -0.00037543338869570734 0 0.012209166211549317 -0.00036944617334204406 0 0.012222413628745852 -0.00041318063270540741 0 0.012206992777434447 -0.0004295711846103736 0 0.012209166211549317 -0.00036944617334204406 0 0.012222413628745852 -0.00041318063270540741 0 0.012257395703372901 -0.00030148336344330286 0 0.012203853189642736 -0.00031500517602606334 0 0.012209166211549317 -0.00036944617334204406 0 0.012257395703372901 -0.00030148336344330286 0 0.012167570051203823 -0.0002416251250576448 0 0.012184057143247868 -0.00026681510392993454 0 0.012173333080830479 -0.00031160113890416747 0 0.012223533931882238 -0.00038284662387526666 0 0.012219239685213443 -0.0002444448653401586 0 0.012173333080830479 -0.00031160113890416747 0 0.012114378110335104 -0.00027866066976225289 0 0.012167570051203823 -0.0002416251250576448 0 0.012279207017096649 -0.00045526667257834861 0 0.009284026118851877 -0.0017110679681484346 0 0.0089882892157173069 -0.0018516140834595935 0 0.012114378110335104 -0.00027866066976225289 0 0.012279207017096649 -0.00045526667257834861 0 0.012132102774303195 -0.00055237304352035582 0 0.012186606305290296 -0.00022660301128581335 0 0.012167570051203823 -0.0002416251250576448 0 0.012184057143247868 -0.00026681510392993454 0 0.012219239685213443 -0.0002444448653401586 0 0.012186606305290296 -0.00022660301128581335 0 0.012184057143247868 -0.00026681510392993454 0 0.012219239685213443 -0.0002444448653401586 0 0.012184057143247868 -0.00026681510392993454 0 0.012173333080830479 -0.00031160113890416747 0 0.012279207017096649 -0.00045526667257834861 0 0.012132102774303195 -0.00055237304352035582 0 0.012268161636341715 -0.00062532607518485893 0 0.0080001893800677373 -0.0022149066089335295 0 0.0089882892157173069 -0.0018516140834595935 0 0.012197977841020185 -0.00039621892145432766 0 0.012223533931882238 -0.00038284662387526666 0 0.012173333080830479 -0.00031160113890416747 0 0.01240300253725154 -0.00071181886904901918 0 0.012279207017096649 -0.00045526667257834861 0 0.012268161636341715 -0.00062532607518485893 0 0.011246856619171285 -0.0016306548716645761 0 0.0080001893800677373 -0.0022149066089335295 0 0.012259977455007369 -0.00078407887268682603 0 0.01240300253725154 -0.00071181886904901918 0 0.012268161636341715 -0.00062532607518485893 0 0.011246856619171285 -0.0016306548716645761 0 0.011659498537124722 -0.0010000063077098386 0 0.011991534168449763 -0.00072265484128243476 0 0.011659498537124722 -0.0010000063077098386 0 0.012259977455007369 -0.00078407887268682603 0 0.012132102774303195 -0.00055237304352035582 0 0.012268161636341715 -0.00062532607518485893 0 0.011542298028040463 -0.0023102228622022903 0 0.012089225949246317 -0.0020341688918855713 0 0.011292399231402737 -0.00073787685592197169 0 0.012093133371416582 -0.00035312699698657592 0 0.012180555234856066 -0.00042829263589018516 0 0.012186712931865813 -0.00040618787913000915 0 0.012186712931865813 -0.00040618787913000915 0 0.012206992777434447 -0.0004295711846103736 0 0.012275062419556124 -0.00041899854943217561 0 0.012186712931865813 -0.00040618787913000915 0 0.012206992777434447 -0.0004295711846103736 0 0.012200474829242356 -0.0004250096764362685 0 0.012222413628745852 -0.00041318063270540741 0 0.012206992777434447 -0.0004295711846103736 0 0.012200474829242356 -0.0004250096764362685 0 0.012180555234856066 -0.00042829263589018516 0 0.012186712931865813 -0.00040618787913000915 0 0.012200474829242356 -0.0004250096764362685 0 0.012222413628745852 -0.00041318063270540741 0 0.012180555234856066 -0.00042829263589018516 0 0.012200474829242356 -0.0004250096764362685 0 0.011661601372434592 -0.00098597099892548147 0 0.011659498537124722 -0.0010000063077098386 0 0.012254400431197373 -0.0004437621088708468 0 0.012154251679708152 -0.00044611280422558004 0 0.012158607729553766 -0.00037543338869570734 0 0.012206992777434447 -0.0004295711846103736 0 0.012254400431197373 -0.0004437621088708468 0 0.012275062419556124 -0.00041899854943217561 0 0.012206992777434447 -0.0004295711846103736 0 0.012254400431197373 -0.0004437621088708468 0 0.012158607729553766 -0.00037543338869570734 0 0.012438971393159486 -0.00044804542369095444 0 0.012254400431197373 -0.0004437621088708468 0 0.012275062419556124 -0.00041899854943217561 0 0.012438971393159486 -0.00044804542369095444 0 0.012254400431197373 -0.0004437621088708468 0 0.012154251679708152 -0.00044611280422558004 0 0.012938167379574537 -0.00046124046077645564 0 0.012438971393159486 -0.00044804542369095444 0 0.012154251679708152 -0.00044611280422558004 0 0.012938167379574537 -0.00046124046077645564 0 0.012154251679708152 -0.00044611280422558004 0 0.011519291670495889 -0.0004427547420954289 0 0.012154251679708152 -0.00044611280422558004 0 0.011980345489028172 -0.0002599737126248177 0 0.011534770461359254 -0.0002006005378663235 0 0.012154251679708152 -0.00044611280422558004 0 0.012158607729553766 -0.00037543338869570734 0 0.011980345489028172 -0.0002599737126248177 0 0.012188094754526726 -0.00023876083142337735 0 0.012158607729553766 -0.00037543338869570734 0 0.011980345489028172 -0.0002599737126248177 0 0.012188094754526726 -0.00023876083142337735 0 0.011980345489028172 -0.0002599737126248177 0 0.012120370685823008 -0.00011726569148926588 0 0.011980345489028172 -0.0002599737126248177 0 0.012120370685823008 -0.00011726569148926588 0 0.011711850979523217 3.9609355155248391e-05 0 0.012120370685823008 -0.00011726569148926588 0 0.011980907457372493 0.00043427314081593329 0 0.011711850979523217 3.9609355155248391e-05 0 0.0071607892144633419 -0.00018349336090479028 0 0.0078793272767706292 0.00014617378699735518 0 0.011980907457372493 0.00043427314081593329 0 0.011711850979523217 3.9609355155248391e-05 0 0.010900256597237402 0.00049205705264940996 0 0.011534770461359254 -0.0002006005378663235 0 0.011711850979523217 3.9609355155248391e-05 0 0.010900256597237402 0.00049205705264940996 0 0.011980345489028172 -0.0002599737126248177 0 0.011534770461359254 -0.0002006005378663235 0 0.011711850979523217 3.9609355155248391e-05 0 0.011534770461359254 -0.0002006005378663235 0 0.0109073005646485 -0.00015386163749305678 0 0.010900256597237402 0.00049205705264940996 0 0.0098319148674025011 -9.7597291291781446e-07 0 0.0109073005646485 -0.00015386163749305678 0 0.010900256597237402 0.00049205705264940996 0 0.0098319148674025011 -9.7597291291781446e-07 0 0.0084338018364120068 2.5776727578474485e-06 0 0.010900256597237402 0.00049205705264940996 0 0.0098319148674025011 -9.7597291291781446e-07 0 0.0109073005646485 -0.00015386163749305678 0 0.011233385361718503 -5.4963479641341551e-07 0 0.01123629913493334 -4.3054257326063337e-07 0 0.011989603990122763 -0.00033747257211053441 0 0.0109073005646485 -0.00015386163749305678 0 0.011233385361718503 -5.4963479641341551e-07 0 0.011519291670495889 -0.0004427547420954289 0 0.012154251679708152 -0.00044611280422558004 0 0.011534770461359254 -0.0002006005378663235 0 0.011519291670495889 -0.0004427547420954289 0 0.011534770461359254 -0.0002006005378663235 0 0.0109073005646485 -0.00015386163749305678 0 0.011519291670495889 -0.0004427547420954289 0 0.012168863434785931 -0.00036198795065548438 0 0.011989603990122763 -0.00033747257211053441 0 0.013743310842524616 -0.00018225958219549881 0 0.012938167379574537 -0.00046124046077645564 0 0.013429211507270248 -0.00013598050000898285 0 0.011237359461176901 1.2974455082313084e-06 0 0.013429211507270248 -0.00013598050000898285 0 0.013120855370006984 -1.2884019292913545e-06 0 0.013743310842524616 -0.00018225958219549881 0 0.013429211507270248 -0.00013598050000898285 0 0.013120855370006984 -1.2884019292913545e-06 0 0.0047130904065328721 -0.00036124905156217132 0 0.0048391224555114163 -1.1572482212782734e-06 0 0.0052928635012720483 -0.00012559494436194886 0 0.0047130904065328721 -0.00036124905156217132 0 0.0044955005043398923 -0.00021032386983852103 0 0.0052928635012720483 -0.00012559494436194886 0 0.0047130904065328721 -0.00036124905156217132 0 0.0043258984712960151 -0.00039994869159462365 0 0.0044392274595552676 -0.00064673510345027564 0 0.0047130904065328721 -0.00036124905156217132 0 0.0048391224555114163 -1.1572482212782734e-06 0 0.0043258984712960151 -0.00039994869159462365 0 0.0035880330121959062 -0.00048445462841938743 0 0.0044955005043398923 -0.00021032386983852103 0 0.0026885548379521106 1.4087602451106782e-05 0 0.00200897358994115 -0.0010781219761153951 0 0.004467247819750198 -0.0012059825615139026 0 0.0043777510371581889 -0.00090107574055664117 0 0.0047130904065328721 -0.00036124905156217132 0 0.0044392274595552676 -0.00064673510345027564 0 0.0043496693456075569 -0.00052662748741976817 0 0.0044392274595552676 -0.00064673510345027564 0 0.0042876403535974618 -0.00071208541381229064 0 0.0043777510371581889 -0.00090107574055664117 0 0.0044392274595552676 -0.00064673510345027564 0 0.0042876403535974618 -0.00071208541381229064 0 0.0043496693456075569 -0.00052662748741976817 0 0.0042876403535974618 -0.00071208541381229064 0 0.0038083075729779558 -0.00071431276857460125 0 0.0043777510371581889 -0.00090107574055664117 0 0.0042876403535974618 -0.00071208541381229064 0 0.0038083075729779558 -0.00071431276857460125 0 0.0043496693456075569 -0.00052662748741976817 0 0.0038083075729779558 -0.00071431276857460125 0 0.0035880330121959062 -0.00048445462841938743 0 0.0043496693456075569 -0.00052662748741976817 0 0.0035880330121959062 -0.00048445462841938743 0 0.0043496693456075569 -0.00052662748741976817 0 0.0044955005043398923 -0.00021032386983852103 0 0.0047130904065328721 -0.00036124905156217132 0 0.0043496693456075569 -0.00052662748741976817 0 0.0044955005043398923 -0.00021032386983852103 0 0.0055840328607378994 -0.00053589999914168665 0 0.0036430007250253141 -0.00093742850516884992 0 0.0060296602652551287 -0.00096294362607886861 0 0.0042978740249860923 -0.00085015709497502766 0 0.0039234392826227003 -0.0018473526410361543 0 0.0044955005043398923 -0.00021032386983852103 0 0.0052928635012720483 -0.00012559494436194886 0 0.0051327766990009781 0.00058707296799385554 0 0.0044955005043398923 -0.00021032386983852103 0 0.0051327766990009781 0.00058707296799385554 0 0.0026885548379521106 1.4087602451106782e-05 0 0.0063526753254146365 1.6586464116195873e-08 0 0.0052928635012720483 -0.00012559494436194886 0 0.0051327766990009781 0.00058707296799385554 0 0.0048391224555114163 -1.1572482212782734e-06 0 0.0063526753254146365 1.6586464116195873e-08 0 0.0052928635012720483 -0.00012559494436194886 0 0.0078678895853264534 -2.4075245509196823e-06 0 0.0065172115139971757 0.00014613197628260096 0 0.0060296602652551287 -0.00096294362607886861 0 0.0063526753254146365 1.6586464116195873e-08 0 0.0078625845799443397 1.5035791091402477e-06 0 0.0051327766990009781 0.00058707296799385554 0 0.0078617955369977236 5.6844358527036166e-08 0 0.0055840328607378994 -0.00053589999914168665 0 0.0078678895853264534 -2.4075245509196823e-06 0 0.0084262932103788737 3.376399280795507e-06 0 0.0065172115139971757 0.00014613197628260096 0 0.0084262932103788737 3.376399280795507e-06 0 0.0065172115139971757 0.00014613197628260096 0 0.0053414888361549657 0.0015977478255105085 0 0.0084292828301749459 3.6450456554898154e-07 0 0.0078793272767706292 0.00014617378699735518 0 0.0065172115139971757 0.00014613197628260096 0 0.0053414888361549657 0.0015977478255105085 0 0.0042723236295223958 0.00017486340536193234 0 0.0060296602652551287 -0.00096294362607886861 0 0.0042978740249860923 -0.00085015709497502766 0 0.0042723236295223958 0.00017486340536193234 0 0.0065172115139971757 0.00014613197628260096 0 0.0060296602652551287 -0.00096294362607886861 0 0.0042723236295223958 0.00017486340536193234 0 0.0042978740249860923 -0.00085015709497502766 0 0.0042723236295223958 0.00017486340536193234 0 0.0030489167501640446 -0.00074133293797003902 0 0.0027631719021122213 0.002050583615110799 0 0.0053414888361549657 0.0015977478255105085 0 0.0042723236295223958 0.00017486340536193234 0 0.0027631719021122213 0.002050583615110799 0 0.0024098210375855787 0.00023684469321019175 0 0.001727446720919335 0.0010206632274035871 0 0.0027631719021122213 0.002050583615110799 0 0.0042723236295223958 0.00017486340536193234 0 0.0024098210375855787 0.00023684469321019175 0 0.0042723236295223958 0.00017486340536193234 0 0.0024098210375855787 0.00023684469321019175 0 0.0030489167501640446 -0.00074133293797003902 0 0.0024098210375855787 0.00023684469321019175 0 0.0019949878999393489 -0.00084812063505734488 0 0.0014935376285996449 -0.0003348382877471924 0 0.0024098210375855787 0.00023684469321019175 0 0.0030489167501640446 -0.00074133293797003902 0 0.0019949878999393489 -0.00084812063505734488 0 0.0030489167501640446 -0.00074133293797003902 0 0.0019949878999393489 -0.00084812063505734488 0 0.0025208251168995863 -0.0015434685575567268 0 0.0030489167501640446 -0.00074133293797003902 0 0.0025208251168995863 -0.0015434685575567268 0 0.0039234392826227003 -0.0018473526410361543 0 0.0019949878999393489 -0.00084812063505734488 0 0.0025208251168995863 -0.0015434685575567268 0 0.0015357586772644352 -0.0016735026579646633 0 0.0042978740249860923 -0.00085015709497502766 0 0.0030489167501640446 -0.00074133293797003902 0 0.0039234392826227003 -0.0018473526410361543 0 0.00200897358994115 -0.0010781219761153951 0 0.0017632254844493086 -0.0012232777423657321 0 0.0012798706699844488 -0.00097882700139093081 0 0.001867140398792981 -0.00012671553623049315 0 0.001976792007073271 1.7785329705071139e-06 0 0.0038083075729779558 -0.00071431276857460125 0 0.00200897358994115 -0.0010781219761153951 0 0.0043777510371581889 -0.00090107574055664117 0 0.0026885548379521106 1.4087602451106782e-05 0 0.00200897358994115 -0.0010781219761153951 0 0.0017632254844493086 -0.0012232777423657321 0 0.0035880330121959062 -0.00048445462841938743 0 0.0026885548379521106 1.4087602451106782e-05 0 0.00200897358994115 -0.0010781219761153951 0 0.0038083075729779558 -0.00071431276857460125 0 0.0035880330121959062 -0.00048445462841938743 0 0.00200897358994115 -0.0010781219761153951 0 0.0036430007250253141 -0.00093742850516884992 0 0.0019311584157647571 -0.001222964502960175 0 0.0025208251168995863 -0.0015434685575567268 0 0.0039234392826227003 -0.0018473526410361543 0 0.0021588358449938093 -0.0025184504312432796 0 0.0025208251168995863 -0.0015434685575567268 0 0.0021588358449938093 -0.0025184504312432796 0 0.0015357586772644352 -0.0016735026579646633 0 0.0010338236227380939 -0.0023266123440471693 0 0.00048497890236125419 -0.0017397533509463492 0 0.0015357586772644352 -0.0016735026579646633 0 0.0021588358449938093 -0.0025184504312432796 0 0.0010338236227380939 -0.0023266123440471693 0 0.0015357586772644352 -0.0016735026579646633 0 0.00048497890236125419 -0.0017397533509463492 0 -0.00068246027146825843 -0.001701003450361623 0 0.00024953362794663921 -0.0024884284822573061 0 0.0010338236227380939 -0.0023266123440471693 0 0.00048497890236125419 -0.0017397533509463492 0 0.00024953362794663921 -0.0024884284822573061 0 0.00048497890236125419 -0.0017397533509463492 0 -0.00014595036604652908 -0.00097158256918556448 0 -0.00068246027146825843 -0.001701003450361623 0 0.00048497890236125419 -0.0017397533509463492 0 -0.00014595036604652908 -0.00097158256918556448 0 0.00090548064159941656 -0.00094677482096163401 0 -0.00014595036604652908 -0.00097158256918556448 0 0.00032936677329922873 -0.00059470655539440448 0 -3.5616652377538864e-05 -0.00024917271824103076 0 -0.00014595036604652908 -0.00097158256918556448 0 0.00090548064159941656 -0.00094677482096163401 0 0.00032936677329922873 -0.00059470655539440448 0 0.00090548064159941656 -0.00094677482096163401 0 0.00085185049399449475 -0.00035417522863169477 0 0.00032936677329922873 -0.00059470655539440448 0 0.00048497890236125419 -0.0017397533509463492 0 0.00090548064159941656 -0.00094677482096163401 0 0.0015357586772644352 -0.0016735026579646633 0 0.0019949878999393489 -0.00084812063505734488 0 0.00090548064159941656 -0.00094677482096163401 0 0.0015357586772644352 -0.0016735026579646633 0 0.0019949878999393489 -0.00084812063505734488 0 0.00090548064159941656 -0.00094677482096163401 0 0.0014935376285996449 -0.0003348382877471924 0 0.0014935376285996449 -0.0003348382877471924 0 0.00085185049399449475 -0.00035417522863169477 0 0.0013241058535181263 0.00024592345621321949 0 0.00090548064159941656 -0.00094677482096163401 0 0.0014935376285996449 -0.0003348382877471924 0 0.00085185049399449475 -0.00035417522863169477 0 0.0013241058535181263 0.00024592345621321949 0 0.0009591985704099405 0.0006708008818349185 0 0.00056434577578812109 0.0001336467634227352 0 0.00085185049399449475 -0.00035417522863169477 0 0.0013241058535181263 0.00024592345621321949 0 0.00056434577578812109 0.0001336467634227352 0 0.0024098210375855787 0.00023684469321019175 0 0.0014935376285996449 -0.0003348382877471924 0 0.0013241058535181263 0.00024592345621321949 0 0.0013241058535181263 0.00024592345621321949 0 0.001727446720919335 0.0010206632274035871 0 0.0009591985704099405 0.0006708008818349185 0 0.00055097807600326535 0.0023346526924103417 0 0.001727446720919335 0.0010206632274035871 0 0.00075288210571114228 0.0012298789421024184 0 0.0024098210375855787 0.00023684469321019175 0 0.0013241058535181263 0.00024592345621321949 0 0.001727446720919335 0.0010206632274035871 0 0.001727446720919335 0.0010206632274035871 0 0.0009591985704099405 0.0006708008818349185 0 0.00075288210571114228 0.0012298789421024184 0 0.0009591985704099405 0.0006708008818349185 0 0.00075288210571114228 0.0012298789421024184 0 0.00044215681998153268 0.00073976161688871385 0 -0.00031713963493089961 0.0017500531475736901 0 0.00019829239138413097 0.0011784281238514233 0 -0.00014149886392146729 0.00052292226727346637 0 0.0039531968407960083 -0.0021475017245730262 0 0.0022981045609621036 -0.0011820212925174093 0 0.00055097807600326535 0.0023346526924103417 0 0.00075288210571114228 0.0012298789421024184 0 0.00019829239138413097 0.0011784281238514233 0 0.00019829239138413097 0.0011784281238514233 0 0.00044215681998153268 0.00073976161688871385 0 -0.00014149886392146729 0.00052292226727346637 0 0.00075288210571114228 0.0012298789421024184 0 0.00019829239138413097 0.0011784281238514233 0 0.00044215681998153268 0.00073976161688871385 0 0.0009591985704099405 0.0006708008818349185 0 0.00044215681998153268 0.00073976161688871385 0 0.00056434577578812109 0.0001336467634227352 0 0.00044215681998153268 0.00073976161688871385 0 -0.00014149886392146729 0.00052292226727346637 0 0.00022075428586508782 0.00028547522529142851 0 -0.00014149886392146729 0.00052292226727346637 0 0.00022075428586508782 0.00028547522529142851 0 -3.5616652377538864e-05 -0.00024917271824103076 0 0.0022981045609621036 -0.0011820212925174093 0 0.0021849670189120741 -0.00099125263102796011 0 -0.00016833044226151645 0.00021032419329433761 0 -3.5616652377538864e-05 -0.00024917271824103076 0 -0.00060124980708744645 -9.1466136547889554e-05 0 0.00044215681998153268 0.00073976161688871385 0 0.00022075428586508782 0.00028547522529142851 0 0.00056434577578812109 0.0001336467634227352 0 0.00022075428586508782 0.00028547522529142851 0 0.00056434577578812109 0.0001336467634227352 0 -3.5616652377538864e-05 -0.00024917271824103076 0 0.00056434577578812109 0.0001336467634227352 0 0.00032936677329922873 -0.00059470655539440448 0 -3.5616652377538864e-05 -0.00024917271824103076 0 0.00085185049399449475 -0.00035417522863169477 0 0.00056434577578812109 0.0001336467634227352 0 0.00032936677329922873 -0.00059470655539440448 0 -0.00014595036604652908 -0.00097158256918556448 0 -3.5616652377538864e-05 -0.00024917271824103076 0 -0.00083671690248349098 -0.00050372482196998675 0 -0.00083671690248349098 -0.00050372482196998675 0 -0.00060124980708744645 -9.1466136547889554e-05 0 -0.0013071051428235581 0.00013409207857782295 0 -3.5616652377538864e-05 -0.00024917271824103076 0 -0.00083671690248349098 -0.00050372482196998675 0 -0.00060124980708744645 -9.1466136547889554e-05 0 -0.00016833044226151645 0.00021032419329433761 0 -0.00060124980708744645 -9.1466136547889554e-05 0 -0.0013071051428235581 0.00013409207857782295 0 0.0039531968407960083 -0.0021475017245730262 0 0.00084148742597679022 -0.00213619853931514 0 0.0022981045609621036 -0.0011820212925174093 0 0.00084148742597679022 -0.00213619853931514 0 0.0030899474161011904 -0.0016712075116896055 0 0.0031750098982526714 -0.0022912536280410849 0 0.0022517687243858234 -0.0022146387223717446 0 0.0021924358298446331 -0.0059452219119815082 0 0.0026811125050330118 -0.0059978035001743068 0 0.0018449895527336761 -0.00654462151228945 0 0.001653802820610388 -0.0059575376960036711 0 0.0018449895527336761 -0.00654462151228945 0 0.00078499901241561247 -0.0064549015610686827 0 0.00084148742597679022 -0.00213619853931514 0 -0.00031349079698647257 -0.0029729117543063591 0 0.001653802820610388 -0.0059575376960036711 0 0.0021924358298446331 -0.0059452219119815082 0 0.0018449895527336761 -0.00654462151228945 0 0.00084148742597679022 -0.00213619853931514 0 -0.00030796506151838256 -0.0020252688663417655 0 -0.0013071051428235581 0.00013409207857782295 0 -0.0015266410599157989 -0.00080590786426679715 0 -0.0020362241359835852 -0.00071730406298248922 0 -0.00083671690248349098 -0.00050372482196998675 0 -0.0013071051428235581 0.00013409207857782295 0 -0.0015266410599157989 -0.00080590786426679715 0 -0.0015266410599157989 -0.00080590786426679715 0 -0.00099529140503935463 -0.00106412914786989 0 -0.0015655705824629436 -0.0013704913123598124 0 -0.0015266410599157989 -0.00080590786426679715 0 -0.0015655705824629436 -0.0013704913123598124 0 -0.0018960126489579671 -0.0012057492489678169 0 -0.00083671690248349098 -0.00050372482196998675 0 -0.0015266410599157989 -0.00080590786426679715 0 -0.00099529140503935463 -0.00106412914786989 0 -0.00014595036604652908 -0.00097158256918556448 0 -0.00099529140503935463 -0.00106412914786989 0 -0.00068246027146825843 -0.001701003450361623 0 -0.00014595036604652908 -0.00097158256918556448 0 -0.00083671690248349098 -0.00050372482196998675 0 -0.00099529140503935463 -0.00106412914786989 0 -0.00068246027146825843 -0.001701003450361623 0 -0.0015655705824629436 -0.0013704913123598124 0 -0.0017617086959762854 -0.0017266075048808485 0 -0.00099529140503935463 -0.00106412914786989 0 -0.00068246027146825843 -0.001701003450361623 0 -0.0015655705824629436 -0.0013704913123598124 0 -0.0015655705824629436 -0.0013704913123598124 0 -0.0018977189274105813 -0.0014847309250234169 0 -0.0017617086959762854 -0.0017266075048808485 0 -0.0015655705824629436 -0.0013704913123598124 0 -0.0018977189274105813 -0.0014847309250234169 0 -0.0018960126489579671 -0.0012057492489678169 0 -0.0018977189274105813 -0.0014847309250234169 0 -0.0020482055408807438 -0.0012437410699058225 0 -0.002092574024936616 -0.001220647854653668 0 -0.0018977189274105813 -0.0014847309250234169 0 -0.0017617086959762854 -0.0017266075048808485 0 -0.0020482055408807438 -0.0012437410699058225 0 -0.0017617086959762854 -0.0017266075048808485 0 -0.002163737137362177 -0.0012072769515844245 0 -0.0023563295707310977 -0.0012756897278658745 0 -0.00068246027146825843 -0.001701003450361623 0 -0.0017617086959762854 -0.0017266075048808485 0 -0.00050337382975268919 -0.002723648542020317 0 -0.00081865390883239402 -0.0014347418793346988 0 -0.00060991305480406386 -0.0014143367090426154 0 -0.002163737137362177 -0.0012072769515844245 0 -0.0023516396907492265 -0.0010085873944625284 0 -0.0023563295707310977 -0.0012756897278658745 0 -0.0017617086959762854 -0.0017266075048808485 0 -0.002163737137362177 -0.0012072769515844245 0 -0.0020482055408807438 -0.0012437410699058225 0 -0.002163737137362177 -0.0012072769515844245 0 -0.0023147496694030109 -0.00098434226576079968 0 -0.0020482055408807438 -0.0012437410699058225 0 -0.002163737137362177 -0.0012072769515844245 0 -0.0023147496694030109 -0.00098434226576079968 0 -0.0023516396907492265 -0.0010085873944625284 0 -0.0023147496694030109 -0.00098434226576079968 0 -0.0020482055408807438 -0.0012437410699058225 0 -0.0022845181039799823 -0.0010001604556236238 0 -0.0020482055408807438 -0.0012437410699058225 0 -0.0022845181039799823 -0.0010001604556236238 0 -0.002092574024936616 -0.001220647854653668 0 -0.0022845181039799823 -0.0010001604556236238 0 -0.0025022853343813177 -0.00085390654881947259 0 -0.0022610063681435728 -0.00093892498499975456 0 -0.0024974777058324009 -0.00066277086303666711 0 -0.0025022853343813177 -0.00085390654881947259 0 -0.0022610063681435728 -0.00093892498499975456 0 -0.0023147496694030109 -0.00098434226576079968 0 -0.0025022853343813177 -0.00085390654881947259 0 -0.0023960795695735868 -0.0008460489529190224 0 -0.0023147496694030109 -0.00098434226576079968 0 -0.0022845181039799823 -0.0010001604556236238 0 -0.0025022853343813177 -0.00085390654881947259 0 -0.0025022853343813177 -0.00085390654881947259 0 -0.0023960795695735868 -0.0008460489529190224 0 -0.0023673684261130762 -0.00088657377620884545 0 -0.0027894465769519906 -0.00062745107589404214 0 -0.0025022853343813177 -0.00085390654881947259 0 -0.0029892003857586143 -0.00068693072915543827 0 -0.0025248639907331162 -0.0007238253974789548 0 -0.0025507895286971702 -0.00068653237307739342 0 -0.0025507895286971702 -0.00068653237307739342 0 -0.0024541115612053761 -0.00058901108613165765 0 -0.0023960795695735868 -0.0008460489529190224 0 -0.0023673684261130762 -0.00088657377620884545 0 -0.002206477374434974 -0.00067388157304888599 0 -0.0023673684261130762 -0.00088657377620884545 0 -0.002206477374434974 -0.00067388157304888599 0 -0.0019701240518317448 -0.0007125479576295952 0 -0.0023960795695735868 -0.0008460489529190224 0 -0.002206477374434974 -0.00067388157304888599 0 -0.0023127768642488772 -0.00071466527647088369 0 -0.0023127768642488772 -0.00071466527647088369 0 -0.0023739324943421055 -0.00075555368701595948 0 -0.0020673881846177073 -0.00034344976653108786 0 -0.0023127768642488772 -0.00071466527647088369 0 -0.002428691527520063 -0.00089783807807891614 0 -0.0023739324943421055 -0.00075555368701595948 0 -0.0023147496694030109 -0.00098434226576079968 0 -0.0023960795695735868 -0.0008460489529190224 0 -0.0023516396907492265 -0.0010085873944625284 0 -0.0023960795695735868 -0.0008460489529190224 0 -0.0023127768642488772 -0.00071466527647088369 0 -0.002428691527520063 -0.00089783807807891614 0 -0.0023960795695735868 -0.0008460489529190224 0 -0.0023516396907492265 -0.0010085873944625284 0 -0.002428691527520063 -0.00089783807807891614 0 -0.00060991305480406386 -0.0014143367090426154 0 2.5523835541361854e-05 -0.0013162284259879418 0 -0.002428691527520063 -0.00089783807807891614 0 -0.0023563295707310977 -0.0012756897278658745 0 -0.0024997612391692184 -0.00094334064609006576 0 -0.00050337382975268919 -0.002723648542020317 0 0.00024953362794663921 -0.0024884284822573061 0 0.00069494732814568382 -0.0032458502100996423 0 -6.6169397405908606e-05 -0.0013528147959313021 0 2.5523835541361854e-05 -0.0013162284259879418 0 -0.0023516396907492265 -0.0010085873944625284 0 -0.002428691527520063 -0.00089783807807891614 0 -0.0023563295707310977 -0.0012756897278658745 0 -0.00068246027146825843 -0.001701003450361623 0 -0.00050337382975268919 -0.002723648542020317 0 0.00024953362794663921 -0.0024884284822573061 0 2.5523835541361854e-05 -0.0013162284259879418 0 -0.00025394738670271415 -0.00080475034902971422 0 0.0019311584157647571 -0.001222964502960175 0 2.5523835541361854e-05 -0.0013162284259879418 0 0.0021588358449938093 -0.0025184504312432796 0 0.0010338236227380939 -0.0023266123440471693 0 0.00069494732814568382 -0.0032458502100996423 0 0.0010338236227380939 -0.0023266123440471693 0 0.00024953362794663921 -0.0024884284822573061 0 0.00069494732814568382 -0.0032458502100996423 0 0.0017632254844493086 -0.0012232777423657321 0 0.0025489199851887827 -0.00061560585007309457 0 0.0016740870006145187 -0.00031580997055724185 0 0.0017632254844493086 -0.0012232777423657321 0 0.0012798706699844488 -0.00097882700139093081 0 0.0016740870006145187 -0.00031580997055724185 0 0.0012798706699844488 -0.00097882700139093081 0 0.00028015510519110331 -0.00059051309218966321 0 0.0016740870006145187 -0.00031580997055724185 0 0.00200897358994115 -0.0010781219761153951 0 0.0012798706699844488 -0.00097882700139093081 0 -0.0003258651506493238 -0.0013042739975353667 0 0.0012798706699844488 -0.00097882700139093081 0 0.00028015510519110331 -0.00059051309218966321 0 5.8467377518124686e-05 -0.00088036828457174765 0 -0.00025394738670271415 -0.00080475034902971422 0 -0.00055246852640489143 -0.00059854471749881384 0 0.00028015510519110331 -0.00059051309218966321 0 0.0016740870006145187 -0.00031580997055724185 0 -0.0011263188243596527 -4.8922846889289142e-05 0 -0.0020673881846177073 -0.00034344976653108786 0 -0.0018778945919476803 -0.00047605939337787712 0 -0.0011263188243596527 -4.8922846889289142e-05 0 -0.002206477374434974 -0.00067388157304888599 0 -0.0023127768642488772 -0.00071466527647088369 0 -0.0020673881846177073 -0.00034344976653108786 0 -0.002206477374434974 -0.00067388157304888599 0 -0.0020673881846177073 -0.00034344976653108786 0 -0.0018778945919476803 -0.00047605939337787712 0 -0.002206477374434974 -0.00067388157304888599 0 -0.0019701240518317448 -0.0007125479576295952 0 -0.0018778945919476803 -0.00047605939337787712 0 -0.0030652107636109905 -0.00052948235086763969 0 -0.0029892003857586143 -0.00068693072915543827 0 -0.0030008854121528561 -0.00037605799429824775 0 -0.0030008854121528561 -0.00037605799429824775 0 -0.0020171807215892783 -0.00028182339461500246 0 -0.0024471043697967682 -0.0003975991693646279 0 -0.0027674655799908667 -0.00046549487791168031 0 -0.0030008854121528561 -0.00037605799429824775 0 -0.0024471043697967682 -0.0003975991693646279 0 -0.0030652107636109905 -0.00052948235086763969 0 -0.0027674655799908667 -0.00046549487791168031 0 -0.0030008854121528561 -0.00037605799429824775 0 -0.0024541115612053761 -0.00058901108613165765 0 -0.0023123781612886768 -0.00052292808482954625 0 -0.0019701240518317448 -0.0007125479576295952 0 -0.0018778945919476803 -0.00047605939337787712 0 -0.0016957403771977308 -0.00028776546301107836 0 -0.0019701240518317448 -0.0007125479576295952 0 -0.0016957403771977308 -0.00028776546301107836 0 -0.0020171807215892783 -0.00028182339461500246 0 -0.0020171807215892783 -0.00028182339461500246 0 -0.002181801747166489 -0.00035122369363260866 0 -0.0013455957431542003 -2.6505033234829275e-06 0 -8.2156273895997616e-05 -0.00021363653754229536 0 0.00079508187544626171 -1.8616985234989569e-05 0 -0.0016957403771977308 -0.00028776546301107836 0 -0.0020171807215892783 -0.00028182339461500246 0 -0.0013455957431542003 -2.6505033234829275e-06 0 -0.0020171807215892783 -0.00028182339461500246 0 -0.0024471043697967682 -0.0003975991693646279 0 -0.002181801747166489 -0.00035122369363260866 0 -0.0025889718643581144 -0.00039221793791694364 0 -0.0024471043697967682 -0.0003975991693646279 0 -0.002181801747166489 -0.00035122369363260866 0 -0.0027674655799908667 -0.00046549487791168031 0 -0.0025889718643581144 -0.00039221793791694364 0 -0.0024471043697967682 -0.0003975991693646279 0 -0.0028448349083366785 -0.00032398154728917583 0 -0.0025889718643581144 -0.00039221793791694364 0 -0.002181801747166489 -0.00035122369363260866 0 -0.00073017870773755579 -0.00040129353299489046 0 -8.2156273895997616e-05 -0.00021363653754229536 0 -0.00080410458470764118 5.2774106180590147e-07 0 0.0011195996640251521 -6.2988448956661494e-05 0 0.0012622270995826174 -8.9353762394165817e-07 0 0.0012622270995826174 -8.9353762394165817e-07 0 0.0016584736789299879 -0.00013729313766437629 0 0.0033245029206073321 1.1254554791700408e-06 0 0.0011195996640251521 -6.2988448956661494e-05 0 0.0016584736789299879 -0.00013729313766437629 0 0.0019498995723565664 -0.00020332870416067835 0 0.0011195996640251521 -6.2988448956661494e-05 0 0.0012622270995826174 -8.9353762394165817e-07 0 0.0016584736789299879 -0.00013729313766437629 0 0.0016584736789299879 -0.00013729313766437629 0 0.0019498995723565664 -0.00020332870416067835 0 0.0033245029206073321 1.1254554791700408e-06 0 -0.0018778945919476803 -0.00047605939337787712 0 -0.0016957403771977308 -0.00028776546301107836 0 -0.0011263188243596527 -4.8922846889289142e-05 0 -0.0016957403771977308 -0.00028776546301107836 0 -0.0011263188243596527 -4.8922846889289142e-05 0 -0.0013455957431542003 -2.6505033234829275e-06 0 0.00028015510519110331 -0.00059051309218966321 0 -0.0011263188243596527 -4.8922846889289142e-05 0 -0.00055010317024767504 -0.00055055285432685985 0 -0.0013455957431542003 -2.6505033234829275e-06 0 -0.00055010317024767504 -0.00055055285432685985 0 -0.00051605224761975318 -0.00076607647808421293 0 -0.0011263188243596527 -4.8922846889289142e-05 0 -0.0013455957431542003 -2.6505033234829275e-06 0 -0.00055010317024767504 -0.00055055285432685985 0 0.0012798706699844488 -0.00097882700139093081 0 5.8467377518124686e-05 -0.00088036828457174765 0 -0.0003258651506493238 -0.0013042739975353667 0 -0.0013455957431542003 -2.6505033234829275e-06 0 -0.00051605224761975318 -0.00076607647808421293 0 -0.0003258651506493238 -0.0013042739975353667 0 0.00079508187544626171 -1.8616985234989569e-05 0 0.001976792007073271 1.7785329705071139e-06 0 0.00028015510519110331 -0.00059051309218966321 0 -0.00055010317024767504 -0.00055055285432685985 0 5.8467377518124686e-05 -0.00088036828457174765 0 -0.00051605224761975318 -0.00076607647808421293 0 5.8467377518124686e-05 -0.00088036828457174765 0 -0.0003258651506493238 -0.0013042739975353667 0 -0.00055010317024767504 -0.00055055285432685985 0 -0.00051605224761975318 -0.00076607647808421293 0 5.8467377518124686e-05 -0.00088036828457174765 0 0.001976792007073271 1.7785329705071139e-06 0 0.0019899109326358437 -1.4882704538618558e-05 0 0.0043258984712960151 -0.00039994869159462365 0 0.0044392274595552676 -0.00064673510345027564 0 0.0045115631061118039 -0.00066079968592017407 0 0.0044392274595552676 -0.00064673510345027564 0 0.0045115631061118039 -0.00066079968592017407 0 0.0043777510371581889 -0.00090107574055664117 0 0.0048391224555114163 -1.1572482212782734e-06 0 0.0043258984712960151 -0.00039994869159462365 0 0.0033298889756218654 2.0513682147895971e-07 0 0.001976792007073271 1.7785329705071139e-06 0 0.0033262106867466019 -5.1537968011715763e-07 0 0.0019498995723565664 -0.00020332870416067835 0 0.0018135819420421213 0.00090811004378351062 0 0.0033245029206073321 1.1254554791700408e-06 0 0.0043258984712960151 -0.00039994869159462365 0 0.0045115631061118039 -0.00066079968592017407 0 0.0033298889756218654 2.0513682147895971e-07 0 -0.00027676837848645891 -0.0040541579017417811 0 -0.00071389696778501174 -0.0030743263828532882 0 -2.2158767321769844e-05 -0.0033873190976528018 0 -0.00027676837848645891 -0.0040541579017417811 0 0.00048702460990989366 -0.0040656598980163732 0 0.00017574754471809102 -0.0046153716770428654 0 -0.00027676837848645891 -0.0040541579017417811 0 -2.2158767321769844e-05 -0.0033873190976528018 0 0.00048702460990989366 -0.0040656598980163732 0 -0.00027676837848645891 -0.0040541579017417811 0 -0.00083024968622000836 -0.0038515833437158509 0 -0.00071389696778501174 -0.0030743263828532882 0 -0.00027676837848645891 -0.0040541579017417811 0 -0.00083024968622000836 -0.0038515833437158509 0 -0.00066728000401463023 -0.004474595227170676 0 -0.00071389696778501174 -0.0030743263828532882 0 -2.2158767321769844e-05 -0.0033873190976528018 0 -0.00020003491141839711 -0.0025515874738204296 0 -2.2158767321769844e-05 -0.0033873190976528018 0 0.00066872626576932573 -0.0028575747489766965 0 -0.00020003491141839711 -0.0025515874738204296 0 0.00066872626576932573 -0.0028575747489766965 0 0.00056180066318474811 -0.0035112223471665716 0 0.0011609354593106645 -0.00373543766225854 0 -2.2158767321769844e-05 -0.0033873190976528018 0 0.00066872626576932573 -0.0028575747489766965 0 0.00056180066318474811 -0.0035112223471665716 0 0.00066872626576932573 -0.0028575747489766965 0 0.0014687801405493402 -0.0031772945544646736 0 0.0011609354593106645 -0.00373543766225854 0 0.0014687801405493402 -0.0031772945544646736 0 0.0017726049415562116 -0.0027032823056701962 0 0.0021642124927733564 -0.003216090353825357 0 0.00066872626576932573 -0.0028575747489766965 0 0.0014687801405493402 -0.0031772945544646736 0 0.0012201067817812869 -0.0026454344129722795 0 0.0014687801405493402 -0.0031772945544646736 0 0.0017726049415562116 -0.0027032823056701962 0 0.0012201067817812869 -0.0026454344129722795 0 0.0014687801405493402 -0.0031772945544646736 0 0.0019577165230441904 -0.0037700295290289416 0 0.0011609354593106645 -0.00373543766225854 0 0.0014687801405493402 -0.0031772945544646736 0 0.0019577165230441904 -0.0037700295290289416 0 0.0021642124927733564 -0.003216090353825357 0 0.0019577165230441904 -0.0037700295290289416 0 0.0011609354593106645 -0.00373543766225854 0 0.0018904982206900871 -0.0043217703780944828 0 0.0011609354593106645 -0.00373543766225854 0 0.0018904982206900871 -0.0043217703780944828 0 0.0012499945154915619 -0.0044637005494326289 0 -2.2158767321769844e-05 -0.0033873190976528018 0 0.00056180066318474811 -0.0035112223471665716 0 0.00048702460990989366 -0.0040656598980163732 0 0.00056180066318474811 -0.0035112223471665716 0 0.0011609354593106645 -0.00373543766225854 0 0.00048702460990989366 -0.0040656598980163732 0 0.0011609354593106645 -0.00373543766225854 0 0.00048702460990989366 -0.0040656598980163732 0 0.0012499945154915619 -0.0044637005494326289 0 0.00048702460990989366 -0.0040656598980163732 0 0.00068126537167153493 -0.0046966280660841637 0 0.00017574754471809102 -0.0046153716770428654 0 0.00048702460990989366 -0.0040656598980163732 0 0.00068126537167153493 -0.0046966280660841637 0 0.0012499945154915619 -0.0044637005494326289 0 0.00068126537167153493 -0.0046966280660841637 0 0.0011884934231733443 -0.0052389040766451043 0 0.00043346413085856747 -0.0050432905379550605 0 0.00068126537167153493 -0.0046966280660841637 0 0.00043346413085856747 -0.0050432905379550605 0 0.00017574754471809102 -0.0046153716770428654 0 0.0018904982206900871 -0.0043217703780944828 0 0.0018675719366543389 -0.0047635936506117702 0 0.0012499945154915619 -0.0044637005494326289 0 0.00068126537167153493 -0.0046966280660841637 0 0.0012499945154915619 -0.0044637005494326289 0 0.0011884934231733443 -0.0052389040766451043 0 0.0018675719366543389 -0.0047635936506117702 0 0.0012499945154915619 -0.0044637005494326289 0 0.0011884934231733443 -0.0052389040766451043 0 0.0018675719366543389 -0.0047635936506117702 0 0.0011884934231733443 -0.0052389040766451043 0 0.0021650629363862491 -0.0052485030619134881 0 0.00049078938333549935 -0.0067666257424258153 0 0.0011884934231733443 -0.0052389040766451043 0 0.0019683684771723995 -0.0060878111763702208 0 0.0011884934231733443 -0.0052389040766451043 0 0.0019683684771723995 -0.0060878111763702208 0 0.0021650629363862491 -0.0052485030619134881 0 0.0017400461351799608 -0.0058857480994022006 0 0.0016350151722548444 -0.0057235399570269973 0 0.00031500235176471679 -0.0053690740731357637 0 0.0011884934231733443 -0.0052389040766451043 0 0.00051972893973152427 -0.005233364211629195 0 0.0011884934231733443 -0.0052389040766451043 0 0.00043346413085856747 -0.0050432905379550605 0 0.00051972893973152427 -0.005233364211629195 0 0.00043346413085856747 -0.0050432905379550605 0 0.00051972893973152427 -0.005233364211629195 0 0.00019019315161963109 -0.0052334724251800642 0 0.00031500235176471679 -0.0053690740731357637 0 0.00051972893973152427 -0.005233364211629195 0 0.00019019315161963109 -0.0052334724251800642 0 0.00019019315161963109 -0.0052334724251800642 0 -9.3276643390381749e-05 -0.005185190321690545 0 9.7686894246209149e-06 -0.004988882451947071 0 -9.3276643390381749e-05 -0.005185190321690545 0 9.7686894246209149e-06 -0.004988882451947071 0 -0.0003157511713005669 -0.0050850950132397595 0 9.7686894246209149e-06 -0.004988882451947071 0 -0.00029203912549600504 -0.0047109741051447399 0 -0.0003157511713005669 -0.0050850950132397595 0 0.00043346413085856747 -0.0050432905379550605 0 0.00019019315161963109 -0.0052334724251800642 0 9.7686894246209149e-06 -0.004988882451947071 0 0.00043346413085856747 -0.0050432905379550605 0 9.7686894246209149e-06 -0.004988882451947071 0 0.00017574754471809102 -0.0046153716770428654 0 -0.00027676837848645891 -0.0040541579017417811 0 0.00017574754471809102 -0.0046153716770428654 0 -0.00029203912549600504 -0.0047109741051447399 0 9.7686894246209149e-06 -0.004988882451947071 0 0.00017574754471809102 -0.0046153716770428654 0 -0.00029203912549600504 -0.0047109741051447399 0 -0.00027676837848645891 -0.0040541579017417811 0 -0.00066728000401463023 -0.004474595227170676 0 -0.00029203912549600504 -0.0047109741051447399 0 -0.00066728000401463023 -0.004474595227170676 0 -0.00029203912549600504 -0.0047109741051447399 0 -0.00056681617644627571 -0.0049245031728574334 0 -0.00029203912549600504 -0.0047109741051447399 0 -0.00056681617644627571 -0.0049245031728574334 0 -0.0003157511713005669 -0.0050850950132397595 0 -0.00051852155887569613 -0.0052051280333864289 0 -0.00056681617644627571 -0.0049245031728574334 0 -0.0003157511713005669 -0.0050850950132397595 0 -0.00051852155887569613 -0.0052051280333864289 0 -0.00056681617644627571 -0.0049245031728574334 0 -0.00073681537808912125 -0.0051230666889158956 0 -0.00056681617644627571 -0.0049245031728574334 0 -0.00073681537808912125 -0.0051230666889158956 0 -0.00082266776461063307 -0.0047578150589431059 0 -0.00073681537808912125 -0.0051230666889158956 0 -0.0010855019907560202 -0.0048084400778787865 0 -0.00082266776461063307 -0.0047578150589431059 0 -0.00073681537808912125 -0.0051230666889158956 0 -0.00092019985233562592 -0.0050704075626155963 0 -0.0010855019907560202 -0.0048084400778787865 0 -0.00073681537808912125 -0.0051230666889158956 0 -0.00078145535514919013 -0.0052568257756755556 0 -0.00092019985233562592 -0.0050704075626155963 0 -0.0006063694565754884 -0.0053333188832092602 0 -0.00073681537808912125 -0.0051230666889158956 0 -0.00078145535514919013 -0.0052568257756755556 0 -0.00052059171056487142 -0.005490991503851142 0 -0.00078145535514919013 -0.0052568257756755556 0 -0.0011635396786338914 -0.0050732915873746851 0 -0.00078145535514919013 -0.0052568257756755556 0 -0.0011635396786338914 -0.0050732915873746851 0 -0.0011118436169179518 -0.0050748711480360868 0 -0.00078145535514919013 -0.0052568257756755556 0 -0.00092019985233562592 -0.0050704075626155963 0 -0.0011118436169179518 -0.0050748711480360868 0 -0.00049208921362191066 -0.0040515121753666025 0 -0.00049974175554080434 -0.0035755051402454312 0 -0.00052059171056487142 -0.005490991503851142 0 -0.00046150810370206496 -0.0063453340277938265 0 0.00022554638356507404 -0.0059654112355046881 0 -0.00049974175554080434 -0.0035755051402454312 0 -0.00050444076508948253 -0.0035785726420227777 0 -0.00092019985233562592 -0.0050704075626155963 0 -0.0011118436169179518 -0.0050748711480360868 0 -0.0010855019907560202 -0.0048084400778787865 0 -0.0012347079619025676 -0.0050615715675489956 0 -0.0011118436169179518 -0.0050748711480360868 0 -0.0010855019907560202 -0.0048084400778787865 0 -0.00049974175554080434 -0.0035755051402454312 0 -0.0012990139267131462 -0.0025322393080577151 0 -0.0012347079619025676 -0.0050615715675489956 0 -0.0010855019907560202 -0.0048084400778787865 0 -0.0017914750563574212 -0.004107104374573743 0 -0.0010855019907560202 -0.0048084400778787865 0 -0.0011359955068902317 -0.0042917183487301063 0 -0.0017914750563574212 -0.004107104374573743 0 -0.0023801882015741533 -0.00051149699585733514 0 -0.0022038916935902433 -0.00069137730640217324 0 -0.0023695969630695142 -0.00086443815077433175 0 -0.00083024968622000836 -0.0038515833437158509 0 -0.00066728000401463023 -0.004474595227170676 0 -0.0011359955068902317 -0.0042917183487301063 0 -0.00066728000401463023 -0.004474595227170676 0 -0.00056681617644627571 -0.0049245031728574334 0 -0.00082266776461063307 -0.0047578150589431059 0 -0.00066728000401463023 -0.004474595227170676 0 -0.0011359955068902317 -0.0042917183487301063 0 -0.00082266776461063307 -0.0047578150589431059 0 -0.0010855019907560202 -0.0048084400778787865 0 -0.0011359955068902317 -0.0042917183487301063 0 -0.00082266776461063307 -0.0047578150589431059 0 0.00076537449245853151 -0.0058482842591927155 0 0.001653802820610388 -0.0059575376960036711 0 0.00078499901241561247 -0.0064549015610686827 0 -0.00046150810370206496 -0.0063453340277938265 0 0.00078499901241561247 -0.0064549015610686827 0 0.00022554638356507404 -0.0059654112355046881 0 -0.00049974175554080434 -0.0035755051402454312 0 -0.00031349079698647257 -0.0029729117543063591 0 -0.0023801882015741533 -0.00051149699585733514 0 -0.002051918329025966 -0.00054270682690325009 0 -0.0022038916935902433 -0.00069137730640217324 0 0.00076537449245853151 -0.0058482842591927155 0 0.00078499901241561247 -0.0064549015610686827 0 0.00022554638356507404 -0.0059654112355046881 0 -0.0017714348547876789 -0.00056913659463088883 0 -0.002051918329025966 -0.00054270682690325009 0 -0.0020362241359835852 -0.00071730406298248922 0 -0.002051918329025966 -0.00054270682690325009 0 -0.0022038916935902433 -0.00069137730640217324 0 -0.0020362241359835852 -0.00071730406298248922 0 -0.0015266410599157989 -0.00080590786426679715 0 -0.0020362241359835852 -0.00071730406298248922 0 -0.0018960126489579671 -0.0012057492489678169 0 -0.0020362241359835852 -0.00071730406298248922 0 -0.0021468621011691423 -0.0010370974139116797 0 -0.0018960126489579671 -0.0012057492489678169 0 -0.0022038916935902433 -0.00069137730640217324 0 -0.0020362241359835852 -0.00071730406298248922 0 -0.0021468621011691423 -0.0010370974139116797 0 -0.0021468621011691423 -0.0010370974139116797 0 -0.0023695969630695142 -0.00086443815077433175 0 -0.0022491851722173852 -0.001222277940261234 0 -0.0022038916935902433 -0.00069137730640217324 0 -0.0021468621011691423 -0.0010370974139116797 0 -0.0023695969630695142 -0.00086443815077433175 0 -0.0021468621011691423 -0.0010370974139116797 0 -0.0022491851722173852 -0.001222277940261234 0 -0.002056819844304537 -0.0013597408645873302 0 -0.0021468621011691423 -0.0010370974139116797 0 -0.0018960126489579671 -0.0012057492489678169 0 -0.002056819844304537 -0.0013597408645873302 0 -0.0018977189274105813 -0.0014847309250234169 0 -0.0018960126489579671 -0.0012057492489678169 0 -0.002056819844304537 -0.0013597408645873302 0 -0.00083024968622000836 -0.0038515833437158509 0 -0.0011359955068902317 -0.0042917183487301063 0 -0.0013565602355958592 -0.0034448797645927993 0 -0.0017914750563574212 -0.004107104374573743 0 -0.0021314293815202189 -0.0029746493124670637 0 -0.0013565602355958592 -0.0034448797645927993 0 -0.0012990139267131462 -0.0025322393080577151 0 -0.0017070002338656506 -0.002021416267257384 0 -0.0011359955068902317 -0.0042917183487301063 0 -0.0017914750563574212 -0.004107104374573743 0 -0.0013565602355958592 -0.0034448797645927993 0 -0.0021314293815202189 -0.0029746493124670637 0 -0.0013565602355958592 -0.0034448797645927993 0 -0.0015011021630823966 -0.0022537792939201734 0 -0.00071389696778501174 -0.0030743263828532882 0 -0.0013565602355958592 -0.0034448797645927993 0 -0.0015011021630823966 -0.0022537792939201734 0 -0.00083024968622000836 -0.0038515833437158509 0 -0.00071389696778501174 -0.0030743263828532882 0 -0.0013565602355958592 -0.0034448797645927993 0 -0.0017070002338656506 -0.002021416267257384 0 -0.0018863874849058783 -0.0016253412340023188 0 -0.0021314293815202189 -0.0029746493124670637 0 -0.0015011021630823966 -0.0022537792939201734 0 -0.0022294444551296463 -0.0018487911053249471 0 -0.0015011021630823966 -0.0022537792939201734 0 -0.0018021550858083461 -0.0014332675535429845 0 -0.0022294444551296463 -0.0018487911053249471 0 -0.0018021550858083461 -0.0014332675535429845 0 -0.0022294444551296463 -0.0018487911053249471 0 -0.0020679001520715005 -0.0010217609699762181 0 -0.0018863874849058783 -0.0016253412340023188 0 -0.0019339196398896537 -0.0014144738423633727 0 -0.0015011021630823966 -0.0022537792939201734 0 -0.0018021550858083461 -0.0014332675535429845 0 -0.00137685965600274 -0.001458426808685663 0 -0.0015011021630823966 -0.0022537792939201734 0 -0.00137685965600274 -0.001458426808685663 0 -0.0008728368763909432 -0.0020049548610207211 0 -0.0018977189274105813 -0.0014847309250234169 0 -0.002056819844304537 -0.0013597408645873302 0 -0.002092574024936616 -0.001220647854653668 0 -0.0022491851722173852 -0.001222277940261234 0 -0.0020674702590238602 -0.0012907268352863803 0 -0.002056819844304537 -0.0013597408645873302 0 -0.0020674702590238602 -0.0012907268352863803 0 -0.0021065224107146424 -0.0011801115981983029 0 -0.0020679001520715005 -0.0010217609699762181 0 -0.0020674702590238602 -0.0012907268352863803 0 -0.002056819844304537 -0.0013597408645873302 0 -0.0021065224107146424 -0.0011801115981983029 0 -0.002056819844304537 -0.0013597408645873302 0 -0.0021065224107146424 -0.0011801115981983029 0 -0.002092574024936616 -0.001220647854653668 0 -0.0022845181039799823 -0.0010001604556236238 0 -0.002092574024936616 -0.001220647854653668 0 -0.0022610063681435728 -0.00093892498499975456 0 -0.0021065224107146424 -0.0011801115981983029 0 -0.002092574024936616 -0.001220647854653668 0 -0.0022610063681435728 -0.00093892498499975456 0 -0.0021065224107146424 -0.0011801115981983029 0 -0.0022610063681435728 -0.00093892498499975456 0 -0.0020679001520715005 -0.0010217609699762181 0 -0.0023143439348760919 -0.00063891948455445282 0 -0.0022610063681435728 -0.00093892498499975456 0 -0.0020679001520715005 -0.0010217609699762181 0 -0.0018908868768109921 -0.00057917328508400663 0 -0.0023143439348760919 -0.00063891948455445282 0 -0.0020679001520715005 -0.0010217609699762181 0 -0.0023143439348760919 -0.00063891948455445282 0 -0.0024974777058324009 -0.00066277086303666711 0 -0.0022610063681435728 -0.00093892498499975456 0 -0.00137685965600274 -0.001458426808685663 0 -0.0016546336047304855 -0.00094661768523691286 0 -0.0010227286640326373 -0.001093947672131126 0 -0.0018021550858083461 -0.0014332675535429845 0 -0.00137685965600274 -0.001458426808685663 0 -0.0016546336047304855 -0.00094661768523691286 0 -0.0016546336047304855 -0.00094661768523691286 0 -0.0013066882659019301 -0.00058050249845630736 0 -0.0010227286640326373 -0.001093947672131126 0 -0.0018021550858083461 -0.0014332675535429845 0 -0.0016546336047304855 -0.00094661768523691286 0 -0.0020679001520715005 -0.0010217609699762181 0 -0.0018908868768109921 -0.00057917328508400663 0 -0.0016546336047304855 -0.00094661768523691286 0 -0.0020679001520715005 -0.0010217609699762181 0 -0.0018908868768109921 -0.00057917328508400663 0 -0.0016546336047304855 -0.00094661768523691286 0 -0.0013066882659019301 -0.00058050249845630736 0 -0.0013059808720650619 -0.00034106813976187984 0 -0.0013066882659019301 -0.00058050249845630736 0 -0.0011055555643058035 -0.00030174377084815157 0 -0.0013066882659019301 -0.00058050249845630736 0 -0.0011055555643058035 -0.00030174377084815157 0 -0.00083761732136893973 -0.00053987110171255757 0 -0.0011055555643058035 -0.00030174377084815157 0 -0.00081974052753436949 -8.9200505745611649e-05 0 -0.00083761732136893973 -0.00053987110171255757 0 -0.001085623902003757 -0.0001685257725035208 0 -0.0011055555643058035 -0.00030174377084815157 0 -0.00081974052753436949 -8.9200505745611649e-05 0 -0.00081974052753436949 -8.9200505745611649e-05 0 -0.00083761732136893973 -0.00053987110171255757 0 -0.00043638390294916253 -0.00037393350414597948 0 -0.00083761732136893973 -0.00053987110171255757 0 -0.00046709641628219189 -0.00097967614245418567 0 -0.0010227286640326373 -0.001093947672131126 0 -0.00083761732136893973 -0.00053987110171255757 0 -0.00046709641628219189 -0.00097967614245418567 0 -0.00043638390294916253 -0.00037393350414597948 0 -0.0013066882659019301 -0.00058050249845630736 0 -0.00083761732136893973 -0.00053987110171255757 0 -0.0010227286640326373 -0.001093947672131126 0 -0.00137685965600274 -0.001458426808685663 0 -0.0010227286640326373 -0.001093947672131126 0 -0.0008728368763909432 -0.0020049548610207211 0 -0.0010227286640326373 -0.001093947672131126 0 -0.00038378199998043941 -0.0016870836004819162 0 -0.0008728368763909432 -0.0020049548610207211 0 -0.00046709641628219189 -0.00097967614245418567 0 -0.0010227286640326373 -0.001093947672131126 0 -0.00038378199998043941 -0.0016870836004819162 0 -0.00046709641628219189 -0.00097967614245418567 0 -0.00038378199998043941 -0.0016870836004819162 0 6.9050768395409395e-06 -0.0014165675685923369 0 -0.00038378199998043941 -0.0016870836004819162 0 0.00024836132520876281 -0.0021462020475144662 0 6.9050768395409395e-06 -0.0014165675685923369 0 -0.00038378199998043941 -0.0016870836004819162 0 -0.00020003491141839711 -0.0025515874738204296 0 0.00024836132520876281 -0.0021462020475144662 0 -0.00038378199998043941 -0.0016870836004819162 0 -0.00020003491141839711 -0.0025515874738204296 0 -0.0008728368763909432 -0.0020049548610207211 0 -0.00071389696778501174 -0.0030743263828532882 0 -0.00020003491141839711 -0.0025515874738204296 0 -0.0008728368763909432 -0.0020049548610207211 0 -0.00071389696778501174 -0.0030743263828532882 0 -0.0015011021630823966 -0.0022537792939201734 0 -0.0008728368763909432 -0.0020049548610207211 0 0.0014174331467833132 -0.0022268769608754769 0 0.0010845846151745814 -0.0016971495240352388 0 0.001686278180351031 -0.0017373108038626849 0 0.0014174331467833132 -0.0022268769608754769 0 0.00084389885972704361 -0.0022208542585738069 0 0.0010845846151745814 -0.0016971495240352388 0 0.0014174331467833132 -0.0022268769608754769 0 0.001686278180351031 -0.0017373108038626849 0 0.0020769290180719341 -0.0021735744068054649 0 0.0014174331467833132 -0.0022268769608754769 0 0.0017726049415562116 -0.0027032823056701962 0 0.0020769290180719341 -0.0021735744068054649 0 0.0014174331467833132 -0.0022268769608754769 0 0.0012201067817812869 -0.0026454344129722795 0 0.00084389885972704361 -0.0022208542585738069 0 0.0014174331467833132 -0.0022268769608754769 0 0.0017726049415562116 -0.0027032823056701962 0 0.0012201067817812869 -0.0026454344129722795 0 0.00066872626576932573 -0.0028575747489766965 0 0.0012201067817812869 -0.0026454344129722795 0 0.00084389885972704361 -0.0022208542585738069 0 0.00066872626576932573 -0.0028575747489766965 0 -0.00020003491141839711 -0.0025515874738204296 0 0.00024836132520876281 -0.0021462020475144662 0 0.00066872626576932573 -0.0028575747489766965 0 0.00024836132520876281 -0.0021462020475144662 0 0.00084389885972704361 -0.0022208542585738069 0 0.00084389885972704361 -0.0022208542585738069 0 0.00049800464944052189 -0.0017230420942560751 0 0.0010845846151745814 -0.0016971495240352388 0 0.00024836132520876281 -0.0021462020475144662 0 0.00084389885972704361 -0.0022208542585738069 0 0.00049800464944052189 -0.0017230420942560751 0 0.00049800464944052189 -0.0017230420942560751 0 0.00080872445609886671 -0.00097198438330786956 0 0.0010845846151745814 -0.0016971495240352388 0 0.00024836132520876281 -0.0021462020475144662 0 0.00049800464944052189 -0.0017230420942560751 0 6.9050768395409395e-06 -0.0014165675685923369 0 0.00049800464944052189 -0.0017230420942560751 0 6.9050768395409395e-06 -0.0014165675685923369 0 0.00011373857574353084 -0.00090982935321829632 0 -0.00046709641628219189 -0.00097967614245418567 0 6.9050768395409395e-06 -0.0014165675685923369 0 0.00011373857574353084 -0.00090982935321829632 0 0.00049800464944052189 -0.0017230420942560751 0 0.00080872445609886671 -0.00097198438330786956 0 0.00011373857574353084 -0.00090982935321829632 0 0.0013174292747540526 -0.0012565562224608827 0 0.00080872445609886671 -0.00097198438330786956 0 0.0010845846151745814 -0.0016971495240352388 0 0.0013174292747540526 -0.0012565562224608827 0 0.00080872445609886671 -0.00097198438330786956 0 0.0017841035067938204 -0.00077660060257036243 0 0.0013174292747540526 -0.0012565562224608827 0 0.0010845846151745814 -0.0016971495240352388 0 0.001686278180351031 -0.0017373108038626849 0 0.001686278180351031 -0.0017373108038626849 0 0.0017841035067938204 -0.00077660060257036243 0 0.0023574778060853185 -0.0015159855342790341 0 0.0013174292747540526 -0.0012565562224608827 0 0.001686278180351031 -0.0017373108038626849 0 0.0017841035067938204 -0.00077660060257036243 0 0.00080872445609886671 -0.00097198438330786956 0 0.00097127557646886468 -0.00023381424193173012 0 0.00016092061602650441 -0.00030954305075430306 0 0.00080872445609886671 -0.00097198438330786956 0 0.0017841035067938204 -0.00077660060257036243 0 0.00097127557646886468 -0.00023381424193173012 0 0.0017841035067938204 -0.00077660060257036243 0 0.00097127557646886468 -0.00023381424193173012 0 0.0017046481104411677 0.00029081954084284219 0 -0.00046709641628219189 -0.00097967614245418567 0 0.00011373857574353084 -0.00090982935321829632 0 -0.00043638390294916253 -0.00037393350414597948 0 0.00080872445609886671 -0.00097198438330786956 0 0.00011373857574353084 -0.00090982935321829632 0 0.00016092061602650441 -0.00030954305075430306 0 0.00016092061602650441 -0.00030954305075430306 0 -0.00043638390294916253 -0.00037393350414597948 0 -0.00042662241165231346 0.00020841163416861382 0 0.00011373857574353084 -0.00090982935321829632 0 0.00016092061602650441 -0.00030954305075430306 0 -0.00043638390294916253 -0.00037393350414597948 0 0.00039372176924478195 0.0025146103331003941 0 -0.00042662241165231346 0.00020841163416861382 0 0.00064645812057197497 0.00096202763558936972 0 -0.00081974052753436949 -8.9200505745611649e-05 0 -0.00043638390294916253 -0.00037393350414597948 0 -0.00042662241165231346 0.00020841163416861382 0 0.00016092061602650441 -0.00030954305075430306 0 -0.00042662241165231346 0.00020841163416861382 0 0.00064645812057197497 0.00096202763558936972 0 -0.0010632632900999326 1.6034502896178699e-05 0 -0.00081974052753436949 -8.9200505745611649e-05 0 -0.00042662241165231346 0.00020841163416861382 0 0.0017046481104411677 0.00029081954084284219 0 0.00064645812057197497 0.00096202763558936972 0 0.0018118847325772503 0.0012261483837029666 0 0.00097127557646886468 -0.00023381424193173012 0 0.00016092061602650441 -0.00030954305075430306 0 0.00064645812057197497 0.00096202763558936972 0 0.00097127557646886468 -0.00023381424193173012 0 0.0017046481104411677 0.00029081954084284219 0 0.00064645812057197497 0.00096202763558936972 0 0.0014106575763219115 0.0017881263299735308 0 0.00064645812057197497 0.00096202763558936972 0 0.0018118847325772503 0.0012261483837029666 0 0.0014106575763219115 0.0017881263299735308 0 0.0019897157281464823 0.0020504365662008099 0 0.0018118847325772503 0.0012261483837029666 0 0.0018118847325772503 0.0012261483837029666 0 0.002477583529030593 0.0015830817579810779 0 0.0026263934285487172 0.00081650625316262231 0 0.0019897157281464823 0.0020504365662008099 0 0.0018118847325772503 0.0012261483837029666 0 0.002477583529030593 0.0015830817579810779 0 0.0017046481104411677 0.00029081954084284219 0 0.0018118847325772503 0.0012261483837029666 0 0.0026263934285487172 0.00081650625316262231 0 0.0026263934285487172 0.00081650625316262231 0 0.0038192945256666664 0.001039595166308288 0 0.0031342805127147762 0.00014978664645048042 0 0.002477583529030593 0.0015830817579810779 0 0.0026263934285487172 0.00081650625316262231 0 0.0032828640785904548 0.0017508781187331745 0 0.0044768712657792219 0.0020838788134621856 0 0.0038192945256666664 0.001039595166308288 0 0.0053657065514567956 0.0012246932958707797 0 0.0044768712657792219 0.0020838788134621856 0 0.0032828640785904548 0.0017508781187331745 0 0.0038192945256666664 0.001039595166308288 0 0.0038192945256666664 0.001039595166308288 0 0.0042821507076812619 0.00017598550082363419 0 0.0053657065514567956 0.0012246932958707797 0 0.0026263934285487172 0.00081650625316262231 0 0.0032828640785904548 0.0017508781187331745 0 0.0038192945256666664 0.001039595166308288 0 0.0038192945256666664 0.001039595166308288 0 0.0042821507076812619 0.00017598550082363419 0 0.0031342805127147762 0.00014978664645048042 0 0.0042821507076812619 0.00017598550082363419 0 0.0035816816421961554 -0.00042726058551447387 0 0.0040934399100637751 -0.00097177098749522128 0 0.0042821507076812619 0.00017598550082363419 0 0.0035816816421961554 -0.00042726058551447387 0 0.0031342805127147762 0.00014978664645048042 0 0.0035816816421961554 -0.00042726058551447387 0 0.0031342805127147762 0.00014978664645048042 0 0.0026822412683291238 -0.00076809115890314947 0 0.0023582477741942815 -7.3796532908101785e-05 0 0.0031342805127147762 0.00014978664645048042 0 0.0026822412683291238 -0.00076809115890314947 0 0.0017841035067938204 -0.00077660060257036243 0 0.0023582477741942815 -7.3796532908101785e-05 0 0.0026822412683291238 -0.00076809115890314947 0 0.0017841035067938204 -0.00077660060257036243 0 0.0017046481104411677 0.00029081954084284219 0 0.0023582477741942815 -7.3796532908101785e-05 0 0.0017046481104411677 0.00029081954084284219 0 0.0026263934285487172 0.00081650625316262231 0 0.0023582477741942815 -7.3796532908101785e-05 0 0.0026263934285487172 0.00081650625316262231 0 0.0023582477741942815 -7.3796532908101785e-05 0 0.0031342805127147762 0.00014978664645048042 0 0.006947469120595285 0.0025237616679716387 0 0.0068432118280636689 0.001322631073974657 0 0.0053657065514567956 0.0012246932958707797 0 0.0068432118280636689 0.001322631073974657 0 0.0053657065514567956 0.0012246932958707797 0 0.0061011546815663347 0.00056886088799399455 0 0.0042821507076812619 0.00017598550082363419 0 0.0053657065514567956 0.0012246932958707797 0 0.0054161769014094739 -0.00027825116429927533 0 0.0053657065514567956 0.0012246932958707797 0 0.0054161769014094739 -0.00027825116429927533 0 0.0061011546815663347 0.00056886088799399455 0 0.0042821507076812619 0.00017598550082363419 0 0.0054161769014094739 -0.00027825116429927533 0 0.0040934399100637751 -0.00097177098749522128 0 0.0054161769014094739 -0.00027825116429927533 0 0.0061011546815663347 0.00056886088799399455 0 0.006805593119944193 1.2661117779895857e-05 0 0.0068432118280636689 0.001322631073974657 0 0.0061011546815663347 0.00056886088799399455 0 0.006805593119944193 1.2661117779895857e-05 0 0.0068432118280636689 0.001322631073974657 0 0.006805593119944193 1.2661117779895857e-05 0 0.0079044786100791273 0.00096324244807614845 0 0.006805593119944193 1.2661117779895857e-05 0 0.0063787326126699875 -0.0013130577764776867 0 0.0081779305009854787 -0.00046164016117882309 0 0.0054161769014094739 -0.00027825116429927533 0 0.006805593119944193 1.2661117779895857e-05 0 0.0063787326126699875 -0.0013130577764776867 0 0.0063787326126699875 -0.0013130577764776867 0 0.0048399164465307469 -0.0013811397697069798 0 0.0052506548735485698 -0.0023235747907188568 0 0.0054161769014094739 -0.00027825116429927533 0 0.0063787326126699875 -0.0013130577764776867 0 0.0048399164465307469 -0.0013811397697069798 0 0.0054161769014094739 -0.00027825116429927533 0 0.0048399164465307469 -0.0013811397697069798 0 0.0040934399100637751 -0.00097177098749522128 0 0.0048399164465307469 -0.0013811397697069798 0 0.0052506548735485698 -0.0023235747907188568 0 0.0043319850677995819 -0.0021458448120276461 0 0.0044602489116001712 -0.0027849538080429825 0 0.0052506548735485698 -0.0023235747907188568 0 0.0043319850677995819 -0.0021458448120276461 0 0.0044602489116001712 -0.0027849538080429825 0 0.0052506548735485698 -0.0023235747907188568 0 0.0055010076831853369 -0.0031847281783377946 0 0.0052506548735485698 -0.0023235747907188568 0 0.0063140413377458897 -0.0023828129499985883 0 0.0055010076831853369 -0.0031847281783377946 0 0.0063787326126699875 -0.0013130577764776867 0 0.0063140413377458897 -0.0023828129499985883 0 0.0079192907442672614 -0.0020584954678653762 0 0.0063787326126699875 -0.0013130577764776867 0 0.0052506548735485698 -0.0023235747907188568 0 0.0063140413377458897 -0.0023828129499985883 0 0.0030802499261764231 -0.0013294364705133521 0 0.0023574778060853185 -0.0015159855342790341 0 0.0028272190542668208 -0.0021300846099914059 0 0.0030802499261764231 -0.0013294364705133521 0 0.0035962468761103778 -0.0016740525426652139 0 0.0028272190542668208 -0.0021300846099914059 0 0.0017841035067938204 -0.00077660060257036243 0 0.0023574778060853185 -0.0015159855342790341 0 0.0026822412683291238 -0.00076809115890314947 0 0.0030802499261764231 -0.0013294364705133521 0 0.0023574778060853185 -0.0015159855342790341 0 0.0026822412683291238 -0.00076809115890314947 0 0.0035816816421961554 -0.00042726058551447387 0 0.0030802499261764231 -0.0013294364705133521 0 0.0026822412683291238 -0.00076809115890314947 0 0.0035816816421961554 -0.00042726058551447387 0 0.0030802499261764231 -0.0013294364705133521 0 0.0040934399100637751 -0.00097177098749522128 0 0.0048399164465307469 -0.0013811397697069798 0 0.0040934399100637751 -0.00097177098749522128 0 0.0035962468761103778 -0.0016740525426652139 0 0.0030802499261764231 -0.0013294364705133521 0 0.0040934399100637751 -0.00097177098749522128 0 0.0035962468761103778 -0.0016740525426652139 0 0.0035962468761103778 -0.0016740525426652139 0 0.0035451741746576997 -0.002541970023897572 0 0.0028272190542668208 -0.0021300846099914059 0 0.0035962468761103778 -0.0016740525426652139 0 0.0043319850677995819 -0.0021458448120276461 0 0.0035451741746576997 -0.002541970023897572 0 0.0048399164465307469 -0.0013811397697069798 0 0.0035962468761103778 -0.0016740525426652139 0 0.0043319850677995819 -0.0021458448120276461 0 0.0044602489116001712 -0.0027849538080429825 0 0.0035451741746576997 -0.002541970023897572 0 0.0038909790294130507 -0.0030009235829319006 0 0.0044602489116001712 -0.0027849538080429825 0 0.0043319850677995819 -0.0021458448120276461 0 0.0035451741746576997 -0.002541970023897572 0 0.0035451741746576997 -0.002541970023897572 0 0.0029756216501607433 -0.002757886249966843 0 0.0028272190542668208 -0.0021300846099914059 0 0.0029756216501607433 -0.002757886249966843 0 0.0028272190542668208 -0.0021300846099914059 0 0.0024136977149215753 -0.0026952630111065391 0 0.001686278180351031 -0.0017373108038626849 0 0.0023574778060853185 -0.0015159855342790341 0 0.0020769290180719341 -0.0021735744068054649 0 0.0023574778060853185 -0.0015159855342790341 0 0.0028272190542668208 -0.0021300846099914059 0 0.0020769290180719341 -0.0021735744068054649 0 0.0017726049415562116 -0.0027032823056701962 0 0.0020769290180719341 -0.0021735744068054649 0 0.0024136977149215753 -0.0026952630111065391 0 0.0028272190542668208 -0.0021300846099914059 0 0.0020769290180719341 -0.0021735744068054649 0 0.0024136977149215753 -0.0026952630111065391 0 0.0017726049415562116 -0.0027032823056701962 0 0.0024136977149215753 -0.0026952630111065391 0 0.0021642124927733564 -0.003216090353825357 0 0.0024136977149215753 -0.0026952630111065391 0 0.0021642124927733564 -0.003216090353825357 0 0.0028034568327230543 -0.003231820773914405 0 0.0029756216501607433 -0.002757886249966843 0 0.0024136977149215753 -0.0026952630111065391 0 0.0028034568327230543 -0.003231820773914405 0 0.0029756216501607433 -0.002757886249966843 0 0.0028034568327230543 -0.003231820773914405 0 0.0033825035247325636 -0.0030822211031991927 0 0.0028034568327230543 -0.003231820773914405 0 0.0025970152160707935 -0.0036971889736581399 0 0.0033218412462668371 -0.0036904699863140661 0 0.0019577165230441904 -0.0037700295290289416 0 0.0021642124927733564 -0.003216090353825357 0 0.0025970152160707935 -0.0036971889736581399 0 0.0021642124927733564 -0.003216090353825357 0 0.0028034568327230543 -0.003231820773914405 0 0.0025970152160707935 -0.0036971889736581399 0 0.0019577165230441904 -0.0037700295290289416 0 0.0018904982206900871 -0.0043217703780944828 0 0.0024680908678325515 -0.0041469244930168589 0 0.0019577165230441904 -0.0037700295290289416 0 0.0025970152160707935 -0.0036971889736581399 0 0.0024680908678325515 -0.0041469244930168589 0 0.0025970152160707935 -0.0036971889736581399 0 0.0024680908678325515 -0.0041469244930168589 0 0.0029953091595231354 -0.0040635170697144209 0 0.0025970152160707935 -0.0036971889736581399 0 0.0029953091595231354 -0.0040635170697144209 0 0.0033218412462668371 -0.0036904699863140661 0 0.0024680908678325515 -0.0041469244930168589 0 0.0029125852650833074 -0.0044290355620430948 0 0.0024603188648550278 -0.0045799511121460195 0 0.0024680908678325515 -0.0041469244930168589 0 0.0029953091595231354 -0.0040635170697144209 0 0.0029125852650833074 -0.0044290355620430948 0 0.0029953091595231354 -0.0040635170697144209 0 0.0029125852650833074 -0.0044290355620430948 0 0.003349555956198829 -0.004517864707689387 0 0.0029125852650833074 -0.0044290355620430948 0 0.003349555956198829 -0.004517864707689387 0 0.00293874769313317 -0.0047951334764232672 0 0.0029125852650833074 -0.0044290355620430948 0 0.0024603188648550278 -0.0045799511121460195 0 0.00293874769313317 -0.0047951334764232672 0 0.0018904982206900871 -0.0043217703780944828 0 0.0024680908678325515 -0.0041469244930168589 0 0.0024603188648550278 -0.0045799511121460195 0 0.0038682768388630115 -0.0043645521743734851 0 0.0039063343578498288 -0.0046984449465219029 0 0.003349555956198829 -0.004517864707689387 0 0.0038682768388630115 -0.0043645521743734851 0 0.0039063343578498288 -0.0046984449465219029 0 0.0043280527931167908 -0.0044402098060474507 0 0.0039063343578498288 -0.0046984449465219029 0 0.0043280527931167908 -0.0044402098060474507 0 0.0043160680118198109 -0.0047209094264048512 0 0.0039063343578498288 -0.0046984449465219029 0 0.0043160680118198109 -0.0047209094264048512 0 0.0041102759804460525 -0.0049623249370592355 0 0.0039063343578498288 -0.0046984449465219029 0 0.003349555956198829 -0.004517864707689387 0 0.0033185399384504147 -0.0050778722759287085 0 0.0038682768388630115 -0.0043645521743734851 0 0.003349555956198829 -0.004517864707689387 0 0.0035936527683040169 -0.0041108449607801462 0 0.0029953091595231354 -0.0040635170697144209 0 0.0035936527683040169 -0.0041108449607801462 0 0.0033218412462668371 -0.0036904699863140661 0 0.0029953091595231354 -0.0040635170697144209 0 0.003349555956198829 -0.004517864707689387 0 0.0035936527683040169 -0.0041108449607801462 0 0.0035936527683040169 -0.0041108449607801462 0 0.0038271517310999072 -0.0037974887854984574 0 0.0033218412462668371 -0.0036904699863140661 0 0.0035936527683040169 -0.0041108449607801462 0 0.0041915558320291951 -0.0040466598026692429 0 0.0038271517310999072 -0.0037974887854984574 0 0.0038682768388630115 -0.0043645521743734851 0 0.0035936527683040169 -0.0041108449607801462 0 0.0041915558320291951 -0.0040466598026692429 0 0.0038682768388630115 -0.0043645521743734851 0 0.0041915558320291951 -0.0040466598026692429 0 0.0043280527931167908 -0.0044402098060474507 0 0.0041915558320291951 -0.0040466598026692429 0 0.0038271517310999072 -0.0037974887854984574 0 0.0044196947471151623 -0.0035482838813422585 0 0.0038044021389694151 -0.0034251591226963961 0 0.0038909790294130507 -0.0030009235829319006 0 0.0044196947471151623 -0.0035482838813422585 0 0.0038271517310999072 -0.0037974887854984574 0 0.0038044021389694151 -0.0034251591226963961 0 0.0044196947471151623 -0.0035482838813422585 0 0.0028034568327230543 -0.003231820773914405 0 0.0033218412462668371 -0.0036904699863140661 0 0.0033825035247325636 -0.0030822211031991927 0 0.0038044021389694151 -0.0034251591226963961 0 0.0033218412462668371 -0.0036904699863140661 0 0.0033825035247325636 -0.0030822211031991927 0 0.0038271517310999072 -0.0037974887854984574 0 0.0038044021389694151 -0.0034251591226963961 0 0.0033218412462668371 -0.0036904699863140661 0 0.0035451741746576997 -0.002541970023897572 0 0.0029756216501607433 -0.002757886249966843 0 0.0033825035247325636 -0.0030822211031991927 0 0.0035451741746576997 -0.002541970023897572 0 0.0033825035247325636 -0.0030822211031991927 0 0.0038909790294130507 -0.0030009235829319006 0 0.0038044021389694151 -0.0034251591226963961 0 0.0033825035247325636 -0.0030822211031991927 0 0.0038909790294130507 -0.0030009235829319006 0 0.0044602489116001712 -0.0027849538080429825 0 0.0038909790294130507 -0.0030009235829319006 0 0.0044196947471151623 -0.0035482838813422585 0 0.0044602489116001712 -0.0027849538080429825 0 0.0055010076831853369 -0.0031847281783377946 0 0.0044196947471151623 -0.0035482838813422585 0 0.0055010076831853369 -0.0031847281783377946 0 0.0044196947471151623 -0.0035482838813422585 0 0.0051335936058382646 -0.0039551501169299893 0 0.0055010076831853369 -0.0031847281783377946 0 0.0062672852322522392 -0.0041809749314574264 0 0.0051335936058382646 -0.0039551501169299893 0 0.0063140413377458897 -0.0023828129499985883 0 0.0055010076831853369 -0.0031847281783377946 0 0.0067634188295029891 -0.0030857828278158953 0 0.0055010076831853369 -0.0031847281783377946 0 0.0067634188295029891 -0.0030857828278158953 0 0.0062672852322522392 -0.0041809749314574264 0 0.0062672852322522392 -0.0041809749314574264 0 0.0063268990916337184 -0.0052508187145747145 0 0.0079933945736650955 -0.0051261288720330133 0 0.0062672852322522392 -0.0041809749314574264 0 0.0050156352764409136 -0.0046126579044986531 0 0.0063268990916337184 -0.0052508187145747145 0 0.0050156352764409136 -0.0046126579044986531 0 0.00455375538877452 -0.005282286097187729 0 0.0063268990916337184 -0.0052508187145747145 0 0.0041915558320291951 -0.0040466598026692429 0 0.0044196947471151623 -0.0035482838813422585 0 0.00464230859991396 -0.0041933680829055013 0 0.00464230859991396 -0.0041933680829055013 0 0.0051335936058382646 -0.0039551501169299893 0 0.0050156352764409136 -0.0046126579044986531 0 0.0044196947471151623 -0.0035482838813422585 0 0.00464230859991396 -0.0041933680829055013 0 0.0051335936058382646 -0.0039551501169299893 0 0.0041915558320291951 -0.0040466598026692429 0 0.00464230859991396 -0.0041933680829055013 0 0.0043280527931167908 -0.0044402098060474507 0 0.0062672852322522392 -0.0041809749314574264 0 0.0051335936058382646 -0.0039551501169299893 0 0.0050156352764409136 -0.0046126579044986531 0 0.00464230859991396 -0.0041933680829055013 0 0.0050156352764409136 -0.0046126579044986531 0 0.0043280527931167908 -0.0044402098060474507 0 0.0050156352764409136 -0.0046126579044986531 0 0.0043280527931167908 -0.0044402098060474507 0 0.0043160680118198109 -0.0047209094264048512 0 0.0050156352764409136 -0.0046126579044986531 0 0.0043160680118198109 -0.0047209094264048512 0 0.0045950872208742055 -0.0048675773152423154 0 0.0050156352764409136 -0.0046126579044986531 0 0.0045950872208742055 -0.0048675773152423154 0 0.00455375538877452 -0.005282286097187729 0 0.0043160680118198109 -0.0047209094264048512 0 0.004466642553915893 -0.0050292961197248506 0 0.0041102759804460525 -0.0049623249370592355 0 0.0043160680118198109 -0.0047209094264048512 0 0.0045950872208742055 -0.0048675773152423154 0 0.004466642553915893 -0.0050292961197248506 0 0.004466642553915893 -0.0050292961197248506 0 0.00455375538877452 -0.005282286097187729 0 0.0041102759804460525 -0.0049623249370592355 0 0.0045950872208742055 -0.0048675773152423154 0 0.004466642553915893 -0.0050292961197248506 0 0.00455375538877452 -0.005282286097187729 0 0.010612243370412546 -0.004065973123731405 0 0.012644362622662221 -0.0049262870733799528 0 0.018633860697357226 -0.0044148662185738621 0 0.019121314510986628 -0.0047692984451835879 0 0.019522426169822412 -0.0043282914962925242 0 0.018633860697357226 -0.0044148662185738621 0 0.018762000542732971 -0.0048882842422938253 0 0.018481607129823892 -0.0051201386671277547 0 0.018633860697357226 -0.0044148662185738621 0 0.019121314510986628 -0.0047692984451835879 0 0.018762000542732971 -0.0048882842422938253 0 0.019522426169822412 -0.0043282914962925242 0 0.01964726624320828 -0.0050662963072446781 0 0.020174671901445992 -0.0048758272051006007 0 0.019121314510986628 -0.0047692984451835879 0 0.019522426169822412 -0.0043282914962925242 0 0.01964726624320828 -0.0050662963072446781 0 0.01964726624320828 -0.0050662963072446781 0 0.019486838979234082 -0.0054932652974019067 0 0.018959178854756047 -0.0052534743212496182 0 0.019121314510986628 -0.0047692984451835879 0 0.01964726624320828 -0.0050662963072446781 0 0.018959178854756047 -0.0052534743212496182 0 0.01964726624320828 -0.0050662963072446781 0 0.019486838979234082 -0.0054932652974019067 0 0.020114349072603337 -0.0054733857465809853 0 0.018762000542732971 -0.0048882842422938253 0 0.018959178854756047 -0.0052534743212496182 0 0.018481607129823892 -0.0051201386671277547 0 0.019121314510986628 -0.0047692984451835879 0 0.018762000542732971 -0.0048882842422938253 0 0.018959178854756047 -0.0052534743212496182 0 0.018959178854756047 -0.0052534743212496182 0 0.018481607129823892 -0.0051201386671277547 0 0.018409950952401954 -0.0057002110264204606 0 0.018481607129823892 -0.0051201386671277547 0 0.017939083309933487 -0.0053481190191147828 0 0.018409950952401954 -0.0057002110264204606 0 0.018633860697357226 -0.0044148662185738621 0 0.018481607129823892 -0.0051201386671277547 0 0.017939083309933487 -0.0053481190191147828 0 0.0036107139015975316 -0.0052069474298340711 0 0.0031919355962982628 -0.0052319375929852476 0 0.0031637512649204374 -0.0052151988248239521 0 0.0037857261704949594 -0.0049015826770208784 0 0.0036107139015975316 -0.0052069474298340711 0 0.0031919355962982628 -0.0052319375929852476 0 0.0019683684771723995 -0.0060878111763702208 0 0.0031637512649204374 -0.0052151988248239521 0 0.0021650629363862491 -0.0052485030619134881 0 0.0028176913654456817 -0.0054618681789936714 0 0.0029637438799027258 -0.0053369909119593247 0 0.0018675719366543389 -0.0047635936506117702 0 0.0021650629363862491 -0.0052485030619134881 0 0.0025632875512054628 -0.0049323386173313393 0 0.0031637512649204374 -0.0052151988248239521 0 0.0021650629363862491 -0.0052485030619134881 0 0.0025632875512054628 -0.0049323386173313393 0 0.0018675719366543389 -0.0047635936506117702 0 0.0025632875512054628 -0.0049323386173313393 0 0.0024603188648550278 -0.0045799511121460195 0 0.0018904982206900871 -0.0043217703780944828 0 0.0018675719366543389 -0.0047635936506117702 0 0.0024603188648550278 -0.0045799511121460195 0 0.0031637512649204374 -0.0052151988248239521 0 0.0025632875512054628 -0.0049323386173313393 0 0.00293874769313317 -0.0047951334764232672 0 0.0025632875512054628 -0.0049323386173313393 0 0.0024603188648550278 -0.0045799511121460195 0 0.00293874769313317 -0.0047951334764232672 0 0.0031637512649204374 -0.0052151988248239521 0 0.00293874769313317 -0.0047951334764232672 0 0.0033185399384504147 -0.0050778722759287085 0 0.003349555956198829 -0.004517864707689387 0 0.00293874769313317 -0.0047951334764232672 0 0.0033185399384504147 -0.0050778722759287085 0 0.010612243370412546 -0.004065973123731405 0 0.010480484349941236 -0.0049332158559552168 0 0.0035173072609158054 -0.0050994848322729602 0 0.0031919355962982628 -0.0052319375929852476 0 0.0031637512649204374 -0.0052151988248239521 0 0.0035173072609158054 -0.0050994848322729602 0 0.0031637512649204374 -0.0052151988248239521 0 0.0033185399384504147 -0.0050778722759287085 0 0.0039063343578498288 -0.0046984449465219029 0 0.0033185399384504147 -0.0050778722759287085 0 0.0041102759804460525 -0.0049623249370592355 0 0.00455375538877452 -0.005282286097187729 0 0.0033185399384504147 -0.0050778722759287085 0 0.0041102759804460525 -0.0049623249370592355 0 0.010612243370412546 -0.004065973123731405 0 0.0088264816150424585 -0.0042589571029291711 0 0.018609700368540896 -0.0062054310396495067 0 0.019553972347865212 -0.0065906247710963185 0 0.017957215525829733 -0.0070711834311864338 0 0.018609700368540896 -0.0062054310396495067 0 0.019553972347865212 -0.0065906247710963185 0 0.019309760543419503 -0.0056511962504530652 0 0.019553972347865212 -0.0065906247710963185 0 0.017957215525829733 -0.0070711834311864338 0 0.01938142089460828 -0.0077807419411521925 0 0.017957215525829733 -0.0070711834311864338 0 0.017017432230842525 -0.0070743409415522538 0 0.016415284223325662 -0.0080781608755288482 0 0.017017432230842525 -0.0070743409415522538 0 0.016290971333452742 -0.0071405655852280914 0 0.016415284223325662 -0.0080781608755288482 0 0.016290971333452742 -0.0071405655852280914 0 0.017405239858676234 -0.0059980499612431017 0 0.016038430267551338 -0.0058229888278099216 0 0.017017432230842525 -0.0070743409415522538 0 0.016290971333452742 -0.0071405655852280914 0 0.017405239858676234 -0.0059980499612431017 0 0.017957215525829733 -0.0070711834311864338 0 0.017017432230842525 -0.0070743409415522538 0 0.017405239858676234 -0.0059980499612431017 0 0.018609700368540896 -0.0062054310396495067 0 0.017957215525829733 -0.0070711834311864338 0 0.017405239858676234 -0.0059980499612431017 0 0.017405239858676234 -0.0059980499612431017 0 0.018779011132078784 -0.0053244557919069025 0 0.017979091489310383 -0.0042689140778999282 0 0.017405239858676234 -0.0059980499612431017 0 0.016790535457443034 -0.0048935116237555894 0 0.017979091489310383 -0.0042689140778999282 0 0.017405239858676234 -0.0059980499612431017 0 0.016790535457443034 -0.0048935116237555894 0 0.016038430267551338 -0.0058229888278099216 0 0.019325963227245623 -0.0046612490246833839 0 0.018779011132078784 -0.0053244557919069025 0 0.017979091489310383 -0.0042689140778999282 0 0.019325963227245623 -0.0046612490246833839 0 0.018779011132078784 -0.0053244557919069025 0 0.019514126076441807 -0.0050429386728502203 0 0.018609700368540896 -0.0062054310396495067 0 0.018779011132078784 -0.0053244557919069025 0 0.019309760543419503 -0.0056511962504530652 0 0.018609700368540896 -0.0062054310396495067 0 0.017405239858676234 -0.0059980499612431017 0 0.018779011132078784 -0.0053244557919069025 0 0.019553972347865212 -0.0065906247710963185 0 0.019309760543419503 -0.0056511962504530652 0 0.019900819708796078 -0.0051355675030825944 0 0.018779011132078784 -0.0053244557919069025 0 0.019309760543419503 -0.0056511962504530652 0 0.019514126076441807 -0.0050429386728502203 0 0.019309760543419503 -0.0056511962504530652 0 0.019900819708796078 -0.0051355675030825944 0 0.019514126076441807 -0.0050429386728502203 0 0.019900819708796078 -0.0051355675030825944 0 0.019514126076441807 -0.0050429386728502203 0 0.019917542089154933 -0.0044793932505141874 0 0.019325963227245623 -0.0046612490246833839 0 0.019514126076441807 -0.0050429386728502203 0 0.019917542089154933 -0.0044793932505141874 0 0.019325963227245623 -0.0046612490246833839 0 0.019917542089154933 -0.0044793932505141874 0 0.019686493783378028 -0.0039631729084317838 0 0.019997733807866704 -0.0056964740196755641 0 0.020359674446294506 -0.005172686850094272 0 0.020194982034456157 -0.0045380947826078937 0 0.020406847351557584 -0.0046903657855653829 0 0.020417513243488197 -0.0040298839396688321 0 0.019553972347865212 -0.0065906247710963185 0 0.020559172261955635 -0.0054113371530072349 0 0.020556800927551317 -0.0055342023184099427 0 0.019553972347865212 -0.0065906247710963185 0 0.020406847351557584 -0.0046903657855653829 0 0.021139132953099184 -0.0042746082977622706 0 0.019553972347865212 -0.0065906247710963185 0 0.019900819708796078 -0.0051355675030825944 0 0.020406847351557584 -0.0046903657855653829 0 0.019900819708796078 -0.0051355675030825944 0 0.020194982034456157 -0.0045380947826078937 0 0.020406847351557584 -0.0046903657855653829 0 0.019900819708796078 -0.0051355675030825944 0 0.019917542089154933 -0.0044793932505141874 0 0.020194982034456157 -0.0045380947826078937 0 0.020406847351557584 -0.0046903657855653829 0 0.021139132953099184 -0.0042746082977622706 0 0.020750874239194406 -0.0041524532346776544 0 0.01964726624320828 -0.0050662963072446781 0 0.020114349072603337 -0.0054733857465809853 0 0.020158370714003161 -0.0052248274474277212 0 0.020556800927551317 -0.0055342023184099427 0 0.020114349072603337 -0.0054733857465809853 0 0.020158370714003161 -0.0052248274474277212 0 0.020559172261955635 -0.0054113371530072349 0 0.020556800927551317 -0.0055342023184099427 0 0.020114349072603337 -0.0054733857465809853 0 0.020556800927551317 -0.0055342023184099427 0 0.020158370714003161 -0.0052248274474277212 0 0.020174671901445992 -0.0048758272051006007 0 0.01964726624320828 -0.0050662963072446781 0 0.020158370714003161 -0.0052248274474277212 0 0.020174671901445992 -0.0048758272051006007 0 0.019522426169822412 -0.0043282914962925242 0 0.020174671901445992 -0.0048758272051006007 0 0.020469025838860243 -0.0042153953715784549 0 0.015713632398538169 -0.0059449375917611435 0 0.014068618384279738 -0.0058896517356593018 0 0.012644362622662221 -0.0049262870733799528 0 0.014068618384279738 -0.0058896517356593018 0 0.020556800927551317 -0.0055342023184099427 0 0.020174671901445992 -0.0048758272051006007 0 0.020469025838860243 -0.0042153953715784549 0 0.019553972347865212 -0.0065906247710963185 0 0.020933546440262154 -0.0073608895659759196 0 0.01938142089460828 -0.0077807419411521925 0 0.019553972347865212 -0.0065906247710963185 0 0.020556800927551317 -0.0055342023184099427 0 0.020933546440262154 -0.0073608895659759196 0 0.011770800072360208 -0.0071747127134142077 0 0.0092767366326445468 -0.0095915974776241576 0 0.012676744526844997 -0.0092883956330732601 0 0.011770800072360208 -0.0071747127134142077 0 0.0092767366326445468 -0.0095915974776241576 0 0.0090159990383183349 -0.0063368290572030413 0 0.014068618384279738 -0.0058896517356593018 0 0.015223719017747508 -0.0067354988437278735 0 0.0062672852322522392 -0.0041809749314574264 0 0.0079933945736650955 -0.0051261288720330133 0 0.0078814487647861434 -0.0035471615385802347 0 0.014068618384279738 -0.0058896517356593018 0 0.011638207843987326 -0.0045450118957417532 0 0.0067634188295029891 -0.0030857828278158953 0 0.0078814487647861434 -0.0035471615385802347 0 0.0079192907442672614 -0.0020584954678653762 0 0.0067634188295029891 -0.0030857828278158953 0 0.0062672852322522392 -0.0041809749314574264 0 0.0078814487647861434 -0.0035471615385802347 0 0.011770800072360208 -0.0071747127134142077 0 0.0090159990383183349 -0.0063368290572030413 0 0.010584186404077451 -0.0050829768806229803 0 0.0090159990383183349 -0.0063368290572030413 0 0.010584186404077451 -0.0050829768806229803 0 0.008671170769730693 -0.0033093420413481669 0 0.011770800072360208 -0.0071747127134142077 0 0.010584186404077451 -0.0050829768806229803 0 0.012300854665042884 -0.0052807542383798232 0 0.012300854665042884 -0.0052807542383798232 0 0.014145038092715684 -0.0059150671020145968 0 0.0135477487945011 -0.0067462842307778699 0 0.012300854665042884 -0.0052807542383798232 0 0.014145038092715684 -0.0059150671020145968 0 0.012889599811300135 -0.0041600942836509391 0 0.014145038092715684 -0.0059150671020145968 0 0.0135477487945011 -0.0067462842307778699 0 0.014941632737343894 -0.0073941186262189828 0 0.011770800072360208 -0.0071747127134142077 0 0.012300854665042884 -0.0052807542383798232 0 0.0135477487945011 -0.0067462842307778699 0 0.017957215525829733 -0.0070711834311864338 0 0.01938142089460828 -0.0077807419411521925 0 0.016415284223325662 -0.0080781608755288482 0 0.011770800072360208 -0.0071747127134142077 0 0.013927342209232278 -0.0078851552728907027 0 0.012676744526844997 -0.0092883956330732601 0 0.015223719017747508 -0.0067354988437278735 0 0.015571057896688544 -0.0069630375527072628 0 0.011770800072360208 -0.0071747127134142077 0 0.0135477487945011 -0.0067462842307778699 0 0.013927342209232278 -0.0078851552728907027 0 0.013927342209232278 -0.0078851552728907027 0 0.012676744526844997 -0.0092883956330732601 0 0.016415284223325662 -0.0080781608755288482 0 0.0135477487945011 -0.0067462842307778699 0 0.013927342209232278 -0.0078851552728907027 0 0.014941632737343894 -0.0073941186262189828 0 0.016290971333452742 -0.0071405655852280914 0 0.016415284223325662 -0.0080781608755288482 0 0.016453417275746507 -0.0080180877532896409 0 0.013927342209232278 -0.0078851552728907027 0 0.016415284223325662 -0.0080781608755288482 0 0.014941632737343894 -0.0073941186262189828 0 0.016415284223325662 -0.0080781608755288482 0 0.014941632737343894 -0.0073941186262189828 0 0.016453417275746507 -0.0080180877532896409 0 -0.00015001788488820704 0.0027614029602790048 0 -0.00044906991892196344 0.0040909311034678991 0 -0.0010826849601688123 0.0047359324788553122 0 0.0084940594542596125 -0.0014175888389180403 0 0.0068762357962175724 0.00036274788722500951 0 0.014145038092715684 -0.0059150671020145968 0 0.016453417275746507 -0.0080180877532896409 0 0.014402501157037523 -0.0041721911277863002 0 -0.00015001788488820704 0.0027614029602790048 0 -8.9460013940219761e-05 0.0038620392645032954 0 -0.00044906991892196344 0.0040909311034678991 0 0.014145038092715684 -0.0059150671020145968 0 0.014941632737343894 -0.0073941186262189828 0 0.016453417275746507 -0.0080180877532896409 0 -8.9460013940219761e-05 0.0038620392645032954 0 -0.00044906991892196344 0.0040909311034678991 0 -0.00046093412109891158 0.0050165186108096409 0 -0.00046093412109891158 0.0050165186108096409 0 -0.0010826849601688123 0.0047359324788553122 0 -0.0016529656223443956 0.006937832549338315 0 -0.0014703815819363006 0.005800297610428125 0 -0.0010952442256314402 0.0063633161516243909 0 -0.00023672197142254073 0.005759492510643725 0 -0.00044906991892196344 0.0040909311034678991 0 -0.00046093412109891158 0.0050165186108096409 0 -0.0010826849601688123 0.0047359324788553122 0 0.014145038092715684 -0.0059150671020145968 0 0.014402501157037523 -0.0041721911277863002 0 0.012889599811300135 -0.0041600942836509391 0 0.012300854665042884 -0.0052807542383798232 0 0.012889599811300135 -0.0041600942836509391 0 0.011225493829417737 -0.0033940386259735905 0 0.012484139081283551 -0.002637952600603019 0 0.011225493829417737 -0.0033940386259735905 0 0.011340235056780775 -0.002125674566060414 0 0.012889599811300135 -0.0041600942836509391 0 0.012484139081283551 -0.002637952600603019 0 0.011225493829417737 -0.0033940386259735905 0 0.014402501157037523 -0.0041721911277863002 0 0.012889599811300135 -0.0041600942836509391 0 0.012484139081283551 -0.002637952600603019 0 0.014402501157037523 -0.0041721911277863002 0 0.012484139081283551 -0.002637952600603019 0 0.011741720060545987 -0.00083789334956562854 0 -0.0010826849601688123 0.0047359324788553122 0 -0.0016529656223443956 0.006937832549338315 0 -0.0018064464746961192 0.0070353296031428038 0 -0.0014703815819363006 0.005800297610428125 0 -0.0016529656223443956 0.006937832549338315 0 -0.0014895585198251851 0.0067295972423135012 0 -0.00070029855444376132 0.0051428439312058922 0 -0.001263334107652337 0.005859171361466217 0 0.0068762357962175724 0.00036274788722500951 0 0.0052156058927696784 0.0025811470751617997 0 0.012484139081283551 -0.002637952600603019 0 0.011656547057162648 -0.0017274488828599567 0 0.011741720060545987 -0.00083789334956562854 0 0.012484139081283551 -0.002637952600603019 0 0.011656547057162648 -0.0017274488828599567 0 0.011340235056780775 -0.002125674566060414 0 0.011656547057162648 -0.0017274488828599567 0 0.011741720060545987 -0.00083789334956562854 0 0.011081725403181392 -0.0013214323356050674 0 -0.0016529656223443956 0.006937832549338315 0 -0.0015515678387306169 0.0070198829758376484 0 -0.0016503012595752886 0.0070823094330235738 0 -0.0016529656223443956 0.006937832549338315 0 -0.0018064464746961192 0.0070353296031428038 0 -0.0016503012595752886 0.0070823094330235738 0 -0.0016529656223443956 0.006937832549338315 0 -0.0015515678387306169 0.0070198829758376484 0 -0.0014895585198251851 0.0067295972423135012 0 -0.0015515678387306169 0.0070198829758376484 0 -0.0014895585198251851 0.0067295972423135012 0 -0.0014142101692426749 0.0070730072247664694 0 -0.0014703815819363006 0.005800297610428125 0 -0.0014895585198251851 0.0067295972423135012 0 -0.0013669009265073657 0.006657566932721226 0 -0.0014895585198251851 0.0067295972423135012 0 -0.0013669009265073657 0.006657566932721226 0 -0.0014142101692426749 0.0070730072247664694 0 -0.0011441385143614016 0.0071478242715944549 0 -0.0013669009265073657 0.006657566932721226 0 -0.0014142101692426749 0.0070730072247664694 0 -0.0011441385143614016 0.0071478242715944549 0 -0.0010952442256314402 0.0063633161516243909 0 -0.0013669009265073657 0.006657566932721226 0 -0.0014703815819363006 0.005800297610428125 0 -0.0010952442256314402 0.0063633161516243909 0 -0.0013669009265073657 0.006657566932721226 0 0.011638207843987326 -0.0045450118957417532 0 0.01039702528099953 -0.00284275136851977 0 0.0063140413377458897 -0.0023828129499985883 0 0.0067634188295029891 -0.0030857828278158953 0 0.0079192907442672614 -0.0020584954678653762 0 0.010584186404077451 -0.0050829768806229803 0 0.008671170769730693 -0.0033093420413481669 0 0.011225493829417737 -0.0033940386259735905 0 0.008671170769730693 -0.0033093420413481669 0 0.011225493829417737 -0.0033940386259735905 0 0.0099611906322023998 -0.0018084390120670503 0 0.010584186404077451 -0.0050829768806229803 0 0.012300854665042884 -0.0052807542383798232 0 0.011225493829417737 -0.0033940386259735905 0 0.011340235056780775 -0.002125674566060414 0 0.011081725403181392 -0.0013214323356050674 0 0.0099611906322023998 -0.0018084390120670503 0 0.011225493829417737 -0.0033940386259735905 0 0.011340235056780775 -0.002125674566060414 0 0.0099611906322023998 -0.0018084390120670503 0 0.011656547057162648 -0.0017274488828599567 0 0.011340235056780775 -0.002125674566060414 0 0.011081725403181392 -0.0013214323356050674 0 0.011741720060545987 -0.00083789334956562854 0 0.010954483153575801 -0.00085245687716458535 0 0.010264898270582272 -0.00017078626301378041 0 0.011081725403181392 -0.0013214323356050674 0 0.01044049766469847 -0.00094697398264179968 0 0.0099611906322023998 -0.0018084390120670503 0 0.011741720060545987 -0.00083789334956562854 0 0.011081725403181392 -0.0013214323356050674 0 0.010954483153575801 -0.00085245687716458535 0 0.011081725403181392 -0.0013214323356050674 0 0.010954483153575801 -0.00085245687716458535 0 0.01044049766469847 -0.00094697398264179968 0 0.010954483153575801 -0.00085245687716458535 0 0.01044049766469847 -0.00094697398264179968 0 0.010264898270582272 -0.00017078626301378041 0 0.0094371866763977054 -0.00064317662571459556 0 0.0099611906322023998 -0.0018084390120670503 0 0.0081779305009854787 -0.00046164016117882309 0 0.01044049766469847 -0.00094697398264179968 0 0.0094371866763977054 -0.00064317662571459556 0 0.0099611906322023998 -0.0018084390120670503 0 0.008671170769730693 -0.0033093420413481669 0 0.0099611906322023998 -0.0018084390120670503 0 0.0081779305009854787 -0.00046164016117882309 0 0.0063787326126699875 -0.0013130577764776867 0 0.0079192907442672614 -0.0020584954678653762 0 0.0081779305009854787 -0.00046164016117882309 0 0.01039702528099953 -0.00284275136851977 0 0.010000683075727091 -0.0019085009628418892 0 0.006805593119944193 1.2661117779895857e-05 0 0.0079044786100791273 0.00096324244807614845 0 0.0081779305009854787 -0.00046164016117882309 0 0.0094371866763977054 -0.00064317662571459556 0 0.0081779305009854787 -0.00046164016117882309 0 0.0087510522062572739 0.00046385898824688904 0 0.0079044786100791273 0.00096324244807614845 0 0.0087510522062572739 0.00046385898824688904 0 0.009127725361283031 0.0013871530484145056 0 0.0079044786100791273 0.00096324244807614845 0 0.0081779305009854787 -0.00046164016117882309 0 0.0087510522062572739 0.00046385898824688904 0 -0.0018064464746961192 0.0070353296031428038 0 -0.0014964410076100836 0.0073188513555630394 0 -0.0016109816626618337 0.0071773726934805529 0 0.011741720060545987 -0.00083789334956562854 0 0.010264898270582272 -0.00017078626301378041 0 0.0093921239286536926 0.0017450874860439689 0 0.0094928646232311335 0.00067620991661998216 0 0.010264898270582272 -0.00017078626301378041 0 0.0093921239286536926 0.0017450874860439689 0 0.0052156058927696784 0.0025811470751617997 0 0.0036453548415825484 0.0046080246120102737 0 0.0087510522062572739 0.00046385898824688904 0 0.0094928646232311335 0.00067620991661998216 0 0.009127725361283031 0.0013871530484145056 0 0.0087510522062572739 0.00046385898824688904 0 0.0094928646232311335 0.00067620991661998216 0 0.0095526292695934586 3.3554785354207811e-05 0 0.0094371866763977054 -0.00064317662571459556 0 0.0087510522062572739 0.00046385898824688904 0 0.0095526292695934586 3.3554785354207811e-05 0 0.0094928646232311335 0.00067620991661998216 0 0.0095526292695934586 3.3554785354207811e-05 0 0.010264898270582272 -0.00017078626301378041 0 0.01044049766469847 -0.00094697398264179968 0 0.0094371866763977054 -0.00064317662571459556 0 0.010264898270582272 -0.00017078626301378041 0 0.0094371866763977054 -0.00064317662571459556 0 0.0095526292695934586 3.3554785354207811e-05 0 0.010264898270582272 -0.00017078626301378041 0 -0.0014964410076100836 0.0073188513555630394 0 -0.0015089760055948124 0.0072525452459669144 0 -0.0016109816626618337 0.0071773726934805529 0 -0.0014964410076100836 0.0073188513555630394 0 -0.0015089760055948124 0.0072525452459669144 0 -0.0013745914664783304 0.0073051503907430454 0 0.0094928646232311335 0.00067620991661998216 0 0.0093921239286536926 0.0017450874860439689 0 0.009127725361283031 0.0013871530484145056 0 0.0092744599770436236 0.0015805568827958723 0 0.009127725361283031 0.0013871530484145056 0 0.0082957395460630939 0.0020338938597203424 0 0.0036453548415825484 0.0046080246120102737 0 0.0036885921540787186 0.0046073004008280408 0 0.0039251360906519808 0.0042286898085065897 0 0.0036453548415825484 0.0046080246120102737 0 0.0081814230414443464 0.0029705869678992433 0 0.0092744599770436236 0.0015805568827958723 0 0.0082957395460630939 0.0020338938597203424 0 0.0079044786100791273 0.00096324244807614845 0 0.009127725361283031 0.0013871530484145056 0 0.0082957395460630939 0.0020338938597203424 0 0.006947469120595285 0.0025237616679716387 0 0.0068432118280636689 0.001322631073974657 0 0.0082957395460630939 0.0020338938597203424 0 0.0068432118280636689 0.001322631073974657 0 0.0079044786100791273 0.00096324244807614845 0 0.0082957395460630939 0.0020338938597203424 0 -0.0013944615092014669 0.0072343133374750184 0 -0.0012780783769965475 0.00732073216589789 0 -0.0013681616499563152 0.0073133186974322162 0 -0.0011441385143614016 0.0071478242715944549 0 -0.0012780783769965475 0.00732073216589789 0 -0.0014142101692426749 0.0070730072247664694 0 -0.0013944615092014669 0.0072343133374750184 0 -0.0012780783769965475 0.00732073216589789 0 -0.0014142101692426749 0.0070730072247664694 0 -0.0015515678387306169 0.0070198829758376484 0 -0.0014142101692426749 0.0070730072247664694 0 -0.0015243395037273745 0.0071794634070997147 0 -0.0013944615092014669 0.0072343133374750184 0 -0.0014142101692426749 0.0070730072247664694 0 -0.0015243395037273745 0.0071794634070997147 0 -0.0015515678387306169 0.0070198829758376484 0 -0.0015243395037273745 0.0071794634070997147 0 -0.0016503012595752886 0.0070823094330235738 0 -0.0018064464746961192 0.0070353296031428038 0 -0.0016503012595752886 0.0070823094330235738 0 -0.0016109816626618337 0.0071773726934805529 0 -0.0015243395037273745 0.0071794634070997147 0 -0.0016503012595752886 0.0070823094330235738 0 -0.0016109816626618337 0.0071773726934805529 0 -0.0015243395037273745 0.0071794634070997147 0 -0.0015089760055948124 0.0072525452459669144 0 -0.0013681616499563152 0.0073133186974322162 0 -0.0015243395037273745 0.0071794634070997147 0 -0.0015089760055948124 0.0072525452459669144 0 -0.0016109816626618337 0.0071773726934805529 0 -0.0013944615092014669 0.0072343133374750184 0 -0.0015243395037273745 0.0071794634070997147 0 -0.0013681616499563152 0.0073133186974322162 0 -0.0011250714930391736 0.0072909163545214579 0 -0.0013681616499563152 0.0073133186974322162 0 -0.0013745914664783304 0.0073051503907430454 0 -0.0011250714930391736 0.0072909163545214579 0 -0.0014964410076100836 0.0073188513555630394 0 -0.0013745914664783304 0.0073051503907430454 0 -0.0011250714930391736 0.0072909163545214579 0 -0.0013681616499563152 0.0073133186974322162 0 -0.0012297825793787162 0.0073625143723392893 0 -0.0015089760055948124 0.0072525452459669144 0 -0.0013681616499563152 0.0073133186974322162 0 -0.0013745914664783304 0.0073051503907430454 0 -0.0012780783769965475 0.00732073216589789 0 -0.0013681616499563152 0.0073133186974322162 0 -0.0012297825793787162 0.0073625143723392893 0 -0.0012780783769965475 0.00732073216589789 0 -0.0012297825793787162 0.0073625143723392893 0 -0.0013712304356082758 0.0075191132935122276 0 -0.0012780783769965475 0.00732073216589789 0 -0.0013712304356082758 0.0075191132935122276 0 -0.0013705291985489445 0.0073767406874903924 0 -0.0011441385143614016 0.0071478242715944549 0 -0.0012780783769965475 0.00732073216589789 0 -0.0013705291985489445 0.0073767406874903924 0 -0.0013705291985489445 0.0073767406874903924 0 -0.0013055491011237312 0.0077482714505350703 0 -0.00099141786995045659 0.0074479448159961723 0 -0.0015276830305301357 0.0076319748193731862 0 -0.0013712304356082758 0.0075191132935122276 0 -0.0013055491011237312 0.0077482714505350703 0 -0.0013712304356082758 0.0075191132935122276 0 -0.0013705291985489445 0.0073767406874903924 0 -0.0013055491011237312 0.0077482714505350703 0 -0.0013055491011237312 0.0077482714505350703 0 -0.0012719832621486708 0.007870093556582157 0 -0.00039576019105394317 0.0084217316631948064 0 -0.0015276830305301357 0.0076319748193731862 0 -0.0013055491011237312 0.0077482714505350703 0 -0.0012719832621486708 0.007870093556582157 0 -0.0012719832621486708 0.007870093556582157 0 -0.001431893383655103 0.0078903232302187289 0 -0.00039576019105394317 0.0084217316631948064 0 -0.0015278788766719855 0.0077386674473768763 0 -0.0012719832621486708 0.007870093556582157 0 -0.001431893383655103 0.0078903232302187289 0 0.00010052426320036954 0.0092553435335984788 0 -4.1588556696167777e-05 0.0090246200775731637 0 0.00092704940434398374 0.011336126388093472 0 -0.00039576019105394317 0.0084217316631948064 0 0.0018705776576170394 0.0092821822035933817 0 -0.00039576019105394317 0.0084217316631948064 0 0.0018705776576170394 0.0092821822035933817 0 0.0015934233089510341 0.0072277703665211777 0 -0.00039576019105394317 0.0084217316631948064 0 -0.00099141786995045659 0.0074479448159961723 0 0.0015934233089510341 0.0072277703665211777 0 -0.0013055491011237312 0.0077482714505350703 0 -0.00039576019105394317 0.0084217316631948064 0 -0.00099141786995045659 0.0074479448159961723 0 -0.00099141786995045659 0.0074479448159961723 0 -8.1213483649483272e-06 0.0056802351506335105 0 -0.0014598214702339516 0.0069924209432091307 0 0.0021605521967721251 0.0057168855640069571 0 0.00043495007464995492 0.0064024339029866177 0 -0.00099141786995045659 0.0074479448159961723 0 -8.1213483649483272e-06 0.0056802351506335105 0 0.0015934233089510341 0.0072277703665211777 0 0.0036516210167887534 0.0056897424222515708 0 0.0057478812394045195 0.0047999141628517934 0 0.0043507962144944626 0.0037311842312067393 0 0.0036516210167887534 0.0056897424222515708 0 0.0013140360844412194 0.0065735198849382536 0 0.002360677933643232 0.0040212745446103993 0 0.0008946081274424808 0.0050224158072966554 0 -0.00023672197142254073 0.005759492510643725 0 0.0013140360844412194 0.0065735198849382536 0 0.0008946081274424808 0.0050224158072966554 0 0.0013140360844412194 0.0065735198849382536 0 0.002360677933643232 0.0040212745446103993 0 -0.0014703815819363006 0.005800297610428125 0 -0.00023672197142254073 0.005759492510643725 0 0.00012827903191628813 0.0037167595339753245 0 0.0008946081274424808 0.0050224158072966554 0 -0.00023672197142254073 0.005759492510643725 0 0.00012827903191628813 0.0037167595339753245 0 -0.0011441385143614016 0.0071478242715944549 0 -0.0010952442256314402 0.0063633161516243909 0 -0.00023672197142254073 0.005759492510643725 0 -0.0011441385143614016 0.0071478242715944549 0 -0.00023672197142254073 0.005759492510643725 0 0.0013140360844412194 0.0065735198849382536 0 -0.0011441385143614016 0.0071478242715944549 0 -0.0013705291985489445 0.0073767406874903924 0 -0.0014598214702339516 0.0069924209432091307 0 -0.00030943472306968321 0.0066926431255028423 0 0.00043495007464995492 0.0064024339029866177 0 -0.0013705291985489445 0.0073767406874903924 0 -0.00099141786995045659 0.0074479448159961723 0 -0.0014598214702339516 0.0069924209432091307 0 0.010713311921070171 0.0077158976916466178 0 0.0088268933727326596 0.010261114436827661 0 0.0086704262984902379 0.0067561164561092861 0 0.0085623822304517778 0.011607105744397802 0 0.0098541090199265879 0.011379264339971804 0 0.0088268933727326596 0.010261114436827661 0 0.0088268933727326596 0.010261114436827661 0 0.006587860675573461 0.0088560205866464355 0 0.0056562155256326711 0.011885897007709688 0 0.0062146058882143361 0.0094352144367857212 0 0.0044946824659058693 0.0096421566591204586 0 0.0085623822304517778 0.011607105744397802 0 0.0088268933727326596 0.010261114436827661 0 0.0066617865670810369 0.011357934045839915 0 0.0088268933727326596 0.010261114436827661 0 0.006587860675573461 0.0088560205866464355 0 0.0086704262984902379 0.0067561164561092861 0 0.006587860675573461 0.0088560205866464355 0 0.0040481427872430479 0.0090404021522073226 0 0.0055379284044067721 0.0066778962412728368 0 0.006587860675573461 0.0088560205866464355 0 0.0040481427872430479 0.0090404021522073226 0 0.0056562155256326711 0.011885897007709688 0 0.0040481427872430479 0.0090404021522073226 0 0.0056562155256326711 0.011885897007709688 0 0.0029759325297811666 0.011028093772886331 0 0.0021626482758154413 0.013597848345755077 0 0.00092704940434398374 0.011336126388093472 0 0.0029759325297811666 0.011028093772886331 0 0.00092704940434398374 0.011336126388093472 0 0.0029759325297811666 0.011028093772886331 0 0.0018705776576170394 0.0092821822035933817 0 0.0040481427872430479 0.0090404021522073226 0 0.0018705776576170394 0.0092821822035933817 0 0.0015934233089510341 0.0072277703665211777 0 0.0040481427872430479 0.0090404021522073226 0 0.0029759325297811666 0.011028093772886331 0 0.0018705776576170394 0.0092821822035933817 0 0.0015934233089510341 0.0072277703665211777 0 0.0033990211673105303 0.0044697872833201376 0 0.0055379284044067721 0.0066778962412728368 0 0.0021605521967721251 0.0057168855640069571 0 0.0042707425672444442 0.0049626304177311066 0 -8.1213483649483272e-06 0.0056802351506335105 0 0.0015934233089510341 0.0072277703665211777 0 0.0033990211673105303 0.0044697872833201376 0 0.0042707425672444442 0.0049626304177311066 0 0.0055495370077245192 0.0045587547263530688 0 0.0033990211673105303 0.0044697872833201376 0 0.0055379284044067721 0.0066778962412728368 0 0.007472113787003176 0.0040618535025064269 0 0.0040481427872430479 0.0090404021522073226 0 0.0015934233089510341 0.0072277703665211777 0 0.0055379284044067721 0.0066778962412728368 0 0.006587860675573461 0.0088560205866464355 0 0.0055379284044067721 0.0066778962412728368 0 0.0086704262984902379 0.0067561164561092861 0 0.0055379284044067721 0.0066778962412728368 0 0.0086704262984902379 0.0067561164561092861 0 0.007472113787003176 0.0040618535025064269 0 0.011064201234440612 0.0058084009572841634 0 0.0086704262984902379 0.0067561164561092861 0 0.0099146605270029036 0.0042506218612289757 0 0.0086704262984902379 0.0067561164561092861 0 0.0099146605270029036 0.0042506218612289757 0 0.007472113787003176 0.0040618535025064269 0 0.0092392161954122816 0.0024596735571923746 0 0.007472113787003176 0.0040618535025064269 0 0.0076026365796188324 0.0015394788660071262 0 0.010839259361722467 0.0028224637371198971 0 0.0092392161954122816 0.0024596735571923746 0 0.0099146605270029036 0.0042506218612289757 0 0.010839259361722467 0.0028224637371198971 0 0.01059961521900748 0.0015003529194715529 0 0.0092392161954122816 0.0024596735571923746 0 0.0092392161954122816 0.0024596735571923746 0 0.0099146605270029036 0.0042506218612289757 0 0.007472113787003176 0.0040618535025064269 0 0.007472113787003176 0.0040618535025064269 0 0.0062920152834587215 0.0029973830091007858 0 0.0076026365796188324 0.0015394788660071262 0 0.0062920152834587215 0.0029973830091007858 0 0.0061512843139805836 0.0014328333264408885 0 0.0076026365796188324 0.0015394788660071262 0 0.0057478812394045195 0.0047999141628517934 0 0.007472113787003176 0.0040618535025064269 0 0.0062920152834587215 0.0029973830091007858 0 0.0057478812394045195 0.0047999141628517934 0 0.0062920152834587215 0.0029973830091007858 0 0.0043507962144944626 0.0037311842312067393 0 0.0062920152834587215 0.0029973830091007858 0 0.0049335994286927014 0.002038689815023316 0 0.0043507962144944626 0.0037311842312067393 0 0.0062920152834587215 0.0029973830091007858 0 0.0049335994286927014 0.002038689815023316 0 0.0061512843139805836 0.0014328333264408885 0 0.0049335994286927014 0.002038689815023316 0 0.0051578379239253314 0.00054180856979488452 0 0.0061512843139805836 0.0014328333264408885 0 0.0051578379239253314 0.00054180856979488452 0 0.0041394658433028027 -0.00013976798034797308 0 0.0052781956396646245 -0.0009933829222874386 0 0.0051578379239253314 0.00054180856979488452 0 0.0067996144502570632 -1.5103952731572877e-05 0 0.0052781956396646245 -0.0009933829222874386 0 0.0067996144502570632 -1.5103952731572877e-05 0 0.0065137968908421107 -0.0012824753629260943 0 0.0052781956396646245 -0.0009933829222874386 0 0.0067996144502570632 -1.5103952731572877e-05 0 0.0082256022431347019 -0.001295083536580254 0 0.0065137968908421107 -0.0012824753629260943 0 0.0051578379239253314 0.00054180856979488452 0 0.0067996144502570632 -1.5103952731572877e-05 0 0.0061512843139805836 0.0014328333264408885 0 0.0067996144502570632 -1.5103952731572877e-05 0 0.0061512843139805836 0.0014328333264408885 0 0.0076026365796188324 0.0015394788660071262 0 0.0067996144502570632 -1.5103952731572877e-05 0 0.0076026365796188324 0.0015394788660071262 0 0.0091775786846456826 0.00035373411656283992 0 0.0092392161954122816 0.0024596735571923746 0 0.0076026365796188324 0.0015394788660071262 0 0.0091775786846456826 0.00035373411656283992 0 0.0067996144502570632 -1.5103952731572877e-05 0 0.0091775786846456826 0.00035373411656283992 0 0.0082256022431347019 -0.001295083536580254 0 0.011038947645952198 -5.2864877194933702e-05 0 0.010534738475957461 -0.0017925005213429207 0 0.0091775786846456826 0.00035373411656283992 0 0.01059961521900748 0.0015003529194715529 0 0.0092392161954122816 0.0024596735571923746 0 0.0091775786846456826 0.00035373411656283992 0 0.011038947645952198 -5.2864877194933702e-05 0 0.01059961521900748 0.0015003529194715529 0 0.0091775786846456826 0.00035373411656283992 0 0.0020134329309917315 0.0018871152073716079 0 0.00085140720508326882 0.0022245435126768201 0 0.00078693897699782926 0.0033650223328081479 0 0.0020134329309917315 0.0018871152073716079 0 0.00012827903191628813 0.0037167595339753245 0 0.002360677933643232 0.0040212745446103993 0 0.0011526041819594718 0.0029821960757760589 0 0.00042784832455331737 0.0037982452725385538 0 -0.00015001788488820704 0.0027614029602790048 0 0.00085140720508326882 0.0022245435126768201 0 0.00068956278519954916 0.0018363262211734395 0 -0.00015001788488820704 0.0027614029602790048 0 0.00042649497026986453 0.0029093817824989328 0 0.00020673612541198031 0.0032903320689500583 0 -0.00015001788488820704 0.0027614029602790048 0 0.00085140720508326882 0.0022245435126768201 0 0.00042649497026986453 0.0029093817824989328 0 0.00085140720508326882 0.0022245435126768201 0 0.00042649497026986453 0.0029093817824989328 0 0.00078693897699782926 0.0033650223328081479 0 -8.9460013940219761e-05 0.0038620392645032954 0 -0.00046093412109891158 0.0050165186108096409 0 0.00078693897699782926 0.0033650223328081479 0 -0.00070029855444376132 0.0051428439312058922 0 0.00042784832455331737 0.0037982452725385538 0 -8.9460013940219761e-05 0.0038620392645032954 0 0.00078693897699782926 0.0033650223328081479 0 0.00020673612541198031 0.0032903320689500583 0 0.00042649497026986453 0.0029093817824989328 0 0.00078693897699782926 0.0033650223328081479 0 0.00020673612541198031 0.0032903320689500583 0 -0.00015001788488820704 0.0027614029602790048 0 -8.9460013940219761e-05 0.0038620392645032954 0 0.00020673612541198031 0.0032903320689500583 0 0.0008946081274424808 0.0050224158072966554 0 0.00012827903191628813 0.0037167595339753245 0 0.002360677933643232 0.0040212745446103993 0 0.0036516210167887534 0.0056897424222515708 0 0.002360677933643232 0.0040212745446103993 0 0.0043507962144944626 0.0037311842312067393 0 0.002360677933643232 0.0040212745446103993 0 0.0043507962144944626 0.0037311842312067393 0 0.0033690718231378538 0.0022131808681605399 0 0.0049335994286927014 0.002038689815023316 0 0.0043507962144944626 0.0037311842312067393 0 0.0033690718231378538 0.0022131808681605399 0 0.0020134329309917315 0.0018871152073716079 0 0.002360677933643232 0.0040212745446103993 0 0.0033690718231378538 0.0022131808681605399 0 0.0020134329309917315 0.0018871152073716079 0 0.0033690718231378538 0.0022131808681605399 0 0.0024464369716765211 0.00092974820864182971 0 0.0033690718231378538 0.0022131808681605399 0 0.0024464369716765211 0.00092974820864182971 0 0.0038337196286216315 0.00086262070433980244 0 0.0024464369716765211 0.00092974820864182971 0 0.0038337196286216315 0.00086262070433980244 0 0.0031773927984139229 3.7659826809297026e-05 0 0.0049335994286927014 0.002038689815023316 0 0.0033690718231378538 0.0022131808681605399 0 0.0038337196286216315 0.00086262070433980244 0 0.0049335994286927014 0.002038689815023316 0 0.0051578379239253314 0.00054180856979488452 0 0.0038337196286216315 0.00086262070433980244 0 0.0041394658433028027 -0.00013976798034797308 0 0.0033209083237964771 -0.0010332294003442672 0 0.0052781956396646245 -0.0009933829222874386 0 0.0051578379239253314 0.00054180856979488452 0 0.0038337196286216315 0.00086262070433980244 0 0.0041394658433028027 -0.00013976798034797308 0 0.0038337196286216315 0.00086262070433980244 0 0.0041394658433028027 -0.00013976798034797308 0 0.0031773927984139229 3.7659826809297026e-05 0 0.0041394658433028027 -0.00013976798034797308 0 0.0031773927984139229 3.7659826809297026e-05 0 0.0033209083237964771 -0.0010332294003442672 0 0.0024464369716765211 0.00092974820864182971 0 0.0031773927984139229 3.7659826809297026e-05 0 0.0022396622066503955 -0.000212350997970819 0 0.0060044749252186076 -0.00023537272241128042 0 0.0097615651085454815 -0.0020058238992150205 0 0.0031773927984139229 3.7659826809297026e-05 0 0.0022396622066503955 -0.000212350997970819 0 0.0033209083237964771 -0.0010332294003442672 0 0.015075352498553043 -0.0065970023541054561 0 0.014844234796409254 -0.0048786285204094259 0 0.013307098994087413 -0.0037172606025080491 0 0.01001839367282102 -0.0017608885501591326 0 0.01337533690214327 -0.0021086415925136389 0 0.0024464369716765211 0.00092974820864182971 0 0.0022396622066503955 -0.000212350997970819 0 0.001275984990915356 0.00052378493191182116 0 0.001275984990915356 0.00052378493191182116 0 0.00069466204975515298 0.00092483510910419816 0 0.0020467015733592843 -0.0015319348794114352 0 0.0026902382286498323 -0.00041751946177459397 0 0.001275984990915356 0.00052378493191182116 0 0.0020467015733592843 -0.0015319348794114352 0 0.0060044749252186076 -0.00023537272241128042 0 0.0048401495958807399 0.00031415323868500927 0 0.0020134329309917315 0.0018871152073716079 0 0.00085140720508326882 0.0022245435126768201 0 0.0013963018918205462 0.0014276347212338481 0 0.0024464369716765211 0.00092974820864182971 0 0.001275984990915356 0.00052378493191182116 0 0.0013963018918205462 0.0014276347212338481 0 0.001275984990915356 0.00052378493191182116 0 0.0013963018918205462 0.0014276347212338481 0 0.00069466204975515298 0.00092483510910419816 0 0.00085140720508326882 0.0022245435126768201 0 0.0013963018918205462 0.0014276347212338481 0 0.00068956278519954916 0.0018363262211734395 0 0.0020134329309917315 0.0018871152073716079 0 0.0024464369716765211 0.00092974820864182971 0 0.0013963018918205462 0.0014276347212338481 0 0.0084940594542596125 -0.0014175888389180403 0 0.01001839367282102 -0.0017608885501591326 0 0.016290971333452742 -0.0071405655852280914 0 0.016453417275746507 -0.0080180877532896409 0 0.015075352498553043 -0.0065970023541054561 0 -0.00015001788488820704 0.0027614029602790048 0 0.00068956278519954916 0.0018363262211734395 0 0.00069466204975515298 0.00092483510910419816 0 0.0013963018918205462 0.0014276347212338481 0 0.00068956278519954916 0.0018363262211734395 0 0.00069466204975515298 0.00092483510910419816 0 0.016290971333452742 -0.0071405655852280914 0 0.015075352498553043 -0.0065970023541054561 0 0.016038430267551338 -0.0058229888278099216 0 0.015075352498553043 -0.0065970023541054561 0 0.016038430267551338 -0.0058229888278099216 0 0.014844234796409254 -0.0048786285204094259 0 0.016790535457443034 -0.0048935116237555894 0 0.016055430989616981 -0.0047585051759780122 0 0.016555142845053758 -0.0034152318359815621 0 0.014844234796409254 -0.0048786285204094259 0 0.016055430989616981 -0.0047585051759780122 0 0.016555142845053758 -0.0034152318359815621 0 0.016790535457443034 -0.0048935116237555894 0 0.016038430267551338 -0.0058229888278099216 0 0.016055430989616981 -0.0047585051759780122 0 0.016038430267551338 -0.0058229888278099216 0 0.014844234796409254 -0.0048786285204094259 0 0.016055430989616981 -0.0047585051759780122 0 0.014844234796409254 -0.0048786285204094259 0 0.013307098994087413 -0.0037172606025080491 0 0.016555142845053758 -0.0034152318359815621 0 0.01337533690214327 -0.0021086415925136389 0 0.017798942886691687 -0.0025561897436697299 0 0.02093336394445602 -0.0031805072255640769 0 0.021033320887699755 -0.00302021407303352 0 0.020760234029895352 -0.0030316461776007755 0 0.020788202716808618 -0.0032209816312454152 0 0.02093336394445602 -0.0031805072255640769 0 0.020760234029895352 -0.0030316461776007755 0 0.02093336394445602 -0.0031805072255640769 0 0.020850991373021488 -0.0032258538293284305 0 0.020915909250455035 -0.0032287488101934172 0 0.020788202716808618 -0.0032209816312454152 0 0.020850991373021488 -0.0032258538293284305 0 0.02078959566700634 -0.0032457767013609833 0 0.020788202716808618 -0.0032209816312454152 0 0.02093336394445602 -0.0031805072255640769 0 0.020850991373021488 -0.0032258538293284305 0 0.02093336394445602 -0.0031805072255640769 0 0.021327989006173022 -0.0031317059081451418 0 0.021018496132518955 -0.0032614430596953673 0 0.021781478026016973 -0.0034292977030434923 0 0.021849977922677323 -0.003514365075647609 0 0.02093336394445602 -0.0031805072255640769 0 0.021033320887699755 -0.00302021407303352 0 0.021327989006173022 -0.0031317059081451418 0 0.021033320887699755 -0.00302021407303352 0 0.021068724883077577 -0.0027764271211077993 0 0.020760234029895352 -0.0030316461776007755 0 0.021033320887699755 -0.00302021407303352 0 0.021068724883077577 -0.0027764271211077993 0 0.021327989006173022 -0.0031317059081451418 0 0.020639647817879334 -0.0016280497171605563 0 0.022110091950915463 -0.0015236642408534905 0 0.022291486791632491 -0.0025977741305474641 0 0.0026902382286498323 -0.00041751946177459397 0 0.0020467015733592843 -0.0015319348794114352 0 0.0041484655248870718 -0.0014127051838901477 0 0.01337533690214327 -0.0021086415925136389 0 0.0097615651085454815 -0.0020058238992150205 0 0.0097615651085454815 -0.0020058238992150205 0 0.0069615766915235803 -0.0019546119355090866 0 0.0032005467270217413 -0.0011537838834053025 0 0.0052781956396646245 -0.0009933829222874386 0 0.0053009950150909625 -0.0026582311774292098 0 0.022110091950915463 -0.0015236642408534905 0 0.022291486791632491 -0.0025977741305474641 0 0.023807554234361924 -0.0028596432596546904 0 0.0097615651085454815 -0.0020058238992150205 0 0.013648326900027513 -0.0031710945645532719 0 0.022291486791632491 -0.0025977741305474641 0 0.023074210003185599 -0.0035022785932487289 0 0.023807554234361924 -0.0028596432596546904 0 0.022291486791632491 -0.0025977741305474641 0 0.021712582862920878 -0.003435054937546032 0 0.023074210003185599 -0.0035022785932487289 0 0.01337533690214327 -0.0021086415925136389 0 0.016536768138220415 -0.0041545936573728287 0 0.021068724883077577 -0.0027764271211077993 0 0.021327989006173022 -0.0031317059081451418 0 0.021712582862920878 -0.003435054937546032 0 0.021327989006173022 -0.0031317059081451418 0 0.021712582862920878 -0.003435054937546032 0 0.021088489525609357 -0.0038500100301929372 0 0.020639647817879334 -0.0016280497171605563 0 0.022291486791632491 -0.0025977741305474641 0 0.021712582862920878 -0.003435054937546032 0 0.021712582862920878 -0.003435054937546032 0 0.021547059476919969 -0.0041832890639658454 0 0.021088489525609357 -0.0038500100301929372 0 0.021712582862920878 -0.003435054937546032 0 0.021547059476919969 -0.0041832890639658454 0 0.022327183733441402 -0.0039888654090664425 0 0.021547059476919969 -0.0041832890639658454 0 0.022327183733441402 -0.0039888654090664425 0 0.021828609716749822 -0.0047315825007534611 0 0.021712582862920878 -0.003435054937546032 0 0.023074210003185599 -0.0035022785932487289 0 0.022327183733441402 -0.0039888654090664425 0 0.022327183733441402 -0.0039888654090664425 0 0.022997897871328114 -0.0044834068316781644 0 0.021828609716749822 -0.0047315825007534611 0 0.023074210003185599 -0.0035022785932487289 0 0.022327183733441402 -0.0039888654090664425 0 0.022997897871328114 -0.0044834068316781644 0 0.023074210003185599 -0.0035022785932487289 0 0.022997897871328114 -0.0044834068316781644 0 0.023960857119348613 -0.0038812926778214406 0 0.023024023809564208 -0.0034735605616623834 0 0.022461460310404854 -0.003539965436328142 0 0.024260050396482224 -0.0039453335943046737 0 0.024288562331967987 -0.0038465267925676923 0 0.024455860230077123 -0.0038498235354341762 0 0.024288562331967987 -0.0038465267925676923 0 0.024455860230077123 -0.0038498235354341762 0 0.024411895285027057 -0.0037851327390607159 0 0.023024023809564208 -0.0034735605616623834 0 0.023091520142229802 -0.0033074270144137509 0 0.024260050396482224 -0.0039453335943046737 0 0.024288562331967987 -0.0038465267925676923 0 0.024094384078178734 -0.0038974699864248031 0 0.022723698529291732 -0.003476345340163842 0 0.022736600290835275 -0.0034230105562993579 0 0.022558285623064084 -0.003466404262364867 0 0.022461460310404854 -0.003539965436328142 0 0.022202210222856011 -0.0033978932065782991 0 0.021547059476919969 -0.0041832890639658454 0 0.021828609716749822 -0.0047315825007534611 0 0.020795981936394353 -0.004963911141945769 0 0.022916757191342663 -0.0033812166434682225 0 0.022723698529291732 -0.003476345340163842 0 0.022736600290835275 -0.0034230105562993579 0 0.023091520142229802 -0.0033074270144137509 0 0.022634956062941552 -0.0031863092142556575 0 0.022723698529291732 -0.003476345340163842 0 0.022558285623064084 -0.003466404262364867 0 0.022532635668706971 -0.0035725958886907681 0 0.020870601192104109 -0.0031841655608150603 0 0.020889408292180032 -0.0031506014140596813 0 0.02090795889218058 -0.0032162173240614378 0 0.022202210222856011 -0.0033978932065782991 0 0.022634956062941552 -0.0031863092142556575 0 0.020870601192104109 -0.0031841655608150603 0 0.020909074330788965 -0.0029938877925502188 0 0.020889408292180032 -0.0031506014140596813 0 0.022189955843962893 -0.0026263770933638826 0 0.021907669462415649 -0.0026914055449726985 0 0.022158492051810051 -0.0027572703863099177 0 0.022202210222856011 -0.0033978932065782991 0 0.021720878820615172 -0.003229149918676916 0 0.020909074330788965 -0.0029938877925502188 0 0.020889408292180032 -0.0031506014140596813 0 0.020965216707969803 -0.0031289555222738623 0 0.020889408292180032 -0.0031506014140596813 0 0.02087430972248893 -0.0032126457874607139 0 0.02090795889218058 -0.0032162173240614378 0 0.02087430972248893 -0.0032126457874607139 0 0.020915909250455035 -0.0032287488101934172 0 0.02090795889218058 -0.0032162173240614378 0 0.020889408292180032 -0.0031506014140596813 0 0.02087430972248893 -0.0032126457874607139 0 0.020965216707969803 -0.0031289555222738623 0 0.020850991373021488 -0.0032258538293284305 0 0.02087430972248893 -0.0032126457874607139 0 0.02078959566700634 -0.0032457767013609833 0 0.020850991373021488 -0.0032258538293284305 0 0.02087430972248893 -0.0032126457874607139 0 0.020915909250455035 -0.0032287488101934172 0 0.022202210222856011 -0.0033978932065782991 0 0.021849977922677323 -0.003514365075647609 0 0.021547059476919969 -0.0041832890639658454 0 0.020795981936394353 -0.004963911141945769 0 0.021088489525609357 -0.0038500100301929372 0 0.02093336394445602 -0.0031805072255640769 0 0.020915909250455035 -0.0032287488101934172 0 0.021018496132518955 -0.0032614430596953673 0 0.020915909250455035 -0.0032287488101934172 0 0.021018496132518955 -0.0032614430596953673 0 0.02090795889218058 -0.0032162173240614378 0 0.020870601192104109 -0.0031841655608150603 0 0.021018496132518955 -0.0032614430596953673 0 0.02090795889218058 -0.0032162173240614378 0 0.010534738475957461 -0.0017925005213429207 0 0.010400887679002723 -0.0036896340288485679 0 0.0087544335239918541 -0.0031216705255626784 0 0.010534738475957461 -0.0017925005213429207 0 0.0082256022431347019 -0.001295083536580254 0 0.0087544335239918541 -0.0031216705255626784 0 0.010534738475957461 -0.0017925005213429207 0 0.0091775786846456826 0.00035373411656283992 0 0.0082256022431347019 -0.001295083536580254 0 0.0082256022431347019 -0.001295083536580254 0 0.0087544335239918541 -0.0031216705255626784 0 0.007010538611435798 -0.0025146550710291311 0 0.0087544335239918541 -0.0031216705255626784 0 0.007010538611435798 -0.0025146550710291311 0 0.0074764120599188633 -0.0042519621277461945 0 0.007010538611435798 -0.0025146550710291311 0 0.0053009950150909625 -0.0026582311774292098 0 0.0074764120599188633 -0.0042519621277461945 0 0.023807554234361924 -0.0028596432596546904 0 0.023948008478238289 -0.003431332027174733 0 0.024353750382087144 -0.0037825010728868404 0 0.013648326900027513 -0.0031710945645532719 0 0.015735168108752678 -0.0038415618385961728 0 0.007010538611435798 -0.0025146550710291311 0 0.0065137968908421107 -0.0012824753629260943 0 0.0053009950150909625 -0.0026582311774292098 0 0.0082256022431347019 -0.001295083536580254 0 0.007010538611435798 -0.0025146550710291311 0 0.0065137968908421107 -0.0012824753629260943 0 0.0065137968908421107 -0.0012824753629260943 0 0.0052781956396646245 -0.0009933829222874386 0 0.0053009950150909625 -0.0026582311774292098 0 0.023074210003185599 -0.0035022785932487289 0 0.023807554234361924 -0.0028596432596546904 0 0.023948008478238289 -0.003431332027174733 0 0.023074210003185599 -0.0035022785932487289 0 0.023948008478238289 -0.003431332027174733 0 0.023960857119348613 -0.0038812926778214406 0 0.023948008478238289 -0.003431332027174733 0 0.023960857119348613 -0.0038812926778214406 0 0.024144071365983014 -0.0037556373715051726 0 0.023960857119348613 -0.0038812926778214406 0 0.024094384078178734 -0.0038974699864248031 0 0.024144071365983014 -0.0037556373715051726 0 0.023024023809564208 -0.0034735605616623834 0 0.023178979691025763 -0.0034646873176399067 0 0.024260050396482224 -0.0039453335943046737 0 0.023960857119348613 -0.0038812926778214406 0 0.024094384078178734 -0.0038974699864248031 0 0.024094384078178734 -0.0038974699864248031 0 0.024143675002162752 -0.0038657301258580236 0 0.024144071365983014 -0.0037556373715051726 0 0.024288562331967987 -0.0038465267925676923 0 0.024094384078178734 -0.0038974699864248031 0 0.024143675002162752 -0.0038657301258580236 0 0.024288562331967987 -0.0038465267925676923 0 0.024143675002162752 -0.0038657301258580236 0 0.024261938422039674 -0.0037972043846310876 0 0.024967212459768399 -0.0033637154963481897 0 0.025227583371623008 -0.0031425356140875943 0 0.024143675002162752 -0.0038657301258580236 0 0.024144071365983014 -0.0037556373715051726 0 0.024100388551488692 -0.0038513854149169464 0 0.023948008478238289 -0.003431332027174733 0 0.024353750382087144 -0.0037825010728868404 0 0.024144071365983014 -0.0037556373715051726 0 0.024353750382087144 -0.0037825010728868404 0 0.024144071365983014 -0.0037556373715051726 0 0.024353371217670849 -0.003734134634549077 0 0.015735168108752678 -0.0038415618385961728 0 0.017377509731868343 -0.0041996651136965478 0 0.0087544335239918541 -0.0031216705255626784 0 0.0074764120599188633 -0.0042519621277461945 0 0.0097532443967533362 -0.0058483188141270842 0 0.024353750382087144 -0.0037825010728868404 0 0.024188082912812256 -0.0037758167996076232 0 0.024353371217670849 -0.003734134634549077 0 0.011354859094132759 -0.004738587942646603 0 0.010400887679002723 -0.0036896340288485679 0 0.0097532443967533362 -0.0058483188141270842 0 0.010400887679002723 -0.0036896340288485679 0 0.0087544335239918541 -0.0031216705255626784 0 0.0097532443967533362 -0.0058483188141270842 0 0.024123838316366754 -0.0034683923125047112 0 0.024219710416587482 -0.0034973765870170339 0 0.024199347775427722 -0.0033747298716335018 0 0.024219710416587482 -0.0034973765870170339 0 0.024251086016493943 -0.0034162602577649179 0 0.024199347775427722 -0.0033747298716335018 0 0.024123838316366754 -0.0034683923125047112 0 0.024219710416587482 -0.0034973765870170339 0 0.024191552405603601 -0.0036178233787546254 0 0.024069790639861241 -0.0036001404870321645 0 0.024123838316366754 -0.0034683923125047112 0 0.024191552405603601 -0.0036178233787546254 0 0.024069790639861241 -0.0036001404870321645 0 0.024188082912812256 -0.0037758167996076232 0 0.024191552405603601 -0.0036178233787546254 0 0.024188082912812256 -0.0037758167996076232 0 0.024191552405603601 -0.0036178233787546254 0 0.024353371217670849 -0.003734134634549077 0 0.024219710416587482 -0.0034973765870170339 0 0.024191552405603601 -0.0036178233787546254 0 0.024353371217670849 -0.003734134634549077 0 0.02603989333528841 -0.0019435047417257886 0 0.025227583371623008 -0.0031425356140875943 0 0.024219710416587482 -0.0034973765870170339 0 0.024322140377061752 -0.0034577385711183719 0 0.024353371217670849 -0.003734134634549077 0 0.023876608482497133 -0.0034948444889071604 0 0.024008358514584206 -0.0035861354300405694 0 0.024100388551488692 -0.0038513854149169464 0 0.024219710416587482 -0.0034973765870170339 0 0.024322140377061752 -0.0034577385711183719 0 0.024251086016493943 -0.0034162602577649179 0 0.023876608482497133 -0.0034948444889071604 0 0.023928157361837003 -0.00348096070903395 0 0.023952749413551293 -0.0035156958256429083 0 0.023876608482497133 -0.0034948444889071604 0 0.023928157361837003 -0.00348096070903395 0 0.023958929445957282 -0.0034032815022230017 0 0.023928157361837003 -0.00348096070903395 0 0.023989961508996367 -0.0034916749886994979 0 0.023958929445957282 -0.0034032815022230017 0 0.023928157361837003 -0.00348096070903395 0 0.023989961508996367 -0.0034916749886994979 0 0.023952749413551293 -0.0035156958256429083 0 0.023876608482497133 -0.0034948444889071604 0 0.023952749413551293 -0.0035156958256429083 0 0.024008358514584206 -0.0035861354300405694 0 0.023989961508996367 -0.0034916749886994979 0 0.023952749413551293 -0.0035156958256429083 0 0.024008358514584206 -0.0035861354300405694 0 0.024057585899752678 -0.0035275190117713276 0 0.02405886792244091 -0.0034380730090003342 0 0.024200634635989909 -0.0034649766991220652 0 0.023989961508996367 -0.0034916749886994979 0 0.024057585899752678 -0.0035275190117713276 0 0.024008358514584206 -0.0035861354300405694 0 0.023989961508996367 -0.0034916749886994979 0 0.024057585899752678 -0.0035275190117713276 0 0.02405886792244091 -0.0034380730090003342 0 0.023989961508996367 -0.0034916749886994979 0 0.02405886792244091 -0.0034380730090003342 0 0.023958929445957282 -0.0034032815022230017 0 0.024200634635989909 -0.0034649766991220652 0 0.024139851487027245 -0.0035912697055418266 0 0.024282652158933996 -0.0036020774182043348 0 0.024057585899752678 -0.0035275190117713276 0 0.024200634635989909 -0.0034649766991220652 0 0.024139851487027245 -0.0035912697055418266 0 0.024139851487027245 -0.0035912697055418266 0 0.024168912955816062 -0.0037662783785979656 0 0.024282652158933996 -0.0036020774182043348 0 0.024057585899752678 -0.0035275190117713276 0 0.024139851487027245 -0.0035912697055418266 0 0.024008358514584206 -0.0035861354300405694 0 0.024139851487027245 -0.0035912697055418266 0 0.024008358514584206 -0.0035861354300405694 0 0.024168912955816062 -0.0037662783785979656 0 0.024143675002162752 -0.0038657301258580236 0 0.024100388551488692 -0.0038513854149169464 0 0.024168912955816062 -0.0037662783785979656 0 0.024008358514584206 -0.0035861354300405694 0 0.024100388551488692 -0.0038513854149169464 0 0.024168912955816062 -0.0037662783785979656 0 0.024168912955816062 -0.0037662783785979656 0 0.024305033903806748 -0.0037112518652876298 0 0.024282652158933996 -0.0036020774182043348 0 0.024168912955816062 -0.0037662783785979656 0 0.024261938422039674 -0.0037972043846310876 0 0.024305033903806748 -0.0037112518652876298 0 0.024143675002162752 -0.0038657301258580236 0 0.024168912955816062 -0.0037662783785979656 0 0.024261938422039674 -0.0037972043846310876 0 0.024261938422039674 -0.0037972043846310876 0 0.024305033903806748 -0.0037112518652876298 0 0.024411895285027057 -0.0037851327390607159 0 0.02461491428658219 -0.0034794401165943174 0 0.024755091281503265 -0.0032735701647341516 0 0.024305033903806748 -0.0037112518652876298 0 0.024449576025382197 -0.0034909446857871681 0 0.024774641725134511 -0.003333890715579919 0 0.024305033903806748 -0.0037112518652876298 0 0.024282652158933996 -0.0036020774182043348 0 0.024449576025382197 -0.0034909446857871681 0 0.024200634635989909 -0.0034649766991220652 0 0.024282652158933996 -0.0036020774182043348 0 0.024449576025382197 -0.0034909446857871681 0 0.024449576025382197 -0.0034909446857871681 0 0.024735910143937154 -0.0031776829671369689 0 0.024774641725134511 -0.003333890715579919 0 0.024449576025382197 -0.0034909446857871681 0 0.024316848200473778 -0.0032778998198864638 0 0.024570979775168044 -0.0030701991130226316 0 0.024736578234652865 -0.0032491743165581335 0 0.024820997410977333 -0.0030441493992837488 0 0.024200634635989909 -0.0034649766991220652 0 0.024449576025382197 -0.0034909446857871681 0 0.024316848200473778 -0.0032778998198864638 0 0.024316848200473778 -0.0032778998198864638 0 0.024570979775168044 -0.0030701991130226316 0 0.024265521446003434 -0.00306644455029305 0 0.024684876388792461 -0.0026284403978691952 0 0.024570979775168044 -0.0030701991130226316 0 0.024403019186744614 -0.0028278557259147404 0 0.024570979775168044 -0.0030701991130226316 0 0.024403019186744614 -0.0028278557259147404 0 0.024265521446003434 -0.00306644455029305 0 0.024403019186744614 -0.0028278557259147404 0 0.024265521446003434 -0.00306644455029305 0 0.024066883152401422 -0.0028635740530188985 0 0.024265521446003434 -0.00306644455029305 0 0.024066883152401422 -0.0028635740530188985 0 0.024022420366437619 -0.0031417240742657678 0 0.024022420366437619 -0.0031417240742657678 0 0.024113005736945543 -0.0032919781009886776 0 0.023921869926518926 -0.003297631540488951 0 0.024316848200473778 -0.0032778998198864638 0 0.024265521446003434 -0.00306644455029305 0 0.024113005736945543 -0.0032919781009886776 0 0.024265521446003434 -0.00306644455029305 0 0.024022420366437619 -0.0031417240742657678 0 0.024113005736945543 -0.0032919781009886776 0 0.02405886792244091 -0.0034380730090003342 0 0.024200634635989909 -0.0034649766991220652 0 0.024113005736945543 -0.0032919781009886776 0 0.024200634635989909 -0.0034649766991220652 0 0.024316848200473778 -0.0032778998198864638 0 0.024113005736945543 -0.0032919781009886776 0 0.02405886792244091 -0.0034380730090003342 0 0.024113005736945543 -0.0032919781009886776 0 0.023958929445957282 -0.0034032815022230017 0 0.024113005736945543 -0.0032919781009886776 0 0.023921869926518926 -0.003297631540488951 0 0.023958929445957282 -0.0034032815022230017 0 0.026088842214636056 -0.0015607644854246647 0 0.026164962342101524 -0.0017700958642686134 0 0.026208467357458284 -0.0017303593071244655 0 0.02603989333528841 -0.0019435047417257886 0 0.026468383595541111 -0.0010454451040825966 0 0.023876608482497133 -0.0034948444889071604 0 0.023921869926518926 -0.003297631540488951 0 0.023748838186356286 -0.0031834017849422871 0 0.023876608482497133 -0.0034948444889071604 0 0.023921869926518926 -0.003297631540488951 0 0.023958929445957282 -0.0034032815022230017 0 0.02603989333528841 -0.0019435047417257886 0 0.026342063592570793 -0.0013913225453621853 0 0.024322140377061752 -0.0034577385711183719 0 0.024251086016493943 -0.0034162602577649179 0 0.024251748882858273 -0.0033281773605716805 0 0.026468383595541111 -0.0010454451040825966 0 0.026342063592570793 -0.0013913225453621853 0 0.024022420366437619 -0.0031417240742657678 0 0.023921869926518926 -0.003297631540488951 0 0.023748838186356286 -0.0031834017849422871 0 0.029097158994849322 0.0021292035279433233 0 0.0287196063364622 0.0032082186945516901 0 0.028579618294525093 0.0024545274579007154 0 0.027936440780757361 0.0025202626122259493 0 0.0287196063364622 0.0032082186945516901 0 0.028579618294525093 0.0024545274579007154 0 0.024066883152401422 -0.0028635740530188985 0 0.024022420366437619 -0.0031417240742657678 0 0.023748838186356286 -0.0031834017849422871 0 0.026258153642651282 -0.00070687541123645422 0 0.026468383595541111 -0.0010454451040825966 0 0.029097158994849322 0.0021292035279433233 0 0.028832654424513073 0.002865644953331511 0 0.029226807838383669 0.0025606780334781814 0 0.026699572112673139 0.00060210287539838722 0 0.026468383595541111 -0.0010454451040825966 0 0.02677003966570949 -0.00052552903520570429 0 0.026342063592570793 -0.0013913225453621853 0 0.029565186034966204 0.0021328465669801957 0 0.029332845260818443 0.0021454095864013715 0 0.029226807838383669 0.0025606780334781814 0 0.027297728894451524 0.00016880259984120924 0 0.02677003966570949 -0.00052552903520570429 0 0.024070029289001722 -0.0032907946624575867 0 0.024179311698974509 -0.0031634940448293015 0 0.024177570482013022 -0.0032699886234732142 0 0.024070029289001722 -0.0032907946624575867 0 0.024177570482013022 -0.0032699886234732142 0 0.024199347775427722 -0.0033747298716335018 0 0.024070029289001722 -0.0032907946624575867 0 0.024123838316366754 -0.0034683923125047112 0 0.024199347775427722 -0.0033747298716335018 0 0.024177570482013022 -0.0032699886234732142 0 0.024274127901747648 -0.0033095282445826943 0 0.024199347775427722 -0.0033747298716335018 0 0.028832654424513073 0.002865644953331511 0 0.029226807838383669 0.0025606780334781814 0 0.02893486945047628 0.0029581962326819681 0 0.024179311698974509 -0.0031634940448293015 0 0.024177570482013022 -0.0032699886234732142 0 0.024274127901747648 -0.0033095282445826943 0 0.024251086016493943 -0.0034162602577649179 0 0.024251748882858273 -0.0033281773605716805 0 0.024199347775427722 -0.0033747298716335018 0 0.026342063592570793 -0.0013913225453621853 0 0.026133246968462656 -0.001583175142951147 0 0.024501360796598478 -0.0037441189971507329 0 0.024545805629791258 -0.003709971320059932 0 0.024508937361515003 -0.0036708275987893889 0 0.023407363798457391 -0.0032442374687314691 0 0.022634956062941552 -0.0031863092142556575 0 0.024501360796598478 -0.0037441189971507329 0 0.024455052680473915 -0.0037356196635284175 0 0.024508937361515003 -0.0036708275987893889 0 0.024501360796598478 -0.0037441189971507329 0 0.024545805629791258 -0.003709971320059932 0 0.02452348526672038 -0.0038078076056512894 0 0.022197642102681124 -0.0029640674255392908 0 0.022083132681986497 -0.0029283691200229093 0 0.022111036625356951 -0.0027976152450077041 0 0.022197642102681124 -0.0029640674255392908 0 0.022083132681986497 -0.0029283691200229093 0 0.022102681744175748 -0.0030022785646907245 0 0.021907669462415649 -0.0026914055449726985 0 0.021903473738926264 -0.0028837900097288152 0 0.022158492051810051 -0.0027572703863099177 0 0.022197642102681124 -0.0029640674255392908 0 0.022111036625356951 -0.0027976152450077041 0 0.022271428302163641 -0.0027167768571629328 0 0.022294435674025222 -0.0031439471358935571 0 0.022634956062941552 -0.0031863092142556575 0 0.024501360796598478 -0.0037441189971507329 0 0.02452348526672038 -0.0038078076056512894 0 0.024470768823470039 -0.003788381387396868 0 0.024455860230077123 -0.0038498235354341762 0 0.02452348526672038 -0.0038078076056512894 0 0.024470768823470039 -0.003788381387396868 0 0.024470768823470039 -0.003788381387396868 0 0.024411895285027057 -0.0037851327390607159 0 0.024455052680473915 -0.0037356196635284175 0 0.024455860230077123 -0.0038498235354341762 0 0.024470768823470039 -0.003788381387396868 0 0.024411895285027057 -0.0037851327390607159 0 0.024305033903806748 -0.0037112518652876298 0 0.024411895285027057 -0.0037851327390607159 0 0.024612369303764745 -0.0035415081788093181 0 0.024288562331967987 -0.0038465267925676923 0 0.024261938422039674 -0.0037972043846310876 0 0.024411895285027057 -0.0037851327390607159 0 0.024502564167910953 -0.0035164765508763126 0 0.02455003072503505 -0.003417211977266845 0 0.024305033903806748 -0.0037112518652876298 0 0.024612369303764745 -0.0035415081788093181 0 0.024604569831044611 -0.003257482321216447 0 0.024411895285027057 -0.0037851327390607159 0 0.024612369303764745 -0.0035415081788093181 0 0.024950894844871285 -0.0035675498138837015 0 0.024501360796598478 -0.0037441189971507329 0 0.024470768823470039 -0.003788381387396868 0 0.024455052680473915 -0.0037356196635284175 0 0.024612369303764745 -0.0035415081788093181 0 0.024950894844871285 -0.0035675498138837015 0 0.02486152432005842 -0.0033341754006343881 0 0.02455003072503505 -0.003417211977266845 0 0.024545684088398009 -0.003206444642079408 0 0.02486152432005842 -0.0033341754006343881 0 0.025016302268252095 -0.003117492209570096 0 0.025350048069555781 -0.0032392447957132961 0 0.024950894844871285 -0.0035675498138837015 0 0.02486152432005842 -0.0033341754006343881 0 0.025350048069555781 -0.0032392447957132961 0 0.02486152432005842 -0.0033341754006343881 0 0.024604569831044611 -0.003257482321216447 0 0.025016302268252095 -0.003117492209570096 0 0.024612369303764745 -0.0035415081788093181 0 0.02486152432005842 -0.0033341754006343881 0 0.024604569831044611 -0.003257482321216447 0 0.025118224899530948 -0.002971963623695477 0 0.02493893466520411 -0.0028827314095139752 0 0.024735910143937154 -0.0031776829671369689 0 0.024982532064932443 -0.0029575526244009177 0 0.024755091281503265 -0.0032735701647341516 0 0.025019017710383343 -0.0028204974455134403 0 0.024604569831044611 -0.003257482321216447 0 0.025016302268252095 -0.003117492209570096 0 0.025118224899530948 -0.002971963623695477 0 0.024735910143937154 -0.0031776829671369689 0 0.024774641725134511 -0.003333890715579919 0 0.025035490751201154 -0.0025396613274536657 0 0.024820997410977333 -0.0030441493992837488 0 0.025019017710383343 -0.0028204974455134403 0 0.025016302268252095 -0.003117492209570096 0 0.025138329109084586 -0.0029232600856187048 0 0.025016302268252095 -0.003117492209570096 0 0.025299457007224829 -0.0029740919596784078 0 0.025350048069555781 -0.0032392447957132961 0 0.025016302268252095 -0.003117492209570096 0 0.025138329109084586 -0.0029232600856187048 0 0.025299457007224829 -0.0029740919596784078 0 0.025235371715788435 -0.0028328427708825834 0 0.025138329109084586 -0.0029232600856187048 0 0.025299457007224829 -0.0029740919596784078 0 0.024545684088398009 -0.003206444642079408 0 0.02425994269093433 -0.0030001737501702107 0 0.025299457007224829 -0.0029740919596784078 0 0.025350048069555781 -0.0032392447957132961 0 0.02559720421693264 -0.0029476970135112919 0 0.025381915539463635 -0.0027734326761862942 0 0.025299457007224829 -0.0029740919596784078 0 0.02559720421693264 -0.0029476970135112919 0 0.024545805629791258 -0.003709971320059932 0 0.024508937361515003 -0.0036708275987893889 0 0.0245687851044122 -0.0036047499302167868 0 0.022197642102681124 -0.0029640674255392908 0 0.022174037964227386 -0.0030375624083798084 0 0.022102681744175748 -0.0030022785646907245 0 0.023407363798457391 -0.0032442374687314691 0 0.02425994269093433 -0.0030001737501702107 0 0.022174037964227386 -0.0030375624083798084 0 0.022161963980118573 -0.0030164177581867022 0 0.022340468647643982 -0.0030188876045382411 0 0.022161963980118573 -0.0030164177581867022 0 0.022340468647643982 -0.0030188876045382411 0 0.022080568095312225 -0.0029678161117870786 0 0.022275483477781702 -0.0029742991798118578 0 0.022340468647643982 -0.0030188876045382411 0 0.022080568095312225 -0.0029678161117870786 0 0.022161963980118573 -0.0030164177581867022 0 0.021953257953206143 -0.0029661079371236625 0 0.022080568095312225 -0.0029678161117870786 0 0.022174037964227386 -0.0030375624083798084 0 0.022161963980118573 -0.0030164177581867022 0 0.022102681744175748 -0.0030022785646907245 0 0.022161963980118573 -0.0030164177581867022 0 0.021953257953206143 -0.0029661079371236625 0 0.022102681744175748 -0.0030022785646907245 0 0.022294435674025222 -0.0031439471358935571 0 0.022172959102055145 -0.0031411805953579655 0 0.021953257953206143 -0.0029661079371236625 0 0.022102681744175748 -0.0030022785646907245 0 0.021851836565705409 -0.0029185953696126551 0 0.022083132681986497 -0.0029283691200229093 0 0.022111036625356951 -0.0027976152450077041 0 0.021851836565705409 -0.0029185953696126551 0 0.022083132681986497 -0.0029283691200229093 0 0.022102681744175748 -0.0030022785646907245 0 0.021851836565705409 -0.0029185953696126551 0 0.021953257953206143 -0.0029661079371236625 0 0.021851836565705409 -0.0029185953696126551 0 0.021732237194097268 -0.002893801867290709 0 0.021851836565705409 -0.0029185953696126551 0 0.021732237194097268 -0.002893801867290709 0 0.021489091691879365 -0.0028264910767625976 0 0.021732237194097268 -0.002893801867290709 0 0.021489091691879365 -0.0028264910767625976 0 0.021564058117116213 -0.0028487876230104013 0 0.021907669462415649 -0.0026914055449726985 0 0.021489091691879365 -0.0028264910767625976 0 0.02178215518958615 -0.0028601407582056195 0 0.021903473738926264 -0.0028837900097288152 0 0.021851836565705409 -0.0029185953696126551 0 0.02178215518958615 -0.0028601407582056195 0 0.021851836565705409 -0.0029185953696126551 0 0.021489091691879365 -0.0028264910767625976 0 0.02178215518958615 -0.0028601407582056195 0 0.021720878820615172 -0.003229149918676916 0 0.021626768740901161 -0.0031670445447397593 0 0.021907669462415649 -0.0026914055449726985 0 0.021903473738926264 -0.0028837900097288152 0 0.02178215518958615 -0.0028601407582056195 0 0.021567454997251777 -0.0028659409307227493 0 0.021564058117116213 -0.0028487876230104013 0 0.021495491486470036 -0.00288521478705407 0 0.021567454997251777 -0.0028659409307227493 0 0.021564058117116213 -0.0028487876230104013 0 0.021851012202375716 -0.0029692815642135785 0 0.021732237194097268 -0.002893801867290709 0 0.021564058117116213 -0.0028487876230104013 0 0.021851012202375716 -0.0029692815642135785 0 0.021953257953206143 -0.0029661079371236625 0 0.021732237194097268 -0.002893801867290709 0 0.021851012202375716 -0.0029692815642135785 0 0.021567454997251777 -0.0028659409307227493 0 0.021851012202375716 -0.0029692815642135785 0 0.021581587074720909 -0.0029563588714057181 0 0.021863507680299297 -0.0031278484922456747 0 0.02181183185838716 -0.0032259385940476776 0 0.021851012202375716 -0.0029692815642135785 0 0.021671484526371684 -0.0033015582040563465 0 0.021581587074720909 -0.0029563588714057181 0 0.021851012202375716 -0.0029692815642135785 0 0.022080568095312225 -0.0029678161117870786 0 0.021991542654219598 -0.0028988158273572685 0 0.021953257953206143 -0.0029661079371236625 0 0.021851012202375716 -0.0029692815642135785 0 0.022080568095312225 -0.0029678161117870786 0 0.022275483477781702 -0.0029742991798118578 0 0.022080568095312225 -0.0029678161117870786 0 0.021991542654219598 -0.0028988158273572685 0 0.021690454558650017 -0.0034722231278776139 0 0.02181183185838716 -0.0032259385940476776 0 0.021467823917633903 -0.0036328264294165644 0 0.021671484526371684 -0.0033015582040563465 0 0.021298881953268813 -0.0033296244781609984 0 0.021298881953268813 -0.0033296244781609984 0 0.02144591748577547 -0.0030959578340424513 0 0.021231388335898386 -0.0030084560406642754 0 0.021671484526371684 -0.0033015582040563465 0 0.02144591748577547 -0.0030959578340424513 0 0.021581587074720909 -0.0029563588714057181 0 0.021671484526371684 -0.0033015582040563465 0 0.021298881953268813 -0.0033296244781609984 0 0.02144591748577547 -0.0030959578340424513 0 0.020806119695695822 -0.0035410110664942812 0 0.020959701446090818 -0.003246715049724853 0 0.020659751962829917 -0.0032613514766811642 0 0.021128496634884694 -0.0036269235154052877 0 0.021298881953268813 -0.0033296244781609984 0 0.02104837046148739 -0.0034354265758396408 0 0.020806119695695822 -0.0035410110664942812 0 0.02104837046148739 -0.0034354265758396408 0 0.020959701446090818 -0.003246715049724853 0 0.021298881953268813 -0.0033296244781609984 0 0.02104837046148739 -0.0034354265758396408 0 0.020959701446090818 -0.003246715049724853 0 0.021298881953268813 -0.0033296244781609984 0 0.020959701446090818 -0.003246715049724853 0 0.021231388335898386 -0.0030084560406642754 0 0.020959701446090818 -0.003246715049724853 0 0.020894200534908675 -0.0030251807416811307 0 0.021231388335898386 -0.0030084560406642754 0 0.020959701446090818 -0.003246715049724853 0 0.020777241626569576 -0.0031121344281759998 0 0.020659751962829917 -0.0032613514766811642 0 0.020894200534908675 -0.0030251807416811307 0 0.020777241626569576 -0.0031121344281759998 0 0.020738915104762039 -0.0029214140949017451 0 0.020959701446090818 -0.003246715049724853 0 0.020894200534908675 -0.0030251807416811307 0 0.020777241626569576 -0.0031121344281759998 0 0.02058522913235096 -0.0030643512373090846 0 0.020777241626569576 -0.0031121344281759998 0 0.020738915104762039 -0.0029214140949017451 0 0.02058522913235096 -0.0030643512373090846 0 0.020777241626569576 -0.0031121344281759998 0 0.020659751962829917 -0.0032613514766811642 0 0.019384635303155325 -0.0023163306000135533 0 0.020782707683605343 -0.0022659118275052091 0 0.020287504553834688 -0.0028260678785033207 0 0.018659784960073245 -0.0044039312936695338 0 0.018770696817162362 -0.0042816471411841247 0 0.020749613068134422 -0.0026689032555696213 0 0.020287504553834688 -0.0028260678785033207 0 0.020738915104762039 -0.0029214140949017451 0 0.020894200534908675 -0.0030251807416811307 0 0.020749613068134422 -0.0026689032555696213 0 0.020738915104762039 -0.0029214140949017451 0 0.021231388335898386 -0.0030084560406642754 0 0.02126960774791185 -0.0029268374231233964 0 0.021380275945950669 -0.0028996633247556523 0 0.018659784960073245 -0.0044039312936695338 0 0.019563908161882589 -0.004382951611453201 0 0.020894200534908675 -0.0030251807416811307 0 0.020749613068134422 -0.0026689032555696213 0 0.021231388335898386 -0.0030084560406642754 0 0.021158621804719981 -0.0029608707720523591 0 0.021231388335898386 -0.0030084560406642754 0 0.02126960774791185 -0.0029268374231233964 0 0.018659784960073245 -0.0044039312936695338 0 0.01936776279755964 -0.0049477590801649332 0 0.021158621804719981 -0.0029608707720523591 0 0.02126960774791185 -0.0029268374231233964 0 0.021323639769584221 -0.0028413523990515411 0 0.02126960774791185 -0.0029268374231233964 0 0.021380275945950669 -0.0028996633247556523 0 0.021323639769584221 -0.0028413523990515411 0 0.01758030785432534 -0.0087707165254151016 0 0.017297079437649823 -0.0081739857213855814 0 0.017683095891633065 -0.0079517241437270011 0 0.01758030785432534 -0.0087707165254151016 0 0.017683095891633065 -0.0079517241437270011 0 0.018281543804806108 -0.0079739699888787749 0 0.017297079437649823 -0.0081739857213855814 0 0.017288294610680169 -0.0078447361448202302 0 0.017683095891633065 -0.0079517241437270011 0 0.021581587074720909 -0.0029563588714057181 0 0.021443466038637757 -0.0029489652870834031 0 0.021496551850392561 -0.0028761624348624211 0 0.02144591748577547 -0.0030959578340424513 0 0.021581587074720909 -0.0029563588714057181 0 0.021443466038637757 -0.0029489652870834031 0 0.02144591748577547 -0.0030959578340424513 0 0.021231388335898386 -0.0030084560406642754 0 0.021443466038637757 -0.0029489652870834031 0 0.021231388335898386 -0.0030084560406642754 0 0.021443466038637757 -0.0029489652870834031 0 0.021380275945950669 -0.0028996633247556523 0 0.021380275945950669 -0.0028996633247556523 0 0.021496551850392561 -0.0028761624348624211 0 0.021467567426390988 -0.0028485162177699858 0 0.021443466038637757 -0.0029489652870834031 0 0.021380275945950669 -0.0028996633247556523 0 0.021496551850392561 -0.0028761624348624211 0 0.021380275945950669 -0.0028996633247556523 0 0.021467567426390988 -0.0028485162177699858 0 0.021323639769584221 -0.0028413523990515411 0 0.021567454997251777 -0.0028659409307227493 0 0.021496551850392561 -0.0028761624348624211 0 0.02152074268228717 -0.0028722702661558609 0 0.021567454997251777 -0.0028659409307227493 0 0.021581587074720909 -0.0029563588714057181 0 0.021496551850392561 -0.0028761624348624211 0 0.021496551850392561 -0.0028761624348624211 0 0.02152074268228717 -0.0028722702661558609 0 0.021467567426390988 -0.0028485162177699858 0 0.02152074268228717 -0.0028722702661558609 0 0.021467567426390988 -0.0028485162177699858 0 0.021539911424915029 -0.0029556584435995454 0 0.021386315594881845 -0.0029259599873777916 0 0.021293397600188318 -0.0030050768432194155 0 0.021467567426390988 -0.0028485162177699858 0 0.02151511817010951 -0.002869797195369699 0 0.021323639769584221 -0.0028413523990515411 0 0.019989954826326307 -0.0049277992494662533 0 0.01936776279755964 -0.0049477590801649332 0 0.019008796577943122 -0.0071869835962303551 0 0.018281543804806108 -0.0079739699888787749 0 0.018393307428078026 -0.0072961427708549105 0 0.019008796577943122 -0.0071869835962303551 0 0.018584787030030678 -0.0068038932227690438 0 0.019018196511886166 -0.0065140330308657455 0 0.019008796577943122 -0.0071869835962303551 0 0.018584787030030678 -0.0068038932227690438 0 0.018393307428078026 -0.0072961427708549105 0 0.021467567426390988 -0.0028485162177699858 0 0.02151511817010951 -0.002869797195369699 0 0.021417544115226322 -0.0028934350558794618 0 0.02151511817010951 -0.002869797195369699 0 0.021417544115226322 -0.0028934350558794618 0 0.021488852212223443 -0.0032543487455923134 0 0.017442785462956099 -0.0075460874176242285 0 0.017288294610680169 -0.0078447361448202302 0 0.017683095891633065 -0.0079517241437270011 0 0.017442785462956099 -0.0075460874176242285 0 0.017962358027409153 -0.0074875587677156585 0 0.017617300358547076 -0.0071583740125413355 0 0.017442785462956099 -0.0075460874176242285 0 0.017683095891633065 -0.0079517241437270011 0 0.017962358027409153 -0.0074875587677156585 0 0.017962358027409153 -0.0074875587677156585 0 0.018281543804806108 -0.0079739699888787749 0 0.018393307428078026 -0.0072961427708549105 0 0.017683095891633065 -0.0079517241437270011 0 0.017962358027409153 -0.0074875587677156585 0 0.018281543804806108 -0.0079739699888787749 0 0.018584787030030678 -0.0068038932227690438 0 0.018130603789401453 -0.0070199475766749555 0 0.01819866958528803 -0.0065732087303760206 0 0.018584787030030678 -0.0068038932227690438 0 0.018393307428078026 -0.0072961427708549105 0 0.018130603789401453 -0.0070199475766749555 0 0.017962358027409153 -0.0074875587677156585 0 0.018130603789401453 -0.0070199475766749555 0 0.017617300358547076 -0.0071583740125413355 0 0.017962358027409153 -0.0074875587677156585 0 0.018393307428078026 -0.0072961427708549105 0 0.018130603789401453 -0.0070199475766749555 0 0.018130603789401453 -0.0070199475766749555 0 0.017617300358547076 -0.0071583740125413355 0 0.017737138109199843 -0.006643717918214183 0 0.017221806355011225 -0.0069175314923353515 0 0.017617300358547076 -0.0071583740125413355 0 0.017737138109199843 -0.006643717918214183 0 0.017239587889461561 -0.0072963190422672122 0 0.017442785462956099 -0.0075460874176242285 0 0.017617300358547076 -0.0071583740125413355 0 0.017221806355011225 -0.0069175314923353515 0 0.017239587889461561 -0.0072963190422672122 0 0.017617300358547076 -0.0071583740125413355 0 0.017258626630259469 -0.0062554109181161234 0 0.017221806355011225 -0.0069175314923353515 0 0.017737138109199843 -0.006643717918214183 0 0.017258626630259469 -0.0062554109181161234 0 0.017737138109199843 -0.006643717918214183 0 0.018009367535197232 -0.0061354841187980106 0 0.017737138109199843 -0.006643717918214183 0 0.01819866958528803 -0.0065732087303760206 0 0.018009367535197232 -0.0061354841187980106 0 0.018130603789401453 -0.0070199475766749555 0 0.017737138109199843 -0.006643717918214183 0 0.01819866958528803 -0.0065732087303760206 0 0.018584787030030678 -0.0068038932227690438 0 0.01819866958528803 -0.0065732087303760206 0 0.018534643913586044 -0.0062581547526160772 0 0.01819866958528803 -0.0065732087303760206 0 0.018009367535197232 -0.0061354841187980106 0 0.018534643913586044 -0.0062581547526160772 0 0.017939083309933487 -0.0053481190191147828 0 0.018409950952401954 -0.0057002110264204606 0 0.018009367535197232 -0.0061354841187980106 0 0.018409950952401954 -0.0057002110264204606 0 0.018009367535197232 -0.0061354841187980106 0 0.018534643913586044 -0.0062581547526160772 0 0.010491845277429272 -0.0052534634556008052 0 0.010480484349941236 -0.0049332158559552168 0 0.017258626630259469 -0.0062554109181161234 0 0.017939083309933487 -0.0053481190191147828 0 0.018009367535197232 -0.0061354841187980106 0 0.0037857261704949594 -0.0049015826770208784 0 0.0036535425064661495 -0.0045622708007392321 0 0.0031919355962982628 -0.0052319375929852476 0 0.019989954826326307 -0.0049277992494662533 0 0.020370959766676189 -0.0049003309768919949 0 0.019008796577943122 -0.0071869835962303551 0 0.019784516208756969 -0.006383483940377392 0 0.019018196511886166 -0.0065140330308657455 0 0.019784516208756969 -0.006383483940377392 0 0.019018196511886166 -0.0065140330308657455 0 0.019160165689014391 -0.005931465890120057 0 0.018584787030030678 -0.0068038932227690438 0 0.019018196511886166 -0.0065140330308657455 0 0.018534643913586044 -0.0062581547526160772 0 0.019018196511886166 -0.0065140330308657455 0 0.018534643913586044 -0.0062581547526160772 0 0.019160165689014391 -0.005931465890120057 0 0.018959178854756047 -0.0052534743212496182 0 0.018409950952401954 -0.0057002110264204606 0 0.019160165689014391 -0.005931465890120057 0 0.018409950952401954 -0.0057002110264204606 0 0.018534643913586044 -0.0062581547526160772 0 0.019160165689014391 -0.005931465890120057 0 0.019784516208756969 -0.006383483940377392 0 0.019160165689014391 -0.005931465890120057 0 0.019840760064320909 -0.005784729994819598 0 0.019486838979234082 -0.0054932652974019067 0 0.018959178854756047 -0.0052534743212496182 0 0.019160165689014391 -0.005931465890120057 0 0.019486838979234082 -0.0054932652974019067 0 0.019160165689014391 -0.005931465890120057 0 0.019840760064320909 -0.005784729994819598 0 0.019486838979234082 -0.0054932652974019067 0 0.020114349072603337 -0.0054733857465809853 0 0.019840760064320909 -0.005784729994819598 0 0.020359674446294506 -0.005172686850094272 0 0.020370959766676189 -0.0049003309768919949 0 0.020559172261955635 -0.0054113371530072349 0 0.020114349072603337 -0.0054733857465809853 0 0.019840760064320909 -0.005784729994819598 0 0.020559172261955635 -0.0054113371530072349 0 0.019784516208756969 -0.006383483940377392 0 0.019840760064320909 -0.005784729994819598 0 0.021139132953099184 -0.0042746082977622706 0 0.021488852212223443 -0.0032543487455923134 0 0.020905898555855309 -0.0037259184573706474 0 0.021488852212223443 -0.0032543487455923134 0 0.020913148933133802 -0.003230178421120953 0 0.020905898555855309 -0.0037259184573706474 0 0.021293397600188318 -0.0030050768432194155 0 0.020942639454874769 -0.0032809120832935565 0 0.021417544115226322 -0.0028934350558794618 0 0.021488852212223443 -0.0032543487455923134 0 0.020913148933133802 -0.003230178421120953 0 0.021371948433533936 -0.0032001377252931064 0 0.020109513341729734 -0.0036162432990742184 0 0.02074299268614066 -0.0032406938845016002 0 0.021371948433533936 -0.0032001377252931064 0 0.02074299268614066 -0.0032406938845016002 0 0.021123389619782974 -0.0030441960254378735 0 0.021371948433533936 -0.0032001377252931064 0 0.020109513341729734 -0.0036162432990742184 0 0.019686493783378028 -0.0039631729084317838 0 0.020942639454874769 -0.0032809120832935565 0 0.020538224411570018 -0.0035931609316910873 0 0.020913148933133802 -0.003230178421120953 0 0.020905898555855309 -0.0037259184573706474 0 0.020417513243488197 -0.0040298839396688321 0 0.020913148933133802 -0.003230178421120953 0 0.020417513243488197 -0.0040298839396688321 0 0.019686493783378028 -0.0039631729084317838 0 0.020905898555855309 -0.0037259184573706474 0 0.020750874239194406 -0.0041524532346776544 0 0.020417513243488197 -0.0040298839396688321 0 0.021139132953099184 -0.0042746082977622706 0 0.020905898555855309 -0.0037259184573706474 0 0.020750874239194406 -0.0041524532346776544 0 0.020406847351557584 -0.0046903657855653829 0 0.020750874239194406 -0.0041524532346776544 0 0.020417513243488197 -0.0040298839396688321 0 0.019917542089154933 -0.0044793932505141874 0 0.020194982034456157 -0.0045380947826078937 0 0.020417513243488197 -0.0040298839396688321 0 0.020109513341729734 -0.0036162432990742184 0 0.019686493783378028 -0.0039631729084317838 0 0.017979091489310383 -0.0042689140778999282 0 0.019917542089154933 -0.0044793932505141874 0 0.020417513243488197 -0.0040298839396688321 0 0.019686493783378028 -0.0039631729084317838 0 0.019325963227245623 -0.0046612490246833839 0 0.019686493783378028 -0.0039631729084317838 0 0.017979091489310383 -0.0042689140778999282 0 0.018976526428378226 -0.0027286312846023066 0 0.017798942886691687 -0.0025561897436697299 0 0.020109513341729734 -0.0036162432990742184 0 0.020760234029895352 -0.0030316461776007755 0 0.020584311241574813 -0.003334404128640014 0 0.020109513341729734 -0.0036162432990742184 0 0.016555142845053758 -0.0034152318359815621 0 0.017979091489310383 -0.0042689140778999282 0 0.016790535457443034 -0.0048935116237555894 0 0.016555142845053758 -0.0034152318359815621 0 0.017979091489310383 -0.0042689140778999282 0 0.020584311241574813 -0.003334404128640014 0 0.02078959566700634 -0.0032457767013609833 0 0.020914569980668325 -0.0031639008179930187 0 0.020788202716808618 -0.0032209816312454152 0 0.020760234029895352 -0.0030316461776007755 0 0.020584311241574813 -0.003334404128640014 0 0.020788202716808618 -0.0032209816312454152 0 0.020584311241574813 -0.003334404128640014 0 0.02078959566700634 -0.0032457767013609833 0 0.020109513341729734 -0.0036162432990742184 0 0.020584311241574813 -0.003334404128640014 0 0.02074299268614066 -0.0032406938845016002 0 0.020584311241574813 -0.003334404128640014 0 0.02074299268614066 -0.0032406938845016002 0 0.020914569980668325 -0.0031639008179930187 0 0.020914569980668325 -0.0031639008179930187 0 0.020965216707969803 -0.0031289555222738623 0 0.021251988048645466 -0.002980682402310073 0 0.02074299268614066 -0.0032406938845016002 0 0.020914569980668325 -0.0031639008179930187 0 0.021123389619782974 -0.0030441960254378735 0 0.020914569980668325 -0.0031639008179930187 0 0.021251988048645466 -0.002980682402310073 0 0.021123389619782974 -0.0030441960254378735 0 0.02087430972248893 -0.0032126457874607139 0 0.02078959566700634 -0.0032457767013609833 0 0.020879882264652257 -0.0031867074770017658 0 0.02078959566700634 -0.0032457767013609833 0 0.020914569980668325 -0.0031639008179930187 0 0.020879882264652257 -0.0031867074770017658 0 0.020914569980668325 -0.0031639008179930187 0 0.020879882264652257 -0.0031867074770017658 0 0.020965216707969803 -0.0031289555222738623 0 0.02087430972248893 -0.0032126457874607139 0 0.020879882264652257 -0.0031867074770017658 0 0.020965216707969803 -0.0031289555222738623 0 0.020909074330788965 -0.0029938877925502188 0 0.021489091691879365 -0.0028264910767625976 0 0.020965216707969803 -0.0031289555222738623 0 0.021489091691879365 -0.0028264910767625976 0 0.020965216707969803 -0.0031289555222738623 0 0.021251988048645466 -0.002980682402310073 0 0.021489091691879365 -0.0028264910767625976 0 0.021564058117116213 -0.0028487876230104013 0 0.021251988048645466 -0.002980682402310073 0 0.021564058117116213 -0.0028487876230104013 0 0.021364797165727638 -0.0029367403046354503 0 0.021495491486470036 -0.00288521478705407 0 0.021564058117116213 -0.0028487876230104013 0 0.021251988048645466 -0.002980682402310073 0 0.021364797165727638 -0.0029367403046354503 0 0.021364797165727638 -0.0029367403046354503 0 0.021495491486470036 -0.00288521478705407 0 0.021395320122337701 -0.0029825371846767114 0 0.02152074268228717 -0.0028722702661558609 0 0.021539911424915029 -0.0029556584435995454 0 0.021495491486470036 -0.00288521478705407 0 0.021567454997251777 -0.0028659409307227493 0 0.02152074268228717 -0.0028722702661558609 0 0.021495491486470036 -0.00288521478705407 0 0.021539911424915029 -0.0029556584435995454 0 0.021371948433533936 -0.0032001377252931064 0 0.021395320122337701 -0.0029825371846767114 0 0.021539911424915029 -0.0029556584435995454 0 0.021495491486470036 -0.00288521478705407 0 0.021395320122337701 -0.0029825371846767114 0 0.021371948433533936 -0.0032001377252931064 0 0.021123389619782974 -0.0030441960254378735 0 0.021395320122337701 -0.0029825371846767114 0 0.021364797165727638 -0.0029367403046354503 0 0.021123389619782974 -0.0030441960254378735 0 0.021395320122337701 -0.0029825371846767114 0 0.021251988048645466 -0.002980682402310073 0 0.021364797165727638 -0.0029367403046354503 0 0.021123389619782974 -0.0030441960254378735 0 
</DataArray>
</PointData>
<CellData Scalars="region_id,cross_section_updated," Vectors="" Tensors="stress,">
<DataArray type="Float64" Name="region_id" format="ascii">
5 5 5 5 5 6 5 5 5 5 5 5 5 6 5 5 5 5 6 5 5 6 5 5 5 5 6 5 5 5 5 6 5 5 5 5 5 5 5 5 5 5 5 5 5 6 5 5 6 5 5 5 5 5 6 5 5 5 5 5 5 5 6 5 5 5 5 6 5 5 5 5 5 5 5 5 5 6 5 5 6 5 5 6 5 5 5 5 6 5 5 5 5 5 5 5 6 6 6 5 5 6 5 5 5 5 5 6 5 5 5 5 5 5 5 5 5 5 5 5 5 6 5 5 5 6 5 5 5 5 5 5 6 5 5 5 5 5 5 5 5 5 5 5 5 5 5 5 5 5 5 5 5 5 5 5 5 5 6 5 5 5 6 5 5 6 5 5 5 5 5 5 5 5 5 5 5 6 5 5 5 5 5 5 5 5 6 5 5 5 5 5 5 5 5 6 5 5 5 5 5 5 5 5 5 6 5 5 5 5 5 5 5 5 5 5 5 5 5 5 5 5 5 5 5 5 5 5 5 6 5 5 5 6 5 6 5 6 5 5 6 5 5 5 6 5 6 5 6 5 6 6 5 6 5 5 6 5 6 5 5 5 6 5 6 6 5 5 6 5 5 5 6 5 6 6 6 5 6 5 5 5 6 5 6 6 6 5 5 6 6 5 5 5 5 6 5 6 5 5 6 5 5 5 6 5 6 6 6 5 5 5 6 5 6 6 6 6 5 5 5 6 6 5 5 6 6 6 5 6 5 5 5 5 6 5 5 5 5 5 5 5 6 5 5 5 5 5 5 6 6 5 5 5 6 5 5 5 6 5 6 5 6 6 5 5 5 5 6 5 5 6 5 5 5 5 6 5 6 5 5 5 5 5 6 6 5 5 5 5 5 5 5 5 6 5 5 5 6 5 5 6 5 6 5 5 5 5 5 5 5 5 5 5 5 6 5 6 5 6 5 5 5 6 5 6 5 6 5 5 5 5 5 5 6 5 6 5 5 5 6 5 5 5 6 5 6 6 5 5 5 5 6 5 5 5 5 6 6 5 5 6 5 6 5 6 6 5 5 5 6 5 5 5 5 6 5 5 5 5 5 5 5 5 5 5 5 6 5 5 5 5 6 5 5 5 6 5 6 6 6 5 5 5 6 6 5 6 5 5 6 5 5 5 5 6 5 5 5 5 5 5 5 5 5 5 5 6 6 5 5 6 5 5 5 6 5 5 5 5 5 5 6 5 5 5 6 5 5 5 6 5 5 5 5 5 5 5 5 5 5 5 6 5 5 5 6 5 5 5 5 5 5 5 6 5 5 5 5 5 6 5 5 5 5 5 5 5 5 5 5 5 5 5 5 5 5 5 5 5 6 5 5 5 5 6 5 5 6 5 5 5 5 5 5 5 6 5 5 5 5 5 5 5 5 6 5 6 5 5 6 5 5 5 6 5 5 6 5 5 5 6 5 6 5 5 6 5 6 5 5 5 5 5 5 5 5 5 5 5 5 5 5 5 5 5 5 5 5 5 5 6 5 6 5 6 5 5 5 5 5 5 5 5 5 5 5 5 5 5 5 6 5 5 5 5 5 5 5 5 5 6 5 5 5 5 5 5 5 5 5 5 5 5 5 5 5 5 5 5 5 5 5 5 5 5 5 5 5 5 5 6 5 5 6 5 5 5 6 6 5 6 5 5 5 5 5 6 5 5 5 5 5 6 5 5 5 5 5 5 5 5 5 5 5 5 5 5 5 5 5 5 5 5 5 5 5 5 5 5 5 5 5 5 5 5 5 5 5 5 5 5 5 5 5 5 5 5 5 5 5 5 5 6 5 5 5 5 5 5 5 5 5 5 5 5 5 5 5 6 5 5 5 5 6 5 5 5 5 5 5 5 5 5 5 5 5 5 5 5 5 5 5 5 5 5 5 5 5 5 5 5 6 5 5 6 5 6 6 6 6 5 5 6 5 5 5 5 5 5 5 5 5 5 5 5 5 5 5 5 5 6 5 5 6 5 6 5 5 5 5 6 5 6 5 5 5 5 6 5 5 5 6 5 5 5 5 5 6 5 6 5 5 6 6 5 6 5 5 5 5 5 5 5 5 5 5 5 6 5 5 5 6 5 5 5 6 5 5 6 6 6 5 5 5 5 5 5 5 5 5 5 5 6 5 5 5 5 5 5 5 5 6 6 6 5 5 5 5 5 5 5 5 6 6 5 5 5 6 5 5 6 5 5 5 5 5 5 5 5 5 5 5 6 5 5 5 5 5 5 5 5 6 5 5 5 5 5 5 5 5 5 5 6 5 6 6 6 5 5 5 5 5 5 5 6 6 5 6 5 5 5 5 5 6 5 6 6 5 5 5 6 5 6 5 5 5 5 6 5 5 5 5 5 5 5 5 5 5 5 5 5 5 5 5 5 6 5 5 5 6 5 5 5 5 5 6 5 5 5 5 5 5 6 5 6 5 5 5 5 5 5 5 5 6 5 5 5 6 5 5 5 5 5 5 5 5 5 5 5 5 5 5 5 5 5 5 5 5 5 5 5 5 5 6 6 6 5 5 5 5 6 5 5 5 5 6 5 5 5 5 5 5 5 6 5 5 5 5 5 5 5 5 6 5 5 5 5 5 5 5 5 5 5 5 5 6 5 5 5 5 5 5 6 5 5 5 5 5 5 5 5 6 5 5 5 6 5 5 5 5 5 5 5 5 5 5 5 5 6 5 5 5 5 5 5 5 5 5 5 5 5 5 5 5 5 5 5 5 5 5 5 5 5 5 5 5 5 5 5 5 5 5 5 5 5 5 5 5 5 5 5 5 5 5 5 5 6 5 5 5 5 5 5 5 5 5 5 5 5 5 5 5 5 5 5 5 5 5 5 5 5 6 5 5 5 5 5 5 5 5 5 5 6 5 5 6 5 5 5 5 5 5 5 5 5 6 5 6 5 5 5 5 6 5 5 6 5 6 5 5 5 5 5 6 5 5 5 5 5 5 5 5 6 5 5 5 5 5 5 5 5 5 5 5 5 5 5 6 5 6 6 5 5 5 5 5 6 5 5 5 5 5 5 5 5 5 5 5 5 5 5 5 6 5 5 5 5 5 5 5 5 5 5 5 5 5 5 5 5 6 5 5 5 5 5 6 6 5 5 6 5 5 5 5 5 5 5 5 5 5 6 5 5 5 5 5 5 5 5 5 6 5 6 5 5 5 5 5 6 5 5 5 5 6 5 5 5 6 5 5 5 6 5 5 6 5 5 5 5 5 5 5 5 5 5 5 5 5 5 5 5 6 5 5 5 5 5 5 5 6 5 5 5 5 5 5 5 5 5 5 5 5 5 5 5 5 5 5 5 5 5 5 5 5 5 5 5 6 5 5 5 5 6 5 5 5 6 5 5 5 5 5 5 5 5 5 6 5 6 5 5 5 5 5 5 5 5 5 5 5 5 5 5 5 5 5 5 6 6 5 5 5 6 5 5 6 5 5 6 5 5 5 6 5 5 6 5 5 5 5 5 5 5 5 5 5 5 5 5 5 5 5 5 5 5 5 6 5 6 5 5 5 5 5 5 5 5 5 5 5 6 5 6 5 5 5 6 5 5 5 5 5 6 5 5 5 5 5 5 6 5 5 5 5 5 5 5 5 5 5 5 6 5 5 5 5 5 5 5 5 6 5 5 5 6 5 5 6 5 5 5 5 5 6 5 5 5 5 5 5 5 5 5 6 5 5 6 5 6 5 6 6 6 5 6 5 5 5 5 5 5 6 5 5 5 5 5 5 6 5 5 5 5 5 5 5 6 5 5 5 5 6 5 5 5 5 5 6 5 6 5 5 5 5 5 5 5 5 5 5 6 5 5 5 5 5 5 5 6 5 5 5 5 5 5 5 6 5 6 5 5 5 5 5 5 5 5 6 5 5 5 6 6 5 5 5 5 5 6 6 5 6 5 5 6 5 5 6 5 5 5 5 5 5 5 5 6 5 5 5 5 5 6 5 5 5 5 6 5 5 6 5 5 5 5 5 5 5 5 5 5 5 5 5 5 5 5 5 5 5 5 5 5 5 5 5 5 5 5 5 5 5 5 5 5 5 5 5 5 5 5 5 6 5 5 6 5 5 5 5 5 6 5 5 5 5 6 5 5 5 5 5 5 5 5 5 5 5 5 5 5 5 5 5 5 5 5 5 5 5 5 6 5 5 5 6 5 5 5 5 5 5 6 5 5 5 5 5 5 5 5 5 5 5 6 5 6 6 5 5 6 5 5 5 5 5 5 5 5 5 5 5 6 5 5 6 5 5 5 5 5 5 5 5 5 5 5 5 5 5 5 6 5 5 5 5 5 5 5 6 5 6 5 5 5 5 6 5 6 5 5 5 5 5 5 5 5 5 6 5 5 5 5 5 5 5 5 5 5 5 5 5 5 5 5 5 6 5 5 5 5 5 5 5 5 5 5 5 5 5 5 5 5 5 5 5 5 5 5 5 5 5 6 6 5 5 5 5 5 5 5 5 5 5 5 6 5 5 5 5 6 5 5 5 5 6 5 5 5 5 5 5 5 5 6 5 5 5 5 5 5 5 5 5 6 5 5 5 5 5 5 5 5 5 5 5 5 5 5 5 5 5 5 5 5 6 5 5 5 5 5 5 5 5 5 5 5 5 5 5 6 5 6 5 5 5 5 5 5 5 5 6 5 5 6 5 5 5 5 5 5 5 5 5 5 5 5 5 5 5 5 5 5 5 5 5 5 5 5 5 5 5 5 5 5 5 5 5 5 5 5 6 5 5 6 5 5 5 5 6 5 6 5 5 6 5 6 5 5 5 5 5 6 5 5 5 5 5 5 5 5 5 5 5 5 6 5 5 5 6 5 5 5 5 5 5 5 5 5 6 5 5 5 5 6 6 5 5 5 5 5 5 5 5 6 5 5 5 5 5 6 5 5 5 6 5 5 5 6 5 5 5 5 6 5 5 5 5 5 5 5 5 5 5 5 5 5 5 6 5 5 5 5 5 5 6 5 6 6 5 6 5 6 5 5 5 5 6 5 5 5 5 6 5 5 5 5 5 5 5 5 5 6 5 5 5 5 5 5 5 5 5 5 5 5 5 5 6 5 5 5 6 5 5 5 6 5 6 5 5 5 5 5 5 5 5 5 5 5 5 5 5 5 5 6 5 5 5 5 5 5 6 5 5 5 5 5 5 5 5 5 5 5 5 5 5 5 5 5 5 6 5 5 5 5 5 5 5 5 5 5 5 5 5 5 5 5 5 5 5 5 5 5 5 5 5 5 5 5 5 5 5 5 5 5 6 5 5 5 5 6 5 5 5 5 5 5 5 6 5 5 5 5 5 5 5 5 5 6 5 5 6 5 5 5 5 5 6 5 5 5 6 5 5 6 5 5 5 5 5 5 5 5 5 5 5 5 5 5 5 5 5 5 5 5 6 5 5 5 5 5 5 5 5 5 5 6 6 5 6 5 5 5 5 5 6 5 5 5 5 6 5 5 5 5 5 6 5 6 5 5 6 5 5 5 5 5 5 5 5 6 5 5 5 5 5 5 6 5 5 5 5 5 5 6 5 5 5 5 6 5 5 6 5 6 5 5 6 5 5 5 5 5 5 6 5 5 5 5 6 5 5 5 5 5 5 5 5 6 6 5 5 5 5 5 5 5 5 6 5 5 5 5 5 5 6 5 5 5 5 5 5 5 6 5 5 5 6 5 5 5 5 5 5 5 5 5 5 5 5 6 5 5 5 5 6 5 5 6 5 5 5 5 6 5 5 5 6 6 5 5 5 6 5 5 5 6 5 5 5 5 5 5 5 5 5 6 5 5 5 6 5 5 5 5 5 5 5 5 5 5 5 5 6 5 6 5 5 6 5 5 6 5 5 5 5 5 5 5 6 5 5 5 5 5 6 5 6 5 5 5 6 6 5 6 6 5 6 5 5 5 5 5 5 6 5 6 5 5 5 5 5 5 5 5 5 5 5 5 5 6 5 5 6 5 6 5 5 6 5 5 5 6 6 5 5 6 5 5 5 5 5 5 5 5 5 5 5 5 5 5 5 5 5 5 5 5 5 5 5 6 6 5 6 5 6 5 5 6 6 5 5 6 5 5 6 5 5 6 5 6 5 5 5 5 6 5 5 5 5 6 5 6 6 5 6 5 5 6 6 5 5 5 6 5 5 5 5 6 6 5 5 5 5 5 6 5 5 5 5 5 5 5 5 5 5 5 6 5 6 5 6 5 5 6 5 6 5 5 5 5 5 5 5 5 6 5 5 6 5 5 5 5 6 5 5 5 5 5 5 5 5 5 5 5 5 6 5 5 5 5 5 5 5 5 5 5 5 6 5 5 5 5 5 5 6 5 6 5 5 6 5 5 5 5 5 5 5 5 5 5 5 5 5 5 5 5 5 6 6 5 5 5 6 5 5 6 5 5 5 5 5 5 5 5 5 5 5 5 5 5 5 5 5 5 5 5 5 5 5 5 5 6 6 5 5 5 5 5 5 5 5 5 5 5 6 5 5 5 5 5 5 5 5 5 5 5 5 5 5 5 5 5 5 5 5 5 5 5 5 5 5 5 5 5 5 5 5 5 6 5 5 5 5 5 6 5 5 6 5 5 6 6 5 5 5 5 5 5 5 5 5 5 5 5 5 6 5 5 6 5 5 5 5 5 5 6 5 5 6 5 5 5 5 5 5 5 5 5 5 5 5 5 6 5 5 5 5 5 5 5 6 5 5 5 5 5 5 5 5 5 5 5 5 6 5 5 6 5 5 5 5 5 5 5 5 5 5 5 5 5 5 5 5 5 5 5 5 6 5 5 6 5 6 5 5 5 6 5 5 6 5 6 5 5 5 6 5 5 5 5 6 5 5 5 5 5 5 5 6 5 5 5 6 5 5 5 5 5 5 5 5 5 5 5 5 6 5 5 5 5 5 5 5 5 6 5 5 5 5 5 5 5 5 5 5 5 6 5 5 5 5 5 5 5 5 5 5 5 5 5 5 5 5 5 5 5 6 6 5 5 5 6 5 5 5 5 5 5 5 5 5 5 5 5 6 5 5 5 5 5 5 5 5 5 6 5 5 5 5 5 5 5 5 5 5 5 5 5 5 5 5 6 5 6 5 5 5 5 5 6 5 5 5 5 6 5 5 5 6 5 5 5 6 5 5 5 5 5 5 5 5 5 6 5 5 5 6 5 5 6 5 5 5 5 5 5 6 5 5 5 5 5 5 5 5 6 5 5 5 6 5 5 5 5 5 5 5 5 5 5 5 5 5 5 5 5 5 5 5 5 5 5 5 5 5 5 5 6 5 5 5 5 5 5 5 6 5 5 5 5 5 5 5 5 5 5 5 5 5 5 5 5 5 5 5 5 5 5 5 5 5 6 5 6 5 5 5 5 5 5 6 5 5 5 6 5 5 6 5 5 5 5 5 5 5 5 5 5 5 5 6 5 5 5 5 5 6 5 5 5 5 5 5 5 5 5 5 5 5 5 6 5 5 5 6 5 5 5 5 5 5 5 5 5 5 5 5 6 6 5 5 5 5 6 5 5 5 5 5 5 5 5 5 6 6 5 5 5 5 5 6 5 5 5 5 5 6 5 5 5 5 5 6 5 6 5 5 5 5 6 5 6 5 6 6 5 5 5 5 5 5 5 6 6 5 5 5 5 5 5 6 6 6 5 6 6 5 5 5 6 5 5 5 5 5 6 6 6 5 6 5 5 5 6 5 6 6 5 5 5 5 5 5 5 6 6 5 5 6 6 6 5 5 5 5 5 5 5 5 5 5 5 5 5 5 5 5 5 5 5 5 5 5 5 5 5 5 5 5 5 5 5 5 5 5 5 5 5 5 5 5 6 5 5 5 5 5 5 5 5 5 5 6 5 5 5 5 5 5 6 5 5 6 5 5 5 5 5 5 5 5 5 5 5 5 5 6 5 6 5 5 5 5 6 5 5 5 6 5 5 6 5 5 5 6 5 5 6 5 5 5 5 5 6 5 5 5 5 5 5 5 6 5 5 5 5 5 5 5 6 5 5 6 5 5 5 5 6 5 6 5 5 5 5 5 6 5 5 5 5 6 5 5 5 5 5 5 6 6 5 5 5 5 5 6 5 5 6 5 5 5 5 5 5 5 5 5 5 6 5 5 5 5 5 5 5 5 5 5 5 5 5 5 5 5 5 5 6 5 5 5 5 5 5 6 5 5 5 5 5 5 5 6 6 5 5 5 5 6 5 5 5 5 5 5 5 6 5 5 6 5 6 6 6 5 5 5 5 5 5 6 5 5 5 5 5 6 5 5 5 5 6 5 5 5 6 5 5 5 6 5 5 5 5 5 5 5 5 5 5 5 5 5 5 5 5 5 5 5 5 5 5 5 5 5 6 5 5 5 5 5 5 5 6 5 6 5 5 5 5 5 5 6 5 5 6 5 5 5 6 5 5 6 5 5 5 5 5 6 5 5 5 6 6 5 5 5 5 5 5 5 5 5 5 5 5 6 5 5 5 5 5 5 5 5 5 6 5 5 5 5 5 6 6 5 5 5 5 5 5 5 5 5 6 5 5 5 5 5 5 5 5 6 5 5 5 5 5 5 5 5 5 5 5 5 5 5 5 5 5 5 6 5 5 5 5 6 5 6 5 6 5 5 5 5 5 5 5 5 5 5 5 5 5 5 5 5 5 6 5 5 5 5 5 6 5 5 5 6 6 5 5 5 5 5 6 5 5 5 5 6 5 5 5 5 5 5 5 5 6 5 5 5 5 5 5 5 6 5 5 5 5 5 5 5 5 5 6 5 5 5 5 5 5 5 5 5 5 5 5 5 5 5 5 5 5 6 5 5 5 5 5 5 5 5 5 5 5 5 5 6 5 5 5 5 5 5 6 5 5 6 5 5 6 5 5 5 5 5 5 5 5 5 5 5 5 5 5 5 5 5 5 5 5 5 5 5 5 5 5 6 5 6 5 6 6 5 5 5 6 5 5 5 5 5 5 5 5 5 6 6 5 6 5 5 5 5 5 5 5 5 5 5 5 5 5 5 6 5 6 6 5 6 5 5 5 5 5 5 5 5 5 6 6 5 5 5 5 5 5 5 5 5 5 5 5 5 5 5 5 5 5 5 5 5 5 6 5 5 5 5 5 6 5 5 5 5 5 6 5 5 5 6 5 5 5 5 5 5 5 5 5 6 5 5 5 5 6 5 5 5 5 5 5 6 5 5 5 5 5 5 5 6 5 5 5 5 6 5 5 5 5 5 5 5 5 5 5 6 5 5 5 5 6 5 5 5 6 5 5 5 5 5 6 5 5 5 5 5 5 5 5 5 5 5 5 5 5 6 6 5 5 6 5 5 5 5 5 5 5 6 5 5 5 5 5 5 6 5 5 5 5 5 5 5 5 5 5 5 5 5 5 5 5 5 5 5 5 5 5 5 6 5 5 5 5 5 5 5 5 6 5 5 5 5 6 5 5 5 5 5 6 5 6 5 6 5 5 5 5 5 5 5 6 5 5 5 6 5 5 5 5 5 6 5 5 5 5 5 6 5 6 5 5 6 5 6 5 5 5 5 5 6 5 5 5 6 5 5 5 5 5 5 5 5 5 5 6 5 5 5 5 5 5 5 5 5 5 5 5 5 5 5 5 5 5 5 5 5 5 6 5 5 5 5 5 5 5 5 5 5 5 5 5 5 5 5 5 5 6 5 5 5 6 5 5 5 5 5 5 6 5 5 5 6 6 5 6 5 6 6 5 6 5 5 6 5 5 6 6 5 5 5 5 5 5 5 5 6 5 6 5 5 5 5 5 5 5 5 5 5 5 5 5 5 5 5 5 5 5 5 5 5 6 5 5 5 5 5 5 5 5 6 5 5 6 5 5 6 6 5 5 6 5 5 5 5 5 5 5 5 5 5 5 5 5 5 5 5 5 5 5 5 5 5 5 5 5 5 5 5 5 5 5 5 5 5 5 5 5 5 5 6 5 6 5 5 5 5 5 5 5 5 5 5 5 5 5 5 5 5 5 5 5 5 5 5 5 5 5 5 5 5 5 5 5 5 5 5 5 5 5 5 5 5 6 5 5 6 5 5 5 5 5 6 5 6 5 5 6 5 5 5 5 5 5 6 5 5 5 5 5 5 5 5 5 5 5 6 5 5 6 6 5 6 5 5 6 5 5 5 5 6 5 5 5 5 5 5 5 5 5 6 5 6 5 5 5 5 5 5 5 6 5 6 5 5 5 5 5 5 5 5 5 6 5 6 5 5 5 5 5 5 5 5 5 5 6 5 5 5 6 5 5 6 5 5 6 5 5 5 5 6 5 5 5 6 5 5 5 5 5 5 5 5 5 5 5 5 5 5 6 5 5 5 5 5 5 6 5 6 5 6 5 5 5 6 5 5 5 5 5 5 5 5 6 5 5 5 5 5 6 5 5 6 5 5 5 5 5 5 5 5 5 6 5 5 5 6 5 5 5 5 5 5 6 5 5 5 5 5 5 5 5 5 5 5 5 5 5 5 5 5 5 5 5 5 5 5 5 5 5 5 5 5 5 5 6 5 5 5 5 5 6 5 5 6 6 5 5 5 5 6 5 5 5 5 5 6 5 5 5 5 5 5 5 5 5 5 5 5 5 5 5 5 6 5 5 5 5 5 5 5 5 6 6 5 5 5 5 5 5 6 5 5 5 5 6 5 5 5 5 5 5 5 5 5 5 5 5 5 5 5 5 5 5 5 5 5 5 5 5 6 5 5 6 5 5 5 5 5 5 5 5 5 5 5 5 5 5 5 5 5 5 5 5 5 5 5 5 5 5 5 6 5 6 5 5 5 5 5 6 5 5 5 5 5 5 5 5 5 5 5 5 5 5 5 5 5 5 5 5 6 6 5 6 5 5 5 5 5 5 5 5 5 5 5 5 5 5 5 5 6 5 5 5 6 5 5 5 5 5 5 5 5 5 5 5 5 5 6 5 5 5 5 5 5 5 5 5 5 5 5 5 5 5 5 5 5 5 5 5 5 6 5 5 5 5 5 5 5 5 5 5 5 5 5 6 5 6 5 5 6 6 5 5 5 5 5 5 5 5 5 5 5 5 5 5 5 5 5 5 5 5 6 5 5 6 5 5 5 6 5 5 5 5 5 5 6 5 5 5 6 5 5 5 5 5 5 5 5 6 5 5 6 5 5 6 5 6 5 5 5 5 6 6 5 5 6 6 5 5 6 5 5 5 5 6 5 5 6 6 5 6 5 5 5 5 5 5 5 5 5 5 5 5 5 5 5 5 5 5 5 5 6 5 5 5 5 6 5 5 5 5 6 6 5 5 5 5 5 5 5 5 5 5 5 5 6 5 5 5 6 5 5 5 5 5 5 5 6 5 5 5 6 5 5 6 6 5 5 5 6 5 5 5 6 5 5 5 5 5 5 5 5 5 5 5 5 5 5 5 5 5 5 6 5 5 5 5 5 5 5 5 5 5 5 5 5 5 5 5 5 5 6 6 5 5 5 5 5 6 6 5 6 5 5 5 5 5 5 5 5 5 6 5 5 5 6 5 5 5 5 5 5 5 5 5 5 5 5 5 5 6 5 5 5 5 5 5 5 6 5 5 6 5 5 5 5 5 5 6 5 5 5 5 6 5 5 5 5 5 5 6 5 5 5 5 5 5 5 5 6 6 5 5 5 6 6 5 5 5 5 5 6 5 5 5 5 5 5 6 5 5 5 5 6 5 5 5 5 5 6 5 5 5 5 6 5 5 5 5 5 5 5 5 5 5 5 5 5 5 5 5 5 5 5 5 5 5 5 5 5 6 5 5 5 5 6 5 6 5 6 5 5 6 5 5 6 5 5 6 5 5 5 5 5 5 6 5 5 6 5 6 6 6 5 5 6 5 6 6 5 5 5 6 5 6 5 5 5 5 5 5 6 5 5 5 6 5 5 5 5 5 5 5 6 5 5 5 6 5 6 6 5 5 5 5 5 5 5 6 5 5 5 5 5 5 5 5 6 6 5 5 5 5 6 5 5 6 5 5 5 6 5 5 5 6 6 5 5 5 5 6 5 5 5 5 5 6 6 5 5 5 5 5 5 5 5 5 5 5 5 5 5 5 5 5 5 5 5 5 5 5 5 5 5 5 5 5 5 5 6 5 5 5 6 5 5 5 5 5 5 5 5 5 5 5 5 5 5 5 6 5 6 6 5 5 6 5 5 5 5 5 5 5 5 5 5 5 5 5 5 5 5 5 5 5 5 5 5 5 6 5 5 6 6 5 5 5 5 5 5 5 6 5 5 5 6 5 5 5 5 6 6 5 5 5 5 5 5 5 6 5 5 5 5 6 5 5 5 5 6 5 5 5 5 5 5 5 5 5 5 5 5 5 5 5 5 5 5 5 6 5 5 5 5 5 5 5 5 5 5 5 5 5 5 5 5 6 5 5 5 6 5 5 5 5 5 5 5 5 5 6 5 5 5 5 5 5 5 5 5 5 5 5 5 5 5 5 5 5 5 5 5 6 5 5 5 5 5 5 5 5 5 5 5 5 5 5 5 5 5 6 5 5 5 5 5 6 5 5 5 5 5 5 5 5 5 5 5 5 5 5 5 5 5 5 5 5 5 5 5 5 5 5 5 6 5 5 6 5 5 5 6 5 5 5 5 5 5 5 5 5 5 5 5 5 5 5 6 5 6 5 5 5 5 5 5 5 5 5 6 5 5 5 5 5 5 5 5 5 6 6 5 5 5 5 5 5 5 5 5 5 5 5 5 5 5 5 5 5 5 5 5 5 5 5 5 5 5 5 5 5 5 5 5 5 5 5 5 5 5 5 5 5 5 5 5 5 5 5 5 5 5 5 5 5 5 5 5 5 5 5 5 5 5 5 5 5 5 5 5 5 5 6 5 5 5 5 5 5 6 5 5 5 5 5 5 5 5 5 6 5 6 5 5 5 5 5 5 5 5 5 5 5 5 5 5 5 5 5 5 5 5 5 5 5 5 5 5 5 5 5 5 5 5 5 5 6 5 5 5 6 6 5 5 5 5 5 5 5 5 5 5 5 5 5 5 5 5 5 5 5 5 5 5 6 6 5 5 5 5 5 5 5 5 6 5 5 5 5 5 5 6 5 5 5 5 5 6 5 5 5 5 6 5 5 5 6 5 5 5 6 5 5 6 5 5 5 5 5 5 5 5 5 5 5 5 5 6 5 5 5 5 5 5 5 5 6 5 5 5 5 5 5 5 5 5 5 5 6 5 5 5 6 5 5 5 5 6 5 5 5 5 5 5 5 5 6 5 6 5 5 6 5 5 5 5 5 6 5 5 5 5 5 5 5 5 5 5 5 5 6 5 5 5 5 5 5 5 5 5 6 5 5 5 5 5 5 6 5 5 5 5 5 5 5 6 5 5 5 5 5 6 5 5 5 5 5 5 5 5 5 5 5 5 5 5 5 5 5 5 5 5 5 5 5 5 5 5 5 5 5 5 5 5 5 5 5 5 5 5 5 5 5 5 5 5 5 5 5 6 5 6 5 5 5 5 5 5 5 5 5 5 5 5 5 5 6 5 5 5 5 5 5 5 5 5 5 5 5 5 5 5 6 5 5 6 5 6 5 5 5 5 5 6 5 5 5 5 5 5 5 5 5 5 5 5 5 5 5 5 5 5 5 5 6 5 5 5 5 5 5 5 5 5 5 5 6 5 6 5 5 6 5 6 5 5 5 5 5 5 5 6 5 6 5 5 5 5 6 5 5 5 5 6 6 5 5 6 5 5 5 5 5 5 5 5 5 5 5 5 5 5 5 5 6 5 5 5 5 5 5 5 5 5 5 5 5 5 5 6 5 6 5 5 5 5 5 5 5 6 5 6 5 5 5 5 5 5 5 5 5 6 6 5 5 5 6 5 5 5 5 6 5 6 5 5 6 5 6 6 6 5 5 6 5 5 5 6 6 6 5 5 5 5 5 5 5 5 5 5 5 6 5 5 5 5 5 5 6 5 5 5 6 5 5 5 5 5 5 5 5 6 5 5 5 6 5 5 5 5 5 5 5 5 5 5 5 5 5 5 5 5 5 5 5 5 5 5 5 5 5 5 5 5 5 5 5 5 5 5 5 5 5 5 5 5 5 5 5 5 5 5 5 5 5 5 5 5 5 5 5 5 5 5 5 5 6 5 5 5 5 5 6 5 5 5 5 6 5 5 5 6 5 5 5 5 5 5 5 5 5 5 5 5 5 5 5 5 5 5 5 5 5 5 5 5 5 5 5 5 5 5 5 5 5 5 5 5 5 5 5 5 6 5 5 6 5 5 5 5 5 5 5 6 5 5 5 5 5 5 5 5 5 5 5 6 5 5 6 5 6 5 5 5 6 5 5 5 5 5 5 5 5 6 5 5 5 5 6 5 5 5 5 6 5 6 5 5 5 5 5 5 5 5 5 5 5 5 6 5 6 5 5 5 5 5 5 5 5 5 5 5 5 5 6 5 5 5 5 5 5 5 5 5 6 5 5 5 6 5 5 5 5 5 5 5 5 5 5 5 5 5 5 5 5 5 5 5 5 5 5 5 5 5 5 5 5 5 5 5 5 5 5 5 6 5 5 6 5 5 5 5 6 5 5 5 5 5 5 5 5 5 5 5 5 5 5 5 6 5 5 5 5 5 5 5 5 5 6 5 6 5 5 5 5 5 5 5 6 5 5 5 5 5 5 5 5 5 5 5 5 5 5 6 5 5 5 5 5 5 5 5 5 5 5 6 5 5 5 5 5 5 5 5 5 5 5 5 5 5 5 5 5 5 5 5 5 5 5 6 5 6 5 5 5 5 5 5 6 5 6 5 5 5 6 5 5 5 6 5 5 5 6 5 5 6 5 5 5 5 5 5 5 6 5 5 5 5 5 5 5 6 5 5 5 5 5 5 5 5 5 5 5 5 5 6 5 5 5 5 5 5 5 5 6 5 5 5 5 5 5 5 5 5 5 5 5 5 5 5 5 5 5 5 5 6 5 5 5 5 5 5 5 5 5 5 5 5 5 5 5 5 5 5 5 5 5 5 5 5 5 5 5 5 5 5 5 5 5 5 5 5 5 5 5 5 5 5 5 5 5 5 5 5 5 5 6 5 6 5 5 5 6 5 5 6 6 5 6 5 5 5 5 5 5 5 5 5 5 5 5 5 5 5 5 5 5 5 5 5 5 5 5 5 5 5 5 5 5 5 5 5 5 5 6 5 5 5 5 6 5 5 6 5 5 5 6 5 5 5 5 6 5 6 6 5 5 5 5 6 5 5 5 6 5 5 5 6 5 5 5 5 5 5 6 5 5 5 5 5 5 5 5 5 5 5 5 5 5 5 5 5 5 5 5 6 5 5 5 5 5 5 5 5 5 5 5 5 5 5 5 5 5 5 6 5 5 6 5 5 6 5 5 5 5 5 5 5 5 5 5 5 6 5 5 5 5 6 5 5 5 5 6 5 5 5 6 5 5 5 5 5 5 5 5 5 5 5 5 5 5 5 5 5 5 5 5 5 5 5 5 5 6 5 5 5 5 5 5 5 5 6 5 5 5 6 5 5 5 5 5 5 5 5 5 5 5 5 5 5 5 5 5 5 5 5 5 5 5 5 6 5 5 5 6 5 5 5 5 5 5 5 5 6 5 5 6 5 5 5 5 6 5 5 5 5 5 5 5 6 5 6 5 5 6 5 5 6 6 5 5 5 5 5 5 5 5 5 5 5 5 5 5 5 5 5 5 5 5 5 6 5 5 5 5 6 5 5 5 5 5 5 5 5 5 5 5 5 5 6 5 5 6 5 5 5 5 5 5 5 5 5 5 5 5 5 5 5 5 5 5 5 5 5 5 5 5 5 5 5 5 5 5 5 5 5 5 5 5 5 5 5 5 5 5 5 5 5 5 5 5 5 5 5 5 5 5 5 5 5 5 5 5 5 5 5 5 5 5 5 5 5 5 5 5 5 5 5 5 5 5 5 5 5 5 5 5 5 5 5 5 5 5 5 5 5 5 5 5 5 5 5 5 5 5 5 5 5 5 5 5 5 5 5 5 5 5 5 5 5 5 5 5 5 5 5 5 5 5 5 5 6 5 5 5 5 5 5 5 6 5 5 5 5 5 5 5 5 5 6 5 6 5 5 5 6 5 5 6 5 5 5 5 5 5 5 5 5 5 5 5 5 5 5 5 5 5 5 5 5 5 5 5 5 5 5 5 5 5 5 5 5 5 5 5 5 6 5 5 6 6 5 5 6 5 5 6 5 5 5 6 5 5 5 5 5 5 5 5 5 6 5 5 5 5 5 5 6 5 5 5 5 5 5 5 5 5 5 5 5 5 5 5 5 5 5 5 5 5 5 5 5 5 5 5 5 5 5 5 6 5 5 5 5 5 5 5 5 5 5 5 5 5 5 5 5 5 5 5 5 5 5 5 5 5 5 5 5 5 5 5 5 5 5 5 5 5 5 5 5 5 5 5 5 5 5 6 5 6 5 5 5 5 6 5 5 5 5 6 5 5 5 5 6 5 5 5 5 5 5 5 5 6 5 5 6 5 6 5 5 5 5 6 5 5 6 6 5 5 5 5 5 5 6 5 5 5 5 5 5 5 5 5 5 6 6 5 5 5 5 5 6 5 5 6 5 5 5 5 6 5 5 6 5 5 5 5 5 5 5 5 5 5 5 5 5 5 5 5 5 5 5 5 5 5 5 5 5 5 5 5 5 6 5 6 5 5 5 5 5 5 5 5 5 5 5 5 5 6 5 5 5 5 6 6 5 5 5 5 5 5 5 5 5 5 5 5 5 5 5 5 5 5 5 5 5 5 5 5 5 5 5 5 5 5 5 5 5 5 5 5 5 5 5 5 5 5 6 5 5 5 6 5 5 5 5 5 5 5 5 5 5 5 5 5 5 5 5 5 5 5 5 6 5 5 6 5 5 5 5 5 5 5 5 5 6 5 5 5 5 5 6 5 5 5 5 5 6 5 6 5 5 5 5 5 5 5 5 5 5 5 5 5 6 5 5 5 6 6 5 5 5 5 5 5 5 5 6 5 5 6 5 5 6 6 5 5 5 5 5 6 5 5 5 5 5 5 5 6 5 5 6 6 5 5 5 5 5 5 6 6 5 5 5 6 5 5 5 5 5 5 5 6 5 5 5 5 5 5 5 5 5 5 5 5 5 5 5 5 5 5 5 5 5 5 5 5 5 5 6 5 5 5 5 5 5 5 6 5 5 5 5 5 5 5 5 5 5 5 6 5 5 5 5 5 5 5 5 6 5 5 5 5 5 5 5 5 5 5 5 5 5 5 5 5 6 5 5 5 6 5 5 5 5 5 6 5 5 5 5 5 5 5 5 5 5 5 5 5 5 6 5 5 5 5 6 5 5 6 5 5 5 5 5 6 5 5 5 5 5 5 5 5 5 5 5 5 5 5 6 5 6 5 5 5 6 5 6 5 6 5 5 5 5 5 5 6 6 5 5 5 5 5 5 6 5 6 5 5 5 5 5 5 5 5 5 5 5 5 5 5 5 5 5 6 5 5 5 6 6 5 5 5 5 5 6 5 5 6 6 5 5 5 5 5 5 5 5 5 5 5 5 5 5 5 5 5 5 5 5 5 5 5 5 5 5 5 5 5 5 5 5 5 5 5 5 5 5 5 5 5 5 5 5 6 5 5 6 6 6 5 5 5 5 5 5 6 5 5 5 5 5 5 5 5 5 6 5 5 5 6 5 5 5 5 5 5 5 5 5 5 5 5 5 5 5 5 5 5 5 5 6 5 5 5 5 6 5 5 5 5 5 5 5 5 5 5 5 5 5 5 5 5 5 5 5 5 5 5 5 5 5 5 5 5 5 5 5 5 5 5 6 5 6 5 5 5 5 5 5 5 5 6 5 5 5 6 5 6 5 5 5 5 5 5 5 5 6 5 5 5 5 6 5 5 5 5 6 5 5 5 5 5 5 5 6 5 5 5 5 6 5 5 5 5 5 5 5 5 5 5 5 5 5 5 5 5 5 5 5 5 5 5 5 5 5 5 5 5 5 5 5 5 5 5 5 5 5 5 5 5 5 5 5 5 5 5 6 5 5 5 5 6 6 5 5 6 6 5 5 5 5 5 5 5 5 5 5 5 5 5 5 5 5 5 5 5 6 5 5 5 6 6 5 5 5 5 5 5 5 5 5 5 5 5 5 5 5 5 5 5 5 5 5 5 5 5 5 5 5 6 5 5 5 5 5 5 5 6 5 5 5 5 5 5 5 5 5 5 5 5 5 5 5 6 5 5 5 5 5 5 5 5 6 5 6 6 5 5 5 5 5 5 5 5 5 5 5 5 6 5 5 5 5 5 5 5 5 5 5 5 5 5 5 5 5 5 5 6 5 5 5 6 5 5 5 5 5 5 5 5 6 5 5 5 5 5 5 5 5 5 5 5 5 5 5 5 6 5 5 5 6 5 5 5 5 5 5 5 5 5 5 5 5 5 5 5 5 5 5 5 5 5 5 5 5 5 5 5 5 5 5 5 5 5 6 5 6 5 5 5 5 5 5 5 5 6 5 5 5 5 5 5 5 5 5 6 5 5 6 5 5 5 5 5 6 5 5 5 5 6 5 5 5 5 6 5 5 5 6 5 6 5 5 6 5 5 5 5 5 5 5 5 5 5 5 5 5 5 6 5 5 6 5 6 5 5 5 6 5 5 6 5 5 5 5 6 5 6 5 5 5 5 5 5 6 5 6 5 5 5 5 5 6 5 5 5 5 6 5 5 5 5 5 5 6 5 5 5 5 5 5 5 5 5 5 5 5 5 5 5 5 5 5 5 5 5 5 5 5 5 5 5 5 5 5 5 5 5 6 6 5 5 5 5 5 5 5 5 5 5 6 5 5 6 6 5 6 5 5 5 5 5 5 5 6 5 5 5 5 5 5 5 5 5 5 5 5 6 5 5 5 5 6 5 5 5 5 5 5 5 5 5 5 5 5 6 5 5 5 5 5 5 5 5 5 5 5 5 5 5 5 5 5 6 5 5 5 5 5 6 5 5 5 6 5 5 5 5 5 5 6 5 6 5 5 5 6 5 5 5 5 5 5 5 5 5 6 5 5 6 5 5 5 5 5 5 5 6 5 5 5 5 5 5 5 5 5 5 5 5 5 6 5 5 6 5 5 5 5 5 5 6 5 5 5 5 5 5 6 5 5 5 5 5 5 5 6 5 5 5 5 5 5 5 5 5 5 5 5 5 5 5 5 5 5 5 5 5 5 6 5 5 5 5 5 5 5 5 5 5 6 5 5 5 5 6 6 5 5 5 5 6 5 5 5 5 5 5 5 5 5 6 5 5 5 5 5 5 5 5 5 5 5 6 5 5 5 6 5 5 5 6 5 5 5 5 5 5 5 5 5 5 5 5 6 5 5 5 5 5 6 5 5 6 5 5 5 5 5 5 5 5 5 5 5 5 5 5 6 5 5 5 5 5 5 5 6 5 5 5 6 5 5 5 5 5 6 5 5 5 5 5 5 5 5 5 6 5 5 5 5 5 5 5 5 6 5 5 5 5 5 6 5 5 5 5 5 5 5 6 5 5 5 5 5 5 5 5 5 5 5 5 5 5 5 5 5 5 5 5 5 5 5 5 5 5 5 5 5 5 5 5 5 5 5 5 5 5 5 5 5 5 5 5 5 5 5 5 6 5 5 5 5 5 5 5 6 5 5 5 5 5 5 5 5 5 5 5 5 5 5 5 5 5 5 5 5 5 5 6 6 5 5 6 6 5 5 5 5 5 5 5 6 5 5 5 5 5 5 5 5 5 5 5 5 5 5 6 5 5 5 5 5 5 5 5 6 5 5 6 5 5 5 6 5 5 5 5 5 5 5 5 5 5 5 5 5 5 5 5 5 5 5 5 5 5 5 5 5 5 5 5 6 5 5 5 5 5 5 5 5 6 5 5 5 5 5 5 6 6 5 5 5 5 6 5 5 6 5 5 6 5 5 5 5 5 5 6 5 5 5 5 5 5 5 5 6 5 5 5 5 5 5 5 5 5 5 5 6 5 5 6 5 5 5 5 5 5 5 6 5 5 5 6 5 6 5 6 5 5 5 5 5 5 5 5 5 5 5 5 5 5 5 5 5 6 5 6 5 5 5 5 5 5 5 5 5 5 6 5 5 5 5 5 5 5 6 5 5 5 6 5 6 6 5 5 6 5 5 5 5 6 5 5 5 6 5 5 5 6 5 6 6 5 5 5 5 5 5 6 5 5 5 5 5 5 5 5 6 6 6 5 6 5 5 6 6 5 5 6 5 5 5 5 5 5 5 5 5 5 5 6 5 5 5 5 5 5 5 5 5 5 5 5 5 6 6 5 5 5 5 6 5 5 5 6 5 5 5 5 5 6 6 5 5 5 6 5 5 5 5 5 5 5 5 5 5 5 5 5 5 5 6 5 5 5 6 5 5 5 6 5 5 5 5 5 5 6 5 5 5 5 5 6 5 5 5 5 5 5 5 5 6 5 5 5 5 5 5 5 5 5 6 5 5 5 5 6 5 6 5 5 6 5 6 5 5 5 5 5 5 6 5 6 6 5 5 5 5 5 5 5 5 6 5 6 5 6 5 6 5 5 5 5 5 5 5 5 5 5 5 6 5 5 5 6 5 5 5 5 5 5 5 5 6 5 5 5 5 5 5 5 5 5 6 5 5 5 5 6 5 5 6 5 5 5 5 5 5 5 5 5 6 5 5 5 6 5 5 5 5 5 5 5 5 5 5 5 5 5 5 5 5 5 5 5 6 5 5 5 5 5 5 5 5 5 5 6 5 5 5 5 5 5 5 5 5 5 5 5 5 5 5 5 5 5 5 5 5 5 5 5 5 5 5 5 5 5 5 5 5 5 5 5 5 5 5 5 5 5 5 5 5 6 6 5 5 5 5 5 5 5 5 5 5 5 5 5 6 6 5 5 5 6 5 5 6 5 5 5 6 5 5 5 6 5 5 5 5 5 5 5 5 6 5 5 6 5 6 6 5 5 5 5 5 5 6 5 6 6 6 5 5 6 5 5 6 6 5 5 5 5 5 5 5 5 5 5 5 5 5 5 5 5 5 5 5 5 5 6 5 5 5 5 5 5 5 5 5 6 5 5 5 5 5 5 5 6 6 5 5 5 5 5 5 5 5 5 5 5 5 5 5 5 5 5 5 5 5 5 5 5 6 5 6 5 5 5 5 5 5 5 6 5 5 5 6 6 5 5 6 5 5 5 5 6 5 5 5 6 5 5 5 6 5 5 5 5 5 5 5 5 5 6 6 5 5 5 5 5 6 5 5 6 6 6 5 5 5 5 5 6 5 5 5 5 5 5 5 5 5 6 5 6 5 5 5 5 5 5 5 5 5 5 5 5 5 5 5 5 5 5 5 5 5 5 5 5 6 5 5 5 5 6 6 5 5 5 6 5 5 5 5 5 5 5 5 5 5 5 5 5 5 5 5 6 5 5 5 6 5 5 6 5 5 5 5 5 5 5 5 5 5 5 5 5 6 5 5 6 5 5 5 6 5 6 5 6 5 6 6 6 5 5 5 5 5 5 5 5 6 5 5 5 5 5 5 5 5 6 5 5 6 5 5 5 5 5 5 5 5 5 5 5 5 5 5 5 5 5 5 5 5 5 6 5 5 5 5 5 5 5 5 5 5 6 5 6 5 5 6 5 6 5 6 5 5 6 5 6 5 5 6 5 5 5 6 5 5 5 5 5 5 5 5 5 5 5 5 5 5 5 5 5 5 5 5 5 5 5 5 5 5 5 5 5 5 5 5 5 5 5 5 5 5 5 5 5 5 5 5 5 5 5 5 5 5 5 5 5 5 5 5 5 5 5 5 5 6 5 5 6 5 5 5 5 5 5 6 6 5 5 5 5 5 5 5 5 5 5 5 5 5 5 5 5 5 5 6 5 5 5 6 5 5 5 5 5 5 5 5 5 5 5 5 5 5 5 5 6 5 5 5 5 5 5 5 6 5 5 5 5 5 5 5 5 6 5 6 5 5 5 5 5 5 5 5 5 5 5 5 5 5 5 5 6 5 5 5 5 5 5 5 6 5 5 5 5 6 5 5 5 5 5 5 5 6 5 5 6 6 5 5 6 5 5 5 5 5 5 6 5 5 5 5 5 5 5 5 5 6 5 5 6 5 5 6 5 5 6 5 5 5 5 5 6 5 5 5 5 5 5 5 5 6 5 5 5 5 5 5 5 6 5 5 5 5 5 5 5 5 5 5 5 5 6 5 5 5 5 5 5 5 6 6 5 6 5 6 5 5 5 5 5 5 5 5 5 5 5 5 5 5 5 6 5 6 5 5 5 5 5 5 5 5 6 5 6 5 6 5 6 5 6 5 5 6 5 5 5 5 5 6 5 5 5 5 5 5 5 5 6 5 5 5 5 5 6 5 5 6 5 6 6 5 5 5 5 5 5 5 5 6 5 5 5 5 5 5 5 5 5 5 5 5 5 6 5 5 5 5 5 5 5 6 5 5 5 6 5 5 5 5 5 5 5 5 5 5 5 5 5 5 5 5 5 6 5 5 5 5 5 5 5 6 5 5 6 5 5 5 5 5 5 5 5 5 5 5 5 5 5 5 6 5 5 5 5 6 5 5 5 5 5 5 5 5 5 5 5 5 5 5 5 5 5 5 5 5 5 5 5 5 5 6 5 5 5 5 5 5 6 5 5 5 5 5 5 5 5 5 6 6 5 5 5 6 5 6 5 5 5 5 5 5 5 5 5 5 5 5 5 5 5 6 5 5 5 5 5 5 5 5 5 5 5 5 6 6 5 5 5 5 5 5 5 5 6 5 5 6 5 5 6 6 5 5 5 5 5 5 5 6 5 5 5 5 5 5 5 5 5 6 5 5 5 6 5 5 5 5 5 6 5 5 5 5 5 5 5 5 5 5 5 5 6 5 5 5 6 5 5 5 6 5 5 5 5 5 5 5 5 5 5 5 5 5 5 5 5 5 5 5 5 5 5 5 5 5 5 5 5 5 5 5 5 6 5 5 5 5 5 5 5 5 5 5 5 5 5 5 5 5 5 5 5 5 5 5 5 5 6 5 6 5 5 6 5 5 5 5 5 5 5 5 5 6 5 5 5 5 5 5 5 5 5 5 5 5 5 5 6 5 5 5 5 6 5 5 5 6 5 5 5 5 5 5 5 5 5 5 5 5 5 5 5 5 5 5 5 5 5 5 5 5 5 5 5 5 5 5 5 5 5 5 5 5 5 5 5 5 5 5 5 5 5 5 5 5 5 5 5 5 5 5 5 5 5 5 5 5 5 5 5 5 5 5 5 5 5 5 5 5 5 5 5 5 5 5 5 5 5 5 5 5 5 5 5 5 5 5 5 5 5 5 5 5 5 5 5 5 5 5 5 5 5 5 5 5 5 5 5 5 5 5 5 5 5 5 5 5 5 5 5 5 5 5 5 5 5 5 5 5 5 5 5 5 5 5 5 5 5 5 5 5 5 5 5 5 5 5 5 5 5 5 5 5 5 5 5 5 5 5 5 5 5 5 5 5 5 5 5 5 5 5 5 5 5 5 5 5 5 5 5 5 5 5 5 5 5 6 5 5 5 5 5 5 5 5 5 5 5 5 5 5 5 5 6 5 5 5 5 5 5 5 5 6 5 5 5 5 6 5 5 5 5 5 5 5 5 5 5 5 5 5 5 5 5 5 5 5 5 5 5 6 5 5 5 5 5 5 5 5 5 5 5 5 5 6 6 5 5 5 5 5 6 5 6 5 5 5 5 5 5 5 5 5 5 5 6 5 5 5 5 5 5 5 6 5 5 5 5 5 5 5 5 5 5 5 5 5 5 5 6 6 5 5 5 5 5 5 5 5 5 5 5 5 6 5 5 5 5 5 5 5 5 5 5 5 5 5 5 5 5 6 5 5 5 5 5 5 5 6 5 5 5 5 5 5 5 5 5 5 6 6 5 5 5 5 5 5 5 5 5 5 5 5 5 5 5 5 5 5 5 5 5 5 5 5 5 5 5 5 5 5 6 5 5 5 5 5 6 5 5 5 5 5 5 5 5 5 5 6 5 5 5 5 6 5 5 5 5 5 5 5 5 5 5 6 5 6 5 5 5 5 5 5 5 5 5 5 5 5 5 5 5 5 5 5 5 5 5 5 5 5 5 5 5 5 5 5 5 6 5 5 5 5 5 6 5 5 5 5 5 5 5 5 5 5 5 5 5 5 5 5 5 5 6 5 5 6 5 5 5 6 5 5 5 5 5 6 5 5 5 5 5 5 5 5 5 5 6 5 5 5 5 5 5 6 5 5 5 5 5 6 6 5 5 6 5 5 6 5 5 5 5 5 5 5 5 5 5 6 5 5 6 5 5 6 5 5 6 5 5 6 5 5 6 5 5 5 5 5 5 6 5 5 5 5 5 5 5 5 5 5 5 6 5 5 5 5 5 5 5 6 5 5 5 5 6 5 5 5 6 5 5 5 5 5 5 5 5 5 5 5 6 5 5 5 5 5 5 5 5 5 5 5 5 5 5 5 5 5 5 5 5 5 5 5 5 6 5 5 5 5 5 6 5 5 5 5 5 5 5 5 5 5 5 5 5 5 6 5 5 6 5 6 5 5 5 5 6 5 6 6 5 6 5 5 5 5 5 5 5 6 5 6 5 5 5 5 5 5 6 5 5 5 5 5 5 6 5 5 5 5 6 5 5 5 5 5 6 5 5 6 5 5 5 5 6 5 5 5 5 6 5 5 5 5 5 5 6 5 5 5 5 5 5 5 5 5 6 5 5 5 5 5 5 6 5 5 5 5 6 5 5 5 5 5 5 5 5 5 5 5 5 5 5 5 5 6 5 5 5 6 5 5 6 5 5 5 5 5 5 5 5 5 5 5 5 5 5 5 5 6 5 6 5 5 5 5 5 5 5 5 5 5 5 5 5 5 5 5 5 5 5 5 5 5 5 5 5 5 6 5 5 6 5 5 5 5 5 5 5 5 5 5 6 5 5 5 5 6 5 5 5 5 6 5 5 5 5 5 5 5 5 5 6 5 5 5 5 5 5 5 5 5 5 5 5 5 5 5 5 5 5 5 5 5 5 5 5 5 5 5 5 
</DataArray>
<DataArray type="Float64" Name="stress" NumberOfComponents="9" format="ascii">
1173473650.2368164 -115373473.82095124 0 -115373473.82095124 -189026.91046427208 0 0 0 0 1978186685.332283 -226632747.68989426 0 -226632747.68989426 -75407081.256308883 0 0 0 0 2202047433.7379112 -344721658.44718856 0 -344721658.44718856 -174164519.43181062 0 0 0 0 1873934115.3164101 -416244765.3327775 0 -416244765.3327775 74129486.796583235 0 0 0 0 1508987653.7886429 -621904621.88307977 0 -621904621.88307977 69472301.311143219 0 0 0 0 1833338.4666237384 26026.780453719199 0 26026.780453719199 23652.062101013886 0 0 0 0 25019785.736946106 99814735.36420463 0 99814735.36420463 203413510.19466817 0 0 0 0 501785859.25211334 185929329.97380841 0 185929329.97380841 92144110.69422701 0 0 0 0 1335109249.8904724 -86889265.310634822 0 -86889265.310634822 -16374188.172545254 0 0 0 0 1013178813.1567478 -558313585.66955304 0 -558313585.66955304 289207686.47619647 0 0 0 0 105877925.57687378 -51314422.422850847 0 -51314422.422850847 182795157.24193555 0 0 0 0 499955649.56467438 -332219170.45187491 0 -332219170.45187491 107805942.10490087 0 0 0 0 3273809.3079299927 -388428.3402703802 0 -388428.3402703802 -863.11415873275803 0 0 0 0 1793938.4059388265 672006.1948537007 0 672006.1948537007 271205.63596019283 0 0 0 0 3617695.3420085907 -1063902.7939118324 0 -1063902.7939118324 -1364929.3658025861 0 0 0 0 2059128.2402954102 -1495506.4245377893 0 -1495506.4245377893 -1987.5395811112026 0 0 0 0 3385585.5039825439 -540718.52721893135 0 -540718.52721893135 -487338.42260484991 0 0 0 0 4738660.6373825073 31688.434180147131 0 31688.434180147131 -641310.07423173799 0 0 0 0 2742395.1670678481 813350.95619152114 0 813350.95619152114 -100662.07674925405 0 0 0 0 3678068.8296051025 -724517.91275928181 0 -724517.91275928181 -336576.50665664801 0 0 0 0 3105472.8885269165 -212774.60441105813 0 -212774.60441105813 -793135.08740428626 0 0 0 0 3277237.0357197896 -292429.81288394239 0 -292429.81288394239 -228625.25985790632 0 0 0 0 -14527295.975128174 16240301.024364054 0 16240301.024364054 -12552702.571360707 0 0 0 0 -34217617.987632751 15288639.511665881 0 15288639.511665881 9064981.332895875 0 0 0 0 -12043932.153549194 4501321.8404085636 0 4501321.8404085636 -3376045.3007261753 0 0 0 0 6305033.2314491272 6888848.673156485 0 6888848.673156485 21634203.254221797 0 0 0 0 3763621.7336571775 188102.04011606425 0 188102.04011606425 503017.40167384513 0 0 0 0 -17653538.923721313 18477886.987567097 0 18477886.987567097 17743447.149218559 0 0 0 0 1705709.9601898193 -7385291.01047647 0 -7385291.01047647 2819540.9155240059 0 0 0 0 -16829347.307958603 -5579911.7472002804 0 -5579911.7472002804 16947626.823288441 0 0 0 0 3522049.8567199707 -6286086.1705169082 0 -6286086.1705169082 -8967240.1325982809 0 0 0 0 4356545.9316247329 251326.02560833003 0 251326.02560833003 -104807.45892106071 0 0 0 0 123816106.78620911 -83555777.370441884 0 -83555777.370441884 59579762.355523467 0 0 0 0 -64987547.8853302 -26189333.925229698 0 -26189333.925229698 106054433.55680931 0 0 0 0 -25264890.132854462 21897123.628329434 0 21897123.628329434 30760607.193163574 0 0 0 0 65946457.522148132 -63101080.153027281 0 -63101080.153027281 29828826.808066323 0 0 0 0 6209091.1092377603 944312.51766633405 0 944312.51766633405 110498656.51239511 0 0 0 0 15066498.245876312 136606793.91358981 0 136606793.91358981 118919393.4305501 0 0 0 0 -40387329.982330322 108094969.99520381 0 108094969.99520381 15452893.566031858 0 0 0 0 -51125884.530792236 27281528.004744112 0 27281528.004744112 30360762.92669785 0 0 0 0 6319351.7967823744 27029987.981237572 0 27029987.981237572 13192345.631777585 0 0 0 0 -79642396.160980225 33044691.620134532 0 33044691.620134532 88642831.529999435 0 0 0 0 -67492291.542160034 5761244.0715159476 0 5761244.0715159476 10988726.139891446 0 0 0 0 -87151316.356206894 63657543.279067405 0 63657543.279067405 16998672.636050522 0 0 0 0 7470760.4644012451 40596440.916662879 0 40596440.916662879 -50887233.120990217 0 0 0 0 883394.19817878306 304917.57855353132 0 304917.57855353132 22096.978926937118 0 0 0 0 -85362250.598297119 107073536.51387313 0 107073536.51387313 -84366868.272313297 0 0 0 0 37280229.907676697 1646075.0314880256 0 1646075.0314880256 -19433271.243833866 0 0 0 0 905330.67394368723 145127.56536139175 0 145127.56536139175 -247854.92914841213 0 0 0 0 -206235112.97880554 70951687.07207869 0 70951687.07207869 2782458.3361498713 0 0 0 0 -50666448.397895813 12217310.434456669 0 12217310.434456669 -78039409.490424454 0 0 0 0 -200388668.27740479 69130850.558456331 0 69130850.558456331 -14908998.53739807 0 0 0 0 -40096043.262084961 104740812.06243891 0 104740812.06243891 -74405019.371522516 0 0 0 0 -17050457.146148682 37049735.196261004 0 37049735.196261004 7300925.6484535821 0 0 0 0 1639221.0539880721 3277469.7231601514 0 3277469.7231601514 1266363.4247265812 0 0 0 0 -13044502.937446594 35009238.577741012 0 35009238.577741012 -3504878.6295000911 0 0 0 0 48489877.564613342 53024902.753280364 0 53024902.753280364 -25225751.765342385 0 0 0 0 51511842.157601833 26031601.516376443 0 26031601.516376443 -138835164.79771665 0 0 0 0 -28386580.830005646 85540652.469907731 0 85540652.469907731 -37659298.175487578 0 0 0 0 7901397.613861084 103984880.83594966 0 103984880.83594966 -29094116.033323348 0 0 0 0 32119310.013626099 20161224.649299242 0 20161224.649299242 -686585.05183468759 0 0 0 0 -3700067.067035675 -16273442.844365954 0 -16273442.844365954 3645443.3756058216 0 0 0 0 3393474.0917072669 -285003.94391169026 0 -285003.94391169026 1539468.7955344487 0 0 0 0 26872842.136978149 8887485.3111381531 0 8887485.3111381531 3633333.395098269 0 0 0 0 26837576.825302124 10084829.716433264 0 10084829.716433264 -3012836.5980935693 0 0 0 0 7344074.1800689697 17396125.72643448 0 17396125.72643448 -1421342.4818210041 0 0 0 0 9790094.18019104 3308703.5736673474 0 3308703.5736673474 7173877.0780963898 0 0 0 0 5179827.1120057441 -1945339.3299958929 0 -1945339.3299958929 -1535044.62689046 0 0 0 0 16159766.919448853 4693652.5673343837 0 4693652.5673343837 -4790313.7509747967 0 0 0 0 9009064.6203536987 9856847.0072644353 0 9856847.0072644353 936483.57922706008 0 0 0 0 20644282.381248474 13056333.48136428 0 13056333.48136428 6293284.6747591496 0 0 0 0 28340991.623451233 13823287.200807214 0 13823287.200807214 5980030.3812969923 0 0 0 0 27805549.163988113 -4904725.1881523803 0 -4904725.1881523803 6155088.0237601995 0 0 0 0 32748269.214653015 10375901.40268749 0 10375901.40268749 2926141.8722879291 0 0 0 0 28578653.493461609 -11253573.344994783 0 -11253573.344994783 -1232616.4739801884 0 0 0 0 38861477.580062866 3871407.1517098844 0 3871407.1517098844 -2459609.9224271774 0 0 0 0 10573547.507003784 9655603.1791482568 0 9655603.1791482568 15937306.819127083 0 0 0 0 8071955.2867905125 -1070356.4053746089 0 -1070356.4053746089 -1445903.1514862739 0 0 0 0 5131159.2048358917 458447.30652889609 0 458447.30652889609 751815.27114021778 0 0 0 0 5397062.9770393372 923608.53016275167 0 923608.53016275167 633456.02707338333 0 0 0 0 3934962.4802577645 226389.88533321078 0 226389.88533321078 2682444.015930451 0 0 0 0 17799918.448394775 1349201.3757599592 0 1349201.3757599592 -9779218.6660437584 0 0 0 0 15535636.00385952 2999629.6708833426 0 2999629.6708833426 -1791311.6776576042 0 0 0 0 9337898.1065318808 -2351824.1552678249 0 -2351824.1552678249 -511985.95504199172 0 0 0 0 13826330.570373535 -10712957.147042274 0 -10712957.147042274 948040.1814467907 0 0 0 0 7785880.9984130859 1380857.7172278166 0 1380857.7172278166 646197.0900812149 0 0 0 0 7348978.1058006287 25784282.563608639 0 25784282.563608639 -7122146.22186777 0 0 0 0 21967683.349357605 5933128.0567646474 0 5933128.0567646474 -10452572.748566926 0 0 0 0 4534459.5626280028 3449613.0923998877 0 3449613.0923998877 649223.67129619746 0 0 0 0 13336180.652633667 5687363.8423805833 0 5687363.8423805833 -3303570.2759637833 0 0 0 0 15358335.55430603 6698017.6155279279 0 6698017.6155279279 -17751402.9021952 0 0 0 0 24435166.47693634 -3637814.4069129527 0 -3637814.4069129527 -8352601.1653180867 0 0 0 0 39318480.286727905 -19176520.960729212 0 -19176520.960729212 -26883585.175601617 0 0 0 0 33570689.810180664 -32477091.533620119 0 -32477091.533620119 16335000.949066013 0 0 0 0 1028512262.6865845 -671377250.0542177 0 -671377250.0542177 369317328.84776235 0 0 0 0 23830105.541900635 6502050.042663604 0 6502050.042663604 -33607075.560868502 0 0 0 0 10116229.848748796 1954557.9227028182 0 1954557.9227028182 -992727.73418742232 0 0 0 0 261343.52390819602 -104229.81572281569 0 -104229.81572281569 1924.3232330804458 0 0 0 0 429201.39410897531 -5150236.1514549218 0 -5150236.1514549218 -2647637.2996621178 0 0 0 0 23764095.053672791 -14922849.705893517 0 -14922849.705893517 -8929116.0510531664 0 0 0 0 17450978.712631226 -4369498.390842557 0 -4369498.390842557 -3024919.0207533985 0 0 0 0 889975.54978311062 -5295320.06809723 0 -5295320.06809723 -1216767.3956735516 0 0 0 0 16246645.436775208 -18118599.501167148 0 -18118599.501167148 -3926322.3417657092 0 0 0 0 13622375.211540222 -32091140.25387967 0 -32091140.25387967 -281430.28467673063 0 0 0 0 10454670.845252991 -15413576.123173404 0 -15413576.123173404 94722208.222475603 0 0 0 0 9771743.3392410278 -25092548.593768381 0 -25092548.593768381 34216871.653609984 0 0 0 0 24021833.71320343 -30517882.367598295 0 -30517882.367598295 -19291839.783340693 0 0 0 0 4438841.567125693 -9780.3743501286954 0 -9780.3743501286954 -33891.835303161497 0 0 0 0 658631017.05046844 761360547.14947355 0 761360547.14947355 771146648.18579447 0 0 0 0 2201622298.5804863 -1645644120.1195769 0 -1645644120.1195769 1075408323.315686 0 0 0 0 1039921197.7544613 -682339149.74949324 0 -682339149.74949324 276638731.78714156 0 0 0 0 1469077923.722023 -958393303.0072552 0 -958393303.0072552 237082810.87295663 0 0 0 0 2206310906.7232113 -840781904.41772342 0 -840781904.41772342 -94803238.94164668 0 0 0 0 1019088616.0039635 -486117373.721977 0 -486117373.721977 95855676.704557389 0 0 0 0 1129326601.5091629 -766978879.05521953 0 -766978879.05521953 175096672.72169301 0 0 0 0 1218243513.919591 -298742788.09440529 0 -298742788.09440529 -27604667.411083236 0 0 0 0 328464122.65180969 -65403836.946457416 0 -65403836.946457416 -26060984.311605699 0 0 0 0 129172567.73666573 -173733666.07704651 0 -173733666.07704651 -64762805.459970534 0 0 0 0 162532048.78117371 179473524.82437631 0 179473524.82437631 -63105861.317719549 0 0 0 0 -28310446.515136719 106739324.11549759 0 106739324.11549759 -287564078.95274448 0 0 0 0 386387543.79534912 87281525.64530021 0 87281525.64530021 -362456706.45071054 0 0 0 0 1886346.7795903385 -1956326.8104591779 0 -1956326.8104591779 -1146972.7222012049 0 0 0 0 119334090.60704041 -321760739.24966896 0 -321760739.24966896 176818693.40033782 0 0 0 0 243903979.30383301 -93755558.180360317 0 -93755558.180360317 -54662161.883080482 0 0 0 0 976904621.78217316 -562626749.91666412 0 -562626749.91666412 -41088353.550216138 0 0 0 0 5316351.6383757228 1861940.2558439448 0 1861940.2558439448 -1487179.6130097453 0 0 0 0 -191230683.11531639 -115729582.78179324 0 -115729582.78179324 267574629.42466164 0 0 0 0 -2922103.5614700317 24180792.071408749 0 24180792.071408749 -13701416.428443521 0 0 0 0 15232319.509391308 15867022.330542669 0 15867022.330542669 -11414003.953197867 0 0 0 0 15227302.209587097 16781056.046820566 0 16781056.046820566 -45186532.18839547 0 0 0 0 14400692.94877243 53595796.458131805 0 53595796.458131805 -4343448.1299673915 0 0 0 0 -8296473.1082077026 24633220.905245773 0 24633220.905245773 -12731931.496548355 0 0 0 0 1590530.6795729874 285552.53839683905 0 285552.53839683905 -341461.23038776481 0 0 0 0 -101349708.60910797 38758249.22101713 0 38758249.22101713 34082120.396981388 0 0 0 0 92829550.565206528 166669515.29534402 0 166669515.29534402 205804801.48735046 0 0 0 0 167579406.2679491 84419685.592099369 0 84419685.592099369 15895839.049185097 0 0 0 0 197418784.14313507 278197559.03120649 0 278197559.03120649 76678992.269853279 0 0 0 0 83133231.821563721 36596538.125175945 0 36596538.125175945 142158.67537239709 0 0 0 0 -9651461.2967147827 89772394.250102207 0 89772394.250102207 28973350.418122306 0 0 0 0 38333975.499412537 25861889.051626187 0 25861889.051626187 2909338.0526075065 0 0 0 0 64963606.5313797 19893843.4902891 0 19893843.4902891 16896999.343467176 0 0 0 0 39628947.828697205 38203707.113851398 0 38203707.113851398 39561746.466324404 0 0 0 0 92705390.546920776 11566163.062409479 0 11566163.062409479 -18201.174614751559 0 0 0 0 88147238.999275208 19377866.803314108 0 19377866.803314108 43484430.085244462 0 0 0 0 123414360.80207825 -28842431.446799014 0 -28842431.446799014 42348864.75308542 0 0 0 0 186650548.89593506 -20632203.271838125 0 -20632203.271838125 9855070.0616829991 0 0 0 0 73673548.133392334 42369351.331132814 0 42369351.331132814 73095496.416714326 0 0 0 0 58643551.065475464 -1820106.5601459146 0 -1820106.5601459146 9036964.7295970917 0 0 0 0 56823253.410636902 -23621934.658810221 0 -23621934.658810221 -53902081.446018338 0 0 0 0 43473593.485794067 4266707.7067118287 0 4266707.7067118287 -33068215.596606046 0 0 0 0 91531586.453941345 1651757.4167818129 0 1651757.4167818129 -35835184.002807379 0 0 0 0 39683022.95999527 25931340.550077319 0 25931340.550077319 -24369815.027190417 0 0 0 0 52425617.596313477 47033741.781666353 0 47033741.781666353 8284847.9129113033 0 0 0 0 29033885.415725708 35420299.688500017 0 35420299.688500017 -30128786.984101996 0 0 0 0 29896882.796711087 -10873743.223122776 0 -10873743.223122776 -49164007.476129353 0 0 0 0 26371277.027313232 233737.33080297709 0 233737.33080297709 -60361847.315541714 0 0 0 0 25541929.063720703 -6165493.0150001049 0 -6165493.0150001049 -30368667.315005958 0 0 0 0 3012218.7450408936 -23739437.14004454 0 -23739437.14004454 -42045029.824647516 0 0 0 0 944490.62514554709 437169.60711845011 0 437169.60711845011 191409.21902843652 0 0 0 0 14845901.380348206 18440534.360667944 0 18440534.360667944 -678779.83214156702 0 0 0 0 -29576177.611999512 -67650829.900188237 0 -67650829.900188237 -39685695.523484051 0 0 0 0 4831797.3729705811 5106514.5215445533 0 5106514.5215445533 -4190948.9648281932 0 0 0 0 1823649.0509594753 582130.92556621879 0 582130.92556621879 189557.02934797446 0 0 0 0 4832162.3620452881 4283891.1945790648 0 4283891.1945790648 1726355.8860907555 0 0 0 0 9044427.7639007568 7019378.3132035136 0 7019378.3132035136 -12755025.72826004 0 0 0 0 1735664.1127847508 580151.83111651614 0 580151.83111651614 -974982.17385020154 0 0 0 0 -46246725.089515686 -38875466.630736008 0 -38875466.630736008 1670778.3478676081 0 0 0 0 6570485.6200256348 2701100.2245186567 0 2701100.2245186567 -3890017.4950151443 0 0 0 0 7225102.4109039307 1907918.2146971226 0 1907918.2146971226 -13359629.55156374 0 0 0 0 17817189.909591675 -12290710.48662138 0 -12290710.48662138 -13675826.982472897 0 0 0 0 16268834.360404968 -4827308.9922770858 0 -4827308.9922770858 -42878977.590235472 0 0 0 0 53437621.620254517 -79647192.425903618 0 -79647192.425903618 -64135659.591125928 0 0 0 0 -31898090.129581451 -72924092.48018074 0 -72924092.48018074 -39337900.838053763 0 0 0 0 20509848.412994385 -39208743.61589922 0 -39208743.61589922 -41329981.076541156 0 0 0 0 38723750.644058228 -59489418.919179738 0 -59489418.919179738 -53932945.288664043 0 0 0 0 98249012.69758606 -7383564.2424791902 0 -7383564.2424791902 -48302910.592282727 0 0 0 0 7047247.1725463867 -57881327.717428036 0 -57881327.717428036 184445630.96316099 0 0 0 0 356254.25074464083 -145935.10700785555 0 -145935.10700785555 -50765.235600145439 0 0 0 0 41829675.321502686 26892715.719490148 0 26892715.719490148 -7020188.6125266869 0 0 0 0 -18214452.671066284 124785207.42957835 0 124785207.42957835 45370324.164309874 0 0 0 0 12966288.637588501 -2606060.8091129404 0 -2606060.8091129404 16824.087737678197 0 0 0 0 55153052.733390808 7097971.4037228227 0 7097971.4037228227 -1489471.6248652013 0 0 0 0 91879356.319049835 30086321.679965049 0 30086321.679965049 -15145431.704565035 0 0 0 0 -10765016.825622559 6140176.4853373431 0 6140176.4853373431 4671551.2836171025 0 0 0 0 -10895237.072082669 -11616629.350569768 0 -11616629.350569768 -2566543.435006368 0 0 0 0 4263834.5512008667 1015069.9159051618 0 1015069.9159051618 1593382.023179621 0 0 0 0 1307087.7118452787 -291609.16921577323 0 -291609.16921577323 -150580.24837552547 0 0 0 0 2217981.837020874 -2844472.9138038103 0 -2844472.9138038103 -14984367.760251435 0 0 0 0 -5108093.7405471802 -68161772.112438053 0 -68161772.112438053 49420031.615419634 0 0 0 0 32214523.461593628 -116203785.76306537 0 -116203785.76306537 -184758427.38990891 0 0 0 0 25216021.72366333 -87294530.346530452 0 -87294530.346530452 -21259777.548356481 0 0 0 0 1624640.7531242371 -1473899.4749336045 0 -1473899.4749336045 -2486103.2742046928 0 0 0 0 -1933262.6315994263 -4008716.395837388 0 -4008716.395837388 -2252.6228362478273 0 0 0 0 1346757.7879104614 -3095774.204100132 0 -3095774.204100132 -2878974.485816285 0 0 0 0 2587848.3792266846 -1386438.369639291 0 -1386438.369639291 -3001359.0450527812 0 0 0 0 2361610.6105222702 -197526.64930922631 0 -197526.64930922631 -168828.58373129569 0 0 0 0 -16789475.633989334 -42382759.906158127 0 -42382759.906158127 24687433.169751883 0 0 0 0 115005446.12298584 29429862.991741776 0 29429862.991741776 -43745095.478931576 0 0 0 0 84386913.303771973 -22758879.237967491 0 -22758879.237967491 3089487.2772190571 0 0 0 0 -19880785.893341064 -10297710.798270226 0 -10297710.798270226 25837771.990206361 0 0 0 0 -11549823.411941528 -31154000.62763828 0 -31154000.62763828 -602593.393917799 0 0 0 0 12091080.131134033 -14749747.179247618 0 -14749747.179247618 8615329.5332558155 0 0 0 0 5908613.5388031006 -5073054.9374754429 0 -5073054.9374754429 -2332689.2406289577 0 0 0 0 92861202.860305786 41468138.006928802 0 41468138.006928802 19181788.601492643 0 0 0 0 -19462.673812866211 8020955.4976617098 0 8020955.4976617098 22655454.844173253 0 0 0 0 337979.73745279759 138933.70134815574 0 138933.70134815574 293471.00743104506 0 0 0 0 27489735.262283325 15493346.609271526 0 15493346.609271526 22656444.616742611 0 0 0 0 8349205.3093566895 -1447737.2456191778 0 -1447737.2456191778 2890489.4184136391 0 0 0 0 28244983.683475494 781429.22674113512 0 781429.22674113512 2690934.8234264851 0 0 0 0 18459297.254364014 21274045.327186108 0 21274045.327186108 -6482175.6692891121 0 0 0 0 17165449.798233032 16915269.773139 0 16915269.773139 749121.89109134674 0 0 0 0 26501098.507965088 20140329.493138433 0 20140329.493138433 -887029.84396505356 0 0 0 0 38943589.320625305 11251340.004657388 0 11251340.004657388 -7609004.040075779 0 0 0 0 25119457.74446106 -5956408.6008179188 0 -5956408.6008179188 -5382119.9162471294 0 0 0 0 13483238.169807434 -27557047.655224323 0 -27557047.655224323 8169507.6557712555 0 0 0 0 66568871.612213135 3627339.49274683 0 3627339.49274683 -3185459.1291366816 0 0 0 0 11166220.325904846 848316.57574903965 0 848316.57574903965 -3203616.0513772964 0 0 0 0 14785270.363052368 -1993048.3617725372 0 -1993048.3617725372 -7936728.70849967 0 0 0 0 16162589.867073059 5257105.6889213324 0 5257105.6889213324 -1233773.5496754646 0 0 0 0 13265808.544155121 8923997.350745976 0 8923997.350745976 445639.56818342209 0 0 0 0 26784359.212615967 7894157.4319255352 0 7894157.4319255352 -6724135.3994934559 0 0 0 0 19766898.623466492 7509636.6071810722 0 7509636.6071810722 -1892486.8462977409 0 0 0 0 20855981.737739563 5461576.2788410187 0 5461576.2788410187 1922330.4469618797 0 0 0 0 18658342.040588379 5368773.6259469986 0 5368773.6259469986 -5972341.0891863108 0 0 0 0 13169350.962947845 257108.71262592077 0 257108.71262592077 -4541116.0377783775 0 0 0 0 12631929.241104126 128742.7808713913 0 128742.7808713913 -4372387.9872605801 0 0 0 0 14667216.279083252 6068726.7381298542 0 6068726.7381298542 6393983.7454156876 0 0 0 0 27578530.041137695 7237026.4118685722 0 7237026.4118685722 -1964405.032207489 0 0 0 0 23316623.087730408 -1250663.7594891787 0 -1250663.7594891787 134392.97125911713 0 0 0 0 -360103.48381206393 965463.9628928951 0 965463.9628928951 341847.79457440937 0 0 0 0 12893789.31817627 -1663382.0971035957 0 -1663382.0971035957 -1767934.4318130016 0 0 0 0 5691882.7839660645 10592418.66265893 0 10592418.66265893 4539795.9163613319 0 0 0 0 3876486.0500946045 -7135868.7164297104 0 -7135868.7164297104 -3696773.7020478249 0 0 0 0 4250774.9062872827 -490449.2422635667 0 -490449.2422635667 2489476.4726328035 0 0 0 0 7115986.3556976318 302280.92569231987 0 302280.92569231987 -711813.69718766212 0 0 0 0 56883.759698279202 243180.65925072867 0 243180.65925072867 564934.68791681284 0 0 0 0 19013043.644393921 18678019.527573347 0 18678019.527573347 20656848.117148668 0 0 0 0 4618157.2255880013 1598150.4216613546 0 1598150.4216613546 1732780.0476023965 0 0 0 0 9752177.5987854004 6297389.0694059134 0 6297389.0694059134 6110601.1993072033 0 0 0 0 10999675.992912292 7378432.8033014536 0 7378432.8033014536 6013166.4568679184 0 0 0 0 7509214.221480675 -248122.69173757685 0 -248122.69173757685 655711.66724576463 0 0 0 0 11269215.458175659 5768268.7241015434 0 5768268.7241015434 637500.52064824104 0 0 0 0 5371456.1837348938 747140.43507730961 0 747140.43507730961 -280632.90140366554 0 0 0 0 4403713.9535293579 475897.62380254269 0 475897.62380254269 705021.25100803375 0 0 0 0 6409928.6978049688 -427848.07925618067 0 -427848.07925618067 588981.44412091607 0 0 0 0 -232731.57946777344 1634346.8089666367 0 1634346.8089666367 -958872.65849378705 0 0 0 0 1544261.9948789403 1345010.2358669331 0 1345010.2358669331 3623527.7749134125 0 0 0 0 938840.69567871094 100854.28911781311 0 100854.28911781311 -278954.53686714172 0 0 0 0 2467660.7484389991 451491.40140835667 0 451491.40140835667 3197982.5414400632 0 0 0 0 6056850.6310424805 126734.31188106537 0 126734.31188106537 56424.732749938965 0 0 0 0 4966824.4058268145 2149098.7630243562 0 2149098.7630243562 2562174.944714624 0 0 0 0 6230247.7023744285 602297.86523267033 0 602297.86523267033 413337.96196044318 0 0 0 0 4917159.9426116943 463951.63957005739 0 463951.63957005739 -435000.63472270966 0 0 0 0 2729231.1620289385 1056269.0377116622 0 1056269.0377116622 1928989.3280549305 0 0 0 0 3754841.9619178772 615648.27379870415 0 615648.27379870415 904989.19537162781 0 0 0 0 3952233.860244751 877812.14935398102 0 877812.14935398102 1208904.3139553219 0 0 0 0 4647176.9159004837 -70626.187702259282 0 -70626.187702259282 3055031.1038150988 0 0 0 0 3978024.475112915 791878.3206461072 0 791878.3206461072 800692.00596523285 0 0 0 0 2468676.7986659482 -624984.85192620941 0 -624984.85192620941 2176077.8141807565 0 0 0 0 3412571.5102081299 -21328.966765880585 0 -21328.966765880585 681959.69002723694 0 0 0 0 1016186.6007385254 -126831.11882734299 0 -126831.11882734299 1434022.9517967254 0 0 0 0 1780976.3384552002 130206.91475021839 0 130206.91475021839 1574826.0676879883 0 0 0 0 5991578.0529579371 2345177.1499495432 0 2345177.1499495432 2314183.7241743747 0 0 0 0 2534002.3405380249 113655.46574753523 0 113655.46574753523 489974.6623570919 0 0 0 0 5829702.736400038 1857684.7391356267 0 1857684.7391356267 1329516.2999371295 0 0 0 0 2134101.7046041712 348271.55760013219 0 348271.55760013219 1323489.3539286535 0 0 0 0 2887912.5845794678 503958.88863170147 0 503958.88863170147 589785.56476593018 0 0 0 0 3142317.6611785889 281845.07745027542 0 281845.07745027542 -2237.5494241714478 0 0 0 0 2126000.5944208205 -45378.552764770109 0 -45378.552764770109 359401.62470318272 0 0 0 0 3233054.7698993683 539531.52117598057 0 539531.52117598057 73933.502694129944 0 0 0 0 2116355.7582855225 279882.29931354523 0 279882.29931354523 349919.25898170471 0 0 0 0 2517278.6473617554 688487.56899189949 0 688487.56899189949 167088.00970306993 0 0 0 0 5269950.5610247478 1409130.6473165676 0 1409130.6473165676 627686.56320362305 0 0 0 0 2576020.2351074219 132326.78667926788 0 132326.78667926788 182606.51449108124 0 0 0 0 5805680.5797190852 1424788.8128723316 0 1424788.8128723316 504814.54345924477 0 0 0 0 3578314.9294333756 1634559.5663540401 0 1634559.5663540401 590842.16691433592 0 0 0 0 4322825.4554219395 1252997.0690926723 0 1252997.0690926723 651.7173689478077 0 0 0 0 803820.46267700195 511217.8420996666 0 511217.8420996666 -61862.65935254097 0 0 0 0 1014634.0473078415 853904.70032982482 0 853904.70032982482 949853.0111724108 0 0 0 0 14395344.245796204 5571457.6178563833 0 5571457.6178563833 6810744.6265338659 0 0 0 0 2020967.4062175751 540298.1255838871 0 540298.1255838871 -121425.42393684387 0 0 0 0 1948221.5010185242 182144.81442177296 0 182144.81442177296 -76470.696427822113 0 0 0 0 1234036.91358326 328989.61980373785 0 328989.61980373785 12595.091683862731 0 0 0 0 6452836.6615905762 3251566.3644080162 0 3251566.3644080162 1681959.7892284393 0 0 0 0 4622226.1332247406 1852715.2598542236 0 1852715.2598542236 265551.58802130888 0 0 0 0 4636395.2697852179 645413.34522150829 0 645413.34522150829 186398.53880599979 0 0 0 0 3205796.4123290852 1338107.2527321875 0 1338107.2527321875 527126.75937889738 0 0 0 0 14618874.913894653 1044757.255469799 0 1044757.255469799 -2624866.4430021495 0 0 0 0 12181182.499141693 8726012.4396982491 0 8726012.4396982491 3360061.3730714321 0 0 0 0 5085346.7524900585 1357902.9669801295 0 1357902.9669801295 -381266.53689395002 0 0 0 0 5706760.0146742985 2044148.3106389781 0 2044148.3106389781 -302844.55412772845 0 0 0 0 10445047.245422363 -5059554.3156704605 0 -5059554.3156704605 -29296148.671454549 0 0 0 0 2693190.5014648438 1206334.1742858887 0 1206334.1742858887 -382008.2074174881 0 0 0 0 7575820.0846633911 1394695.0775282085 0 1394695.0775282085 1109695.3834694624 0 0 0 0 4339383.762008667 22675041.862740815 0 22675041.862740815 -30772635.656012118 0 0 0 0 7581847.7356167287 2233249.8001630916 0 2233249.8001630916 75989.123876108031 0 0 0 0 4090678.7107696533 3782904.9099116325 0 3782904.9099116325 -170601.31311988831 0 0 0 0 1493281.7419714807 875257.35869966075 0 875257.35869966075 -236199.0038704141 0 0 0 0 11232953.590454102 -5216562.7173018381 0 -5216562.7173018381 -18616996.876873136 0 0 0 0 3696392.1189117432 3482406.6559045315 0 3482406.6559045315 775201.98482942581 0 0 0 0 4953562.5761290705 1504127.4082216397 0 1504127.4082216397 625416.30448450008 0 0 0 0 3436399.9930992126 3723918.8188306689 0 3723918.8188306689 1368080.8784723282 0 0 0 0 3712150.3973922729 2316696.1836495399 0 2316696.1836495399 839584.34337043762 0 0 0 0 3046818.0573425293 1468145.3543510437 0 1468145.3543510437 -197694.88688755035 0 0 0 0 3393906.7432993203 1754993.0410612971 0 1754993.0410612971 488228.90628757887 0 0 0 0 2962426.2964248657 778072.12270236015 0 778072.12270236015 225155.08201777935 0 0 0 0 5270504.9837172031 2434369.3051747978 0 2434369.3051747978 1088209.6404544543 0 0 0 0 3807191.9790385365 1771236.1209544204 0 1771236.1209544204 805461.35181921022 0 0 0 0 5336811.6766909808 2451087.275389988 0 2451087.275389988 466481.76556420699 0 0 0 0 2046324.1877288818 617203.25051832199 0 617203.25051832199 -546505.86966609955 0 0 0 0 1788037.9528808594 -159406.93244552612 0 -159406.93244552612 552916.0194978714 0 0 0 0 3089201.2561035156 1824037.4372253418 0 1824037.4372253418 464349.53091651201 0 0 0 0 1208687.2468235418 1173552.2554582893 0 1173552.2554582893 1981229.9361878738 0 0 0 0 1639407.5978851318 926626.02195501328 0 926626.02195501328 160634.95893478394 0 0 0 0 4772171.859247759 1963894.2706365213 0 1963894.2706365213 1430969.8258887543 0 0 0 0 5050656.3637526408 1640369.0354790241 0 1640369.0354790241 2331977.6906382591 0 0 0 0 1268614.9607736915 245095.10229042149 0 245095.10229042149 5291843.0382832056 0 0 0 0 2675514.8807969764 -235074.63564643078 0 -235074.63564643078 1382168.9984083474 0 0 0 0 2845993.411315918 1620304.6717586517 0 1620304.6717586517 1540140.2299785614 0 0 0 0 1224338.103805542 897478.09863948822 0 897478.09863948822 2385212.9467077255 0 0 0 0 4133691.2063140869 3250327.0506658554 0 3250327.0506658554 911862.73041152954 0 0 0 0 7394764.9001296638 3025494.9652228951 0 3025494.9652228951 405066.72523678001 0 0 0 0 -93459.313866481185 167969.06376658753 0 167969.06376658753 183427.53948098933 0 0 0 0 1202567.6447143555 871365.71607589722 0 871365.71607589722 2842865.6113815308 0 0 0 0 -171240.95426940918 944111.05648994446 0 944111.05648994446 597912.29521179199 0 0 0 0 3099818.8798614107 2394544.8484119065 0 2394544.8484119065 1270879.441037612 0 0 0 0 3233262.1303515076 936989.8721110858 0 936989.8721110858 1497247.0212289877 0 0 0 0 1079620.9944619834 729401.18158741295 0 729401.18158741295 5423526.1673096195 0 0 0 0 1815754.3647766113 4737151.36028862 0 4737151.36028862 5132913.5920677185 0 0 0 0 836959.64511300623 2582912.5693648304 0 2582912.5693648304 4757945.4526119549 0 0 0 0 2064355.9940338135 3441244.4580307007 0 3441244.4580307007 3796708.6715297699 0 0 0 0 1485448.4275894165 2204899.7575144768 0 2204899.7575144768 -636886.3502407074 0 0 0 0 3713216.187713623 6014110.6555595398 0 6014110.6555595398 5873969.4807777405 0 0 0 0 7603450.8946800232 7532187.8033438921 0 7532187.8033438921 3996681.1836585999 0 0 0 0 133928.26690128073 458539.85648626089 0 458539.85648626089 395009.15299136937 0 0 0 0 -3089299.8401947021 3423872.2308921814 0 3423872.2308921814 5255830.8328361511 0 0 0 0 -1812530.9863128662 5075969.3273773193 0 5075969.3273773193 5760175.0305843353 0 0 0 0 -923724.20332336426 3479739.5619754791 0 3479739.5619754791 7984817.788690567 0 0 0 0 698419.41119384766 2855049.4413309097 0 2855049.4413309097 9201111.8543930054 0 0 0 0 812656.85676574707 3670030.3851528168 0 3670030.3851528168 5591594.6692008972 0 0 0 0 4442842.3082275391 9426157.3218679428 0 9426157.3218679428 -1617656.1028528214 0 0 0 0 -811379.12506103516 6196558.5166845322 0 6196558.5166845322 14280745.83946228 0 0 0 0 3057690.4071883634 3710190.3083062414 0 3710190.3083062414 2732216.3009565468 0 0 0 0 698895.35801696777 3585620.7197446823 0 3585620.7197446823 1051968.7683377266 0 0 0 0 -408933.5015411377 6394488.1489953995 0 6394488.1489953995 6230974.6502952576 0 0 0 0 -123885.41130828857 5180998.0784678459 0 5180998.0784678459 3907919.4937486649 0 0 0 0 1487715.3335418701 3818509.5691480637 0 3818509.5691480637 4600459.4609832764 0 0 0 0 -115921.08694458008 4146063.076622963 0 4146063.076622963 1434543.8374052048 0 0 0 0 4408240.3692932129 541883.67954730988 0 541883.67954730988 -1771285.4223384857 0 0 0 0 8385533.7732853908 2725455.1084263623 0 2725455.1084263623 -167287.00560337305 0 0 0 0 49536.211675100029 25288.451110558584 0 25288.451110558584 -12275.543556245044 0 0 0 0 3671510.0136871338 4327373.5262751579 0 4327373.5262751579 797379.7821097374 0 0 0 0 3459486.3104019165 7698659.057123661 0 7698659.057123661 2197978.7711277008 0 0 0 0 4939282.4555063248 -2387268.8452165127 0 -2387268.8452165127 -4910864.4313850403 0 0 0 0 3132266.7355049998 4104511.9505569851 0 4104511.9505569851 2706299.9747045357 0 0 0 0 4418367.213684082 4667921.951154232 0 4667921.951154232 2071299.0547870398 0 0 0 0 6877716.7501831055 17157667.374060631 0 17157667.374060631 8234138.7102737427 0 0 0 0 8704120.8492584229 2979013.0997781754 0 2979013.0997781754 -3869241.376335144 0 0 0 0 211492.58081388939 1155097.332798522 0 1155097.332798522 442997.21098248009 0 0 0 0 1014087.945980072 3042772.0011484623 0 3042772.0011484623 6701704.014673233 0 0 0 0 1154708.0504156128 2852238.5451869336 0 2852238.5451869336 3582207.5754333744 0 0 0 0 -8413812.522895813 -6961915.2927436829 0 -6961915.2927436829 -1899306.5915660858 0 0 0 0 -2623359.5718464255 1582499.5997598721 0 1582499.5997598721 2636105.0639783065 0 0 0 0 4871091.7422659528 5881143.7362943627 0 5881143.7362943627 794588.90959342662 0 0 0 0 -47660152.898178101 -1410626.4763612747 0 -1410626.4763612747 21680917.668515205 0 0 0 0 -86535583.093490601 10388710.500639915 0 10388710.500639915 21660469.494621277 0 0 0 0 -14937409.152061462 31057674.174304962 0 31057674.174304962 -16079999.826667786 0 0 0 0 -23330310.522888184 -61685887.987785339 0 -61685887.987785339 -81779752.24318409 0 0 0 0 352573.82686242461 1850981.6095995307 0 1850981.6095995307 1438550.7615868389 0 0 0 0 -16320733.098937988 95673819.841333389 0 95673819.841333389 -112567453.29181385 0 0 0 0 21963059.586273193 19931387.84762001 0 19931387.84762001 -38709890.954523087 0 0 0 0 7211455.2524941005 5930108.8116201796 0 5930108.8116201796 217831.46919497196 0 0 0 0 6572310.1544761658 4144303.3219804764 0 4144303.3219804764 498673.95658063889 0 0 0 0 4831853.0155792236 4144229.8459024429 0 4144229.8459024429 499755.12983649969 0 0 0 0 -167207164.3624115 -16672712.705213904 0 -16672712.705213904 -2660585.2694618106 0 0 0 0 -210212203.15540695 -83774981.281489849 0 -83774981.281489849 62325513.968547821 0 0 0 0 1120627.2267654361 762784.00975686312 0 762784.00975686312 142431.57267087884 0 0 0 0 -429123402.43006897 -43412025.984264851 0 -43412025.984264851 35516857.943878174 0 0 0 0 -558673.18786673993 -115673.6395913735 0 -115673.6395913735 199263.06002148381 0 0 0 0 4453057.4919662476 4280576.0839896202 0 4280576.0839896202 505174.81531691551 0 0 0 0 4293508.7406158447 4139391.6973176003 0 4139391.6973176003 672417.14649915695 0 0 0 0 3509709.2655954361 4005667.0483538508 0 4005667.0483538508 715582.56079673767 0 0 0 0 4822932.7134284973 3597866.9496157169 0 3597866.9496157169 -910187.02759552002 0 0 0 0 5697712.6263656616 4204664.9923596382 0 4204664.9923596382 -2136269.1160840988 0 0 0 0 8565990.6063281354 7083744.1236041803 0 7083744.1236041803 -487331.61804345297 0 0 0 0 7283472.890434742 4279972.5301015405 0 4279972.5301015405 576686.09590768348 0 0 0 0 5616073.4905548096 4591717.4000294209 0 4591717.4000294209 -963948.99979448318 0 0 0 0 -197318105.53113556 62844315.722777605 0 62844315.722777605 71640285.551990509 0 0 0 0 -652738079.67788696 -161355468.34693241 0 -161355468.34693241 293755774.14542007 0 0 0 0 -174167847.78334045 -57265727.123074532 0 -57265727.123074532 193837446.09379768 0 0 0 0 -433582498.61917877 -45014295.023150444 0 -45014295.023150444 231063636.31843185 0 0 0 0 -102600384.54458618 -127811096.44830704 0 -127811096.44830704 95084411.187755585 0 0 0 0 -596520477.42958069 113037176.72366238 0 113037176.72366238 219127683.23697281 0 0 0 0 10422293.582183838 2323863.895198822 0 2323863.895198822 10438992.967292786 0 0 0 0 151355.01198617928 372422.33814545348 0 372422.33814545348 94473.323496680707 0 0 0 0 -295668886.45516968 58532961.927585602 0 58532961.927585602 389295728.67102814 0 0 0 0 10020627.330002248 48722332.749631174 0 48722332.749631174 19060407.481601715 0 0 0 0 -3760329.9850997925 -10435181.286550522 0 -10435181.286550522 -109346073.33967566 0 0 0 0 -328144.52146071196 1647956.7524144426 0 1647956.7524144426 747015.87581221014 0 0 0 0 14894140.013679504 -29519644.44338274 0 -29519644.44338274 -103406146.3664341 0 0 0 0 -55226916.868972778 -19701175.52721405 0 -19701175.52721405 63500560.868432999 0 0 0 0 -475694.68659252673 -180328.35596380383 0 -180328.35596380383 5238985.0205701273 0 0 0 0 -39846864.514953613 -54498848.312660217 0 -54498848.312660217 -44646423.115795135 0 0 0 0 -54294.303990595043 114307.64820998348 0 114307.64820998348 176990.98665029975 0 0 0 0 -260639603.97041321 -133505803.24139786 0 -133505803.24139786 -204906727.0177002 0 0 0 0 -504657050.86929321 -280355669.21244431 0 -280355669.21244431 64018259.197952271 0 0 0 0 -473914245.3876667 -163029154.67252779 0 -163029154.67252779 241336194.26036835 0 0 0 0 -179217582.66435242 27486188.345436096 0 27486188.345436096 40096997.43596077 0 0 0 0 -119474614.67560959 -78806104.774089336 0 -78806104.774089336 188300366.46890259 0 0 0 0 -257046612.23992157 186862508.55849266 0 186862508.55849266 -23391863.349833488 0 0 0 0 -80187118.035625458 238211470.92156982 0 238211470.92156982 159890671.86166 0 0 0 0 -192800874.98227692 94423776.543962479 0 94423776.543962479 49284306.487716675 0 0 0 0 -76581765.618103027 139589069.72160721 0 139589069.72160721 -233601420.42700768 0 0 0 0 -60260671.19355011 229522169.15056133 0 229522169.15056133 -133999659.7428875 0 0 0 0 -195827212.94552612 186860820.87973976 0 186860820.87973976 70524080.703840256 0 0 0 0 -911026.38269350678 2227860.359191943 0 2227860.359191943 5140303.5041378923 0 0 0 0 -651370.8059387207 3127016.6469783783 0 3127016.6469783783 -292737.21088290215 0 0 0 0 794449.81706006359 4276059.5110073611 0 4276059.5110073611 1847159.9790803753 0 0 0 0 2483583.6796417236 -877710.26306724548 0 -877710.26306724548 -50928846.23797226 0 0 0 0 285660.52409876511 4534367.8999295272 0 4534367.8999295272 1709118.5103726499 0 0 0 0 -226826880.87918282 90937495.849534273 0 90937495.849534273 -77128346.252063751 0 0 0 0 -329801124.92694092 100951196.86687422 0 100951196.86687422 44098121.882429123 0 0 0 0 10657457.100749969 24298357.139760971 0 24298357.139760971 993164.45796966553 0 0 0 0 269400.95539570693 3325739.5765537992 0 3325739.5765537992 469171.73942567781 0 0 0 0 2715898.7756652832 636941.67702770233 0 636941.67702770233 3224755.4996862411 0 0 0 0 -168037.0730660297 -293240.27592773363 0 -293240.27592773363 336506.48698284011 0 0 0 0 -1165045.5807723999 2900996.8569922447 0 2900996.8569922447 3011417.4000992775 0 0 0 0 1168379.8795676976 2247645.9956187829 0 2247645.9956187829 2547060.1585750841 0 0 0 0 -1695382.5177001953 1937728.0254478455 0 1937728.0254478455 3532664.1136481762 0 0 0 0 1671333.6097679138 2419513.9724750519 0 2419513.9724750519 1631296.6191387177 0 0 0 0 1376287.79737854 1639730.8598504066 0 1639730.8598504066 2325387.2975806147 0 0 0 0 1442347.9427490234 810823.9197845459 0 810823.9197845459 2387447.6683314145 0 0 0 0 2200164.7486953735 814044.9713344574 0 814044.9713344574 2040891.1323976517 0 0 0 0 911397.48593139648 499845.40975904465 0 499845.40975904465 2471618.4477033615 0 0 0 0 2521686.4607436517 906163.11837615445 0 906163.11837615445 1963957.1233159425 0 0 0 0 1536244.3648529053 50436.849956989288 0 50436.849956989288 1801622.2043266296 0 0 0 0 2469129.6510883085 674229.81430417299 0 674229.81430417299 3269656.7907440779 0 0 0 0 -3871178.0429077148 -4179891.6583051682 0 -4179891.6583051682 9137549.4929790497 0 0 0 0 -1965773.5248975754 3483600.7288001776 0 3483600.7288001776 5524271.2997894287 0 0 0 0 1908948.004524231 1926388.2628064156 0 1926388.2628064156 1855871.5724044144 0 0 0 0 2525907.305853216 605015.05926776305 0 605015.05926776305 2077050.736609349 0 0 0 0 -223629.09100341797 732842.20655441284 0 732842.20655441284 2840229.0603480339 0 0 0 0 -1153206.8546447754 3049781.1204614639 0 3049781.1204614639 4451874.0108017921 0 0 0 0 3394777.6976585388 1820464.6453778744 0 1820464.6453778744 211996.50054550171 0 0 0 0 3347042.9246020583 550679.21239178628 0 550679.21239178628 2374510.5406641662 0 0 0 0 -120259.69898986816 924003.1713924408 0 924003.1713924408 1213305.3304367065 0 0 0 0 954396.15033373423 1694346.4846802652 0 1694346.4846802652 2963743.2739985092 0 0 0 0 -218437.94609995186 1066924.9380378337 0 1066924.9380378337 4920709.5226184539 0 0 0 0 4629778.1123657227 194724.80190944672 0 194724.80190944672 492416.28778886795 0 0 0 0 -1432877.5445022583 -2300247.0553779602 0 -2300247.0553779602 5772665.1838493347 0 0 0 0 -3145678.4265213013 -3522708.0595016479 0 -3522708.0595016479 5058827.2036991119 0 0 0 0 -4749075.0801086426 -692738.13869667053 0 -692738.13869667053 15796559.270013809 0 0 0 0 -1229935.7785865106 -194727.70815058053 0 -194727.70815058053 6709369.4179324564 0 0 0 0 101455.18572998047 -3272386.7721366882 0 -3272386.7721366882 17115058.256097794 0 0 0 0 -3722659.1957550049 -5729283.2866897583 0 -5729283.2866897583 5621186.8621139526 0 0 0 0 -6805777.5069675446 7580646.3853776455 0 7580646.3853776455 15754366.609382629 0 0 0 0 9438673.415725708 -4243530.5460681915 0 -4243530.5460681915 4555657.6969690323 0 0 0 0 52379.804212704301 -3376768.0515142903 0 -3376768.0515142903 4224399.8162314836 0 0 0 0 925527.57522392273 -4318234.9139936399 0 -4318234.9139936399 5508561.0359451789 0 0 0 0 -1838829.5666503906 -1431852.2135734558 0 -1431852.2135734558 1548973.6321296692 0 0 0 0 -3951051.5721054077 -1382943.5907931328 0 -1382943.5907931328 3162125.9806365967 0 0 0 0 397525.26504758 -3078933.9551252769 0 -3078933.9551252769 6658407.5598394386 0 0 0 0 -165729.18304443359 -305115.38834953308 0 -305115.38834953308 173421.42760467529 0 0 0 0 2027197.1067112191 -18806.768486388028 0 -18806.768486388028 967110.97804524284 0 0 0 0 6860607.6149597168 -6378827.5995280743 0 -6378827.5995280743 3766994.8361024857 0 0 0 0 7111626.5799799263 -3636155.5230551031 0 -3636155.5230551031 2702633.4365256028 0 0 0 0 7184585.1489377171 -5640327.5932937497 0 -5640327.5932937497 1962774.5005770517 0 0 0 0 12745376.63980484 -6400890.0369670391 0 -6400890.0369670391 866665.7860159874 0 0 0 0 11561502.035104752 -8195846.9366494417 0 -8195846.9366494417 9741752.8339972496 0 0 0 0 1904513.1980895996 5683736.3579437733 0 5683736.3579437733 7889004.2647333145 0 0 0 0 -577221.02047941461 451400.78372526541 0 451400.78372526541 1282838.5433239471 0 0 0 0 15389229.690830231 1148192.0034205914 0 1148192.0034205914 972450.71389091015 0 0 0 0 -1016580.324924469 2188653.6504282951 0 2188653.6504282951 13164209.084130287 0 0 0 0 -3334690.3776741028 -2307015.1901352406 0 -2307015.1901352406 13798987.405738831 0 0 0 0 22715453.950447083 -1014054.8233327866 0 -1014054.8233327866 2086654.441324234 0 0 0 0 3900768.9720057845 -94943.794913075864 0 -94943.794913075864 2792533.2133354382 0 0 0 0 3312409.7938995361 -2968684.0351468325 0 -2968684.0351468325 1928851.9308199883 0 0 0 0 12180359.951286316 -4621799.6507229805 0 -4621799.6507229805 1523302.6617980003 0 0 0 0 13979054.788970947 -1185710.2114052773 0 -1185710.2114052773 -1953556.7895659953 0 0 0 0 7378000.6638736725 -632269.2152261138 0 -632269.2152261138 903547.97721576691 0 0 0 0 17077546.587432861 4440981.4269285202 0 4440981.4269285202 4158391.8626065254 0 0 0 0 15200484.288391113 15737.1776304245 0 15737.1776304245 606145.3410961628 0 0 0 0 12775790.105098724 4044642.0417568684 0 4044642.0417568684 11528164.462936878 0 0 0 0 14641421.708969116 2285497.6052598953 0 2285497.6052598953 6910659.4636287689 0 0 0 0 13382420.006532669 -2678101.3086544275 0 -2678101.3086544275 2593567.0438518524 0 0 0 0 8767305.1337432861 -2090384.9293863773 0 -2090384.9293863773 4736122.8626208305 0 0 0 0 12656362.805267334 -1550441.4656057358 0 -1550441.4656057358 1712078.761464119 0 0 0 0 1511504.0059210993 291165.89133387804 0 291165.89133387804 -291485.22647300968 0 0 0 0 10878920.642959595 -1605588.9696455002 0 -1605588.9696455002 3291070.2543468475 0 0 0 0 4954248.6704406738 -2905936.5647978783 0 -2905936.5647978783 -3650488.4763904959 0 0 0 0 10826385.968215942 -843512.90393590927 0 -843512.90393590927 3095949.0499558449 0 0 0 0 10554145.663234711 9515301.167378664 0 9515301.167378664 870629.41621494293 0 0 0 0 5062048.237951614 917114.13777323347 0 917114.13777323347 2536985.1261619618 0 0 0 0 -73860.094848632812 1550802.9777984619 0 1550802.9777984619 -1009715.3109903336 0 0 0 0 3800927.7250366211 -551010.55872249603 0 -551010.55872249603 1021442.7713050842 0 0 0 0 16551095.019648552 9386900.9244316518 0 9386900.9244316518 -78755.207575798035 0 0 0 0 6328903.1739605702 1063400.4527702332 0 1063400.4527702332 1428999.7729207703 0 0 0 0 12124421.743041992 -94959.703880310059 0 -94959.703880310059 -1400916.225856781 0 0 0 0 5847466.7634384874 -1183491.1790057123 0 -1183491.1790057123 77536.142337725963 0 0 0 0 12299202.058096532 337023.55650816858 0 337023.55650816858 -888746.32435819972 0 0 0 0 313714.63542832434 144759.54640293121 0 144759.54640293121 -84870.938998768572 0 0 0 0 5183498.2830352783 -4250646.8757588863 0 -4250646.8757588863 -3147306.9004411697 0 0 0 0 10121797.220142365 -2258891.4316086769 0 -2258891.4316086769 252736.97587013245 0 0 0 0 10331231.347401619 -2710794.5927295685 0 -2710794.5927295685 -72713.540009498596 0 0 0 0 7358096.9918828905 -4506636.1743399557 0 -4506636.1743399557 911522.09073070576 0 0 0 0 14220975.016376484 -3287718.6347454432 0 -3287718.6347454432 628809.0996683198 0 0 0 0 6897769.6027679443 -4791805.0324327946 0 -4791805.0324327946 2248730.4697980881 0 0 0 0 12001592.465134844 -4924827.3342635259 0 -4924827.3342635259 1742110.4726240914 0 0 0 0 1097062.0405349731 -20410076.778473854 0 -20410076.778473854 6084195.332362175 0 0 0 0 12819172.164264679 -6066432.7811303139 0 -6066432.7811303139 2306182.0284926891 0 0 0 0 3032647.3852380365 -6363458.1554789459 0 -6363458.1554789459 71968.015194675536 0 0 0 0 6686024.9285583496 -20471813.98294735 0 -20471813.98294735 4791004.2019635439 0 0 0 0 10633881.178010941 -33822495.519013286 0 -33822495.519013286 -13291479.934010983 0 0 0 0 12413305.611846924 -22226963.004655838 0 -22226963.004655838 -42608490.416892648 0 0 0 0 -499274.54597473145 -30857521.104381323 0 -30857521.104381323 -9749771.5685586929 0 0 0 0 8477215.6396267656 -6345992.602311518 0 -6345992.602311518 1454906.4681427996 0 0 0 0 10775554.176772118 -38708100.973229438 0 -38708100.973229438 -6370537.8530349731 0 0 0 0 20268168.131949425 -18957436.067878246 0 -18957436.067878246 -4765180.9003257751 0 0 0 0 -6881833.102142334 -22495192.23345378 0 -22495192.23345378 22915658.154954672 0 0 0 0 6531275.7827186584 -74319942.824834958 0 -74319942.824834958 48670502.634889126 0 0 0 0 -62265896.423118591 -75392142.80676353 0 -75392142.80676353 58527149.977856636 0 0 0 0 50737272.536895752 -22580131.45298779 0 -22580131.45298779 43767999.657742277 0 0 0 0 -78495420.585723877 -11347641.921829581 0 -11347641.921829581 52007137.895388842 0 0 0 0 -36633705.757034302 22976805.777929902 0 22976805.777929902 -3381510.5707893372 0 0 0 0 -24193655.646535873 -20464193.023789525 0 -20464193.023789525 26972775.737900496 0 0 0 0 4407085.2726249695 -9695674.5927782059 0 -9695674.5927782059 194177.51865339279 0 0 0 0 -20077590.398706436 -17827739.407632589 0 -17827739.407632589 5724657.7318511605 0 0 0 0 6151718.6089974195 -7033482.1255727801 0 -7033482.1255727801 2903997.5523690209 0 0 0 0 3879692.1160026938 -4665507.0876493286 0 -4665507.0876493286 1519330.4377431162 0 0 0 0 -15941885.576999664 1890326.7091751695 0 1890326.7091751695 9823027.6271371096 0 0 0 0 2570057.7188148499 -6169794.3531274796 0 -6169794.3531274796 2227313.3153138161 0 0 0 0 -4299326.4813270494 -3534696.6188377608 0 -3534696.6188377608 4458651.3973111622 0 0 0 0 -3784918.6458206177 -6055972.099093914 0 -6055972.099093914 4543704.229403615 0 0 0 0 2607895.3397569656 -6492223.1807139218 0 -6492223.1807139218 1894671.1133737564 0 0 0 0 -11015505.871952057 -5165074.1496524811 0 -5165074.1496524811 4825007.4533214569 0 0 0 0 900868.839113269 -352756.79831461608 0 -352756.79831461608 47327.49980552122 0 0 0 0 3537995.9338064194 -7959222.6662068367 0 -7959222.6662068367 4406337.8283433914 0 0 0 0 3817560.0263786316 -9830173.7781145275 0 -9830173.7781145275 908480.62915897369 0 0 0 0 3147806.5358047485 -5596377.8790876865 0 -5596377.8790876865 4405942.8753681183 0 0 0 0 1575207.9932518005 -8934347.9537167549 0 -8934347.9537167549 1611606.690563798 0 0 0 0 5655147.0908794403 -5888555.6012744308 0 -5888555.6012744308 1424712.7699584961 0 0 0 0 6193208.9325609207 -3655903.2347535491 0 -3655903.2347535491 4852318.1404466629 0 0 0 0 2079503.2361477362 -4939467.0063096024 0 -4939467.0063096024 6052921.7121622683 0 0 0 0 9518653.5766296387 -5705360.9746541977 0 -5705360.9746541977 3114221.3275928497 0 0 0 0 -21497551.216178894 18560419.90392971 0 18560419.90392971 9625828.679233551 0 0 0 0 -19304921.125083923 17707216.889895916 0 17707216.889895916 3716480.9340591431 0 0 0 0 -4010511.0344979055 2360224.3334336579 0 2360224.3334336579 597860.86264256574 0 0 0 0 -19454469.182319641 15970502.042572975 0 15970502.042572975 12129424.725460052 0 0 0 0 -4088884.9460601807 -336553.24421691895 0 -336553.24421691895 2146506.9386978149 0 0 0 0 -9129635.2314605713 -3311147.8957633972 0 -3311147.8957633972 4549125.0556468964 0 0 0 0 -31771.46545843035 -861649.37948129326 0 -861649.37948129326 3634795.7051747553 0 0 0 0 -9546858.5861663818 -5628017.1605153084 0 -5628017.1605153084 -8065008.4881973267 0 0 0 0 -18237429.410064697 14123670.469970703 0 14123670.469970703 15654526.983078003 0 0 0 0 -13218273.801239014 10069559.439052582 0 10069559.439052582 17232972.717658997 0 0 0 0 -8241845.5863037109 8947080.1884803772 0 8947080.1884803772 8479536.5680465698 0 0 0 0 -3405362.620513916 282621.41285324097 0 282621.41285324097 19859393.907728195 0 0 0 0 8683599.3952560425 8685622.6166095734 0 8685622.6166095734 5384560.5761413574 0 0 0 0 -13951095.019683838 4783110.9127578735 0 4783110.9127578735 16906690.923267365 0 0 0 0 20951192.519439697 -2924175.7494573593 0 -2924175.7494573593 6618968.0797405243 0 0 0 0 -21558909.646011353 9769949.7980575562 0 9769949.7980575562 16220969.16173172 0 0 0 0 -23225771.845672607 -10644957.318971634 0 -10644957.318971634 4230609.1922163963 0 0 0 0 -60011582.951619148 5875661.0070147514 0 5875661.0070147514 20563296.300638199 0 0 0 0 2579696.8946073987 -6379369.9900575243 0 -6379369.9900575243 4167845.3613289613 0 0 0 0 -13620125.84264946 4326674.0608712435 0 4326674.0608712435 -4408457.9050598145 0 0 0 0 9357309.0064468384 -5436578.9932980537 0 -5436578.9932980537 -1059325.3799829483 0 0 0 0 -22683164.497467041 -380998.22267723083 0 -380998.22267723083 -7234895.2037115097 0 0 0 0 5420488.5590984095 -6942008.8317920305 0 -6942008.8317920305 2001091.8219679985 0 0 0 0 -55210567.717269897 -17358651.086397171 0 -17358651.086397171 22505740.636324406 0 0 0 0 -2067310.8673706055 9132875.8158950806 0 9132875.8158950806 26148729.204626083 0 0 0 0 -32397460.806877136 -19182374.229908466 0 -19182374.229908466 54930218.601297379 0 0 0 0 -22933227.89981842 -458462.23378181458 0 -458462.23378181458 28738018.993484497 0 0 0 0 3046260.7472991943 7353818.4811172485 0 7353818.4811172485 2787910.3561477661 0 0 0 0 5952224.2640151978 233806.44188022614 0 233806.44188022614 26016305.65645647 0 0 0 0 -458817.54301452637 15146290.473120451 0 15146290.473120451 36024480.658372879 0 0 0 0 1047478.7908198014 -235227.54544440657 0 -235227.54544440657 -740912.94766091928 0 0 0 0 21094669.395103455 38257108.380610466 0 38257108.380610466 119559908.82240105 0 0 0 0 111517980.62314606 -167879718.72522926 0 -167879718.72522926 -7224439.0929671526 0 0 0 0 102212932.4495697 -8698059.8659744263 0 -8698059.8659744263 -46001509.758985519 0 0 0 0 -137770769.1503067 -81315173.543971062 0 -81315173.543971062 32117946.432884216 0 0 0 0 24382961.502315521 30221349.294470549 0 30221349.294470549 13724279.48241806 0 0 0 0 835678.96094383299 -204790.2168395929 0 -204790.2168395929 -111815.7057952024 0 0 0 0 -114367340.40116119 -28984208.038848877 0 -28984208.038848877 32791715.303970337 0 0 0 0 -105487289.90766144 -39916578.869470596 0 -39916578.869470596 -8107355.7403106689 0 0 0 0 -162058808.84088135 5111403.5987739563 0 5111403.5987739563 11756395.749340057 0 0 0 0 -101511987.20297241 16925100.933044434 0 16925100.933044434 14668277.662536621 0 0 0 0 -86152090.896453857 18570035.686920166 0 18570035.686920166 11542496.850219727 0 0 0 0 -159584916.72764587 50431042.832923889 0 50431042.832923889 39760045.6508255 0 0 0 0 -27340083.782409668 -11422477.617523193 0 -11422477.617523193 -3728174.7378740311 0 0 0 0 -74134302.311706543 -3125112.7173871994 0 -3125112.7173871994 4739944.9669494629 0 0 0 0 -23499638.394599915 -976957.81960487366 0 -976957.81960487366 11824257.350681305 0 0 0 0 -24720453.853393555 -4084870.7171020508 0 -4084870.7171020508 3929824.1338005066 0 0 0 0 -39711838.39604187 31835416.452937126 0 31835416.452937126 15113687.606895447 0 0 0 0 -93906997.017166138 49805297.800304413 0 49805297.800304413 39551621.627155304 0 0 0 0 -250593766.95362854 98948841.221443176 0 98948841.221443176 6387223.8165283203 0 0 0 0 -9511088.3480148315 -22973587.83693409 0 -22973587.83693409 -27363437.568969727 0 0 0 0 -281632534.5057478 155239944.8354528 0 155239944.8354528 -32452586.893955231 0 0 0 0 -205728452.3825531 25105595.219646454 0 25105595.219646454 44392352.812553406 0 0 0 0 -171707520.60819626 -212633520.02716315 0 -212633520.02716315 -220081897.882164 0 0 0 0 -21531512.726963043 -15465428.631021321 0 -15465428.631021321 23438076.524044365 0 0 0 0 9810552.2275314331 94176622.778755277 0 94176622.778755277 -83967403.489985138 0 0 0 0 12346566.05386658 4355753.0317932144 0 4355753.0317932144 2329908.1164362673 0 0 0 0 -11198065.65355587 19832589.870449983 0 19832589.870449983 -6264332.0711274445 0 0 0 0 -2090231.8865633011 -188604042.00469589 0 -188604042.00469589 148226746.0456295 0 0 0 0 -163209256.25330925 149309670.54915595 0 149309670.54915595 256276903.72021008 0 0 0 0 -169054649.17839813 83528546.364788771 0 83528546.364788771 186816541.06921196 0 0 0 0 9101806.0294139609 3949179.5786392698 0 3949179.5786392698 2692626.9162353342 0 0 0 0 -22001501.861337662 262653489.28737581 0 262653489.28737581 37334531.842396736 0 0 0 0 138650486.11477661 -340720869.30296713 0 -340720869.30296713 233405947.4901818 0 0 0 0 3412559.5039798617 1750437.8946135724 0 1750437.8946135724 2484609.2513132906 0 0 0 0 2200758450.95261 -632725768.01224375 0 -632725768.01224375 -105983550.81751981 0 0 0 0 1421936446.3413162 -965829144.2772857 0 -965829144.2772857 531829613.14126337 0 0 0 0 1429905943.5412407 -293709479.32279301 0 -293709479.32279301 -248748017.4681761 0 0 0 0 74659161.623680115 -61881781.854027987 0 -61881781.854027987 3722165.9771832228 0 0 0 0 738805434.09847641 -40450894.622449607 0 -40450894.622449607 37854907.699882925 0 0 0 0 1382285525.4034576 -571497046.53623152 0 -571497046.53623152 110432825.83522557 0 0 0 0 -108734066.02883148 123881952.97675852 0 123881952.97675852 289790270.74924356 0 0 0 0 1111286.5008696206 -92393.241805013269 0 -92393.241805013269 -23672.772543431725 0 0 0 0 1313843284.8455811 -62886773.067768425 0 -62886773.067768425 -166782774.7027635 0 0 0 0 1375768141.4958344 264889395.46283934 0 264889395.46283934 -399444441.48925632 0 0 0 0 2206107269.4310989 -150870574.86909047 0 -150870574.86909047 -442974340.6788606 0 0 0 0 2200432511.9504781 816072706.72747898 0 816072706.72747898 -390989337.53782892 0 0 0 0 1483321104.8324432 291028658.681283 0 291028658.681283 -393817763.96362221 0 0 0 0 267793590.56567383 58398322.872844055 0 58398322.872844055 54528619.41909159 0 0 0 0 268410468.1247406 61780462.516370222 0 61780462.516370222 18289226.643572792 0 0 0 0 1017640087.255867 809821297.24236429 0 809821297.24236429 303625239.69618088 0 0 0 0 -312211.55203768611 -1266752.8728003728 0 -1266752.8728003728 229796.70345723076 0 0 0 0 17147917.905094147 -14688259.032776341 0 -14688259.032776341 13056259.08266741 0 0 0 0 3169382.9716776777 -1070740.2710648626 0 -1070740.2710648626 -132485.82117081713 0 0 0 0 16341685.474790573 -2441155.9474240988 0 -2441155.9474240988 14303789.009696901 0 0 0 0 1993129.7034301758 -4474177.6402252913 0 -4474177.6402252913 10372311.415436625 0 0 0 0 12051757.625488058 -2151577.3336790046 0 -2151577.3336790046 -1159520.8249254855 0 0 0 0 9662554.0255699158 1016392.2134991884 0 1016392.2134991884 6108961.5791059732 0 0 0 0 5448979.0518722534 2255762.8707922697 0 2255762.8707922697 7365510.7701392267 0 0 0 0 7914503.2832756042 1832144.2650535107 0 1832144.2650535107 4229296.301563561 0 0 0 0 11244090.564703867 1480719.8308030213 0 1480719.8308030213 178479.98441298507 0 0 0 0 6992302.3852806091 5976568.9031275213 0 5976568.9031275213 134512.17606714368 0 0 0 0 12235286.92932272 45330381.38971433 0 45330381.38971433 -138955869.55262136 0 0 0 0 16139518.709191352 2700409.9082047194 0 2700409.9082047194 922365.23812158208 0 0 0 0 4421891.5269622803 3061483.8815534115 0 3061483.8815534115 7664101.6606544852 0 0 0 0 6024462.7461185455 445638.72625896335 0 445638.72625896335 -125147.20699572563 0 0 0 0 7976419.5952377319 -2782285.2002403736 0 -2782285.2002403736 -5740569.2163255736 0 0 0 0 12675149.258349024 3311753.1867682151 0 3311753.1867682151 399661.06509524141 0 0 0 0 6197614.7412490845 683663.8960403204 0 683663.8960403204 195396.96849356964 0 0 0 0 10746433.37470744 1960688.1039004661 0 1960688.1039004661 2316702.7048569014 0 0 0 0 32525807.005722046 -11608512.255386353 0 -11608512.255386353 -35496821.247068405 0 0 0 0 57099837.652040482 35430071.681970239 0 35430071.681970239 -153150517.37674904 0 0 0 0 706483.96667978493 257142.05726674944 0 257142.05726674944 47587.054249582812 0 0 0 0 24001120.798477173 -5562989.7299613953 0 -5562989.7299613953 -22195178.867247581 0 0 0 0 14907094.881672703 4104316.1536855786 0 4104316.1536855786 1551904.0940125184 0 0 0 0 31028049.526901245 -2857381.068523407 0 -2857381.068523407 -40338113.61000824 0 0 0 0 14682308.280481339 -18211509.174906731 0 -18211509.174906731 -11729827.440663815 0 0 0 0 23976720.801963806 -30802591.28092432 0 -30802591.28092432 4239769.6784448624 0 0 0 0 28832124.350408554 -23098644.743359804 0 -23098644.743359804 -43895831.757091522 0 0 0 0 13648549.776018143 -12012989.046019673 0 -12012989.046019673 -22869842.956850052 0 0 0 0 27381192.647789001 -26004775.454856157 0 -26004775.454856157 -17642351.300369263 0 0 0 0 40081554.912071228 -47329976.440338612 0 -47329976.440338612 1889065.759118557 0 0 0 0 24164152.863975525 -36781557.320277214 0 -36781557.320277214 -44459202.964290619 0 0 0 0 43603264.434158564 -14199936.749281555 0 -14199936.749281555 -29924577.610991478 0 0 0 0 15935535.474754333 -36610800.649630308 0 -36610800.649630308 19913735.878716469 0 0 0 0 21414319.827480316 -64517491.711464643 0 -64517491.711464643 147108229.60096788 0 0 0 0 11513507.893043518 -38910541.854610682 0 -38910541.854610682 43481248.739840031 0 0 0 0 6692071.2262134738 -17251054.125593882 0 -17251054.125593882 1942953.1000480652 0 0 0 0 -17413732.532527924 -44554151.302729607 0 -44554151.302729607 -11762913.441479683 0 0 0 0 91417046.868034363 127941351.3615849 0 127941351.3615849 -216153711.95866227 0 0 0 0 83842487.158863068 11999438.035651684 0 11999438.035651684 -164119827.32031322 0 0 0 0 150281700.48555756 63076980.36841774 0 63076980.36841774 50440301.889055252 0 0 0 0 94068269.537570953 -84913621.53725338 0 -84913621.53725338 25128334.645443916 0 0 0 0 126976292.39871025 50742484.815068245 0 50742484.815068245 94315103.077594519 0 0 0 0 170732178.1611886 56304180.838399887 0 56304180.838399887 -28234544.689527512 0 0 0 0 170725961.1780529 51581611.183962852 0 51581611.183962852 85426738.058267593 0 0 0 0 193567821.75062943 110088616.69659781 0 110088616.69659781 34209604.360275626 0 0 0 0 844767.59875148349 -624107.12934994884 0 -624107.12934994884 229133.33829211257 0 0 0 0 42659534.846149445 183551492.72830784 0 183551492.72830784 288267020.62474215 0 0 0 0 1014404.5070084408 -1340609.6672179322 0 -1340609.6672179322 688783.10102824657 0 0 0 0 42508758.292419434 -5677744.8271622658 0 -5677744.8271622658 -94241585.973670125 0 0 0 0 238657.15583918244 -52182.826531658648 0 -52182.826531658648 340014.92653207108 0 0 0 0 77915663.414402008 103300934.80753756 0 103300934.80753756 -47891258.108054399 0 0 0 0 -10375821.858045578 -2598689.7452637553 0 -2598689.7452637553 -274126.04539346695 0 0 0 0 75931433.543434143 74691163.445655346 0 74691163.445655346 28371581.079932928 0 0 0 0 117066322.49835587 17290292.026492834 0 17290292.026492834 -10258430.83758527 0 0 0 0 67748274.98595047 -49057165.405750155 0 -49057165.405750155 9079337.1458282471 0 0 0 0 72788753.825188398 24182698.719915524 0 24182698.719915524 30100352.331894875 0 0 0 0 68471516.388252258 -13779780.363334537 0 -13779780.363334537 40971050.989606738 0 0 0 0 203427413.61839676 82908969.919387102 0 82908969.919387102 8452136.6528792381 0 0 0 0 138733016.15016174 -2591370.9157791138 0 -2591370.9157791138 26830702.172662497 0 0 0 0 337560153.17115402 -4494092.6368144751 0 -4494092.6368144751 46672612.861965179 0 0 0 0 237109663.51647949 212917301.35629353 0 212917301.35629353 254973145.99876094 0 0 0 0 185532076.0430603 46638192.414427578 0 46638192.414427578 52655101.527493775 0 0 0 0 160876508.78617573 -76782526.639750302 0 -76782526.639750302 18303002.880357265 0 0 0 0 77476635.531715393 -70880337.249961972 0 -70880337.249961972 85577228.623651743 0 0 0 0 171887476.10329819 102801865.25050539 0 102801865.25050539 52680559.258140326 0 0 0 0 458951.50912282243 -264953.34788384847 0 -264953.34788384847 93032.633120315732 0 0 0 0 137491811.4286232 78536498.55144155 0 78536498.55144155 73849741.288849503 0 0 0 0 451118915.20302963 447702691.02989846 0 447702691.02989846 374698361.28752482 0 0 0 0 842982491.99208069 398456894.89544451 0 398456894.89544451 194200713.50166863 0 0 0 0 367160978.87012482 526048230.21264571 0 526048230.21264571 383165555.70381641 0 0 0 0 377336007.80526733 280968291.60374457 0 280968291.60374457 170722189.16122174 0 0 0 0 280954928.84021568 350392761.80895215 0 350392761.80895215 114169223.52174199 0 0 0 0 328729157.09576035 249524620.60001588 0 249524620.60001588 300188754.07313144 0 0 0 0 68980268.323316574 -73489446.146137357 0 -73489446.146137357 208650980.51019382 0 0 0 0 225265188.70626831 183711863.18399942 0 183711863.18399942 61914920.461888134 0 0 0 0 588151.59007092938 -493709.56649143994 0 -493709.56649143994 -27323.898503846023 0 0 0 0 207194586.47354507 235010604.17297876 0 235010604.17297876 151547538.78905258 0 0 0 0 -217903775.9551506 -75298216.380771875 0 -75298216.380771875 291081364.46713161 0 0 0 0 -118193115.35978699 -96744993.403859138 0 -96744993.403859138 256327886.9039017 0 0 0 0 518536098.17565155 1200198909.8842256 0 1200198909.8842256 1926045472.2879689 0 0 0 0 92540207.810134888 159377804.14026958 0 159377804.14026958 457495005.27044863 0 0 0 0 546572164.87321758 864978516.1254009 0 864978516.1254009 812851159.4826498 0 0 0 0 1364342133.0640869 913121023.73508179 0 913121023.73508179 70716534.859991118 0 0 0 0 2200198073.0454369 1352740622.6770923 0 1352740622.6770923 289247640.95188391 0 0 0 0 2205695382.0570602 754785080.19090295 0 754785080.19090295 -200341993.42549556 0 0 0 0 1316359349.5237999 698893271.1166501 0 698893271.1166501 146905581.82062519 0 0 0 0 1005430429.003418 685439699.07645607 0 685439699.07645607 169251361.64778084 0 0 0 0 1572485790.7353745 431234059.74785143 0 431234059.74785143 -197702493.01681718 0 0 0 0 2204078253.699791 -15890322.123177953 0 -15890322.123177953 -384061748.61654848 0 0 0 0 1403350891.7385101 345782068.97572184 0 345782068.97572184 -194332851.3488712 0 0 0 0 1229318762.7857494 63247711.424320698 0 63247711.424320698 -95427309.970594466 0 0 0 0 1116666883.1101532 54960087.57625097 0 54960087.57625097 -94881436.278221622 0 0 0 0 1230150341.275383 -163440594.6845454 0 -163440594.6845454 -400144844.51879519 0 0 0 0 438917059.02420616 163553380.38157758 0 163553380.38157758 270849414.9822861 0 0 0 0 690066526.43866348 349878687.58305222 0 349878687.58305222 185638430.9071728 0 0 0 0 806932976.2773037 -221718216.24812895 0 -221718216.24812895 -62877338.186616123 0 0 0 0 279199035.82454109 164666074.88398144 0 164666074.88398144 273231250.25170028 0 0 0 0 97134911.406713247 381213308.45972747 0 381213308.45972747 -281880217.91546732 0 0 0 0 171891470.41141486 -174077627.06154844 0 -174077627.06154844 29072912.106187165 0 0 0 0 501474456.88464355 -1632465.5164286047 0 -1632465.5164286047 -233206790.71757221 0 0 0 0 2204813889.6081467 -480787107.81878918 0 -480787107.81878918 -449820393.2330932 0 0 0 0 757909729.42065811 -806911373.65477955 0 -806911373.65477955 251073124.25410467 0 0 0 0 1192851134.8983002 -497090995.72432268 0 -497090995.72432268 -336316002.23776895 0 0 0 0 2201785933.8919296 -1279453331.0422323 0 -1279453331.0422323 56362226.605749741 0 0 0 0 58611601.341526031 -1112089294.3601112 0 -1112089294.3601112 1792794628.224725 0 0 0 0 1456751.133656323 -272255.70737121534 0 -272255.70737121534 698778.82811536279 0 0 0 0 2195346825.2969933 -54929.599150308277 0 -54929.599150308277 -1621695.4816256578 0 0 0 0 52528293.493133545 1105696752.5249188 0 1105696752.5249188 1386382041.4288282 0 0 0 0 4103812.5905974954 -1792412.6128682652 0 -1792412.6128682652 623493.72182266996 0 0 0 0 -34208582.382301331 740654.09835529327 0 740654.09835529327 776976.14110826701 0 0 0 0 -35702016.281242371 -16366906.188263357 0 -16366906.188263357 167555.40835838392 0 0 0 0 202082366.85650814 -172830463.72149149 0 -172830463.72149149 202713329.71143889 0 0 0 0 6965631.8639936633 -1856455.0550086014 0 -1856455.0550086014 709084.42751506646 0 0 0 0 2679967.0209114663 -2187286.7781684855 0 -2187286.7781684855 78932.492800791981 0 0 0 0 642620237.02791214 -279180907.07999939 0 -279180907.07999939 98640031.814759493 0 0 0 0 2713783.9796265848 614323.56967941672 0 614323.56967941672 1271656.4656061414 0 0 0 0 -133324016.75650024 77449352.506025136 0 77449352.506025136 -23468761.316679001 0 0 0 0 -167326691.73150253 30731830.037903965 0 30731830.037903965 113189248.30042362 0 0 0 0 -127902989.25111771 -28130674.189852595 0 -28130674.189852595 47082686.552973032 0 0 0 0 -35927493.432220459 -14680483.897584915 0 -14680483.897584915 22619351.313540112 0 0 0 0 -33492569.090000629 4816106.4776743203 0 4816106.4776743203 23675496.285699368 0 0 0 0 7570371.1770778894 -1870329.6131411381 0 -1870329.6131411381 413414.09887277964 0 0 0 0 89731312.395172119 -218798430.85601753 0 -218798430.85601753 50536077.865967341 0 0 0 0 -107278667.96498775 -74462795.840010092 0 -74462795.840010092 -26780634.786662817 0 0 0 0 -92434293.529499054 -104935385.73489183 0 -104935385.73489183 -108980793.97139052 0 0 0 0 -114518776.65246153 -58233579.977931872 0 -58233579.977931872 70381982.168158412 0 0 0 0 -113254855.05207443 -223109521.08335972 0 -223109521.08335972 -128080182.16234803 0 0 0 0 7818154.0731707197 -846876.18550711498 0 -846876.18550711498 -142288.90033471171 0 0 0 0 -97722210.567947388 55548386.46257025 0 55548386.46257025 111729015.11531019 0 0 0 0 1874785040.5678539 161603672.64813909 0 161603672.64813909 -193534187.87930918 0 0 0 0 336924378.20022583 -164573181.26139346 0 -164573181.26139346 -91313026.553405404 0 0 0 0 1719081218.6417007 844096845.37169898 0 844096845.37169898 239554434.46154177 0 0 0 0 2202074593.284328 1015852352.2331164 0 1015852352.2331164 -179361251.05284077 0 0 0 0 924349046.80257416 1521056543.3829718 0 1521056543.3829718 791337887.27068388 0 0 0 0 1283668870.1460137 376736373.95229864 0 376736373.95229864 -43899014.325384527 0 0 0 0 158331393.39153481 386764353.37215507 0 386764353.37215507 107413852.62876135 0 0 0 0 142571593.47576523 -131596948.34757033 0 -131596948.34757033 292391629.92342508 0 0 0 0 390321037.25243664 -110667314.13925214 0 -110667314.13925214 -36774173.723215878 0 0 0 0 151563738.78257561 -79818103.525254175 0 -79818103.525254175 10328801.792254865 0 0 0 0 306396678.50487804 188123749.75032097 0 188123749.75032097 70956571.397534609 0 0 0 0 686678636.25730896 -24224962.180259317 0 -24224962.180259317 183141573.58454743 0 0 0 0 44224686.659730911 45828144.481654882 0 45828144.481654882 28223430.303756297 0 0 0 0 243062935.83812904 -48813124.396209478 0 -48813124.396209478 -250959993.20672679 0 0 0 0 121830945.86118317 -40835459.105401874 0 -40835459.105401874 -54936250.183763921 0 0 0 0 74083754.520305634 -168794190.2622028 0 -168794190.2622028 9956888.6374061108 0 0 0 0 176239703.78688049 -122592658.68755591 0 -122592658.68755591 -192599979.93939185 0 0 0 0 75897010.5728302 -79003664.02107501 0 -79003664.02107501 -208430526.45535171 0 0 0 0 22126959.193489075 -157262195.41854477 0 -157262195.41854477 -162508412.57205895 0 0 0 0 44556460.7970047 -150886310.13111138 0 -150886310.13111138 -245927119.95491123 0 0 0 0 -23143243.000686646 -108860678.78343379 0 -108860678.78343379 -180192679.26137435 0 0 0 0 5280171.4312515259 -174723167.91130781 0 -174723167.91130781 -188731437.46874693 0 0 0 0 20592968.262763977 -187819801.38184711 0 -187819801.38184711 -52899631.555273354 0 0 0 0 79143257.283584595 -122368227.65437138 0 -122368227.65437138 -162766237.85286367 0 0 0 0 -151085154.2556839 -103061329.66513729 0 -103061329.66513729 -146210453.75809515 0 0 0 0 -70833505.757810593 -186449214.62697858 0 -186449214.62697858 -61152080.759165227 0 0 0 0 -105492505.71570206 -86512022.847855568 0 -86512022.847855568 123319810.70416915 0 0 0 0 -12648053.722854614 -153431995.94299799 0 -153431995.94299799 -67190679.948282868 0 0 0 0 54360822.560609818 -181525257.22349736 0 -181525257.22349736 128558954.90534759 0 0 0 0 -9091222.1697540283 -87745564.466233134 0 -87745564.466233134 4333400.4956834316 0 0 0 0 30200060.598564148 5718034.6989011765 0 5718034.6989011765 238725151.30483079 0 0 0 0 -6156577.8558368683 -102904118.73813421 0 -102904118.73813421 112709863.05224133 0 0 0 0 -129725312.00929642 -35914128.070847034 0 -35914128.070847034 246677134.58431125 0 0 0 0 -95345517.618017197 12134082.048368573 0 12134082.048368573 8135881.918640852 0 0 0 0 -32475218.393333435 112000320.88457596 0 112000320.88457596 152525209.76131356 0 0 0 0 43288719.833879471 -24512714.595445395 0 -24512714.595445395 243758186.14549541 0 0 0 0 478379053.3368187 92979732.729337692 0 92979732.729337692 458067904.7900753 0 0 0 0 408087362.32497787 202915911.95128071 0 202915911.95128071 312405485.96386027 0 0 0 0 802935854.43628693 432426387.95947003 0 432426387.95947003 260754071.34779727 0 0 0 0 117617938.79997063 -98844296.300747335 0 -98844296.300747335 353316319.55784512 0 0 0 0 403160095.6185112 45778644.791979074 0 45778644.791979074 238960174.91721678 0 0 0 0 636788944.85417557 572250166.27247477 0 572250166.27247477 1427282479.2554331 0 0 0 0 773951918.80663681 317429379.22782922 0 317429379.22782922 406553844.0846746 0 0 0 0 309997279.50839329 207846970.16305512 0 207846970.16305512 703604457.73338699 0 0 0 0 1302311031.5973625 889772993.4958756 0 889772993.4958756 396016597.74498558 0 0 0 0 661830200.43922424 424619575.91404796 0 424619575.91404796 587968352.6372385 0 0 0 0 1356764667.5418854 302370162.40673566 0 302370162.40673566 342410467.02046442 0 0 0 0 1496186615.3303747 762004072.62325656 0 762004072.62325656 -183836754.21637058 0 0 0 0 156085.58542097732 557095.52117160242 0 557095.52117160242 1448356.6615433018 0 0 0 0 85119062.038040161 255384974.75832248 0 255384974.75832248 546823870.43331528 0 0 0 0 1415103907.3668756 104700042.97915134 0 104700042.97915134 -92208098.504207611 0 0 0 0 839269839.68265152 -31552487.871745795 0 -31552487.871745795 -124345088.509552 0 0 0 0 882220976.58356094 424809902.51087844 0 424809902.51087844 53955254.816447973 0 0 0 0 1184915685.3593378 647198429.07458901 0 647198429.07458901 210392506.62653112 0 0 0 0 827863691.41711807 322416550.15504694 0 322416550.15504694 575146510.46302414 0 0 0 0 489399498.24674225 261626164.29733586 0 261626164.29733586 184624948.01457739 0 0 0 0 879778650.8546381 458809797.64431101 0 458809797.64431101 -137815108.68727469 0 0 0 0 821706559.75658226 594660155.67106032 0 594660155.67106032 130795682.78359422 0 0 0 0 917126529.24172211 589497672.97005653 0 589497672.97005653 -70216704.672557354 0 0 0 0 719175331.91547775 291252284.86542308 0 291252284.86542308 -33388827.876059771 0 0 0 0 313988410.39720345 112611524.68550992 0 112611524.68550992 17624485.705292702 0 0 0 0 181355367.04151154 38113663.655044198 0 38113663.655044198 -2996974.5996435881 0 0 0 0 638568377.80527878 375793068.02319264 0 375793068.02319264 -102773835.34458399 0 0 0 0 954248160.25685883 492389998.69237208 0 492389998.69237208 -87769066.341677189 0 0 0 0 2731903.8510885574 1798086.0579812815 0 1798086.0579812815 1509021.6567379863 0 0 0 0 -201132817.75279236 334362231.20839572 0 334362231.20839572 -112414543.12746131 0 0 0 0 -74385499.090911865 -47147801.251933694 0 -47147801.251933694 -33819344.045969248 0 0 0 0 487578402.2519722 276150146.7102524 0 276150146.7102524 113768263.73021919 0 0 0 0 816987774.75719452 258792227.80110121 0 258792227.80110121 -398627407.20583999 0 0 0 0 1292739.9135731757 996385.23545988835 0 996385.23545988835 743776.71949461231 0 0 0 0 192698291.70710754 -30287208.662538156 0 -30287208.662538156 -50896210.297849461 0 0 0 0 -229322176.72974014 392857668.78820974 0 392857668.78820974 520702640.28513718 0 0 0 0 515719047.88280869 509267371.02991962 0 509267371.02991962 410731803.28680372 0 0 0 0 180273706.21987152 392743213.15897053 0 392743213.15897053 437001766.69291699 0 0 0 0 378074547.24183083 120367972.39791948 0 120367972.39791948 63778598.013825655 0 0 0 0 218117008.21466064 168502134.6414597 0 168502134.6414597 55104739.68586421 0 0 0 0 27272226.537445068 54697717.04872787 0 54697717.04872787 106632145.10822177 0 0 0 0 568015170.43099403 59435345.637623236 0 59435345.637623236 153450418.05213916 0 0 0 0 536294352.13464165 445397392.1030938 0 445397392.1030938 367608985.49292493 0 0 0 0 322687400.61706543 124048430.52617079 0 124048430.52617079 358524864.6633994 0 0 0 0 713996029.01550674 372606694.32660997 0 372606694.32660997 180388157.56256592 0 0 0 0 291044439.50008011 135837840.74781537 0 135837840.74781537 193369374.01204425 0 0 0 0 254213203.79540825 -33346340.557944357 0 -33346340.557944357 39208015.592949867 0 0 0 0 113833546.20553207 44339548.191214025 0 44339548.191214025 169633828.22230232 0 0 0 0 159792207.29291916 26105541.596820831 0 26105541.596820831 50186866.310003281 0 0 0 0 23871072.749298096 17127448.697111964 0 17127448.697111964 -26145711.164849639 0 0 0 0 61354094.061660767 -52568401.289100111 0 -52568401.289100111 62466427.07643652 0 0 0 0 -52993721.415629387 -4520018.7198424041 0 -4520018.7198424041 -27823458.627806187 0 0 0 0 -258646200.43276978 59726356.408905149 0 59726356.408905149 -4702243.027084589 0 0 0 0 -76750928.17741394 17163728.70607233 0 17163728.70607233 -65525484.447655916 0 0 0 0 -268318355.29850769 -70040838.279574752 0 -70040838.279574752 -44232419.742815018 0 0 0 0 -66823704.200046539 -48769954.269320816 0 -48769954.269320816 -22844028.566420078 0 0 0 0 -100734345.1385498 67898701.361376762 0 67898701.361376762 8948317.1124945283 0 0 0 0 -90592586.506834984 7930492.2123358101 0 7930492.2123358101 -130884473.77054167 0 0 0 0 100044786.15631104 97342429.539408803 0 97342429.539408803 -3436825.8173700571 0 0 0 0 -191743736.27947235 -2192056.849794805 0 -2192056.849794805 121078143.69623327 0 0 0 0 -23344115.489852905 137740102.27077591 0 137740102.27077591 97046158.713121772 0 0 0 0 1095247.0033613797 1575840.7460734453 0 1575840.7460734453 2742353.062492935 0 0 0 0 39730691.81918335 16908865.54710871 0 16908865.54710871 -20286913.008933783 0 0 0 0 -214472880.9509201 122784747.91109937 0 122784747.91109937 64550495.9308424 0 0 0 0 3865129.7610693257 1737628.8178542685 0 1737628.8178542685 842646.03733520675 0 0 0 0 -937783.94861221313 461292.96623110771 0 461292.96623110771 826199.48311948776 0 0 0 0 3714115.3671336435 -1936178.5550184771 0 -1936178.5550184771 1280383.9914403716 0 0 0 0 2317093.7630887162 -1078578.5935165975 0 -1078578.5935165975 1346019.9234332815 0 0 0 0 -1299438.0038947593 1828446.8482223898 0 1828446.8482223898 687127.89928345708 0 0 0 0 3901516.7885148991 -2957477.6254153829 0 -2957477.6254153829 1601333.5783718727 0 0 0 0 3047401.8582458496 1891171.7585434914 0 1891171.7585434914 -3549481.5457191467 0 0 0 0 -457828.27808761597 8594174.1386332959 0 8594174.1386332959 -7516227.2121653557 0 0 0 0 422296.17134458618 781703.63296535611 0 781703.63296535611 -331455.88304730551 0 0 0 0 -395071770.25215149 21016124.836549282 0 21016124.836549282 37348280.544750214 0 0 0 0 8752568.5607414246 -7212981.5559887886 0 -7212981.5559887886 -1216609.5169010162 0 0 0 0 7381827.0609207153 -4549552.4098587036 0 -4549552.4098587036 681806.70437264442 0 0 0 0 -1099376.9431152344 -7794351.7395424843 0 -7794351.7395424843 958564.25462055206 0 0 0 0 4187449.3033390045 -7263847.0467352867 0 -7263847.0467352867 -1270068.4006729126 0 0 0 0 4257386.092218399 -7042070.6065628529 0 -7042070.6065628529 -1062624.1508750916 0 0 0 0 1349323.1526489258 -5936819.02997756 0 -5936819.02997756 1931988.4333267212 0 0 0 0 2142114.5643730164 -8620401.5538287163 0 -8620401.5538287163 -1285470.967291832 0 0 0 0 2517644.6165313721 -9338980.6923503876 0 -9338980.6923503876 -2727757.2859554291 0 0 0 0 4351126.536365509 -6878003.1032793522 0 -6878003.1032793522 -982259.48721313477 0 0 0 0 4489113.4241790771 -7028727.5992641449 0 -7028727.5992641449 -1196043.8858566284 0 0 0 0 4792522.0127830505 -7442654.9794800282 0 -7442654.9794800282 -2638376.3552703857 0 0 0 0 4790190.428062439 -7394403.6506738663 0 -7394403.6506738663 -2891620.515021503 0 0 0 0 6880924.330909729 -5995457.2085709572 0 -5995457.2085709572 -668664.48013710976 0 0 0 0 -1135300.9569168091 -3946157.6653060913 0 -3946157.6653060913 -3484438.0637540817 0 0 0 0 7731444.7306518555 -5735355.9218416214 0 -5735355.9218416214 -2278296.9779367447 0 0 0 0 7603924.6446228027 -5504853.8810932636 0 -5504853.8810932636 -2694714.0031423569 0 0 0 0 6582514.3124485388 -1700368.7296232879 0 -1700368.7296232879 560538.45756794186 0 0 0 0 9094980.9368667603 -4724400.6555418968 0 -4724400.6555418968 -2445738.423363924 0 0 0 0 -572780.80521392822 -4475737.2582130432 0 -4475737.2582130432 -4761077.8801269531 0 0 0 0 7688885.8136636075 -3757527.8021894703 0 -3757527.8021894703 -326715.74203051254 0 0 0 0 4548080.3376731873 -15727580.531918049 0 -15727580.531918049 -8404368.8299264908 0 0 0 0 3976546.9740189835 -7804078.8239990473 0 -7804078.8239990473 -411595.75337925763 0 0 0 0 17910330.301584244 16845699.94834137 0 16845699.94834137 8751410.8978269696 0 0 0 0 5382729.4376754761 -9364266.3606934547 0 -9364266.3606934547 -2440162.9264268875 0 0 0 0 9656952.39868927 -7212851.4752907753 0 -7212851.4752907753 -3217297.6683382988 0 0 0 0 37453994.557312012 12880061.420753479 0 12880061.420753479 13703261.185997009 0 0 0 0 13744696.502206936 -1347387.5773369502 0 -1347387.5773369502 -2639625.4740982596 0 0 0 0 35305669.233319283 -2604802.5255215168 0 -2604802.5255215168 4894904.9488830566 0 0 0 0 3224527.4074642006 2669167.8143412629 0 2669167.8143412629 2035734.6727477359 0 0 0 0 10957902.258377075 -1345496.5356583595 0 -1345496.5356583595 -2021662.8146800995 0 0 0 0 -4916410.9515991211 26062109.212217331 0 26062109.212217331 13204204.570571899 0 0 0 0 4552394.7645082474 805881.39876168966 0 805881.39876168966 710422.43294048309 0 0 0 0 5693104.7082252502 4623851.6859240532 0 4623851.6859240532 4039780.3446855545 0 0 0 0 2517968.8556834385 261805.61645457149 0 261805.61645457149 -1222230.8359279837 0 0 0 0 2596242.8661575317 -1586592.5745487213 0 -1586592.5745487213 4292826.1998249292 0 0 0 0 4690114.2419929504 2087685.2648596764 0 2087685.2648596764 -4855350.753900528 0 0 0 0 1685639.4496650696 1319362.1883311272 0 1319362.1883311272 649175.8180333972 0 0 0 0 3345287.70597737 231439.62704676576 0 231439.62704676576 1058595.1537364144 0 0 0 0 2964301.6874809265 1719390.642418623 0 1719390.642418623 231874.24129867554 0 0 0 0 13244325.335952759 -5580937.3535970449 0 -5580937.3535970449 3851082.3401069641 0 0 0 0 9793197.4306259155 2135940.60374856 0 2135940.60374856 -699444.80673527718 0 0 0 0 239890.38073730469 428911.5848274231 0 428911.5848274231 3163769.4146461487 0 0 0 0 -1746.8211975097656 1234296.0390424728 0 1234296.0390424728 -671309.37385748327 0 0 0 0 791895.56117015705 1938612.0491683516 0 1938612.0491683516 1871531.0744916229 0 0 0 0 111484266.05308533 170352466.56573915 0 170352466.56573915 -123289380.03440595 0 0 0 0 109651.9363535922 1252398.7876799265 0 1252398.7876799265 3610623.837769879 0 0 0 0 -137731064.97245026 175551383.65361977 0 175551383.65361977 -26312320.703670025 0 0 0 0 61873195.549045563 -19545333.421581089 0 -19545333.421581089 -55019928.952666283 0 0 0 0 3253625.4027119549 517796.60667937621 0 517796.60667937621 23153.820645664353 0 0 0 0 2276625.3546575289 1681620.8121172376 0 1681620.8121172376 1986440.91821928 0 0 0 0 2191541.4896430969 863795.58225035667 0 863795.58225035667 2785391.2188124657 0 0 0 0 2256026.5703785978 1211190.9498305346 0 1211190.9498305346 1828876.789955124 0 0 0 0 1263031.7773132324 848558.87059783936 0 848558.87059783936 743424.63847112656 0 0 0 0 2093616.3341808319 990171.47163152695 0 990171.47163152695 671318.00996732712 0 0 0 0 45023507.612462044 -21004326.162208319 0 -21004326.162208319 -4528423.0011034012 0 0 0 0 67975577.397071838 -65072251.532099247 0 -65072251.532099247 -161532213.49318981 0 0 0 0 43609445.874145508 -92538250.032074451 0 -92538250.032074451 106500448.16296196 0 0 0 0 10031023.569522858 -32176866.283824921 0 -32176866.283824921 4416179.6376752853 0 0 0 0 -4229711.5439910889 -56624894.664823294 0 -56624894.664823294 -1075145.6731126904 0 0 0 0 2058082.3662796021 -48896122.205042839 0 -48896122.205042839 -64009419.962678909 0 0 0 0 -20746979.180145264 -33358680.277471542 0 -33358680.277471542 -14129360.318192482 0 0 0 0 -7191666.9058532715 -44565296.869648218 0 -44565296.869648218 -17235329.028260887 0 0 0 0 -7896295.3909873962 -54053050.058094263 0 -54053050.058094263 15779360.630894661 0 0 0 0 8550233.3387650233 -8707755.1758495234 0 -8707755.1758495234 730289.40145620564 0 0 0 0 -33385738.531158447 -41658786.26206398 0 -41658786.26206398 1104364.7864765525 0 0 0 0 -32285399.179351807 -20948396.145534575 0 -20948396.145534575 -1313270.8147039413 0 0 0 0 -2004293.7349948883 -12435883.002251565 0 -12435883.002251565 -2878749.6124477386 0 0 0 0 10631111.303040318 -7513087.5960790105 0 -7513087.5960790105 -1679713.2001397945 0 0 0 0 2045354.5632476807 -8244306.0391774178 0 -8244306.0391774178 -2460616.0876868367 0 0 0 0 -1389717.7421321869 -12168250.219687462 0 -12168250.219687462 -3288488.6796216965 0 0 0 0 669099.04665279388 -9567579.6337468624 0 -9567579.6337468624 2880466.4764471054 0 0 0 0 5643134.3712731935 -8684441.119533034 0 -8684441.119533034 -1011991.6539256736 0 0 0 0 14768332.86542511 -1444949.3389754295 0 -1444949.3389754295 -7601038.0313764215 0 0 0 0 -12691658.832237244 -29655591.718546391 0 -29655591.718546391 4470417.3499503136 0 0 0 0 16071129.35296414 -7151329.4242177811 0 -7151329.4242177811 -2880190.5170983309 0 0 0 0 619919.10193113983 -8328648.3164394917 0 -8328648.3164394917 -1201519.510186533 0 0 0 0 54642.937837392092 -1464876.2708393354 0 -1464876.2708393354 -236310.36686994741 0 0 0 0 527299.64107513428 -14754306.357672513 0 -14754306.357672513 -4557401.813300848 0 0 0 0 8427605.1226882935 -41104634.737285852 0 -41104634.737285852 -10745769.772291556 0 0 0 0 77366118.16217804 -46394413.39257437 0 -46394413.39257437 -17166557.754653513 0 0 0 0 43511007.84740448 -39856645.016474724 0 -39856645.016474724 -14408440.585206985 0 0 0 0 19501184.70606041 -57677407.281710744 0 -57677407.281710744 -14417073.003191471 0 0 0 0 21945758.720420837 -45873279.316171169 0 -45873279.316171169 39979794.938853264 0 0 0 0 44306991.763339996 -26771888.436521769 0 -26771888.436521769 -21752126.241250753 0 0 0 0 16676189.2628479 -38265635.489690781 0 -38265635.489690781 -25745416.165113449 0 0 0 0 49673455.775924683 -35742721.151111126 0 -35742721.151111126 -41440903.010555744 0 0 0 0 53045551.197656631 -20956432.514387965 0 -20956432.514387965 -34568890.845047951 0 0 0 0 95267775.294807434 29868512.522173405 0 29868512.522173405 -6980348.6605930328 0 0 0 0 4434140.4774822555 935015.87913921848 0 935015.87913921848 191967.59354064148 0 0 0 0 54567373.868285179 -27587092.635746911 0 -27587092.635746911 -29078974.64478302 0 0 0 0 54623886.885742188 -27956268.767099142 0 -27956268.767099142 -35032095.187703609 0 0 0 0 58658834.933006287 -33029626.30106771 0 -33029626.30106771 -29379332.539294243 0 0 0 0 29627466.681072235 -22587135.552334785 0 -22587135.552334785 -19228774.407664061 0 0 0 0 49278722.944953918 -31318195.207852244 0 -31318195.207852244 -27353379.809386253 0 0 0 0 52108869.123447418 -27725408.451237082 0 -27725408.451237082 -28975042.447429657 0 0 0 0 68242873.777877808 -42566427.885168314 0 -42566427.885168314 -25705856.403593779 0 0 0 0 9876343.6723823547 3633809.3227841854 0 3633809.3227841854 -8579711.378408432 0 0 0 0 18905374.292782594 -6054661.8706389666 0 -6054661.8706389666 -4087482.4567746427 0 0 0 0 10729466.711595774 -6800043.9720359948 0 -6800043.9720359948 -1009528.2708416618 0 0 0 0 25330173.96262091 -4394334.5519485511 0 -4394334.5519485511 -5864177.376578738 0 0 0 0 7552323.0697631836 -14012506.514352083 0 -14012506.514352083 -10804871.271849632 0 0 0 0 55238961.172554016 -136509034.70081091 0 -136509034.70081091 -49153465.285354376 0 0 0 0 269928963.74690247 125476051.34238005 0 125476051.34238005 36899610.883956432 0 0 0 0 -109312839.12646484 -8455065.469148159 0 -8455065.469148159 -66967837.990911365 0 0 0 0 117900485.17253876 145151711.47746515 0 145151711.47746515 -38540019.763925552 0 0 0 0 -90303796.378751755 31328001.489570141 0 31328001.489570141 86824876.331467152 0 0 0 0 7778665.3022766113 -18466628.206563711 0 -18466628.206563711 -9728400.5759584308 0 0 0 0 134263864.0543499 -55928007.642092705 0 -55928007.642092705 -81544736.289139748 0 0 0 0 13648681.135724187 -3959085.9595745187 0 -3959085.9595745187 -2863707.8007414453 0 0 0 0 412976.9265392106 1058878.9819948045 0 1058878.9819948045 1786.7026354452828 0 0 0 0 2506645.9153060913 60285383.930282116 0 60285383.930282116 6053130.3029969931 0 0 0 0 10649941.374576569 11924248.515087605 0 11924248.515087605 51369425.243141174 0 0 0 0 38517760.341964722 2762446.1548442841 0 2762446.1548442841 -5231882.6702957153 0 0 0 0 1648605.5858755261 2836457.1212387346 0 2836457.1212387346 -136929.44926414313 0 0 0 0 -29133244.715336919 -8869652.1225471497 0 -8869652.1225471497 -59393336.787127495 0 0 0 0 -40919326.608098984 -148355550.23384833 0 -148355550.23384833 -130009104.67659044 0 0 0 0 4506391.7457702132 785073.84416712448 0 785073.84416712448 -1668892.024098021 0 0 0 0 160036910.57918549 39787705.907063961 0 39787705.907063961 8052371.8723487854 0 0 0 0 263960990.65721893 51316284.557192713 0 51316284.557192713 31984575.155218691 0 0 0 0 47650000.539190292 67848127.00985992 0 67848127.00985992 78982976.652537823 0 0 0 0 102782819.46959829 -83541215.595792472 0 -83541215.595792472 -64154919.935277462 0 0 0 0 125670774.39408112 86521359.326897621 0 86521359.326897621 224062079.29909903 0 0 0 0 421604264.7002697 271690856.25157028 0 271690856.25157028 157679519.4902893 0 0 0 0 154436290.99586868 114108530.92689872 0 114108530.92689872 120640181.28509253 0 0 0 0 164901722.44665742 -18738978.930952862 0 -18738978.930952862 -4427852.8484404087 0 0 0 0 84230816.602043152 -119849503.16208673 0 -119849503.16208673 -101019182.27790976 0 0 0 0 -24330386.549484253 -35415895.724731684 0 -35415895.724731684 51708770.512396574 0 0 0 0 -104800850.05129686 -228916550.86209592 0 -228916550.86209592 -67441007.891577244 0 0 0 0 1715685.1211863747 191626.68711719802 0 191626.68711719802 -808953.65960066929 0 0 0 0 52327591.565097809 -14731343.437904358 0 -14731343.437904358 -82091352.315701842 0 0 0 0 155574083.38400555 -113345489.1458087 0 -113345489.1458087 -12316470.918092728 0 0 0 0 -128560737.00948524 -13196749.663992167 0 -13196749.663992167 19644336.817157745 0 0 0 0 -12946811.833852291 256504.48795330524 0 256504.48795330524 -11332325.280817032 0 0 0 0 8607545.1261558533 -44702236.146240711 0 -44702236.146240711 54168225.722527027 0 0 0 0 55784444.328313828 -9648481.7103776932 0 -9648481.7103776932 9989206.7494478822 0 0 0 0 104659349.97541523 -64273373.213276386 0 -64273373.213276386 47890979.366860867 0 0 0 0 30596047.218090057 -16226622.371774554 0 -16226622.371774554 109941319.33059883 0 0 0 0 797185.1479713507 -9730.5908566364087 0 -9730.5908566364087 -462575.11167293444 0 0 0 0 63888702.3602705 71909044.323684752 0 71909044.323684752 49741535.862989038 0 0 0 0 -26799438.254940033 26331944.608308256 0 26331944.608308256 28512576.952168707 0 0 0 0 56486425.346904755 16677160.268734097 0 16677160.268734097 -5536894.0175503492 0 0 0 0 -14316267.34958744 -18741098.097717226 0 -18741098.097717226 14251187.137433529 0 0 0 0 14273288.997800827 23033869.030442834 0 23033869.030442834 21535999.016306877 0 0 0 0 -40279107.749828339 -2904372.2288761139 0 -2904372.2288761139 18757401.386008203 0 0 0 0 -99368302.358867645 -45270906.993514359 0 -45270906.993514359 1679631.1722047329 0 0 0 0 -51067145.154195786 27027895.318947196 0 27027895.318947196 16389156.81322372 0 0 0 0 -20401644.43396616 -981432.02624053508 0 -981432.02624053508 -40199154.369827747 0 0 0 0 -70906454.979660034 -47017535.607442617 0 -47017535.607442617 -17469960.321963608 0 0 0 0 711889.7862289981 -880222.46416153887 0 -880222.46416153887 -396316.43903992325 0 0 0 0 8832256.4634609222 1224126.9297593832 0 1224126.9297593832 -731701.48041248322 0 0 0 0 15818424.432794664 -3022103.5740827885 0 -3022103.5740827885 682139.09046858759 0 0 0 0 12119647.192922439 1617343.3758687763 0 1617343.3758687763 -1047480.4742200286 0 0 0 0 12590367.180255279 3063652.5350736538 0 3063652.5350736538 -1087761.4677601634 0 0 0 0 -103061997.87233543 -27945953.726286173 0 -27945953.726286173 19681797.592993259 0 0 0 0 -138176891.80413818 -1766434.4346978068 0 -1766434.4346978068 437216.78285360336 0 0 0 0 5000014.6665000916 -2811835.9412602335 0 -2811835.9412602335 -4168972.3156057 0 0 0 0 -86080482.39499855 -38946521.94210577 0 -38946521.94210577 33473432.272022247 0 0 0 0 -88527426.979482651 -24766691.867361546 0 -24766691.867361546 -19982004.549377918 0 0 0 0 6568409.7545166016 -301554.10841655731 0 -301554.10841655731 -1737597.3148765564 0 0 0 0 -146380030.97504997 -85958491.054999113 0 -85958491.054999113 -2242212.1655712128 0 0 0 0 16847374.800979476 -3487658.5618005255 0 -3487658.5618005255 -694643.78875747859 0 0 0 0 20766607.92551513 -4832026.7923216037 0 -4832026.7923216037 -5434880.1327103749 0 0 0 0 36048869.686073303 -21042660.509195805 0 -21042660.509195805 -14237207.047032356 0 0 0 0 17948760.108872056 1387232.5005111564 0 1387232.5005111564 -1086061.9500423074 0 0 0 0 67510265.596170425 329480392.47565353 0 329480392.47565353 387962995.47393966 0 0 0 0 9419876.9268341064 316682782.88828707 0 316682782.88828707 500317069.79177284 0 0 0 0 265084340.84880829 830966052.35123372 0 830966052.35123372 1256470089.6348364 0 0 0 0 1398521619.6043396 268480573.43601942 0 268480573.43601942 410201334.80264354 0 0 0 0 -118182611.38454437 -54974414.596052647 0 -54974414.596052647 567994077.63614368 0 0 0 0 -59235.6533778999 197006.87292063981 0 197006.87292063981 2341198.5421567308 0 0 0 0 1535478165.2106361 281739465.75990772 0 281739465.75990772 54405575.429636002 0 0 0 0 -143983.29891976342 383279.157648989 0 383279.157648989 133634.28037670581 0 0 0 0 3131008.2702704333 3778131.7069625063 0 3778131.7069625063 -229501.06279952847 0 0 0 0 2850399.2287025452 149320.09832310677 0 149320.09832310677 -1852472.8620243073 0 0 0 0 160865538.95064545 -22668889.609056711 0 -22668889.609056711 -174781897.51072502 0 0 0 0 116626251.6439476 104468699.03782606 0 104468699.03782606 -94291605.039530396 0 0 0 0 5459419.7008727025 3165486.4959765421 0 3165486.4959765421 -889091.5784838387 0 0 0 0 5489056.4753761292 -3399944.0223789215 0 -3399944.0223789215 -9029298.9855451584 0 0 0 0 7172281.6059308946 2756475.0514785922 0 2756475.0514785922 -1470219.0683774927 0 0 0 0 35035716.510482788 3953017.13904953 0 3953017.13904953 -5366628.8826398849 0 0 0 0 90319774.045339584 -50626691.63476944 0 -50626691.63476944 -197289318.34724402 0 0 0 0 9482156.2420425415 8847549.6238031387 0 8847549.6238031387 -5215053.2147045135 0 0 0 0 5535666.1862869263 9545250.9162006378 0 9545250.9162006378 -4976501.9931297302 0 0 0 0 905135.65962319635 55100.391083538532 0 55100.391083538532 -518261.02921113046 0 0 0 0 -2855063.7255172729 1243754.3672170639 0 1243754.3672170639 -2320655.5806541443 0 0 0 0 -4908563.3351974487 -49874256.995085955 0 -49874256.995085955 -2402938.4875507355 0 0 0 0 123357904.63651276 129388577.19162416 0 129388577.19162416 64149544.882969856 0 0 0 0 109456017.16189194 -37959291.863577843 0 -37959291.863577843 -67392090.854190826 0 0 0 0 -6930434.515137434 90376408.599617019 0 90376408.599617019 120470225.43466234 0 0 0 0 295613103.67725372 407622919.53602326 0 407622919.53602326 284905549.53182578 0 0 0 0 217826388.19942856 251026481.12316602 0 251026481.12316602 230215136.53708455 0 0 0 0 211262925.27023244 82647823.121144921 0 82647823.121144921 84767145.396063328 0 0 0 0 503121033.67938614 99737049.539132416 0 99737049.539132416 302057274.97512388 0 0 0 0 714645998.31444502 616609110.61388564 0 616609110.61388564 224622676.9663409 0 0 0 0 193932109.05490494 710282708.08900356 0 710282708.08900356 476214765.23220062 0 0 0 0 261359435.494874 658944561.76627994 0 658944561.76627994 513056187.18743134 0 0 0 0 196099306.42226219 499908229.24330449 0 499908229.24330449 199474689.15864539 0 0 0 0 550341432.96834755 566939339.0005095 0 566939339.0005095 214635770.51527691 0 0 0 0 379495003.2381897 491948800.82980883 0 491948800.82980883 366165973.05545807 0 0 0 0 346745657.86694908 128508596.62680334 0 128508596.62680334 -384363015.81676769 0 0 0 0 -103886264.4371376 254473678.32116854 0 254473678.32116854 190407878.96941334 0 0 0 0 3837066.2224872448 1498226.6905587737 0 1498226.6905587737 561485.51690165116 0 0 0 0 -56817862.860281944 -5890802.2849639058 0 -5890802.2849639058 12630253.3000741 0 0 0 0 49046752.279495239 321617132.97818971 0 321617132.97818971 -465762913.50704908 0 0 0 0 -23732244.903291702 -56530109.640113473 0 -56530109.640113473 -64305333.148437738 0 0 0 0 8746258.9893073067 -20160.083919519209 0 -20160.083919519209 -822624.37574728136 0 0 0 0 -7875099.3916320801 108889590.98585069 0 108889590.98585069 -330368047.86121714 0 0 0 0 304016610.18069553 99772898.272074938 0 99772898.272074938 -72618533.531839371 0 0 0 0 -64825380.840112686 -81408044.82377398 0 -81408044.82377398 82208215.669991016 0 0 0 0 -43111051.722858429 27745666.463809609 0 27745666.463809609 95162435.27301693 0 0 0 0 379446404.64291954 -71324560.244955063 0 -71324560.244955063 10545466.243042111 0 0 0 0 1244060.7245642021 1213588.0893123962 0 1213588.0893123962 593633.54363423993 0 0 0 0 852174774.89682484 445430057.66558444 0 445430057.66558444 110495981.35957098 0 0 0 0 456699518.13574409 560634277.02164233 0 560634277.02164233 554655149.4876709 0 0 0 0 351466577.4343586 359488925.16403246 0 359488925.16403246 170445221.52806258 0 0 0 0 679035405.25448132 527529603.29055727 0 527529603.29055727 233888548.92494285 0 0 0 0 379518605.10783291 535373932.24308109 0 535373932.24308109 444491358.50182581 0 0 0 0 200378496.54458809 119026293.46809149 0 119026293.46809149 59830219.972485781 0 0 0 0 6458234.3379224399 30146.436889383884 0 30146.436889383884 -600407.96294516814 0 0 0 0 175211498.66813469 -41762833.439360976 0 -41762833.439360976 -564013138.27954984 0 0 0 0 2572743.3272491721 135139.69312786614 0 135139.69312786614 -221038.73977518827 0 0 0 0 -15168743.0488801 -308452221.29087144 0 -308452221.29087144 -249207384.24675179 0 0 0 0 673203744.10565567 785936708.65035462 0 785936708.65035462 643866320.6325314 0 0 0 0 375121116.25214767 -285289971.21494204 0 -285289971.21494204 -291510183.40677905 0 0 0 0 170569753.13000774 -102857065.22292733 0 -102857065.22292733 -326936548.84760612 0 0 0 0 41205216.112059116 27135530.606082916 0 27135530.606082916 -241058988.45990276 0 0 0 0 -25295284.330555916 -58776503.216761827 0 -58776503.216761827 -331868153.98907363 0 0 0 0 69095972.010407567 26362581.751370758 0 26362581.751370758 -438295519.32996154 0 0 0 0 37703941.655001163 -55304475.050370991 0 -55304475.050370991 -338670306.46029949 0 0 0 0 1308291.9248190308 632628.38079526601 0 632628.38079526601 -462279.97363504744 0 0 0 0 4775191.7738164812 -5588316.5089499969 0 -5588316.5089499969 -19765722.459610701 0 0 0 0 -49206225.152963638 -10547470.818819582 0 -10547470.818819582 29972804.615269184 0 0 0 0 5608694.4135654718 39112161.538149305 0 39112161.538149305 34964559.025395751 0 0 0 0 10387659.123942196 251668.35367986211 0 251668.35367986211 1324616.3594480115 0 0 0 0 -17323865.381281853 -1553598.5572977364 0 -1553598.5572977364 26761354.140024781 0 0 0 0 -30297655.732130051 -77016428.720745683 0 -77016428.720745683 -33956660.670760393 0 0 0 0 -40526677.509814262 37726191.779455304 0 37726191.779455304 265768769.89475322 0 0 0 0 736598296.01016998 -205256.92654109001 0 -205256.92654109001 207315757.88210201 0 0 0 0 214382907.06219721 38586566.749602258 0 38586566.749602258 275069433.4266386 0 0 0 0 13666468.22642231 -173161528.78020599 0 -173161528.78020599 -12015107.037042379 0 0 0 0 178924724.9336772 139588646.57527196 0 139588646.57527196 -10357340.74795711 0 0 0 0 537900153.77192497 256282776.3684206 0 256282776.3684206 78127964.068270475 0 0 0 0 240878580.0836544 76290401.993834972 0 76290401.993834972 47425082.52114296 0 0 0 0 1087611462.1718044 471150008.9555192 0 471150008.9555192 200456472.98129267 0 0 0 0 482753307.13109541 267625520.1407941 0 267625520.1407941 154794228.84239936 0 0 0 0 535254044.91181684 493895030.93424565 0 493895030.93424565 255369478.54757786 0 0 0 0 769212139.34063029 40653169.103842407 0 40653169.103842407 -175032129.4201467 0 0 0 0 288878976.44539642 239025651.55331016 0 239025651.55331016 -3590301.7548747063 0 0 0 0 272981236.88432312 389745737.60790634 0 389745737.60790634 71073773.935507536 0 0 0 0 231710194.06533909 167591740.55498362 0 167591740.55498362 536381484.31336379 0 0 0 0 255607342.52315521 178682832.60750595 0 178682832.60750595 84919202.930106163 0 0 0 0 130207154.20313454 222417384.85010087 0 222417384.85010087 212999366.53254056 0 0 0 0 117433216.97033954 152058568.29879194 0 152058568.29879194 42423568.640540123 0 0 0 0 330034864.99571991 232787972.30907393 0 232787972.30907393 -26117079.479754567 0 0 0 0 115676853.16915989 165621576.39947057 0 165621576.39947057 62760458.981729984 0 0 0 0 143759214.43331528 68140947.586850524 0 68140947.586850524 -578384.09235048294 0 0 0 0 60527996.190910816 51443564.775901079 0 51443564.775901079 20733406.438688278 0 0 0 0 -49839941.231172323 -18674163.915618569 0 -18674163.915618569 42478764.32314086 0 0 0 0 -4545090.7780723572 133389747.55956554 0 133389747.55956554 186369869.21386528 0 0 0 0 921819.76120324526 2282105.3640869432 0 2282105.3640869432 574559.90184926614 0 0 0 0 1824627.7670274158 794312.81373028271 0 794312.81373028271 -877056.78221765952 0 0 0 0 2951704.557849491 4521951.9824840175 0 4521951.9824840175 7929802.9398174491 0 0 0 0 10166285.720419884 17081899.27477932 0 17081899.27477932 46266830.140411377 0 0 0 0 14832825.508354664 -871862.70778036118 0 -871862.70778036118 -1121969.1445159912 0 0 0 0 370302626.55604935 -5774781.0361386389 0 -5774781.0361386389 83598724.682075024 0 0 0 0 33830208.477508545 -55908474.883865356 0 -55908474.883865356 -186384952.92300987 0 0 0 0 774452.02995457954 -1515329.3214319116 0 -1515329.3214319116 -2415784.6361866631 0 0 0 0 1046264100.6798668 -66649332.537100554 0 -66649332.537100554 -164116274.39364219 0 0 0 0 963775391.38026142 71185118.816491961 0 71185118.816491961 -194835556.74656391 0 0 0 0 412060356.75914383 -512441822.05141973 0 -512441822.05141973 725692204.94952607 0 0 0 0 498815985.2431885 -40955921.955634803 0 -40955921.955634803 -96905372.363389015 0 0 0 0 2187608.4227621634 -38378.166048757499 0 -38378.166048757499 -5244302.7035424691 0 0 0 0 307073107.47416008 -12363373.280419931 0 -12363373.280419931 -97395987.984474182 0 0 0 0 287883437.68688941 174365435.50402075 0 174365435.50402075 -106219817.01043701 0 0 0 0 475584201.53096139 159245013.34055576 0 159245013.34055576 -113466465.87062597 0 0 0 0 586415283.02879524 142394029.99965429 0 142394029.99965429 -148279319.06352901 0 0 0 0 454301843.67727375 397278691.23194003 0 397278691.23194003 -152883814.40043879 0 0 0 0 303217301.19673538 305365089.50243342 0 305365089.50243342 -79807919.383026123 0 0 0 0 283413651.61342478 325395762.70724112 0 325395762.70724112 -82649900.087230206 0 0 0 0 2084490.2968147243 61263.905474339146 0 61263.905474339146 -262585.41233736096 0 0 0 0 925012452.08977985 -286988760.26011741 0 -286988760.26011741 -513181945.85493052 0 0 0 0 400367393.17016315 428168368.9777087 0 428168368.9777087 -200671588.67020178 0 0 0 0 766201094.81772041 309543596.89633465 0 309543596.89633465 -188894212.70465136 0 0 0 0 58711038.256332397 409024091.30246639 0 409024091.30246639 -41377738.802658081 0 0 0 0 -26571556.987295389 -6885588.5524405241 0 -6885588.5524405241 -267683959.78075814 0 0 0 0 263257404.39377856 -152287719.95476231 0 -152287719.95476231 -241910015.86247087 0 0 0 0 405351919.39403629 283288155.64394605 0 283288155.64394605 -103653452.19469178 0 0 0 0 241018384.13073587 -2470329.1434230804 0 -2470329.1434230804 -570295058.93898714 0 0 0 0 3666222.2381200986 363225.10711358226 0 363225.10711358226 -416509.11691597983 0 0 0 0 199228284.78349245 349538652.55370182 0 349538652.55370182 -555614779.3468349 0 0 0 0 50161045.42278409 63409129.726725817 0 63409129.726725817 -169660875.6841284 0 0 0 0 -30980555.937350035 300779839.42941773 0 300779839.42941773 262615845.23191419 0 0 0 0 225590268.28325558 86775221.506504595 0 86775221.506504595 305062677.20302653 0 0 0 0 407699049.32634139 -88498866.550000891 0 -88498866.550000891 90690861.750689507 0 0 0 0 637490603.18084598 -84678679.4428031 0 -84678679.4428031 413567446.64830732 0 0 0 0 747886970.46258712 134281463.26937872 0 134281463.26937872 231749414.69856134 0 0 0 0 -218216257.32044387 148555301.07289281 0 148555301.07289281 26692592.200531483 0 0 0 0 538621236.85307646 -419261392.26464623 0 -419261392.26464623 -328817400.47567385 0 0 0 0 904311826.69732714 -155915375.26796153 0 -155915375.26796153 65090494.058981836 0 0 0 0 977737785.67677689 -141415527.08696723 0 -141415527.08696723 -153228927.4573797 0 0 0 0 922675695.28706789 -458721879.14779776 0 -458721879.14779776 134736275.14493808 0 0 0 0 643027.81992780196 743908.25566088525 0 743908.25566088525 2208942.5091355848 0 0 0 0 1630417424.2051802 -305696069.97339773 0 -305696069.97339773 175347419.57070661 0 0 0 0 940784501.16419601 -341023379.59233904 0 -341023379.59233904 -89980988.742465988 0 0 0 0 861882766.09679365 -487907361.00185275 0 -487907361.00185275 328594424.5003469 0 0 0 0 876688196.7224102 -302332056.51406163 0 -302332056.51406163 310558411.97459877 0 0 0 0 157359009.78531194 -202936314.06700987 0 -202936314.06700987 282784139.64240885 0 0 0 0 122117769.66928983 -300678908.77663958 0 -300678908.77663958 -189254664.97621214 0 0 0 0 111681.87787636847 -634989.13821474626 0 -634989.13821474626 702954.47027897835 0 0 0 0 111798970.78909516 -195079372.80800796 0 -195079372.80800796 442039039.63414145 0 0 0 0 56201915.774762154 -95922819.897119045 0 -95922819.897119045 174514400.8963728 0 0 0 0 81794735.78862381 -172792015.44702864 0 -172792015.44702864 301803850.65032959 0 0 0 0 110777453.58009434 -142183687.46997499 0 -142183687.46997499 230880546.29322243 0 0 0 0 147591045.35143852 -184556905.39697647 0 -184556905.39697647 179973793.27217484 0 0 0 0 146086512.01364326 -129629791.27761555 0 -129629791.27761555 43206458.341474533 0 0 0 0 183186611.09466743 -169825521.99982643 0 -169825521.99982643 21529471.669773102 0 0 0 0 163226774.8387537 -198104695.78143835 0 -198104695.78143835 83093664.768798828 0 0 0 0 2053639.8852590593 -1220046.8754334128 0 -1220046.8754334128 -1644275.7854813486 0 0 0 0 -82947707.628114223 111392016.89122534 0 111392016.89122534 104255327.04679108 0 0 0 0 5363172.6379019618 5191986.8371530771 0 5191986.8371530771 -4868010.4816198349 0 0 0 0 913668076.42071342 -202145219.07136735 0 -202145219.07136735 -302188030.86722869 0 0 0 0 1991144.9852190467 2831020.0580386501 0 2831020.0580386501 5741721.5903692041 0 0 0 0 180997671.38971758 240369154.7240324 0 240369154.7240324 -12467564.016971827 0 0 0 0 536505852.01238728 78719615.72526148 0 78719615.72526148 -135634604.99698591 0 0 0 0 155671555.40587521 137860518.98012123 0 137860518.98012123 274828849.22317201 0 0 0 0 133393992.17757583 47486715.154614478 0 47486715.154614478 -18991295.298800349 0 0 0 0 22231496.44872427 74018237.849277914 0 74018237.849277914 -18976550.783699155 0 0 0 0 224523780.75782967 18772009.418878078 0 18772009.418878078 -241861143.92240739 0 0 0 0 145109657.90218091 -66518041.17116496 0 -66518041.17116496 -172727954.83006787 0 0 0 0 204500063.54011536 -43578168.641881347 0 -43578168.641881347 -269507354.33365417 0 0 0 0 146352376.76216722 -245556585.53576374 0 -245556585.53576374 -160228210.55608463 0 0 0 0 125733093.00903082 -237309401.75718901 0 -237309401.75718901 -141545881.86379439 0 0 0 0 54580407.346225262 -46186858.993695349 0 -46186858.993695349 -295087430.11335719 0 0 0 0 353561444.94632435 -300415975.95920563 0 -300415975.95920563 -195751348.23988563 0 0 0 0 1601850.2119683917 203916.32368386106 0 203916.32368386106 -148773.4784522203 0 0 0 0 139745401.75627542 364504652.79211259 0 364504652.79211259 161321228.57057941 0 0 0 0 -67623045.453236222 193428580.20765799 0 193428580.20765799 219012528.51572192 0 0 0 0 7329158.1190373898 226459319.78879905 0 226459319.78879905 231671404.59542385 0 0 0 0 451237599.19541645 61363458.277916312 0 61363458.277916312 86324857.125101015 0 0 0 0 230054671.64878297 -133425056.3899197 0 -133425056.3899197 220183612.59276915 0 0 0 0 156599332.25220418 -21358603.914643377 0 -21358603.914643377 54988798.334016204 0 0 0 0 81003051.395676613 86700375.826077223 0 86700375.826077223 -32248312.95106975 0 0 0 0 254391080.2214613 -21304569.721092701 0 -21304569.721092701 -19428604.151735932 0 0 0 0 65056096.045073986 100931552.93758959 0 100931552.93758959 34048641.172594666 0 0 0 0 156919494.66037965 -12366961.484265685 0 -12366961.484265685 84200894.374613166 0 0 0 0 50601323.901434898 91670433.711232081 0 91670433.711232081 -12975416.781606078 0 0 0 0 43043828.955803394 118826974.2708208 0 118826974.2708208 83342560.044839144 0 0 0 0 24544677.847083092 139396503.70494556 0 139396503.70494556 22339060.608060002 0 0 0 0 23998249.89060688 133650243.78770575 0 133650243.78770575 -162890343.73027813 0 0 0 0 -22567325.621697426 108707282.24725926 0 108707282.24725926 -14910795.217239425 0 0 0 0 47928330.556086779 105115528.30339105 0 105115528.30339105 -166435564.96764541 0 0 0 0 189719383.2859354 218744025.68412524 0 218744025.68412524 -8004632.9907367229 0 0 0 0 57589812.633109093 106240609.7542735 0 106240609.7542735 31033223.221297115 0 0 0 0 102199443.52280807 100117142.53616382 0 100117142.53616382 48728053.114766829 0 0 0 0 59021748.052978992 117939974.16119881 0 117939974.16119881 -118115807.2613672 0 0 0 0 9413508.6269044876 115591840.95936242 0 115591840.95936242 -14001490.149311498 0 0 0 0 59666243.993819237 146741470.40537465 0 146741470.40537465 -14225551.521882448 0 0 0 0 61196408.102855206 140257586.65530425 0 140257586.65530425 13226531.896092594 0 0 0 0 144420748.73257256 149314033.82543105 0 149314033.82543105 -12193541.360293031 0 0 0 0 177264332.81087017 57967325.014035136 0 57967325.014035136 -73912380.032256365 0 0 0 0 101041650.5183816 148887236.14157715 0 148887236.14157715 3518534.7477972507 0 0 0 0 65305660.790976524 110657306.73477834 0 110657306.73477834 -36430212.591488123 0 0 0 0 -22169361.233078003 126240512.6204446 0 126240512.6204446 -33771404.605060279 0 0 0 0 27274606.942931175 -15543685.092511714 0 -15543685.092511714 -113271665.36394519 0 0 0 0 478326852.11671829 -206296180.11370587 0 -206296180.11370587 -128337361.53485745 0 0 0 0 489756426.26349258 -192131871.79744667 0 -192131871.79744667 -241841594.14090502 0 0 0 0 366281085.80672073 -141834848.47969216 0 -141834848.47969216 -164675090.54868293 0 0 0 0 591309334.26507401 -141984660.08007801 0 -141984660.08007801 -343471202.55324757 0 0 0 0 551960497.41329479 -34386083.605285928 0 -34386083.605285928 -228505372.5655055 0 0 0 0 188911510.70426273 70786811.363387465 0 70786811.363387465 -74709209.849170148 0 0 0 0 197108907.44924736 60443078.838793397 0 60443078.838793397 -79304171.083478451 0 0 0 0 208161175.13438988 72690509.458138078 0 72690509.458138078 -80734036.906199455 0 0 0 0 2086842577.8094099 278044460.90397501 0 278044460.90397501 56225566.114908345 0 0 0 0 679155584.06737328 15479867.293658614 0 15479867.293658614 -94334149.021105528 0 0 0 0 212601991.76886082 -156418866.96824473 0 -156418866.96824473 -145538320.96408248 0 0 0 0 563915586.95198822 -253739309.76028514 0 -253739309.76028514 -193976706.40631956 0 0 0 0 595092204.41681671 -203780354.20651573 0 -203780354.20651573 -253689859.5083636 0 0 0 0 565607035.80975151 -203145497.90014744 0 -203145497.90014744 -351054385.29753804 0 0 0 0 590513835.29467607 -281899136.0479452 0 -281899136.0479452 -414432345.02528095 0 0 0 0 2800939244.5996151 319366364.77032292 0 319366364.77032292 34172234.639963038 0 0 0 0 -177449812.15735531 -596386841.05863369 0 -596386841.05863369 -158265279.39674947 0 0 0 0 2205976718.1565351 -732665615.80527222 0 -732665615.80527222 -155092417.83275893 0 0 0 0 1247715.07604344 -692914.96834128769 0 -692914.96834128769 -220795.4981463748 0 0 0 0 565295640.98862457 -791152732.1729598 0 -791152732.1729598 -567086848.94091558 0 0 0 0 1660762901.7641907 -498276715.28693914 0 -498276715.28693914 -498094820.62774599 0 0 0 0 1896265213.5995703 -398072488.57169384 0 -398072488.57169384 -504704673.44669765 0 0 0 0 1531082840.9680309 -698927664.15402889 0 -698927664.15402889 -573542360.3707633 0 0 0 0 1637877476.9078302 -252742219.83828294 0 -252742219.83828294 -390348428.65735233 0 0 0 0 877127615.09050179 -227898799.00577679 0 -227898799.00577679 -390039958.0577569 0 0 0 0 818924853.76365185 -272070625.4484787 0 -272070625.4484787 -416014174.86129999 0 0 0 0 784766048.58522701 -41655996.000727594 0 -41655996.000727594 -291827538.88272232 0 0 0 0 1047610484.4527016 -11483784.972900242 0 -11483784.972900242 -241648717.3985554 0 0 0 0 1084105748.3161135 28550026.221735477 0 28550026.221735477 -282552598.04930639 0 0 0 0 1517819090.9297485 -73246764.271218687 0 -73246764.271218687 -285754516.00278562 0 0 0 0 2204329376.2703261 -152109654.45401102 0 -152109654.45401102 -592530585.79102707 0 0 0 0 428525715.42804241 115703744.21681523 0 115703744.21681523 -77831328.114664733 0 0 0 0 315657309.56381607 105166713.1241309 0 105166713.1241309 -53953252.3406896 0 0 0 0 435857553.99860048 122083219.95259461 0 122083219.95259461 -110509830.326617 0 0 0 0 648974984.39140701 -9847647.5887335539 0 -9847647.5887335539 -239833441.06740546 0 0 0 0 647020141.12708473 -13180924.735174596 0 -13180924.735174596 -238215683.62955832 0 0 0 0 603074675.8585968 103904921.69032544 0 103904921.69032544 -112022969.60394764 0 0 0 0 611581594.93057442 177491349.78900933 0 177491349.78900933 -97128098.371029437 0 0 0 0 696011992.16783619 221735781.7690053 0 221735781.7690053 -107273069.31679404 0 0 0 0 611392197.36495876 201141509.66396794 0 201141509.66396794 -85744146.629796535 0 0 0 0 428004224.39039993 229239115.46254802 0 229239115.46254802 -78587904.04541707 0 0 0 0 263398900.84608507 321188990.09615672 0 321188990.09615672 114204688.42144799 0 0 0 0 399269899.70037556 715935057.81162238 0 715935057.81162238 263648671.205066 0 0 0 0 1553975.8566357074 575179.88533239777 0 575179.88533239777 168398.33696107229 0 0 0 0 64215435.056554317 -16944388.402801547 0 -16944388.402801547 -51541762.076486707 0 0 0 0 105533463.32056236 119037661.35991621 0 119037661.35991621 -354166037.13577342 0 0 0 0 1740448465.0467196 58058855.649863496 0 58058855.649863496 -273582417.84537315 0 0 0 0 981834182.55888367 344855270.23667687 0 344855270.23667687 -203845221.67497277 0 0 0 0 1744113543.5328541 358818566.93595082 0 358818566.93595082 -220445663.27466935 0 0 0 0 1581825473.9533634 -17879116.513045888 0 -17879116.513045888 -256907883.93739867 0 0 0 0 2204173773.9556904 384987907.69542187 0 384987907.69542187 3792720.6142683658 0 0 0 0 1789941481.9259872 543667298.88162053 0 543667298.88162053 -52998932.595468938 0 0 0 0 1816232840.7450762 474042089.61362755 0 474042089.61362755 -117336905.60852133 0 0 0 0 1505346430.9932404 886174746.78319883 0 886174746.78319883 331328377.96037698 0 0 0 0 2255362.5503598601 23559.800744680455 0 23559.800744680455 -142904.71896524471 0 0 0 0 2124742906.3097162 418423449.28164482 0 418423449.28164482 -180785294.79159281 0 0 0 0 2205478288.7388563 624671249.73355365 0 624671249.73355365 322535723.23895645 0 0 0 0 3710536.1275570784 614061.24628828419 0 614061.24628828419 -41993.455477640098 0 0 0 0 -33471466.333221436 7775804.9187400751 0 7775804.9187400751 16745792.505371422 0 0 0 0 -117894729.49641418 71211027.387781739 0 71211027.387781739 -15184195.861239932 0 0 0 0 825619241.59155655 -213308647.37839305 0 -213308647.37839305 -5853653.5909080505 0 0 0 0 -174519436.11410046 6455265.2875055745 0 6455265.2875055745 244671707.56088689 0 0 0 0 266446645.49034882 313495545.1650039 0 313495545.1650039 173705638.58312207 0 0 0 0 111367989.99921608 -266434025.53017765 0 -266434025.53017765 110470407.06258248 0 0 0 0 -41527976.579512596 44877698.422018401 0 44877698.422018401 -51422169.55539003 0 0 0 0 -8364297.7040576935 -94604809.720832363 0 -94604809.720832363 -119954369.86528072 0 0 0 0 -10588318.198551178 335472.09814351797 0 335472.09814351797 12607329.715827584 0 0 0 0 4696281.656774966 -405655.48110194784 0 -405655.48110194784 -345891.87202220061 0 0 0 0 15227871.225307465 8370075.9551147297 0 8370075.9551147297 -22899525.03388238 0 0 0 0 5329087.334784247 -591980.24904484209 0 -591980.24904484209 -722376.17368978099 0 0 0 0 -3348793.1759262085 -126139734.02189171 0 -126139734.02189171 -292595877.01500905 0 0 0 0 -5656993.2798666954 -17585637.844386652 0 -17585637.844386652 -16056516.878857203 0 0 0 0 40110075.824988365 -9254112.817895323 0 -9254112.817895323 -278074962.14910209 0 0 0 0 -1346730.2072906494 -3030322.8681635261 0 -3030322.8681635261 -4819223.9440045953 0 0 0 0 5533199.186956455 -1682939.5221203486 0 -1682939.5221203486 -1396788.9073887337 0 0 0 0 -5946610.7628250122 -33261437.30031848 0 -33261437.30031848 -247733209.32363474 0 0 0 0 -115218979.81898499 -19671699.721255779 0 -19671699.721255779 -178827486.95068073 0 0 0 0 10317472.534027049 841674.9377219131 0 841674.9377219131 -3053914.0765736448 0 0 0 0 2056497.3460235596 -1533185.6650266647 0 -1533185.6650266647 -13553877.953843117 0 0 0 0 9474167.0492056869 4736412.7502808534 0 4736412.7502808534 -3425175.078094082 0 0 0 0 18819533.219406128 -185362400.9334166 0 -185362400.9334166 -297944950.99565828 0 0 0 0 -112830869.76960564 -105842168.72599488 0 -105842168.72599488 -265506963.44506645 0 0 0 0 -31173698.462005615 -87939818.329328537 0 -87939818.329328537 -287404548.91657829 0 0 0 0 -23760623.79397583 -191646681.49527311 0 -191646681.49527311 -287081775.92420673 0 0 0 0 -100466001.11805344 -71153222.902423859 0 -71153222.902423859 -261106587.30124092 0 0 0 0 10409516.712899014 1788171.1354919085 0 1788171.1354919085 -2427032.9637695067 0 0 0 0 -78740130.214111328 -105921238.73563147 0 -105921238.73563147 -288715755.68334484 0 0 0 0 -2400159.1693649292 -117800671.24929857 0 -117800671.24929857 -262675768.27831733 0 0 0 0 23017080.809558868 -136957881.16560876 0 -136957881.16560876 -280389886.43164968 0 0 0 0 -22195409.134979248 -165849255.83052337 0 -165849255.83052337 -243202585.11496401 0 0 0 0 80736418.421096802 -120706474.10562801 0 -120706474.10562801 -265676702.08837843 0 0 0 0 91576160.593185425 72867615.283189774 0 72867615.283189774 -521279824.90901536 0 0 0 0 86798999.132362366 -150339649.89180338 0 -150339649.89180338 -256869500.59327316 0 0 0 0 155624592.7391243 -12526985.824214697 0 -12526985.824214697 -529473679.79999709 0 0 0 0 6941464.0046849996 -1898514.6859324323 0 -1898514.6859324323 -1315297.6458678253 0 0 0 0 38006480.505439758 -44285714.89212966 0 -44285714.89212966 -344246799.36992788 0 0 0 0 144620700.14022064 -71448512.497217298 0 -71448512.497217298 -388838729.84400463 0 0 0 0 49671647.312309265 20456199.99408102 0 20456199.99408102 -409056299.08682144 0 0 0 0 -128010064.57644653 20265510.498338699 0 20265510.498338699 -276275110.57602024 0 0 0 0 -5336490.268371582 -35704478.057231426 0 -35704478.057231426 -325799023.13466835 0 0 0 0 -51222572.470016479 22121925.078724861 0 22121925.078724861 -376838503.43352938 0 0 0 0 -107412968.62705994 70244050.096928596 0 70244050.096928596 -341320162.12887049 0 0 0 0 59520119.546625137 -42275574.234128118 0 -42275574.234128118 -351298331.55785465 0 0 0 0 33337451.833950043 -123752515.21082878 0 -123752515.21082878 -410803562.68044472 0 0 0 0 74922249.307289124 -6875853.9683794975 0 -6875853.9683794975 -256433356.01172376 0 0 0 0 8946498.6524772644 -19737473.396411851 0 -19737473.396411851 -16044471.215982199 0 0 0 0 -12504729.545582771 74288851.962752819 0 74288851.962752819 37360987.469131112 0 0 0 0 -3557720.0413703918 16385672.33417654 0 16385672.33417654 -5608569.8171628714 0 0 0 0 46595315.090763092 8090435.1305258274 0 8090435.1305258274 -43863327.158636093 0 0 0 0 10945606.005935082 966156.09924364067 0 966156.09924364067 -1474824.9527199538 0 0 0 0 -6869002.6966648102 7799463.4508521557 0 7799463.4508521557 -3493348.6187538505 0 0 0 0 9747857.0028241016 -4012391.952070883 0 -4012391.952070883 -1717101.4864984534 0 0 0 0 4785297.7127520395 3850528.2671531751 0 3850528.2671531751 -3151983.4718248062 0 0 0 0 1875180.376906395 -53994320.124262907 0 -53994320.124262907 -256860494.51072717 0 0 0 0 20130549.529253006 -42342336.9238967 0 -42342336.9238967 -268179119.43519264 0 0 0 0 21433577.144666672 -48016365.874966979 0 -48016365.874966979 -255333890.83701277 0 0 0 0 -28396507.541235447 -183502992.38056493 0 -183502992.38056493 -597566431.13694263 0 0 0 0 19123575.672922134 143122848.8555969 0 143122848.8555969 -479034737.4028011 0 0 0 0 1105653.2112068404 1079994.8421877781 0 1079994.8421877781 -715944.26606980513 0 0 0 0 22784737.762028217 54759366.783220112 0 54759366.783220112 -373977603.22736645 0 0 0 0 -80856208.475624323 139695565.8235026 0 139695565.8235026 -300514555.57017756 0 0 0 0 -75879666.544509888 57984586.248330474 0 57984586.248330474 -169155621.04493451 0 0 0 0 44285174.072033405 69272704.909747377 0 69272704.909747377 -279347632.52575308 0 0 0 0 -4301008.8148493767 62145775.046873629 0 62145775.046873629 -163797884.1980201 0 0 0 0 58720992.059340239 50108690.778041065 0 50108690.778041065 -206483002.51256263 0 0 0 0 35461038.952969551 52034317.633547738 0 52034317.633547738 -114303480.09496768 0 0 0 0 43608596.174061775 91066163.72002545 0 91066163.72002545 -54727259.356373966 0 0 0 0 112136735.96658039 101761394.78801194 0 101761394.78801194 -118292111.33670893 0 0 0 0 26558784.863267422 -18128862.804434638 0 -18128862.804434638 -182055184.22441939 0 0 0 0 51132423.846157074 -32324701.31002821 0 -32324701.31002821 -259548526.65774506 0 0 0 0 28767604.67395401 -11476770.816910863 0 -11476770.816910863 -177566354.05112749 0 0 0 0 42073141.682303429 -18661792.490546942 0 -18661792.490546942 -249153615.12219864 0 0 0 0 107238415.28301764 -56690828.173899442 0 -56690828.173899442 -661730984.62905383 0 0 0 0 10325181.709699631 23461553.735732317 0 23461553.735732317 -358334436.49065304 0 0 0 0 2812813.4600981157 -1797724.6977526154 0 -1797724.6977526154 980278.25808762736 0 0 0 0 -476827122.33570576 -296356626.55395865 0 -296356626.55395865 -304366745.40315199 0 0 0 0 -254662421.76997948 -755805753.72057986 0 -755805753.72057986 -640557249.52606773 0 0 0 0 163109930.81846046 -165097914.29950953 0 -165097914.29950953 -397423715.77690601 0 0 0 0 54894406.985406876 -130596224.60565853 0 -130596224.60565853 -287964476.31337547 0 0 0 0 26610201.759886384 -394873462.14653522 0 -394873462.14653522 -345131814.0994482 0 0 0 0 264727757.13940048 -349730939.1168623 0 -349730939.1168623 -550005100.99650502 0 0 0 0 265644243.17617035 -217035431.04176426 0 -217035431.04176426 -257132189.13827038 0 0 0 0 98724189.789224625 -226089204.04107571 0 -226089204.04107571 -146207251.32135582 0 0 0 0 191658719.26304626 -63045305.874290466 0 -63045305.874290466 -42300146.824611664 0 0 0 0 49281888.778034925 -57365514.842165232 0 -57365514.842165232 101147470.40246582 0 0 0 0 154209585.29518127 -199042139.75588799 0 -199042139.75588799 -323527688.25840187 0 0 0 0 -30149642.356199741 99305146.105180025 0 99305146.105180025 26083158.546084821 0 0 0 0 274300678.73658848 97085493.469304085 0 97085493.469304085 8745067.0979495049 0 0 0 0 10135139.60245347 141685290.26751995 0 141685290.26751995 130169162.16483593 0 0 0 0 121935604.65998891 120592928.75805165 0 120592928.75805165 -345504984.27541041 0 0 0 0 87771781.093349457 253728201.36635566 0 253728201.36635566 -83842782.20595777 0 0 0 0 -411302.2321936232 1733494.7499501593 0 1733494.7499501593 364186.09141756501 0 0 0 0 479185712.0615356 -88814866.2158283 0 -88814866.2158283 -424644048.68398666 0 0 0 0 -16951687.246912003 -67092216.13701418 0 -67092216.13701418 -237289682.40711179 0 0 0 0 -113520088.6863904 -221613435.12282199 0 -221613435.12282199 -402336915.51278806 0 0 0 0 87222155.177693844 -6316479.5158684254 0 -6316479.5158684254 -361445531.24154365 0 0 0 0 5166068.5353217125 -81482342.039087594 0 -81482342.039087594 -244376016.48149782 0 0 0 0 9796390.9033174273 -6069945.3332062205 0 -6069945.3332062205 3233546.5044725025 0 0 0 0 1397035.5714056119 -296582.00802705903 0 -296582.00802705903 247787.80653677089 0 0 0 0 7446022.1162147522 176049443.62570477 0 176049443.62570477 11933105.022749122 0 0 0 0 554036229.76275635 -252263439.3273325 0 -252263439.3273325 14593291.181063652 0 0 0 0 7505608.748221701 -4504540.2882704306 0 -4504540.2882704306 2060424.4245213056 0 0 0 0 -7369513.7774682045 -298348367.01383042 0 -298348367.01383042 -637404309.22123384 0 0 0 0 375892025.11744881 535914753.49696517 0 535914753.49696517 319951014.30882788 0 0 0 0 602387791.15956879 764651277.79398966 0 764651277.79398966 541919784.20070338 0 0 0 0 482884569.20487022 472069767.0081079 0 472069767.0081079 349313940.06182861 0 0 0 0 1092808570.5513535 559584287.04276705 0 559584287.04276705 360139951.37944865 0 0 0 0 245268481.65716553 183236048.03923559 0 183236048.03923559 155896754.6881451 0 0 0 0 214825618.35294342 165406488.64151764 0 165406488.64151764 157902890.14774925 0 0 0 0 -108900274.63348746 -25806066.026432663 0 -25806066.026432663 15064863.98328495 0 0 0 0 231169429.50883484 116806582.24179316 0 116806582.24179316 125337327.17666674 0 0 0 0 -170480770.23370552 66908139.209137321 0 66908139.209137321 -100089970.919631 0 0 0 0 606126.20620247349 119466.35880061239 0 119466.35880061239 -523034.00890505547 0 0 0 0 -116874742.38917542 49228597.986146927 0 49228597.986146927 5135040.6833248138 0 0 0 0 310114888.89093018 130635509.49876785 0 130635509.49876785 102626430.23108006 0 0 0 0 -167250311.05578613 29007843.62876153 0 29007843.62876153 213891485.7774086 0 0 0 0 -208799727.30996704 92058268.664861441 0 92058268.664861441 145023276.78344846 0 0 0 0 273841981.42336679 -61845730.920626864 0 -61845730.920626864 128799273.90608549 0 0 0 0 291065556.48263168 253868516.37344694 0 253868516.37344694 77757844.534686804 0 0 0 0 413017109.89863777 349249464.6192311 0 349249464.6192311 216437088.8800993 0 0 0 0 552595533.29063034 169961396.5254631 0 169961396.5254631 -69832869.2704916 0 0 0 0 704530529.89526367 462903583.20422983 0 462903583.20422983 -188803856.64857674 0 0 0 0 2339343.9890366085 -346332.38360880874 0 -346332.38360880874 -940408.51195420627 0 0 0 0 890540973.73859406 563779571.87273574 0 563779571.87273574 15771830.19429636 0 0 0 0 15165889.503403299 16139200.695854217 0 16139200.695854217 5894801.6769602504 0 0 0 0 13500566.808539391 16206180.740647912 0 16206180.740647912 4930863.8708701134 0 0 0 0 12384571.363490582 19858580.746291816 0 19858580.746291816 -6480732.2418718338 0 0 0 0 28122173.050680161 22739043.231253862 0 22739043.231253862 -19068342.495568275 0 0 0 0 27453569.531269073 87102703.026691914 0 87102703.026691914 -10672325.170134544 0 0 0 0 14557945.619915009 34551951.146731853 0 34551951.146731853 -7993453.5762176514 0 0 0 0 4121242.9129580157 907114.50226406194 0 907114.50226406194 -11765.037283752114 0 0 0 0 54288285.407095909 2776605.3204320669 0 2776605.3204320669 4755854.1962842941 0 0 0 0 95245169.634838104 71272289.414243698 0 71272289.414243698 -18046746.135339975 0 0 0 0 92541319.170433044 36256699.247659922 0 36256699.247659922 -9206041.5907034278 0 0 0 0 -90413254.960127354 76615823.009708285 0 76615823.009708285 17573326.328855515 0 0 0 0 14796253.873407619 17279674.558554873 0 17279674.558554873 6244610.3772213021 0 0 0 0 -82231067.345727921 50271644.687256098 0 50271644.687256098 26502324.355640411 0 0 0 0 -76847681.632417679 72592123.360748053 0 72592123.360748053 35156182.451206207 0 0 0 0 -85083876.335754395 42700228.444687843 0 42700228.444687843 -17373078.01286602 0 0 0 0 13445073.41033927 3438725.5071191406 0 3438725.5071191406 -72498.96531067742 0 0 0 0 512041805.30772018 -187334491.69821024 0 -187334491.69821024 -220048008.17874146 0 0 0 0 41445839.998952866 21956278.714693666 0 21956278.714693666 16795925.825081825 0 0 0 0 49356405.981918335 20308871.384338856 0 20308871.384338856 -2234780.180229187 0 0 0 0 13876094.292161668 19699133.165832117 0 19699133.165832117 3109376.4998901282 0 0 0 0 -21685015.832386017 68505240.739206791 0 68505240.739206791 -207714004.00144231 0 0 0 0 83835586.082872391 256100200.38193011 0 256100200.38193011 76175974.146919012 0 0 0 0 14637758.021112559 2955588.6107695112 0 2955588.6107695112 -2063061.3255787799 0 0 0 0 -167902701.70442581 4571589.5406808853 0 4571589.5406808853 19781318.404699326 0 0 0 0 -121085515.61180115 63933576.045459747 0 63933576.045459747 20450163.517318726 0 0 0 0 -10706638.226898193 59270645.835502625 0 59270645.835502625 -4105333.3142795563 0 0 0 0 1143958280.3818016 1057977541.7868562 0 1057977541.7868562 311859290.17477036 0 0 0 0 171510656.11731339 -872518452.09397173 0 -872518452.09397173 -1040432672.0025034 0 0 0 0 1850668653.5798264 661470060.1693325 0 661470060.1693325 -194118687.85271168 0 0 0 0 1751751374.3443604 94253454.133615017 0 94253454.133615017 30491316.299578667 0 0 0 0 930388811.55984116 121819095.92334843 0 121819095.92334843 260633087.56313896 0 0 0 0 1824296513.6402893 -746556443.46351528 0 -746556443.46351528 485982483.95232964 0 0 0 0 2339686126.8318863 -155518849.17559433 0 -155518849.17559433 -99115251.716527939 0 0 0 0 671281576.98835373 213482696.80915451 0 213482696.80915451 41773887.069868088 0 0 0 0 1489324483.3010254 713957921.31252098 0 713957921.31252098 7151480.7096991539 0 0 0 0 725408454.31781387 384439769.8277632 0 384439769.8277632 -17117778.937129021 0 0 0 0 -244546245.82619381 -232990432.90092665 0 -232990432.90092665 297144398.29407215 0 0 0 0 263711322.22777367 430995271.43146253 0 430995271.43146253 174014797.40597183 0 0 0 0 -89229097.151954651 -372516079.90384865 0 -372516079.90384865 -3469767.9418983459 0 0 0 0 926805.68970902078 -220224.27218075469 0 -220224.27218075469 -192521.09148566285 0 0 0 0 693528290.42028046 182453927.60665226 0 182453927.60665226 54112000.515143871 0 0 0 0 -99307182.351387024 262234578.91949606 0 262234578.91949606 130491279.65282917 0 0 0 0 62295015.273071289 -89579170.296279907 0 -89579170.296279907 -293246594.02609968 0 0 0 0 144798507.69467545 -29169387.592044353 0 -29169387.592044353 199486491.56452227 0 0 0 0 267359883.80817413 -334902826.97695303 0 -334902826.97695303 148177959.57116604 0 0 0 0 378730344.63671088 -176790521.43327942 0 -176790521.43327942 123599435.29455757 0 0 0 0 377625444.10062408 -183800243.4341774 0 -183800243.4341774 582981231.96699905 0 0 0 0 6254088.1081343982 3533259.3522262573 0 3533259.3522262573 -765824.19471851783 0 0 0 0 631181737.60707855 98513724.905082703 0 98513724.905082703 -258346457.30896473 0 0 0 0 -22796084.448816299 44545199.984875441 0 44545199.984875441 -126224620.31986555 0 0 0 0 672417639.71401787 184948963.3418231 0 184948963.3418231 -113027791.53782272 0 0 0 0 90519510.987443924 -96266673.20194912 0 -96266673.20194912 -228723636.12780264 0 0 0 0 95970344.945011139 -159641430.00071025 0 -159641430.00071025 -148336386.53115463 0 0 0 0 733936800.9659214 8234872.5577712059 0 8234872.5577712059 -386631378.46259499 0 0 0 0 747541147.10214233 -181213284.18455696 0 -181213284.18455696 -540691286.57542419 0 0 0 0 740483987.72713184 -20507436.794918418 0 -20507436.794918418 -603002183.10147095 0 0 0 0 563241547.68292236 -346911353.88083649 0 -346911353.88083649 -688509848.0859499 0 0 0 0 1032090525.9197121 -86334040.859701633 0 -86334040.859701633 -866092283.26194382 0 0 0 0 465553455.676651 -251212097.52209091 0 -251212097.52209091 1638644839.2900906 0 0 0 0 1423890193.0545692 655800863.32390928 0 655800863.32390928 44419330.818729401 0 0 0 0 675317938.70785522 437095873.0436964 0 437095873.0436964 257918625.45718288 0 0 0 0 281914912.03253555 -473723294.9372282 0 -473723294.9372282 -681813868.33193588 0 0 0 0 773569515.89647675 -409510197.86597443 0 -409510197.86597443 -1178732205.8412666 0 0 0 0 505204018.93751526 -225831660.68169022 0 -225831660.68169022 -446025211.20301247 0 0 0 0 233120592.16230392 -247673934.5418663 0 -247673934.5418663 -187611304.46122169 0 0 0 0 380220061.23280334 -308987736.50203514 0 -308987736.50203514 -431293924.85049129 0 0 0 0 481569517.95979691 -137776722.35410309 0 -137776722.35410309 -181837214.14698601 0 0 0 0 336806166.51110315 -182677856.23732328 0 -182677856.23732328 -148101014.38917542 0 0 0 0 353790909.4244194 -232442130.24709797 0 -232442130.24709797 -220589694.50046682 0 0 0 0 271491045.8103025 -219090463.2399255 0 -219090463.2399255 -29461048.105197906 0 0 0 0 276900740.12241173 -192887241.63281918 0 -192887241.63281918 11413983.991636276 0 0 0 0 345328203.26207352 -155725000.89499521 0 -155725000.89499521 -93841423.639616013 0 0 0 0 438594049.40566444 -98169450.668272018 0 -98169450.668272018 -58692425.90545845 0 0 0 0 409434053.48466825 35545763.514504433 0 35545763.514504433 86863876.660039902 0 0 0 0 167065369.84331512 -46581699.083479881 0 -46581699.083479881 59056854.705052853 0 0 0 0 8545593.4053916652 17853954.975814376 0 17853954.975814376 10366138.135815687 0 0 0 0 15800868.373049736 43087063.376363754 0 43087063.376363754 10791497.637203217 0 0 0 0 222656425.39786768 -178485866.60756326 0 -178485866.60756326 82456718.232618332 0 0 0 0 180574403.6122551 -118673075.34434986 0 -118673075.34434986 20765756.85212326 0 0 0 0 -15163871.235675812 -12114810.061256409 0 -12114810.061256409 -11950985.323352486 0 0 0 0 4352068.9015572518 800817.0668193996 0 800817.0668193996 -697951.54184558615 0 0 0 0 1786405.0778427124 73015056.086503983 0 73015056.086503983 -15206532.664709091 0 0 0 0 83936245.814285278 23883676.463366985 0 23883676.463366985 -1980025.4280633926 0 0 0 0 16127580.533670425 40552778.624099731 0 40552778.624099731 25236072.003082275 0 0 0 0 9492998.8078420367 14476973.337755093 0 14476973.337755093 -11245199.483034773 0 0 0 0 74690209.608652115 931808.52739453316 0 931808.52739453316 -21865854.932283401 0 0 0 0 -363247895.07985497 53601586.933819294 0 53601586.933819294 76705329.721763611 0 0 0 0 -255205770.63058472 152170298.0585165 0 152170298.0585165 26856981.27931118 0 0 0 0 -247510847.22599792 -57988719.843871117 0 -57988719.843871117 43332480.747596741 0 0 0 0 -71044712.053199768 -131455716.31201553 0 -131455716.31201553 -69277984.815956116 0 0 0 0 31912915.472419739 -22348589.107610703 0 -22348589.107610703 -120020716.42741013 0 0 0 0 98642364.538726807 73304875.675201416 0 73304875.675201416 26922311.912475586 0 0 0 0 -81804380.550003052 104245641.671772 0 104245641.671772 23754871.529975891 0 0 0 0 60681458.960390091 87375271.568914413 0 87375271.568914413 63146798.60509491 0 0 0 0 4693983.1052474901 10746359.13759166 0 10746359.13759166 -11968023.307988521 0 0 0 0 119052623.57346344 157579585.3249588 0 157579585.3249588 189578267.67038727 0 0 0 0 265142.18710140511 97088.12940148823 0 97088.12940148823 -517627.44959711283 0 0 0 0 -22263967.218643188 -44319462.730607033 0 -44319462.730607033 -6232428.5369873047 0 0 0 0 -25001637.373149872 -58602022.754494667 0 -58602022.754494667 11870746.351455688 0 0 0 0 -26750602.947685242 -49484991.881088257 0 -49484991.881088257 16047351.716220856 0 0 0 0 -30798102.620079041 -58834050.981394768 0 -58834050.981394768 42238836.398155212 0 0 0 0 27819298.41519165 44067441.628910065 0 44067441.628910065 71591053.702741623 0 0 0 0 44531605.529346466 31202201.331413746 0 31202201.331413746 12867355.426834106 0 0 0 0 6257643.4790058136 39467407.803104401 0 39467407.803104401 47751225.201946259 0 0 0 0 6131932.2996501923 3447394.5605258942 0 3447394.5605258942 -8614940.1675777435 0 0 0 0 -22483201.512973785 11610521.433813095 0 11610521.433813095 27658426.215646744 0 0 0 0 -6044965.7305138111 3589294.0312595367 0 3589294.0312595367 31309775.778511047 0 0 0 0 3638236.0828113556 48396376.165587187 0 48396376.165587187 79876058.746520996 0 0 0 0 3868095.3054466248 75440340.456520081 0 75440340.456520081 68311065.258239746 0 0 0 0 -46124780.083938599 -19689054.382659912 0 -19689054.382659912 46996615.838243484 0 0 0 0 57010465.945964813 54833263.516910553 0 54833263.516910553 20804873.340011597 0 0 0 0 41715877.380687714 108715855.8488121 0 108715855.8488121 207563377.28800964 0 0 0 0 97592408.230781555 54216510.045120239 0 54216510.045120239 64066934.764183044 0 0 0 0 121174121.31492615 145061771.487854 0 145061771.487854 152670796.53684998 0 0 0 0 156988669.59190369 222390244.46510887 0 222390244.46510887 213505309.92274475 0 0 0 0 -1012435.1783168577 557685.20785574568 0 557685.20785574568 1471801.7875383981 0 0 0 0 7740579.7630824754 11162321.589482948 0 11162321.589482948 6925950.5727309436 0 0 0 0 59839372.268424988 -24678895.382494926 0 -24678895.382494926 102631701.95093536 0 0 0 0 -11469066.178909302 8472678.1956348419 0 8472678.1956348419 16676910.238166332 0 0 0 0 -21970235.682852745 17645976.054404259 0 17645976.054404259 20000069.279817581 0 0 0 0 3116852.4825148787 7101502.6403901894 0 7101502.6403901894 48253.515952507034 0 0 0 0 -16208806.353218079 -4693892.8762550354 0 -4693892.8762550354 5166597.7601318359 0 0 0 0 64006532.840199471 -42323810.784240723 0 -42323810.784240723 -31379926.889039993 0 0 0 0 1342437.2385029045 3741309.9203015701 0 3741309.9203015701 6863426.9556368925 0 0 0 0 387233600.90247297 164326144.06940651 0 164326144.06940651 98194543.960681915 0 0 0 0 561232999.93003273 344586479.9846859 0 344586479.9846859 23434261.87087059 0 0 0 0 8381800.2033205237 975420.80452639423 0 975420.80452639423 1082038.3436992047 0 0 0 0 532328484.16176987 84496875.552476883 0 84496875.552476883 25088509.326271057 0 0 0 0 1349458873.4612906 162557265.67666149 0 162557265.67666149 319328102.03261185 0 0 0 0 1243881373.6757741 357830717.2787838 0 357830717.2787838 -41655153.147662163 0 0 0 0 -106487.93734564492 1376227.4591397392 0 1376227.4591397392 746518.86252630502 0 0 0 0 1328065498.6741476 855947408.37163901 0 855947408.37163901 314337005.17458344 0 0 0 0 767509961.83633065 -251018180.68733263 0 -251018180.68733263 1560340974.1573887 0 0 0 0 2479598.0659435373 -168691.07880223263 0 -168691.07880223263 903736.06900257524 0 0 0 0 123873376.13718605 -503606115.71138477 0 -503606115.71138477 1008643122.6241236 0 0 0 0 122499891.32767582 -94221228.272223473 0 -94221228.272223473 124642837.15468788 0 0 0 0 96606080.289942265 -112477707.80663633 0 -112477707.80663633 113687771.22357178 0 0 0 0 146816280.93149328 -202748266.08683276 0 -202748266.08683276 272212889.0381279 0 0 0 0 360327415.77447128 -330006889.98819923 0 -330006889.98819923 96274904.542088509 0 0 0 0 445265482.51198769 -178168826.10632849 0 -178168826.10632849 -97552432.994413376 0 0 0 0 1218235307.9373455 -707720824.11610889 0 -707720824.11610889 -27992083.34989357 0 0 0 0 1433610504.4124765 -190008272.57594204 0 -190008272.57594204 -462253191.45003128 0 0 0 0 830431998.6773324 205704238.63836503 0 205704238.63836503 -557565564.55516815 0 0 0 0 673221005.51211452 -333015910.96027946 0 -333015910.96027946 -103775891.55975151 0 0 0 0 344363271.37459373 202404526.01591873 0 202404526.01591873 33587249.780866385 0 0 0 0 460078745.53330326 262656573.14695024 0 262656573.14695024 -181393505.23604393 0 0 0 0 326929025.58497179 -78269716.394661427 0 -78269716.394661427 -94242772.539445877 0 0 0 0 266034684.51470375 -241310172.97872829 0 -241310172.97872829 -53496502.830349922 0 0 0 0 316759253.29081345 -148762875.5822649 0 -148762875.5822649 -82952314.080448151 0 0 0 0 125644017.61700058 -222762944.12390566 0 -222762944.12390566 -111079447.11109543 0 0 0 0 268805088.41480255 -109118998.42933178 0 -109118998.42933178 -90067110.779859543 0 0 0 0 162062311.03585765 352068308.10155451 0 352068308.10155451 331044539.92416191 0 0 0 0 -10659010.398839593 -60358936.554773331 0 -60358936.554773331 545483485.30772495 0 0 0 0 439690734.11652231 271349574.59823847 0 271349574.59823847 192359220.76446533 0 0 0 0 -527385.98941646155 2934835.9592272337 0 2934835.9592272337 1043292.6017641081 0 0 0 0 -8436726.7507863045 512381965.51748848 0 512381965.51748848 163633377.05327225 0 0 0 0 1240582.7579640148 134570.4079123945 0 134570.4079123945 -73179.205140611157 0 0 0 0 4960019.7188468203 700649176.23880589 0 700649176.23880589 -298886537.34177971 0 0 0 0 -471884949.77661753 141646512.93856716 0 141646512.93856716 207909512.69979334 0 0 0 0 262677655.27898562 230442954.97032407 0 230442954.97032407 -445716880.40829659 0 0 0 0 970606523.45844948 457959243.32925689 0 457959243.32925689 86252658.688785553 0 0 0 0 269142036.97537756 26961543.979129791 0 26961543.979129791 47969772.721086264 0 0 0 0 78439850.544074535 146939670.76591539 0 146939670.76591539 499032913.27940178 0 0 0 0 273787132.99778652 -42139056.203983307 0 -42139056.203983307 560459743.37228489 0 0 0 0 26482145.518385887 -34825378.6419487 0 -34825378.6419487 68289419.964225769 0 0 0 0 -238112347.74831676 91688727.341322184 0 91688727.341322184 237204549.22941208 0 0 0 0 4782985.1184336543 -9784378.8078718185 0 -9784378.8078718185 58955525.757342339 0 0 0 0 -189487203.86180782 143442794.9198494 0 143442794.9198494 -143076124.0152775 0 0 0 0 1846316.2357160565 -961737.94539181096 0 -961737.94539181096 847510.38885517605 0 0 0 0 -523156836.56916165 496951880.7958231 0 496951880.7958231 -93086952.74919045 0 0 0 0 2786601.9560118816 -4248243.0836931402 0 -4248243.0836931402 1697548.0767468819 0 0 0 0 7794130.9633703232 -12283998.632788658 0 -12283998.632788658 589766.53735089302 0 0 0 0 36542219.751905441 84594029.827374458 0 84594029.827374458 112700826.39481497 0 0 0 0 209701983.05316162 170988653.55767536 0 170988653.55767536 151449006.19105291 0 0 0 0 5277918.9439512733 -3690127.7381554833 0 -3690127.7381554833 3752946.6377888387 0 0 0 0 -5453100.9100747108 -23248072.093645096 0 -23248072.093645096 12316930.291010857 0 0 0 0 20999353.053396463 -959116.45973348618 0 -959116.45973348618 2707521.5141352415 0 0 0 0 -1487387.7459621429 17640580.561792374 0 17640580.561792374 34586804.218021393 0 0 0 0 35661131.992107391 34392438.134540081 0 34392438.134540081 10108506.344444752 0 0 0 0 17861459.557569504 12475815.559875727 0 12475815.559875727 -1464388.8796195984 0 0 0 0 399615.96329624578 -202147.83325648634 0 -202147.83325648634 619192.95967059303 0 0 0 0 10973468.225462615 54992530.041709185 0 54992530.041709185 140567233.47898102 0 0 0 0 -24382595.215636015 83610325.542956352 0 83610325.542956352 124309799.38582563 0 0 0 0 -24614446.310256243 92487843.64546299 0 92487843.64546299 254115363.64631581 0 0 0 0 17434062.29322958 24046815.886561632 0 24046815.886561632 57404617.796179771 0 0 0 0 -13139257.757128 -17185516.369451523 0 -17185516.369451523 164057045.58487415 0 0 0 0 7298183.026072979 -2202250.3450603485 0 -2202250.3450603485 -2960564.5011715889 0 0 0 0 2472113.0728534209 3147844.5441129077 0 3147844.5441129077 1923882.7677472876 0 0 0 0 108659829.51028347 -16136172.736474991 0 -16136172.736474991 -34765197.625126839 0 0 0 0 -12490876.392951369 -73503970.915968657 0 -73503970.915968657 175419645.85281944 0 0 0 0 -4175269.6521959305 -27776251.487001896 0 -27776251.487001896 113385149.16677284 0 0 0 0 58110462.65380919 -129711852.17322741 0 -129711852.17322741 194582534.80906487 0 0 0 0 3805733.805934906 -58323374.336981773 0 -58323374.336981773 268774487.62137413 0 0 0 0 -18866812.547386646 -88125316.336063385 0 -88125316.336063385 295890214.55390263 0 0 0 0 -33429885.131122589 -40252024.724486351 0 -40252024.724486351 191877472.63370681 0 0 0 0 -46041613.077819824 -22433078.522051334 0 -22433078.522051334 187934818.45918369 0 0 0 0 -47791351.978600502 -52993973.622356653 0 -52993973.622356653 238759609.8463316 0 0 0 0 -5670455.009721756 -56321548.487260818 0 -56321548.487260818 95187259.165400505 0 0 0 0 5129598.0134143829 -3271086.1896114349 0 -3271086.1896114349 64658750.375033379 0 0 0 0 5303556.2545304745 4817236.0001835097 0 4817236.0001835097 2485888.09453368 0 0 0 0 3136700.1635437012 -18581378.84252739 0 -18581378.84252739 61086204.404116631 0 0 0 0 2703132.0623512268 29109494.739605904 0 29109494.739605904 117946429.81338978 0 0 0 0 -45441422.173869193 -8177438.7728937119 0 -8177438.7728937119 173369345.93391228 0 0 0 0 -86670758.848052979 12033615.4562639 0 12033615.4562639 223053821.05744553 0 0 0 0 -76037291.867405891 42983253.306902528 0 42983253.306902528 201706062.95418167 0 0 0 0 33856617.62109375 78202573.223123074 0 78202573.223123074 138653750.75712872 0 0 0 0 1396162.2515103817 16044042.882146031 0 16044042.882146031 52373453.01008606 0 0 0 0 -24957745.928737164 -11540162.788282156 0 -11540162.788282156 11360887.503033638 0 0 0 0 5410303.9488233197 -189209.22777102981 0 -189209.22777102981 1412224.8747384045 0 0 0 0 12434731.89065361 12794890.493016243 0 12794890.493016243 52372883.324673578 0 0 0 0 -1998712.8826203346 2688333.3913297653 0 2688333.3913297653 56445024.929490089 0 0 0 0 2205714.2804765701 18776148.362942696 0 18776148.362942696 117556922.47224522 0 0 0 0 22469.115327562671 4649186.8684575567 0 4649186.8684575567 3888686.0379112209 0 0 0 0 -3687026.1041026115 8588144.218454361 0 8588144.218454361 7981566.9824573994 0 0 0 0 3771712.6948957443 17343913.312458277 0 17343913.312458277 -473198.68300390244 0 0 0 0 7971594.6302351141 6554282.125729857 0 6554282.125729857 2614430.3605630854 0 0 0 0 17454662.802313328 14544726.578217268 0 14544726.578217268 20014474.502426147 0 0 0 0 5319906.3142328262 8072157.0214989185 0 8072157.0214989185 -4052336.7320578098 0 0 0 0 11383497.792511225 12538214.082317352 0 12538214.082317352 -12954809.933542967 0 0 0 0 24218549.082402945 18823133.625306368 0 18823133.625306368 593282.03276157379 0 0 0 0 6794501.2805631161 -3161807.9764647484 0 -3161807.9764647484 8644654.4178185463 0 0 0 0 1957579.1060058279 1144071.7448682152 0 1144071.7448682152 -100607.24211677187 0 0 0 0 11152209.957860738 412817.88220542669 0 412817.88220542669 -253563.24493360519 0 0 0 0 25366948.761445686 -4352241.7482860982 0 -4352241.7482860982 -2249721.3837509155 0 0 0 0 11466247.841072559 -4859684.2292771339 0 -4859684.2292771339 1211233.158405304 0 0 0 0 9633207.0209050179 2323105.0358858109 0 2323105.0358858109 -5042189.163728714 0 0 0 0 4118944.3392058611 1850084.6029188633 0 1850084.6029188633 -2805380.8019523621 0 0 0 0 12466604.324854136 -1393750.8625870943 0 -1393750.8625870943 -5554075.525894165 0 0 0 0 7583534.614320755 11575528.017773628 0 11575528.017773628 673883.9343957901 0 0 0 0 65843164.261311531 32150168.157693148 0 32150168.157693148 13944537.29819876 0 0 0 0 67817507.158715248 9961824.2774097919 0 9961824.2774097919 1323402.6167955399 0 0 0 0 -404568.42353646655 -394850.16037279565 0 -394850.16037279565 316624.11515023257 0 0 0 0 359859.69087791443 -3006391.0005497932 0 -3006391.0005497932 -1292103.4038333893 0 0 0 0 -17131296.29097414 -16096756.681921482 0 -16096756.681921482 4031800.9299545884 0 0 0 0 4160709.4239715352 2022975.3334212438 0 2022975.3334212438 4295629.9072125489 0 0 0 0 1594384.1980681419 1269013.7280328274 0 1269013.7280328274 -562807.38148498535 0 0 0 0 2911609.6039502849 2739525.5181982568 0 2739525.5181982568 2620700.9900286864 0 0 0 0 1225531.6899280548 1894924.3587188721 0 1894924.3587188721 213205.99085998535 0 0 0 0 2992068.2350053056 3125795.5993039366 0 3125795.5993039366 3286578.7201104495 0 0 0 0 3848798.6846917677 2428800.1727321683 0 2428800.1727321683 -270532.89634640608 0 0 0 0 1647671.579789662 889923.71514146402 0 889923.71514146402 -460734.75250952994 0 0 0 0 4466857.6753549576 2274121.6903572083 0 2274121.6903572083 -42068.953329086304 0 0 0 0 79922.527134620817 269490.85931495577 0 269490.85931495577 408644.01522531849 0 0 0 0 -8497740.4803528786 -5557093.7276031971 0 -5557093.7276031971 17968316.323485851 0 0 0 0 21875604.492946148 -1568595.7193582058 0 -1568595.7193582058 22892250.220035553 0 0 0 0 11626079.368805885 16457515.459172606 0 16457515.459172606 -1307935.1029238701 0 0 0 0 51644459.139847279 28670939.996925116 0 28670939.996925116 -431697.57287931442 0 0 0 0 16331604.213708639 42782551.47110045 0 42782551.47110045 1210179.7472000122 0 0 0 0 74720652.189814568 -7185272.9180054665 0 -7185272.9180054665 -11471099.335636079 0 0 0 0 -1137270.7502528513 5632540.7763021579 0 5632540.7763021579 3205325.0674111038 0 0 0 0 68406109.068612099 25734032.086388111 0 25734032.086388111 13810380.980568171 0 0 0 0 39336424.145098686 31040260.635330677 0 31040260.635330677 13647905.884261131 0 0 0 0 53338292.078671455 60052587.081035852 0 60052587.081035852 -1769185.9526090622 0 0 0 0 24775558.639946938 64375690.162892818 0 64375690.162892818 17204867.7285676 0 0 0 0 78744863.42344296 76516581.773333669 0 76516581.773333669 -33131538.668861389 0 0 0 0 92610337.871226311 52100181.39810586 0 52100181.39810586 -790265.89410436153 0 0 0 0 1747271.2579870205 -433810.73183569871 0 -433810.73183569871 -832893.82833282847 0 0 0 0 56681294.903882027 -17156146.429065943 0 -17156146.429065943 13147128.561353266 0 0 0 0 191621680.99850321 -94062791.629683137 0 -94062791.629683137 41863095.026577115 0 0 0 0 66188163.545131683 11958011.139365137 0 11958011.139365137 5248954.4476801753 0 0 0 0 43166124.709512711 27121974.169693708 0 27121974.169693708 7626858.5321951807 0 0 0 0 51670409.878422737 45579757.931557536 0 45579757.931557536 33549349.634123921 0 0 0 0 135137774.00447178 50695407.459313199 0 50695407.459313199 7858094.6406846046 0 0 0 0 -374988.80960893631 -16858355.022855997 0 -16858355.022855997 34461144.456797123 0 0 0 0 1147855.8679758674 6959334.1615221603 0 6959334.1615221603 1518951.8905809908 0 0 0 0 36180091.546240807 20361605.337349474 0 20361605.337349474 26707388.744833708 0 0 0 0 24075467.349609375 30842160.815876901 0 30842160.815876901 8872192.1433149576 0 0 0 0 47198139.91874218 43357984.9820351 0 43357984.9820351 15642357.644996405 0 0 0 0 46355919.816854 5654588.8411819935 0 5654588.8411819935 -14903067.896996021 0 0 0 0 10430531.650214016 7738643.0718977526 0 7738643.0718977526 -3372786.5576905105 0 0 0 0 34604566.961954117 -2382610.9503171444 0 -2382610.9503171444 -11779740.51818943 0 0 0 0 31383867.470784187 35836002.776075661 0 35836002.776075661 -13372530.047917843 0 0 0 0 44593027.114180088 -1563329.1466708183 0 -1563329.1466708183 -23246700.791817665 0 0 0 0 -16531352.77934742 641651.05420637131 0 641651.05420637131 24869244.445285797 0 0 0 0 17975995.736142397 24568932.637312412 0 24568932.637312412 30536184.655851364 0 0 0 0 5941488.9148855535 1115899.8788407717 0 1115899.8788407717 3484867.3847576543 0 0 0 0 38063136.897197723 31474714.598651171 0 31474714.598651171 -12823294.142420053 0 0 0 0 -728184.82459583704 -711463.71946868824 0 -711463.71946868824 362831.63797545852 0 0 0 0 62804439.775980175 120567307.45098364 0 120567307.45098364 -48297948.308138132 0 0 0 0 128399459.58294752 172033227.72506481 0 172033227.72506481 -199123170.55297899 0 0 0 0 47881013.303275913 103267916.76025462 0 103267916.76025462 19619271.429504633 0 0 0 0 58725021.225277066 203638142.13884389 0 203638142.13884389 60274697.668395996 0 0 0 0 35698730.45532465 47450246.991174936 0 47450246.991174936 68562128.140835166 0 0 0 0 29775704.97149229 121658076.69721127 0 121658076.69721127 22109598.642043114 0 0 0 0 25853490.346953392 77819633.756750584 0 77819633.756750584 103923281.77262294 0 0 0 0 28394395.189415395 42391417.839021206 0 42391417.839021206 -80602414.857934952 0 0 0 0 -43342221.940568447 145809842.06570354 0 145809842.06570354 -66882322.327759176 0 0 0 0 35024329.868262172 39210532.080136448 0 39210532.080136448 -111680985.8308816 0 0 0 0 4425484.6398753412 -1428818.3848689932 0 -1428818.3848689932 -1407039.03295724 0 0 0 0 10219596.377443075 75608838.415169835 0 75608838.415169835 -127046745.44455311 0 0 0 0 20195492.33085537 31848695.260232508 0 31848695.260232508 -109659219.20077544 0 0 0 0 75083894.36448127 43928704.979539633 0 43928704.979539633 -113324659.72918165 0 0 0 0 76838492.738552213 3796121.0226812363 0 3796121.0226812363 -197075162.57495928 0 0 0 0 76991871.352816105 34613325.576609835 0 34613325.576609835 -159455628.88910222 0 0 0 0 15469414.54280901 -35084675.705511868 0 -35084675.705511868 -108115415.82644665 0 0 0 0 16494667.505163282 -8028688.852432847 0 -8028688.852432847 -83914582.352223158 0 0 0 0 10570283.746540561 -7365163.5123985931 0 -7365163.5123985931 5197892.9221254699 0 0 0 0 -7320502.0070323944 -31423458.30449295 0 -31423458.30449295 -17692801.528626442 0 0 0 0 -15199133.017562866 -33232759.294612169 0 -33232759.294612169 -7503457.1366057396 0 0 0 0 1002169.1321182251 -3921036.8969898224 0 -3921036.8969898224 7814593.9810166359 0 0 0 0 14095040.560182571 -9385721.2873734236 0 -9385721.2873734236 -6967913.0006942749 0 0 0 0 -6295847.0446414948 -13065458.11451602 0 -13065458.11451602 3335467.925983429 0 0 0 0 -4435331.1807098389 -19459772.597496986 0 -19459772.597496986 -2675973.2203445435 0 0 0 0 18025304.701751709 -22723615.79013443 0 -22723615.79013443 -34315487.85452652 0 0 0 0 730340.65700452216 -334309.27813864499 0 -334309.27813864499 -206525.44335818756 0 0 0 0 16047212.186089516 -4145382.4911683127 0 -4145382.4911683127 -68077081.500716686 0 0 0 0 8810409.3910203371 -3322252.3829952027 0 -3322252.3829952027 -2383037.0875423169 0 0 0 0 33953809.13361454 -16954472.512637615 0 -16954472.512637615 6248101.6974852085 0 0 0 0 78805136.761515617 -48789593.135172963 0 -48789593.135172963 13119793.593357921 0 0 0 0 43301914.459510326 -701245.34550178051 0 -701245.34550178051 -36192325.946090698 0 0 0 0 51619765.898073196 -21655391.858921051 0 -21655391.858921051 -20327383.776632309 0 0 0 0 29083232.878629684 -6975488.9270610809 0 -6975488.9270610809 -7390883.492551744 0 0 0 0 38788303.926040888 -20753154.953494787 0 -20753154.953494787 -2334141.008515358 0 0 0 0 31918016.712764263 -14143861.285099983 0 -14143861.285099983 -2449413.2815539539 0 0 0 0 38772362.176555395 -13689813.855151176 0 -13689813.855151176 -8530708.0306215286 0 0 0 0 16861161.161258385 -578941.4036278706 0 -578941.4036278706 1643086.7992550796 0 0 0 0 9994182.1178512573 -5964787.2094492912 0 -5964787.2094492912 -4445324.3953204155 0 0 0 0 42611705.083000183 41113555.652064085 0 41113555.652064085 -23732838.877191782 0 0 0 0 22716575.069335938 25062437.673411608 0 25062437.673411608 -19144359.873247862 0 0 0 0 32809491.938891843 5507752.3724470753 0 5507752.3724470753 1745023.2013556315 0 0 0 0 6921442.001726497 3195171.1115096193 0 3195171.1115096193 -3462047.967900217 0 0 0 0 45572786.874099731 -1746830.8066900373 0 -1746830.8066900373 -63804587.875507236 0 0 0 0 32615680.642887115 2536912.7333751023 0 2536912.7333751023 -57572766.974475265 0 0 0 0 33978783.016608238 9431515.352624923 0 9431515.352624923 -27301101.351798534 0 0 0 0 19453410.356918335 42982355.382477671 0 42982355.382477671 -72310230.947207093 0 0 0 0 1456346.791557312 20130822.248678476 0 20130822.248678476 -3573854.6172445267 0 0 0 0 12132307.002094049 2178201.4574915566 0 2178201.4574915566 3458253.5557898525 0 0 0 0 2890766.9301989526 843371.65986713022 0 843371.65986713022 -1234532.1052025699 0 0 0 0 86479847.849170685 131158519.92447063 0 131158519.92447063 85638685.420318961 0 0 0 0 7640655.2091481052 2424961.4395148638 0 2424961.4395148638 947720.19526679697 0 0 0 0 -16743829.038650513 2047288.8472628593 0 2047288.8472628593 30046695.066336155 0 0 0 0 12692024.928621292 13814941.107381016 0 13814941.107381016 18306707.068371773 0 0 0 0 3415671.1722444538 1234894.6343234098 0 1234894.6343234098 1789341.0699169256 0 0 0 0 8954210.5577774048 -243815.91954994202 0 -243815.91954994202 5684810.771528244 0 0 0 0 6878078.1087293625 -7804566.6347129345 0 -7804566.6347129345 4291935.5781936646 0 0 0 0 22682022.516859382 -2111457.2686871174 0 -2111457.2686871174 2009857.9781034021 0 0 0 0 10567464.195831299 -8374696.0387268066 0 -8374696.0387268066 -2457444.0819568634 0 0 0 0 1446620.8812942505 -7704497.5962104797 0 -7704497.5962104797 6247542.4441461563 0 0 0 0 6349979.3871841431 -12832306.666930199 0 -12832306.666930199 790706.74781799316 0 0 0 0 6500100.080039978 -12096687.293144345 0 -12096687.293144345 794470.96608924866 0 0 0 0 10006024.056819916 -5668799.7746648788 0 -5668799.7746648788 2023756.9110977054 0 0 0 0 6059939.7429609299 -3402434.4059574604 0 -3402434.4059574604 8446047.6703209877 0 0 0 0 6263628.535068512 -4312824.0058217049 0 -4312824.0058217049 9469841.9305882454 0 0 0 0 45173186.353355408 -4095210.1479582787 0 -4095210.1479582787 -16051611.374947309 0 0 0 0 21395913.534877215 -4959449.6617389927 0 -4959449.6617389927 -4700603.0067312848 0 0 0 0 46559582.598548889 4058686.225843817 0 4058686.225843817 -33876282.286121368 0 0 0 0 54613358.548461914 -13146772.795567036 0 -13146772.795567036 -28648070.093950033 0 0 0 0 47442568.997970581 -2857356.9196567535 0 -2857356.9196567535 -27022267.419258058 0 0 0 0 7113764.0303287506 -2976592.1912986934 0 -2976592.1912986934 -4459783.988706708 0 0 0 0 22248863.598934174 35446145.69549036 0 35446145.69549036 -12223970.817502469 0 0 0 0 29336064.502042908 -5497084.5057009505 0 -5497084.5057009505 -3225963.3776933937 0 0 0 0 28138733.274312973 11660655.677451134 0 11660655.677451134 13886945.113388062 0 0 0 0 14793084.326080322 40985953.871772349 0 40985953.871772349 -19312866.810206175 0 0 0 0 35856273.603590012 49652923.187979102 0 49652923.187979102 -67300919.565746069 0 0 0 0 53111260.392798424 34945799.211123586 0 34945799.211123586 -24561052.275338411 0 0 0 0 41720886.442134947 11231066.2554106 0 11231066.2554106 -2637726.4178612861 0 0 0 0 35599003.418239594 19232173.546302795 0 19232173.546302795 -35402563.838366508 0 0 0 0 46467036.391410828 7091564.2066383362 0 7091564.2066383362 -23830132.233062744 0 0 0 0 37806138.114533469 8679793.2223316953 0 8679793.2223316953 -457454.22447931697 0 0 0 0 69600142.102757931 32121403.028077364 0 32121403.028077364 -78254223.141404629 0 0 0 0 42899843.326850891 29485182.945189238 0 29485182.945189238 -39701092.76742053 0 0 0 0 39552660.741254807 3878690.9046565294 0 3878690.9046565294 -47462463.751074791 0 0 0 0 89133553.687977687 32251120.69865492 0 32251120.69865492 -31253576.066208363 0 0 0 0 90274472.219802186 -21868039.543478645 0 -21868039.543478645 -19270747.550726414 0 0 0 0 31306662.27933073 18171043.089699745 0 18171043.089699745 -29227099.36155194 0 0 0 0 8806898.918510437 30671452.948552012 0 30671452.948552012 -31871398.461996794 0 0 0 0 23468224.461803913 27355647.904817373 0 27355647.904817373 -34003774.15088892 0 0 0 0 22166270.937698364 24029074.187416553 0 24029074.187416553 -36146548.480923831 0 0 0 0 19621929.895271301 39071307.668652534 0 39071307.668652534 -42229171.466542244 0 0 0 0 57007626.543334961 52909080.794068098 0 52909080.794068098 -46042856.41422385 0 0 0 0 4762962.2300949097 60025132.764703691 0 60025132.764703691 -74227236.280592442 0 0 0 0 7606374.5684204102 47204931.362439513 0 47204931.362439513 -46689319.750511259 0 0 0 0 119146967.08665657 96332412.138800457 0 96332412.138800457 -110622240.01786232 0 0 0 0 64272624.122169495 21269391.822901487 0 21269391.822901487 -48593121.500194073 0 0 0 0 58764078.118299484 5318017.7529566288 0 5318017.7529566288 -43717190.888694763 0 0 0 0 62538532.17137146 -786132.9425406456 0 -786132.9425406456 -34674775.59428823 0 0 0 0 94703005.012989044 4723437.2639243603 0 4723437.2639243603 -54902381.444295406 0 0 0 0 65260724.914997101 21738636.029555351 0 21738636.029555351 -49200925.819256306 0 0 0 0 78371175.807739258 21593481.625695884 0 21593481.625695884 -65609176.80674839 0 0 0 0 157955336.94397736 -1506668.3168991804 0 -1506668.3168991804 -67707223.034059882 0 0 0 0 117146031.94191742 -26756332.919818401 0 -26756332.919818401 -42985318.027560115 0 0 0 0 82015732.148345947 -17025532.966516495 0 -17025532.966516495 -45674866.248401165 0 0 0 0 75845397.524032593 -29043828.189023733 0 -29043828.189023733 -32383167.997984409 0 0 0 0 76660226.63609314 -31950153.975731373 0 -31950153.975731373 -34862300.731731415 0 0 0 0 61576278.290737152 -23627515.699749827 0 -23627515.699749827 -36734176.26306057 0 0 0 0 62009159.935333252 -24559304.069392204 0 -24559304.069392204 -37287340.655115128 0 0 0 0 79476184.839401245 -16414824.904233932 0 -16414824.904233932 -43669431.98853302 0 0 0 0 68460060.746078491 -12833926.548911095 0 -12833926.548911095 -41657615.934129238 0 0 0 0 56838005.984546661 -9625014.1347711086 0 -9625014.1347711086 -38507947.014717102 0 0 0 0 52132451.273895264 -20514658.564376354 0 -20514658.564376354 -34460415.283114433 0 0 0 0 146705716.640522 -39455791.957098961 0 -39455791.957098961 -57221134.325380802 0 0 0 0 140044027.3135643 -43708444.978140831 0 -43708444.978140831 -83786496.122459412 0 0 0 0 160041861.85118103 5685324.2750716209 0 5685324.2750716209 -19555598.552059889 0 0 0 0 86467574.486158371 -26183882.364742696 0 -26183882.364742696 -10225544.160612106 0 0 0 0 91418264.864364624 -42632363.601632297 0 -42632363.601632297 -23626632.329068661 0 0 0 0 113187392.82932091 -13195240.842722833 0 -13195240.842722833 -28524527.530478239 0 0 0 0 242650084.04445648 2588962.3972477913 0 2588962.3972477913 -37873054.285549879 0 0 0 0 211261819.04985046 -5845316.0851213932 0 -5845316.0851213932 -34667479.896688938 0 0 0 0 159041641.92457962 -5573799.3870919347 0 -5573799.3870919347 42733.870667934418 0 0 0 0 3296230.8881340027 -2608001.565030098 0 -2608001.565030098 -24471672.433671713 0 0 0 0 1922075.9732036507 -2067197.657844577 0 -2067197.657844577 -2200327.7513024053 0 0 0 0 197131692.95216751 -21362180.707074881 0 -21362180.707074881 -3861689.8028432131 0 0 0 0 245944927.65672183 -78384731.878432736 0 -78384731.878432736 20001141.956239223 0 0 0 0 -322990.46190794557 50069.587417094037 0 50069.587417094037 707107.28535966598 0 0 0 0 -43178923.401863098 146917020.42151976 0 146917020.42151976 -125771579.65333736 0 0 0 0 -62696600.907672882 44836685.16096893 0 44836685.16096893 -76246283.366678715 0 0 0 0 -10601627.208220482 15888456.268072173 0 15888456.268072173 -59540714.551334023 0 0 0 0 -20162516.826431274 39803845.02547884 0 39803845.02547884 -116253245.63160372 0 0 0 0 -27916755.627910614 42656521.682221234 0 42656521.682221234 -65940678.351138115 0 0 0 0 -735279.82799517363 2199730.4040745553 0 2199730.4040745553 2086295.6665303223 0 0 0 0 -64562400.262851715 56761044.643772125 0 56761044.643772125 -66822142.941699982 0 0 0 0 -38482482.199409485 87237398.814282417 0 87237398.814282417 -113955540.8672722 0 0 0 0 34219593.502803802 -18651590.645240664 0 -18651590.645240664 -16176793.976423264 0 0 0 0 37262530.034374237 -51145170.194048882 0 -51145170.194048882 7688749.026781559 0 0 0 0 1807853.6977793388 -2815140.6696855128 0 -2815140.6696855128 -1944331.2677540765 0 0 0 0 -34676240.31055069 -20964670.405047417 0 -20964670.405047417 2849951.9803376198 0 0 0 0 173942313.82870483 -9051066.8548157215 0 -9051066.8548157215 -12816785.030501366 0 0 0 0 267550313.29725266 22420438.40890789 0 22420438.40890789 -18543787.656211674 0 0 0 0 167823193.35523796 -5531153.3348755836 0 -5531153.3348755836 40212806.454338074 0 0 0 0 183374740.60250473 -13784985.821947575 0 -13784985.821947575 -14795295.265966892 0 0 0 0 182249835.35616088 219632749.05840471 0 219632749.05840471 137333309.78679276 0 0 0 0 152073715.55263901 129196574.25938416 0 129196574.25938416 22157710.262104273 0 0 0 0 128359463.78046465 264514212.24261925 0 264514212.24261925 229554399.55824757 0 0 0 0 47331561.896724701 1648568.7488957494 0 1648568.7488957494 -104139569.0149008 0 0 0 0 96589213.523284912 -8152933.6032388806 0 -8152933.6032388806 -89800118.435512066 0 0 0 0 15363548.675010681 122727478.10246083 0 122727478.10246083 57894615.337007433 0 0 0 0 69575767.333080292 -23407714.047047675 0 -23407714.047047675 -52403340.92371273 0 0 0 0 74450824.654747009 14555386.729646921 0 14555386.729646921 -102687113.80689466 0 0 0 0 48014742.624305725 -294646.3665445447 0 -294646.3665445447 -69059697.285400629 0 0 0 0 44091430.100563049 5752024.356532827 0 5752024.356532827 -69771641.514475346 0 0 0 0 8383134.2723464966 5351115.1740014553 0 5351115.1740014553 -59240749.742638588 0 0 0 0 16881930.204490662 24287046.723292112 0 24287046.723292112 -78251469.459826946 0 0 0 0 -8076311.73828125 10690186.799143076 0 10690186.799143076 -48355838.614347935 0 0 0 0 37935762.85168457 14353110.21026206 0 14353110.21026206 -72011902.200963736 0 0 0 0 197275933.03618622 33463143.061524391 0 33463143.061524391 -47680480.204045057 0 0 0 0 37883492.78314209 13034592.681399345 0 13034592.681399345 -14121377.723857641 0 0 0 0 446466065.97075653 101839938.61577368 0 101839938.61577368 -51817926.564074039 0 0 0 0 25800987.84387207 -4200834.9761939645 0 -4200834.9761939645 -12018658.189987659 0 0 0 0 -5529159.7387542725 74206654.7431674 0 74206654.7431674 -60847504.257121682 0 0 0 0 -1207802.2513726056 1739963.0024813255 0 1739963.0024813255 2637844.6882642 0 0 0 0 -1297382.042257309 43887247.128730655 0 43887247.128730655 -34548537.777255535 0 0 0 0 116613886.94719696 30780336.59957552 0 30780336.59957552 -35383838.376950979 0 0 0 0 28037365.639137268 62829649.957577944 0 62829649.957577944 102668592.06997204 0 0 0 0 -775650.33792426065 761495.37259196769 0 761495.37259196769 1452122.096701296 0 0 0 0 120612569.7044487 359669097.65489244 0 359669097.65489244 350672332.47350693 0 0 0 0 290046658.82264233 386430589.22798526 0 386430589.22798526 300932070.74419212 0 0 0 0 194743767.98316574 245138145.9786272 0 245138145.9786272 115903420.70997548 0 0 0 0 192569399.19942737 276603777.98889428 0 276603777.98889428 164669418.02283955 0 0 0 0 287489678.57164383 221499503.40179014 0 221499503.40179014 190996586.67327046 0 0 0 0 283296793.78944206 193246143.57354259 0 193246143.57354259 91972765.520019531 0 0 0 0 -1038522.7615717556 -205860.16042738315 0 -205860.16042738315 1370595.113409509 0 0 0 0 434050071.72001076 -8680101.3130871058 0 -8680101.3130871058 33148838.697983742 0 0 0 0 455265328.00411987 217610901.73349345 0 217610901.73349345 -96697155.544222832 0 0 0 0 557435239.62499237 63849929.572192192 0 63849929.572192192 -102934773.80592823 0 0 0 0 449762519.13162613 237393412.09258747 0 237393412.09258747 92965191.894853577 0 0 0 0 350462439.65873909 326850819.79661846 0 326850819.79661846 149047023.84258461 0 0 0 0 116147440.15259171 -40906767.954059124 0 -40906767.954059124 32571454.718915939 0 0 0 0 109460569.55354118 -65692526.595237494 0 -65692526.595237494 -49711548.663036346 0 0 0 0 3811156.1261863708 82006190.271814346 0 82006190.271814346 18141701.052608609 0 0 0 0 282689325.83363724 88173148.273180485 0 88173148.273180485 15852114.630685806 0 0 0 0 103578703.95022583 -31328522.539803505 0 -31328522.539803505 42458467.100095749 0 0 0 0 94431701.931501389 -54578230.156138659 0 -54578230.156138659 24103944.68964386 0 0 0 0 1644315.3194539575 601557.50721811783 0 601557.50721811783 3189883.3972123042 0 0 0 0 121664006.69619942 -95165271.835479856 0 -95165271.835479856 82947783.034927368 0 0 0 0 -2105701.0094650164 141442.58977543749 0 141442.58977543749 956759.62866370787 0 0 0 0 2005839.7698216215 2981130.578389327 0 2981130.578389327 1226570.3644844661 0 0 0 0 370790.36452245712 1126468.0696516037 0 1126468.0696516037 -212055.24711608887 0 0 0 0 149932208.27880859 -112594591.20172501 0 -112594591.20172501 90948828.677311659 0 0 0 0 1588725.8671094766 505347.81429296359 0 505347.81429296359 1594359.8002532227 0 0 0 0 8303381.1496648788 -12028727.422350168 0 -12028727.422350168 -12480515.27072525 0 0 0 0 315993366.97038269 -389454771.0628016 0 -389454771.0628016 -177597165.79884553 0 0 0 0 279949119.90989685 -75157120.825037003 0 -75157120.825037003 45935203.076276124 0 0 0 0 300006354.75106621 -86556249.564501166 0 -86556249.564501166 -190370297.26300144 0 0 0 0 201084652.32001781 30737882.026587844 0 30737882.026587844 23160973.274853706 0 0 0 0 909782433.07049561 -19772278.16865921 0 -19772278.16865921 -323620568.34264827 0 0 0 0 382793104.35947227 -10892794.844366342 0 -10892794.844366342 -105198113.20285511 0 0 0 0 529227011.14362717 532749865.81065547 0 532749865.81065547 1220413334.376318 0 0 0 0 1118408229.6655464 -399116636.0116775 0 -399116636.0116775 185690572.38559055 0 0 0 0 -238555654.87026215 174642031.03437638 0 174642031.03437638 276682862.10258317 0 0 0 0 -74661.4837474823 3713253.9595463276 0 3713253.9595463276 3971433.3086032867 0 0 0 0 -513478.80570981139 1597726.8066237522 0 1597726.8066237522 5646790.4848222043 0 0 0 0 698652140.81749725 332915912.42740679 0 332915912.42740679 -42423411.620218277 0 0 0 0 1274868332.1022797 411566605.5653652 0 411566605.5653652 -160510112.8740617 0 0 0 0 2655276.6880759448 1118520.4679616634 0 1118520.4679616634 572465.60659357253 0 0 0 0 354305358.00337791 661824872.16528058 0 661824872.16528058 829636953.81642365 0 0 0 0 119474095.20182419 121351909.72286713 0 121351909.72286713 79939301.416254729 0 0 0 0 -37936851.924707413 30702321.750626564 0 30702321.750626564 137711596.57274771 0 0 0 0 -37351651.291080475 6660378.6176173687 0 6660378.6176173687 2811755.4687902927 0 0 0 0 552382011.49592876 343765129.68720973 0 343765129.68720973 -25480403.708094597 0 0 0 0 860131191.66015625 433633373.54071665 0 433633373.54071665 44044330.398885727 0 0 0 0 560637479.75755739 285848083.50478059 0 285848083.50478059 -11189504.418193817 0 0 0 0 936684339.56959915 329769140.08804035 0 329769140.08804035 -230466640.94468021 0 0 0 0 990369468.61051941 -203034691.11732769 0 -203034691.11732769 -103437683.07558441 0 0 0 0 1356179380.7913494 482152849.78957057 0 482152849.78957057 -184559632.40564156 0 0 0 0 571114614.8538208 510584323.20504189 0 510584323.20504189 83023106.930313945 0 0 0 0 916341385.09949875 289264718.72766161 0 289264718.72766161 -202678562.89069176 0 0 0 0 -4176733.2744178772 1843693.2165365219 0 1843693.2165365219 2781023.8438873291 0 0 0 0 3671723.1762504578 3235241.607172966 0 3235241.607172966 3651469.8560943604 0 0 0 0 -3044914.2546882629 2909375.3847494125 0 2909375.3847494125 3756173.9854898453 0 0 0 0 465090.55308314878 2097232.060436612 0 2097232.060436612 3582984.378823516 0 0 0 0 -5404210.3436603546 3234884.8330407143 0 3234884.8330407143 4846604.9090099335 0 0 0 0 -9037016.9888572693 -2626081.4423441887 0 -2626081.4423441887 2274188.9321417809 0 0 0 0 -7349412.3280200958 1386125.011636734 0 1386125.011636734 4275774.8381958008 0 0 0 0 -5448757.8665771484 123544.17077636719 0 123544.17077636719 1010286.4187202454 0 0 0 0 2056943649.41959 142235052.29751682 0 142235052.29751682 -96625592.645143032 0 0 0 0 1347940348.0752792 368756058.15343571 0 368756058.15343571 -188140964.25894475 0 0 0 0 1253832331.6037521 284047367.84650087 0 284047367.84650087 128775239.81491184 0 0 0 0 416697.98875604384 113130.85389859416 0 113130.85389859416 14264.55117569305 0 0 0 0 866936806.14317322 397656624.17826462 0 397656624.17826462 125974444.55483341 0 0 0 0 -151825.01772260712 422250.41693121009 0 422250.41693121009 1314084.0542861521 0 0 0 0 1118301598.332159 88860211.601510048 0 88860211.601510048 481713149.85867214 0 0 0 0 942067566.46418381 787501599.17309809 0 787501599.17309809 427959284.45007133 0 0 0 0 1782955428.9698029 615732812.74974346 0 615732812.74974346 25280120.948566437 0 0 0 0 4181261.5698018074 41139558.853198528 0 41139558.853198528 317721563.7070694 0 0 0 0 1099778.3674306534 1153351.5225665644 0 1153351.5225665644 -494563.90677552437 0 0 0 0 961213890.84515572 587791013.4312892 0 587791013.4312892 183183972.70184231 0 0 0 0 1481280.6581221484 -104221.91598627437 0 -104221.91598627437 -768040.36222018301 0 0 0 0 197114083.56940079 101677772.27858353 0 101677772.27858353 25263622.130242348 0 0 0 0 255250646.51371002 195420363.73048115 0 195420363.73048115 -21604655.997376204 0 0 0 0 1150851850.3373361 246078462.71320096 0 246078462.71320096 54102341.101135254 0 0 0 0 415519491.62399673 624730153.0945611 0 624730153.0945611 79758748.464535922 0 0 0 0 -35505041.295657039 -111838204.60822533 0 -111838204.60822533 -5932775.4370155334 0 0 0 0 2490334.4935626984 45864313.984547615 0 45864313.984547615 40718109.296089292 0 0 0 0 -25297397.227806091 -24021346.39994204 0 -24021346.39994204 22434537.116106033 0 0 0 0 135398892.99529648 -291020867.81612921 0 -291020867.81612921 228546082.32176685 0 0 0 0 572257839.46116257 161285173.79193878 0 161285173.79193878 -135317357.11388493 0 0 0 0 2348493.3735148497 -278379.23751804512 0 -278379.23751804512 1457766.8868567823 0 0 0 0 438023269.40116119 168992832.39006233 0 168992832.39006233 266288760.59713984 0 0 0 0 14612745.670730591 2000587.4039554596 0 2000587.4039554596 6769967.9537582397 0 0 0 0 -13460878.121194839 12175280.954512119 0 12175280.954512119 4930899.817070961 0 0 0 0 10697387.230129242 12641096.139814854 0 12641096.139814854 4199745.1030626297 0 0 0 0 22199040.830248833 31673309.780641794 0 31673309.780641794 -10969090.746431351 0 0 0 0 17756008.693058014 25052647.123781919 0 25052647.123781919 -75019.182678222656 0 0 0 0 27171922.461021423 16958281.189060688 0 16958281.189060688 -6651337.4379796982 0 0 0 0 10838585.255623817 22729371.648765683 0 22729371.648765683 -5225832.1141967773 0 0 0 0 -2625551.9821662903 29970265.118089676 0 29970265.118089676 -4067799.0864248276 0 0 0 0 12425850.297990799 24517786.459717274 0 24517786.459717274 -9311574.625875473 0 0 0 0 3408960.8434944153 33735326.223815918 0 33735326.223815918 -15916629.966550112 0 0 0 0 5687987.8451881409 23304150.494991302 0 23304150.494991302 -8525675.0684738159 0 0 0 0 6213476.4873507023 19138138.461092532 0 19138138.461092532 -1541498.2377672195 0 0 0 0 -21255438.790172577 38757341.179486752 0 38757341.179486752 594622.34013700485 0 0 0 0 -8137657.6201477051 24201940.95780611 0 24201940.95780611 -1876388.8820428848 0 0 0 0 -68184043.180685997 -21487222.103940487 0 -21487222.103940487 11310070.080709457 0 0 0 0 -6737134.5309791565 -12970574.385979652 0 -12970574.385979652 8371710.5805854797 0 0 0 0 1161421.5499174781 469938.53512300923 0 469938.53512300923 -802786.04338995414 0 0 0 0 -5429214.9569454193 -11960357.633185387 0 -11960357.633185387 -1031588.2111310959 0 0 0 0 253803081.43707657 239171039.10739422 0 239171039.10739422 89516973.623753548 0 0 0 0 185324169.66732168 139820213.91439438 0 139820213.91439438 136165455.55904484 0 0 0 0 -5592347.7329330444 -1027520.1391849518 0 -1027520.1391849518 -651311.9704541266 0 0 0 0 -9361382.265059948 -331086.29016423225 0 -331086.29016423225 5602616.2068195343 0 0 0 0 -5955619.2647743225 -667563.76574134827 0 -667563.76574134827 13370144.965696335 0 0 0 0 -13352703.653211385 -9033683.2969144788 0 -9033683.2969144788 7253749.913649559 0 0 0 0 -6408483.3984670639 -3371267.0990869999 0 -3371267.0990869999 5418040.0015087128 0 0 0 0 -3579733.9366550446 -5141331.4994254112 0 -5141331.4994254112 21009282.383995056 0 0 0 0 -1616583.3949432373 7293083.6824173927 0 7293083.6824173927 16915906.715954781 0 0 0 0 -8677684.8760204315 2213403.6494350433 0 2213403.6494350433 13095190.020334721 0 0 0 0 -7035479.0982017517 1580135.6012859344 0 1580135.6012859344 3837255.0932788849 0 0 0 0 -6571692.8192520142 8348233.3178296089 0 8348233.3178296089 6932200.9156308174 0 0 0 0 -2984737.8090705872 7017235.792637825 0 7017235.792637825 3612130.0404539108 0 0 0 0 -7263494.9885864258 26348239.764882565 0 26348239.764882565 -650299.86027526855 0 0 0 0 -6429441.5836071968 6872754.3128834963 0 6872754.3128834963 20393104.967985153 0 0 0 0 -25262208.265613556 7373412.3625764847 0 7373412.3625764847 39877472.428129077 0 0 0 0 80193294.942565918 12507499.953244209 0 12507499.953244209 9318540.3904135227 0 0 0 0 23042919.99341011 -22635854.681784153 0 -22635854.681784153 34046278.454431534 0 0 0 0 35825877.900390625 1320765.8835601807 0 1320765.8835601807 6658136.4024105072 0 0 0 0 24966822.628542185 39437948.762622952 0 39437948.762622952 13171744.195940018 0 0 0 0 23940234.724876404 26852711.939105034 0 26852711.939105034 22656402.153460503 0 0 0 0 43744668.607383728 35378271.562710762 0 35378271.562710762 3997730.7963752747 0 0 0 0 64355251.977355957 53933778.825569153 0 53933778.825569153 37497184.800525665 0 0 0 0 86016715.673431396 -17110628.6782794 0 -17110628.6782794 -92176591.366365433 0 0 0 0 466332.03597479686 488106.49662950821 0 488106.49662950821 -130304.28444871586 0 0 0 0 121816.39990828745 2579046.3218428264 0 2579046.3218428264 476858.28587862122 0 0 0 0 90681590.157810211 10058650.622920036 0 10058650.622920036 -64397467.613619804 0 0 0 0 6958959.1237716675 41326693.472520828 0 41326693.472520828 84611043.035269737 0 0 0 0 88330725.60452795 53556763.140361845 0 53556763.140361845 -31785945.85934639 0 0 0 0 93018064.191457987 11706444.795975506 0 11706444.795975506 -6330820.5507621765 0 0 0 0 53323953.497520447 65751759.139557362 0 65751759.139557362 -29857014.73955822 0 0 0 0 65726389.801381111 41810780.41609478 0 41810780.41609478 15845157.932420731 0 0 0 0 29612990.723182678 52726266.926774979 0 52726266.926774979 38722661.389480591 0 0 0 0 50382277.394954681 113145676.7908392 0 113145676.7908392 62010663.339044571 0 0 0 0 58520152.186134338 109953975.30497169 0 109953975.30497169 18805299.897470474 0 0 0 0 29892651.240413666 98040239.982230186 0 98040239.982230186 114106681.84280014 0 0 0 0 143447063.88198853 -57592925.643175125 0 -57592925.643175125 -85641445.821726799 0 0 0 0 333431.08826649562 711223.50125507638 0 711223.50125507638 311619.48265874712 0 0 0 0 207812082.51098633 -40321115.412391186 0 -40321115.412391186 -104916221.62990761 0 0 0 0 -365163.05396652222 32783390.766633987 0 32783390.766633987 141904295.58030796 0 0 0 0 29756680.586196899 47856635.228923321 0 47856635.228923321 57500928.914499283 0 0 0 0 -6046661.3398342133 -3369606.6226682663 0 -3369606.6226682663 54687032.007516861 0 0 0 0 796401.99649830908 2123663.7209981196 0 2123663.7209981196 564971.04967471119 0 0 0 0 -798986.34974098206 4402467.5187129974 0 4402467.5187129974 3622973.5819892883 0 0 0 0 -35841785.605712891 -12969873.188983917 0 -12969873.188983917 -10261682.546772003 0 0 0 0 3441488.882938385 5931851.8298377991 0 5931851.8298377991 3296643.9391841888 0 0 0 0 2606669.7540969849 9978092.2232599258 0 9978092.2232599258 -16292727.283912182 0 0 0 0 778744.4614955429 1156792.7847390901 0 1156792.7847390901 59108.347278964706 0 0 0 0 114767813.10694838 -89985645.25203383 0 -89985645.25203383 -60009336.884525299 0 0 0 0 -89164700.642814636 94069138.552165985 0 94069138.552165985 105627168.40976405 0 0 0 0 -63724527.541782379 -30727931.371286392 0 -30727931.371286392 120601633.97378254 0 0 0 0 -32628462.960655212 58934391.595153809 0 58934391.595153809 -30220432.606607437 0 0 0 0 -28993636.85874939 1369042.612039566 0 1369042.612039566 -193478.16616249084 0 0 0 0 -67837395.649796963 -4043419.6672753096 0 -4043419.6672753096 3160262.4085216522 0 0 0 0 -7990426.6211566925 -376776.65486335754 0 -376776.65486335754 2309496.4858818054 0 0 0 0 -2470825.9098014832 -402181.84247398376 0 -402181.84247398376 -3617336.8407649994 0 0 0 0 203453.06155600771 1992283.9240370372 0 1992283.9240370372 1518421.2617566474 0 0 0 0 1575043.5210609436 -4039044.5098543167 0 -4039044.5098543167 -1576571.9498538971 0 0 0 0 -3072774.0103693008 -452738.79289317131 0 -452738.79289317131 13898229.16302681 0 0 0 0 13550888.745031357 21765230.644791603 0 21765230.644791603 20456383.628461123 0 0 0 0 6911263.7868862152 5219410.9347858429 0 5219410.9347858429 388919.80236625671 0 0 0 0 -6568916.9876117706 -3401735.6660857201 0 -3401735.6660857201 8106355.1985607147 0 0 0 0 30171419.825092316 -57498881.412157059 0 -57498881.412157059 72014832.137431026 0 0 0 0 -32704451.446778297 109509301.73406982 0 109509301.73406982 51263635.549167633 0 0 0 0 103768925.84676552 -59179153.520123482 0 -59179153.520123482 -84099992.038169861 0 0 0 0 156905842.37939453 -38387742.542779922 0 -38387742.542779922 -103940923.41999912 0 0 0 0 285129.69702856429 538688.57633451 0 538688.57633451 385499.68345903931 0 0 0 0 29324719.686058044 36974200.279983521 0 36974200.279983521 44000220.526851654 0 0 0 0 118392906.41572189 40462907.982910156 0 40462907.982910156 -1638166.2916355133 0 0 0 0 49653664.601909637 23000831.337311745 0 23000831.337311745 -5243674.0246584415 0 0 0 0 152822354.47064877 -34294375.231586218 0 -34294375.231586218 -28155935.066329956 0 0 0 0 40700158.015764236 -33966385.593505859 0 -33966385.593505859 -19133814.519268036 0 0 0 0 38367210.509151459 -6393752.6878051758 0 -6393752.6878051758 -9468792.1027851105 0 0 0 0 80532409.829292297 -10806369.891665936 0 -10806369.891665936 -14381760.70940876 0 0 0 0 31906991.061805725 12769907.8016572 0 12769907.8016572 -3379264.9698963165 0 0 0 0 40611583.535578728 12884631.30606842 0 12884631.30606842 -3454564.0636482239 0 0 0 0 41193298.758323669 6661997.4070253372 0 6661997.4070253372 -7647624.9537677765 0 0 0 0 32988581.8073349 7134330.2072048187 0 7134330.2072048187 -5146277.1976861954 0 0 0 0 28306446.011043549 2457777.7070074081 0 2457777.7070074081 -2698672.3953294754 0 0 0 0 38928359.189455986 -485198.54432654381 0 -485198.54432654381 -3183691.3010406494 0 0 0 0 32937923.821325302 6044745.9614982605 0 6044745.9614982605 -66175.103908538818 0 0 0 0 32991619.554846764 6652406.9866666794 0 6652406.9866666794 -4781501.1566390991 0 0 0 0 31315314.074733734 8048905.0678100586 0 8048905.0678100586 -1215405.249083519 0 0 0 0 32924786.358030677 7157810.400162518 0 7157810.400162518 -722125.58450317383 0 0 0 0 31583053.590690613 8649006.3101558685 0 8649006.3101558685 4172732.7529089451 0 0 0 0 19463369.44335556 -7654016.1929517984 0 -7654016.1929517984 -28049892.146206617 0 0 0 0 32824796.494262695 8405537.2340517044 0 8405537.2340517044 -357924.33173370361 0 0 0 0 16954145.634289645 -4051594.651347775 0 -4051594.651347775 -9206963.7823862676 0 0 0 0 244168659.44869232 -71363523.4426651 0 -71363523.4426651 -58931114.143404961 0 0 0 0 74541364.456565857 31073147.397508621 0 31073147.397508621 -28927961.783260345 0 0 0 0 92658589.960800171 41714125.387546539 0 41714125.387546539 -42053688.567249298 0 0 0 0 209229051.1647501 72003577.156185627 0 72003577.156185627 -38318402.341602325 0 0 0 0 91700420.398979187 31546723.489730835 0 31546723.489730835 -29148017.471179008 0 0 0 0 102303610.03387451 -62949171.805259705 0 -62949171.805259705 -58323699.827820778 0 0 0 0 88952884.642723083 -2499067.8540306091 0 -2499067.8540306091 -50219680.684112549 0 0 0 0 166300222.0198288 17598360.523643494 0 17598360.523643494 -50030483.465393066 0 0 0 0 34295873.513114929 4280105.9443445206 0 4280105.9443445206 -1196608.743686676 0 0 0 0 26118576.579231262 3696674.3959369659 0 3696674.3959369659 -645392.71077251434 0 0 0 0 31583597.46484375 5832421.666967392 0 5832421.666967392 -3111714.4351482391 0 0 0 0 23353321.381225586 5169974.2151985168 0 5169974.2151985168 241892.53810501099 0 0 0 0 27088685.842838287 8089693.2296524048 0 8089693.2296524048 -2941035.8030567169 0 0 0 0 22536006.456414223 7189481.8835151196 0 7189481.8835151196 -1921100.7275276184 0 0 0 0 4825524.9026506841 -655089.52529903222 0 -655089.52529903222 -821305.095893424 0 0 0 0 262631167.76105952 -101427307.62259981 0 -101427307.62259981 34747576.877336502 0 0 0 0 -1054536.6026924625 -223231.85203328542 0 -223231.85203328542 1339282.628108466 0 0 0 0 271872190.13857651 3842996.2212076187 0 3842996.2212076187 56493867.727337837 0 0 0 0 24534270.661342621 97218165.889545441 0 97218165.889545441 -41338438.478384495 0 0 0 0 22121058.707138062 6739556.5674705505 0 6739556.5674705505 -3049068.4595911503 0 0 0 0 22232804.958957672 2290997.978272438 0 2290997.978272438 -6130970.5297489166 0 0 0 0 25155766.001811981 6499764.8972949982 0 6499764.8972949982 -2908589.3100457191 0 0 0 0 30684802.530033112 9780774.7523312569 0 9780774.7523312569 -3659215.650138855 0 0 0 0 25516044.176681519 6575456.6465301514 0 6575456.6465301514 -6016116.7162399292 0 0 0 0 181455272.32137585 -58256150.765548468 0 -58256150.765548468 -29584659.253919601 0 0 0 0 2175930.8185637742 -461067.97642451152 0 -461067.97642451152 1406039.4552202355 0 0 0 0 -451096.86402750015 8614585.383436799 0 8614585.383436799 7506164.7784862518 0 0 0 0 97779184.400997162 4695053.8444671631 0 4695053.8444671631 -4144328.4610500336 0 0 0 0 -1662148.5089886617 -302367.59562733397 0 -302367.59562733397 2260974.0485985633 0 0 0 0 91587293.218500614 -16394676.036661029 0 -16394676.036661029 3018408.8178882599 0 0 0 0 127729795.41928864 -51414250.812669754 0 -51414250.812669754 -20359197.869249344 0 0 0 0 91833204.753720045 -14499874.704092562 0 -14499874.704092562 -27536044.94560051 0 0 0 0 91278179.612316132 -67178694.17592144 0 -67178694.17592144 29280419.239561081 0 0 0 0 77621593.202819824 -38646097.24464798 0 -38646097.24464798 -32522115.518126488 0 0 0 0 124784827.76117325 104902603.35594749 0 104902603.35594749 139539174.11934328 0 0 0 0 276546940.13418961 72872153.680345058 0 72872153.680345058 29502358.996688843 0 0 0 0 150756015.39735794 -58696737.205329895 0 -58696737.205329895 24915292.338316202 0 0 0 0 164738200.64929581 -39382891.589159012 0 -39382891.589159012 -74585942.650762558 0 0 0 0 142937025.09350014 -311880.75803232193 0 -311880.75803232193 -63433458.95459938 0 0 0 0 110036533.25188446 -12813301.584339142 0 -12813301.584339142 3881487.7053990364 0 0 0 0 -38768824.859775543 19907914.585083961 0 19907914.585083961 -51279151.997326612 0 0 0 0 147385444.3938942 -23600286.524302483 0 -23600286.524302483 -78741178.693686485 0 0 0 0 164247344.47491455 -53523728.111983299 0 -53523728.111983299 -82600282.922750473 0 0 0 0 454012674.40969849 9869881.2181072235 0 9869881.2181072235 -77892110.728073955 0 0 0 0 94723437.967498779 -25762395.071596146 0 -25762395.071596146 -63437333.525215149 0 0 0 0 94243146.466551781 -34671202.082106113 0 -34671202.082106113 -107689842.1515274 0 0 0 0 -7740448.2186527252 52433009.569726944 0 52433009.569726944 -5198791.7640457153 0 0 0 0 6536150.5126676559 -9966891.6948063374 0 -9966891.6948063374 -16951487.413524628 0 0 0 0 98468062.387145996 45310790.653800011 0 45310790.653800011 -27949287.344787598 0 0 0 0 104661171.99970245 -18453415.522469521 0 -18453415.522469521 -58993054.553749084 0 0 0 0 143301979.43071747 -15772686.825601101 0 -15772686.825601101 -86044224.954170227 0 0 0 0 125837843.15085983 -19915057.822582245 0 -19915057.822582245 -59233159.956695795 0 0 0 0 144593215.56935501 100953051.81766701 0 100953051.81766701 -11273161.397819519 0 0 0 0 256894387.22042084 8744580.3561687469 0 8744580.3561687469 -83334356.389546633 0 0 0 0 8075972.3390884399 86694355.901275635 0 86694355.901275635 -5156549.8518543243 0 0 0 0 36911836.826320648 24447035.761774063 0 24447035.761774063 -26059338.019359589 0 0 0 0 50202932.432167053 43184592.761606216 0 43184592.761606216 -23229209.473685265 0 0 0 0 49566757.918188095 42480261.25514698 0 42480261.25514698 -9156189.2225608826 0 0 0 0 58682007.709671021 48058109.743057251 0 48058109.743057251 -17207346.418840408 0 0 0 0 42784978.640640259 34213748.608753204 0 34213748.608753204 -10142076.989019871 0 0 0 0 63138736.861146927 25201885.547107697 0 25201885.547107697 -30137421.498825073 0 0 0 0 33592999.980941772 22685571.188165665 0 22685571.188165665 -28406127.737478256 0 0 0 0 52140710.403953552 9415211.5756072998 0 9415211.5756072998 -33214487.438793182 0 0 0 0 659239.53760528564 29129829.906917572 0 29129829.906917572 -23058171.142468452 0 0 0 0 39031382.702415466 38237550.301964283 0 38237550.301964283 -34706851.719917297 0 0 0 0 1723924.9317820063 -50536.964439105242 0 -50536.964439105242 62466.375615317374 0 0 0 0 339418180.05757141 124108467.10832405 0 124108467.10832405 47393142.740558624 0 0 0 0 -80130445.260177612 58894537.199901581 0 58894537.199901581 5561279.5621795654 0 0 0 0 1615358.4457538389 -300461.85037001641 0 -300461.85037001641 -854597.31359996274 0 0 0 0 -841820.49547195435 23865302.578382015 0 23865302.578382015 -34271377.071113586 0 0 0 0 356093393.76786041 -197730394.25341988 0 -197730394.25341988 -143525530.00107384 0 0 0 0 199063085.78387642 159765014.86235237 0 159765014.86235237 391080315.31690979 0 0 0 0 15940067.162677765 1974227.4807357788 0 1974227.4807357788 -9180201.9844532013 0 0 0 0 5501825.2182465009 -3406128.0305675846 0 -3406128.0305675846 -4181883.2858551499 0 0 0 0 29672174.169574738 16840146.743070602 0 16840146.743070602 -23743055.178001404 0 0 0 0 15521599.401039671 6026185.344772093 0 6026185.344772093 -4573102.2327680849 0 0 0 0 21755962.96271801 13984049.361807346 0 13984049.361807346 -23209816.000896454 0 0 0 0 6690940.735534668 35137520.454774857 0 35137520.454774857 -34562380.19016695 0 0 0 0 8969695.4059329033 5188370.1768195741 0 5188370.1768195741 -1465180.4220477343 0 0 0 0 8715584.8311462402 39151246.469703674 0 39151246.469703674 -29373504.083884239 0 0 0 0 -833930.08826757967 1896562.576793937 0 1896562.576793937 2906902.0465078028 0 0 0 0 -44339692.092869759 115459350.52258587 0 115459350.52258587 -121277736.57250595 0 0 0 0 -43446286.277618408 111117745.6555829 0 111117745.6555829 -173197950.63024998 0 0 0 0 58702560.590080261 -123417378.29455185 0 -123417378.29455185 26770608.913450241 0 0 0 0 -59863916.086730957 160682628.38263321 0 160682628.38263321 80669407.222991943 0 0 0 0 441125584.34025288 2772111.5170910358 0 2772111.5170910358 -79973016.905122757 0 0 0 0 -606821.170550026 889903.5953503307 0 889903.5953503307 1531098.5022294745 0 0 0 0 -101432965.25024319 41190057.329841137 0 41190057.329841137 47299251.637992859 0 0 0 0 -43185431.754550934 -3650200.8853099346 0 -3650200.8853099346 29658840.05128479 0 0 0 0 12883078.008686066 64462861.936250687 0 64462861.936250687 20821810.840423584 0 0 0 0 -68056288.170284271 62109759.479938507 0 62109759.479938507 60054895.674890518 0 0 0 0 14207837.764650047 123817324.95028535 0 123817324.95028535 -15848127.658554077 0 0 0 0 179410951.47857666 233060707.96954727 0 233060707.96954727 55996665.263772964 0 0 0 0 164748130.89771271 72709363.110305786 0 72709363.110305786 -26262842.380783081 0 0 0 0 47531000.045257568 40277465.623412132 0 40277465.623412132 2977615.9697990417 0 0 0 0 53417421.482139587 49387451.900883198 0 49387451.900883198 -30757696.120033264 0 0 0 0 -3268356.416343689 25141217.141877174 0 25141217.141877174 12204040.034915924 0 0 0 0 8158084.6291313171 53262392.924036026 0 53262392.924036026 14327867.010263443 0 0 0 0 15108124.721218109 -2008457.891453743 0 -2008457.891453743 -4724791.0531454086 0 0 0 0 11479421.952960275 -407115.20205844194 0 -407115.20205844194 -5548518.3812491596 0 0 0 0 13083554.651958466 1342888.7675404549 0 1342888.7675404549 -5878109.8692684174 0 0 0 0 7390870.1566700935 6916217.061581254 0 6916217.061581254 -7180241.2461109161 0 0 0 0 8035491.300239563 1905130.0145431757 0 1905130.0145431757 -963872.11435317993 0 0 0 0 9462969.7311981358 -1618460.2072445024 0 -1618460.2072445024 -8794951.0680481158 0 0 0 0 49213156.542850494 -20478361.163795471 0 -20478361.163795471 -42403191.651042938 0 0 0 0 496401988.86293793 77294946.190883636 0 77294946.190883636 -249535445.17605972 0 0 0 0 128860494.87844086 -28075940.81662178 0 -28075940.81662178 -166770100.65265846 0 0 0 0 78993678.067146301 22594587.463977814 0 22594587.463977814 -3566086.3321228027 0 0 0 0 24229476.483932495 -8273804.9924964905 0 -8273804.9924964905 -16103077.045575842 0 0 0 0 13921507.020187378 -4140913.3285913467 0 -4140913.3285913467 -16183707.623643056 0 0 0 0 25865221.142049313 8849909.2679822147 0 8849909.2679822147 -29449138.584895134 0 0 0 0 85094435.100753784 22014103.665369034 0 22014103.665369034 -17402293.200152874 0 0 0 0 15528657.983757019 4811864.5435962677 0 4811864.5435962677 -19948494.579857826 0 0 0 0 14555857.750832856 2814100.2669123914 0 2814100.2669123914 -6049713.7201439636 0 0 0 0 9100330.661895752 3485452.2808895111 0 3485452.2808895111 -9168676.8330078125 0 0 0 0 28048574.168807983 -3861076.5631074905 0 -3861076.5631074905 -5755563.7813165188 0 0 0 0 16205212.238311768 -3412798.3681983948 0 -3412798.3681983948 -6766787.733584404 0 0 0 0 8371989.7768707275 -1751013.0474076271 0 -1751013.0474076271 673632.69425201416 0 0 0 0 10361647.58494712 3159262.9459469002 0 3159262.9459469002 -3758330.4555321322 0 0 0 0 6261289.1248702183 -3284858.7603817508 0 -3284858.7603817508 -3172050.066794402 0 0 0 0 17096716.598083496 451986.32797074318 0 451986.32797074318 -9183937.6224455833 0 0 0 0 14691049.81088984 46808090.72856842 0 46808090.72856842 -18928783.514994621 0 0 0 0 -13859592.549667358 -4554467.7612037659 0 -4554467.7612037659 9648445.0570065975 0 0 0 0 -11073170.92791748 -11466238.478316784 0 -11466238.478316784 14805621.876992226 0 0 0 0 -21749497.438331604 -8885838.5086610317 0 -8885838.5086610317 18382082.563023567 0 0 0 0 11982947.266897202 -28176623.959286571 0 -28176623.959286571 -14085828.784832001 0 0 0 0 -17770463.996063232 208078.31303834915 0 208078.31303834915 4537973.1169195175 0 0 0 0 -15935419.182365417 -18685542.271059752 0 -18685542.271059752 31752177.619261265 0 0 0 0 -213129.29393038154 -27689.704669501632 0 -27689.704669501632 252082.90349956742 0 0 0 0 156298902.41968727 59720852.174354136 0 59720852.174354136 -32682328.715332985 0 0 0 0 9397652.2324371338 22847130.716640949 0 22847130.716640949 2457227.6959550381 0 0 0 0 120026756.27570343 -36538964.095552683 0 -36538964.095552683 -36455593.18421936 0 0 0 0 57804827.909980774 31069193.516553164 0 31069193.516553164 -50277483.143625259 0 0 0 0 31328848.321685791 68966469.217928886 0 68966469.217928886 79963735.241217136 0 0 0 0 5794126.8077244759 -3937087.5187141504 0 -3937087.5187141504 -4878486.3399441298 0 0 0 0 16631878.028324127 -25883264.225064397 0 -25883264.225064397 -43669800.900494814 0 0 0 0 -28221970.506984711 -44974061.328431726 0 -44974061.328431726 19623673.596475601 0 0 0 0 8167185.388343811 -14457155.163722515 0 -14457155.163722515 -21963244.529960632 0 0 0 0 10611276.412398554 -6917608.5031480184 0 -6917608.5031480184 -10687561.48831388 0 0 0 0 4925099.4152450562 -11567170.343216419 0 -11567170.343216419 -4447100.1369667053 0 0 0 0 9870423.7358551025 -12854592.252950311 0 -12854592.252950311 -21246753.431464672 0 0 0 0 9670274.546169281 -18645053.107774854 0 -18645053.107774854 -28323721.061794281 0 0 0 0 18562815.994535733 -3216948.8737409394 0 -3216948.8737409394 -12662428.584304349 0 0 0 0 7670664.6988592148 -15911118.779219449 0 -15911118.779219449 -20562855.305492878 0 0 0 0 7863192.8606290817 -16286636.953207731 0 -16286636.953207731 -23689066.146541595 0 0 0 0 38134670.138307571 7437988.6127624512 0 7437988.6127624512 1379050.9754552841 0 0 0 0 67216765.805093765 -22287600.256461143 0 -22287600.256461143 -30848647.119796753 0 0 0 0 12870201.063369922 2752352.0048585711 0 2752352.0048585711 -5009697.7753583174 0 0 0 0 36116755.256860733 10751241.786417007 0 10751241.786417007 4272718.1300254762 0 0 0 0 77423877.039830923 -10977189.396843016 0 -10977189.396843016 -31850497.710857391 0 0 0 0 77207228.474490881 -6066029.191247046 0 -6066029.191247046 -42565937.85067749 0 0 0 0 68351744.96887207 -3518196.1107635498 0 -3518196.1107635498 -37085754.13117218 0 0 0 0 52522957.324760437 9717432.3834533691 0 9717432.3834533691 -33314291.991937637 0 0 0 0 58644238.312465668 14348752.013461113 0 14348752.013461113 -34733931.213043213 0 0 0 0 80257960.06993866 11675981.892971039 0 11675981.892971039 -35698240.611465454 0 0 0 0 72112252.832369328 -10551811.94463098 0 -10551811.94463098 -19783824.123428345 0 0 0 0 67807749.656429291 -3917474.718132019 0 -3917474.718132019 -29853640.636611938 0 0 0 0 71419496.263137817 -4438663.6320838928 0 -4438663.6320838928 -36824235.225763321 0 0 0 0 54884328.607070923 1126009.4927368164 0 1126009.4927368164 -30277480.770812988 0 0 0 0 67143301.073242188 -8250928.2532463074 0 -8250928.2532463074 -26145508.002433777 0 0 0 0 11933375.69719696 -2261317.399474144 0 -2261317.399474144 -5831662.0063638687 0 0 0 0 51722334.08228302 -4608847.0886726379 0 -4608847.0886726379 -18367003.839076996 0 0 0 0 14310034.50644736 -1145835.8696577661 0 -1145835.8696577661 -9609877.7111372259 0 0 0 0 46094575.929702759 -2686388.0311279297 0 -2686388.0311279297 -18526922.04252243 0 0 0 0 29291390.056996167 4835528.6599490643 0 4835528.6599490643 -21542039.622749329 0 0 0 0 36166743.85855484 21135646.673324585 0 21135646.673324585 -30845624.9108181 0 0 0 0 37736539.786388397 4555688.7043876648 0 4555688.7043876648 -20084789.280475616 0 0 0 0 8691533.9725952148 1979693.6633434296 0 1979693.6633434296 376165.32288360596 0 0 0 0 -2722952.3284912109 -7115130.0190410614 0 -7115130.0190410614 -24560977.028762341 0 0 0 0 9116438.0838866532 -3076412.2414780799 0 -3076412.2414780799 -4367733.9586879443 0 0 0 0 70764152.77551651 1012209.0136432648 0 1012209.0136432648 -3463845.5192337036 0 0 0 0 13772362.028978782 796185.54727742448 0 796185.54727742448 -6887337.85103813 0 0 0 0 2760666.9281926621 -1910155.9822643562 0 -1910155.9822643562 -3093930.8424666943 0 0 0 0 24486326.253326416 12879302.253295898 0 12879302.253295898 3084790.4277572632 0 0 0 0 21506039.37755942 -2601004.715339385 0 -2601004.715339385 -14161604.91800135 0 0 0 0 9332094.5359039307 678096.74017906189 0 678096.74017906189 -6694870.2742767334 0 0 0 0 13572500.907328945 -3442088.3672269955 0 -3442088.3672269955 -12321278.804385191 0 0 0 0 50882147.272415161 -238611453.86406755 0 -238611453.86406755 5208868.3277854919 0 0 0 0 484090007.99849701 -90081756.504541397 0 -90081756.504541397 -53874801.336301804 0 0 0 0 175990133.81309891 -112933593.81577349 0 -112933593.81577349 23496791.97678566 0 0 0 0 31918635.905738831 -10574229.030796051 0 -10574229.030796051 -37359918.377717733 0 0 0 0 692675.41567587852 -1252820.5446398519 0 -1252820.5446398519 -580089.00491258875 0 0 0 0 608918682.23963165 66183615.88529253 0 66183615.88529253 -35680818.385406494 0 0 0 0 -68766049.589607239 -78820174.247453928 0 -78820174.247453928 -1843995.6064586639 0 0 0 0 328395474.06854248 -201548890.11680794 0 -201548890.11680794 -69734586.071390152 0 0 0 0 203842818.90338707 -26481601.586737037 0 -26481601.586737037 44240537.804485321 0 0 0 0 1457885.637851011 -2531835.127488222 0 -2531835.127488222 -1354683.8099367423 0 0 0 0 397889213.2559166 -53394251.541870117 0 -53394251.541870117 -64171124.280054092 0 0 0 0 -18336248.153017044 -27351139.008311272 0 -27351139.008311272 13376856.926136017 0 0 0 0 158082239.93845749 101017501.45148373 0 101017501.45148373 39171431.597498894 0 0 0 0 246163420.58241272 186011762.02287722 0 186011762.02287722 -49321456.769445419 0 0 0 0 651694254.20769501 374596293.79798937 0 374596293.79798937 36301620.247251987 0 0 0 0 735855597.15326309 -52401949.549546242 0 -52401949.549546242 -98272479.731391907 0 0 0 0 245435162.77677917 160920485.65812302 0 160920485.65812302 33234809.79611361 0 0 0 0 249850959.02381134 168090411.14143467 0 168090411.14143467 -33177178.431103706 0 0 0 0 -8293735.1266555786 16200309.274159431 0 16200309.274159431 50135256.498603821 0 0 0 0 -624748.04614144191 990674.50028797332 0 990674.50028797332 1650135.6446742481 0 0 0 0 391368395.57831287 19031197.081431985 0 19031197.081431985 -186429845.45806313 0 0 0 0 312704948.77246284 334594455.01863837 0 334594455.01863837 176046970.96821404 0 0 0 0 450055431.14342499 307845851.24862671 0 307845851.24862671 17565262.901437521 0 0 0 0 154884615.88672447 76144127.598151445 0 76144127.598151445 172882056.21585751 0 0 0 0 409769696.42579269 242607192.35509968 0 242607192.35509968 140887786.2110579 0 0 0 0 354577818.33687973 357327749.33484554 0 357327749.33484554 107720319.14583397 0 0 0 0 -37160563.75907135 344488526.37473965 0 344488526.37473965 244420808.10176563 0 0 0 0 372491334.05734921 380514101.45460331 0 380514101.45460331 126802126.52082062 0 0 0 0 191354382.4779129 133942171.42293501 0 133942171.42293501 308044727.25199878 0 0 0 0 196765042.26320076 177583195.03901005 0 177583195.03901005 143752829.22388649 0 0 0 0 9787381.7725410461 95280905.753824234 0 95280905.753824234 157728377.68829346 0 0 0 0 7453526.868270874 170540885.08996105 0 170540885.08996105 -208547442.85651207 0 0 0 0 9537096.6018180847 3430189.5202183723 0 3430189.5202183723 -43675599.422010422 0 0 0 0 -13373572.619842529 126144219.31554127 0 126144219.31554127 -157721008.71144867 0 0 0 0 -807066.14067140967 1982360.416133475 0 1982360.416133475 2985610.0477098403 0 0 0 0 -65544811.366270065 120738342.435009 0 120738342.435009 10416609.129707336 0 0 0 0 -24451329.696926117 -13748767.580989838 0 -13748767.580989838 -1550522.331533432 0 0 0 0 24900040.524196625 31622707.325772285 0 31622707.325772285 40160451.904117584 0 0 0 0 3442228.7301848913 178334.83355987258 0 178334.83355987258 85157.799857307225 0 0 0 0 -26322930.468906403 5215465.1447782516 0 5215465.1447782516 19781562.506950378 0 0 0 0 2368922.2810974121 21582344.985258102 0 21582344.985258102 6832969.2266788483 0 0 0 0 -3832234.0017585754 19357277.210968018 0 19357277.210968018 12722466.350780487 0 0 0 0 10295331.79688561 3148300.793366041 0 3148300.793366041 1468256.4374960288 0 0 0 0 41046260.745246887 19548136.220539093 0 19548136.220539093 4761842.8542003632 0 0 0 0 7040318.8913033344 415070.62927867379 0 415070.62927867379 -5198079.3772007264 0 0 0 0 76902457.76398468 -6999363.8190541267 0 -6999363.8190541267 -16660111.944057465 0 0 0 0 76910217.485746384 34889692.130716085 0 34889692.130716085 31631444.068904877 0 0 0 0 67982867.448951721 16429747.503052711 0 16429747.503052711 3746158.7506866455 0 0 0 0 69942388.320892334 8832316.9771060944 0 8832316.9771060944 4827944.3247127533 0 0 0 0 64441441.139297485 18904260.341819763 0 18904260.341819763 -15431023.243741989 0 0 0 0 65770529.604690552 3845610.913318634 0 3845610.913318634 -1132731.6694488525 0 0 0 0 46246667.28371048 16703596.674464226 0 16703596.674464226 -29977440.371372223 0 0 0 0 50091025.70552063 27767849.04916811 0 27767849.04916811 -1330471.3779525757 0 0 0 0 88948445.242195129 8955440.2182235718 0 8955440.2182235718 -3188972.6445275545 0 0 0 0 34604475.559635162 25865089.215975761 0 25865089.215975761 59614148.427183151 0 0 0 0 154478511.48970032 65595801.987568855 0 65595801.987568855 47673820.333133698 0 0 0 0 33941456.358990669 -4482687.7941896915 0 -4482687.7941896915 51708346.630767822 0 0 0 0 76738140.614582062 -11622097.440276146 0 -11622097.440276146 30291929.616371155 0 0 0 0 146331378.14258575 26155830.972003937 0 26155830.972003937 -33440833.027088165 0 0 0 0 123194317.48894119 106242143.87091231 0 106242143.87091231 136907610.12055397 0 0 0 0 341987131.30797768 450507935.10757709 0 450507935.10757709 280828416.76287842 0 0 0 0 512454.35816096375 421462.00128087774 0 421462.00128087774 1803699.4993857294 0 0 0 0 -258620452.86872864 4352468.6350364685 0 4352468.6350364685 221642543.02966118 0 0 0 0 2223312508.3678331 193483207.18801129 0 193483207.18801129 13670097.160140991 0 0 0 0 -25026220.477851868 231541759.14452553 0 231541759.14452553 396737090.35737514 0 0 0 0 -20600013.977626801 86844915.716439724 0 86844915.716439724 -26579260.862176895 0 0 0 0 68150701.214431763 31146113.941627026 0 31146113.941627026 -36822528.794656754 0 0 0 0 -134092870.91770935 41467267.760316849 0 41467267.760316849 7553904.0215349197 0 0 0 0 1176955.4551917547 2349904.685716562 0 2349904.685716562 5663605.5544465445 0 0 0 0 1972746028.8360252 -258915536.09661901 0 -258915536.09661901 -248754078.56046295 0 0 0 0 1038864791.5962067 -182962432.23400688 0 -182962432.23400688 291272423.80890083 0 0 0 0 864655253.44581604 -83652976.421108246 0 -83652976.421108246 261185309.3167038 0 0 0 0 1366237160.3002625 187740926.30379295 0 187740926.30379295 5229825.642788887 0 0 0 0 582616351.73225403 -36591915.25330162 0 -36591915.25330162 39970708.854845047 0 0 0 0 1045033287.6568451 311975668.38236618 0 311975668.38236618 -308562438.83873177 0 0 0 0 528427996.77960014 -194427756.25030136 0 -194427756.25030136 -353720784.49435043 0 0 0 0 -135557457.97215271 138987121.40061569 0 138987121.40061569 85530568.008054495 0 0 0 0 755165932.88827133 266482019.37740231 0 266482019.37740231 135508857.14235115 0 0 0 0 214864434.26287079 -60723521.240718842 0 -60723521.240718842 100835136.73477459 0 0 0 0 147024136.62647247 56447966.102277756 0 56447966.102277756 161177576.96258926 0 0 0 0 -108216009.08350372 -165994459.95317078 0 -165994459.95317078 246564144.38375521 0 0 0 0 159072631.05043411 -2865777.3581821918 0 -2865777.3581821918 452338808.82302856 0 0 0 0 721760346.63170624 304642902.17146778 0 304642902.17146778 535769504.67213154 0 0 0 0 475759242.80410767 -163886417.94534874 0 -163886417.94534874 209123833.04535675 0 0 0 0 491437427.78798676 -157201389.5814929 0 -157201389.5814929 291859859.54947853 0 0 0 0 175760590.67672729 -216020026.96902466 0 -216020026.96902466 175337911.92434692 0 0 0 0 202135485.85258484 33068772.911874771 0 33068772.911874771 189195535.75178719 0 0 0 0 13213666.006511897 2825080.8053204939 0 2825080.8053204939 -2179833.2785273935 0 0 0 0 -34362601.118621826 182010116.22685111 0 182010116.22685111 -202464933.45471215 0 0 0 0 115920187.77902222 -112269589.63681793 0 -112269589.63681793 188538831.83460617 0 0 0 0 -180829321.72399902 49286416.706635952 0 49286416.706635952 63705802.245301247 0 0 0 0 -129967333.27825165 212755140.73920143 0 212755140.73920143 155052102.97938153 0 0 0 0 35262984.547859192 -319843382.01708096 0 -319843382.01708096 348821064.46198821 0 0 0 0 1203429955.5918655 -736149277.05161595 0 -736149277.05161595 214211296.54949844 0 0 0 0 2400157548.9096069 -375368812.55596828 0 -375368812.55596828 -230776567.03595206 0 0 0 0 2053765885.31633 172164922.39957285 0 172164922.39957285 -210940073.71626282 0 0 0 0 1259623724.5659943 -411929366.42476273 0 -411929366.42476273 -231409907.03607565 0 0 0 0 1042628666.8349075 -74293234.307804227 0 -74293234.307804227 20790913.447975159 0 0 0 0 551525792.67918396 -175913048.79771042 0 -175913048.79771042 101514866.89376402 0 0 0 0 1062096714.602066 -37178068.377510071 0 -37178068.377510071 -88085141.212001801 0 0 0 0 479836322.31861496 -72099938.607641459 0 -72099938.607641459 42119180.457397461 0 0 0 0 1061130576.3478594 90186896.997927129 0 90186896.997927129 -51106170.241693497 0 0 0 0 1572813448.8999939 -43716538.279092789 0 -43716538.279092789 -208197603.63724327 0 0 0 0 1051955350.3117676 133877012.26798248 0 133877012.26798248 -133689136.18043041 0 0 0 0 1272575242.241684 65619119.58390522 0 65619119.58390522 -169636265.24015427 0 0 0 0 1093043217.2402458 31489247.620584488 0 31489247.620584488 -98352743.718574524 0 0 0 0 549861719.10298157 121548292.63404846 0 121548292.63404846 -11948122.332155228 0 0 0 0 183934007.24937439 132296057.73427486 0 132296057.73427486 85554176.123594284 0 0 0 0 411571569.27764893 76574015.708370209 0 76574015.708370209 54979899.626693726 0 0 0 0 19147135.487213135 -111629517.60048294 0 -111629517.60048294 80827671.865472794 0 0 0 0 -111340009.75741577 40379485.816286087 0 40379485.816286087 44275643.606015205 0 0 0 0 -72134460.364967346 107654172.66214323 0 107654172.66214323 122137298.97754097 0 0 0 0 -151255127.38861084 103477785.03289032 0 103477785.03289032 4336088.5499629974 0 0 0 0 -166804678.51217651 -65464545.99553299 0 -65464545.99553299 -14471438.916035652 0 0 0 0 -150590836.8326416 -11050069.795353889 0 -11050069.795353889 90814607.376747131 0 0 0 0 -137263409.80196381 -84765786.413238525 0 -84765786.413238525 -65303534.576688766 0 0 0 0 -104529560.97550964 -148229726.35774994 0 -148229726.35774994 40557224.448116779 0 0 0 0 -116298419.81173706 15788687.452222824 0 15788687.452222824 147717616.48273039 0 0 0 0 -83309127.320157528 136690319.98657244 0 136690319.98657244 162751189.90998077 0 0 0 0 -81688021.330154419 159768872.68605614 0 159768872.68605614 2868669.0697422028 0 0 0 0 -99634548.468688965 15897590.840346336 0 15897590.840346336 112766642.52079773 0 0 0 0 -114662288.85165024 9893062.7056126595 0 9893062.7056126595 234985170.23217773 0 0 0 0 -459709.62055940926 -536630.01970034558 0 -536630.01970034558 653532.83829221583 0 0 0 0 404221514.41467285 190943293.59039688 0 190943293.59039688 212631603.14270902 0 0 0 0 831911291.3163147 29707910.47549057 0 29707910.47549057 -630029547.98342991 0 0 0 0 1196595922.4993439 62185622.47214222 0 62185622.47214222 -81686418.975915909 0 0 0 0 497241839.27623749 249773132.64868259 0 249773132.64868259 27692155.467425346 0 0 0 0 345759.56368590146 -444877.39654365368 0 -444877.39654365368 477253.79939598346 0 0 0 0 1011243621.8732529 220176776.14021969 0 220176776.14021969 -77922227.080221176 0 0 0 0 539174681.13804626 -137195521.2364645 0 -137195521.2364645 -220286114.02883625 0 0 0 0 1090636503.4635315 55872435.14356041 0 55872435.14356041 -28292801.092294216 0 0 0 0 1223114930.6819305 -27146016.812253952 0 -27146016.812253952 -6125422.8755507469 0 0 0 0 1011279149.3541412 103706977.40534353 0 103706977.40534353 -39905698.99704361 0 0 0 0 -61959674.158191681 34440912.831451654 0 34440912.831451654 16298750.407279968 0 0 0 0 1653867106.124836 44768998.049280286 0 44768998.049280286 -196993871.81938934 0 0 0 0 1263086.8693243186 5113376.2439282797 0 5113376.2439282797 10889136.770161442 0 0 0 0 1304954036.2903595 291850730.71314812 0 291850730.71314812 -93910727.246541977 0 0 0 0 -7378837.6578941345 26682521.845949173 0 26682521.845949173 -3630533.0641937256 0 0 0 0 -17524577.203125 43482847.679096222 0 43482847.679096222 -5134265.8625431061 0 0 0 0 2131883.4085845947 36739013.568958282 0 36739013.568958282 -4768597.2704772949 0 0 0 0 -25942369.136611938 8229445.4482727051 0 8229445.4482727051 10434334.654121399 0 0 0 0 3067368.280960083 20724151.678070068 0 20724151.678070068 6714612.0115890503 0 0 0 0 3783827.2666473389 14694764.651865005 0 14694764.651865005 30214957.441215515 0 0 0 0 -3282572.5258560181 29015046.150634766 0 29015046.150634766 25652365.266578674 0 0 0 0 563920822.88262939 -451076960.41274214 0 -451076960.41274214 70119400.944510818 0 0 0 0 9620918.4759437069 4431098.9889756776 0 4431098.9889756776 -7891161.4686131813 0 0 0 0 -4488911.5143508911 28110566.272795677 0 28110566.272795677 34713202.013168335 0 0 0 0 870285294.05192947 290220358.77855921 0 290220358.77855921 142981475.42711449 0 0 0 0 861637.08394268621 9050494.5152089559 0 9050494.5152089559 17072037.596777283 0 0 0 0 1209235242.8178711 230493806.66466522 0 230493806.66466522 16596878.559399605 0 0 0 0 1333972693.4964447 281208223.15758896 0 281208223.15758896 -85321475.170929909 0 0 0 0 1392288212.3341675 395243411.94431305 0 395243411.94431305 94366041.204517365 0 0 0 0 1158994596.0444107 530344326.53022456 0 530344326.53022456 327327282.23312759 0 0 0 0 -710257239.99059296 688861682.8360647 0 688861682.8360647 373232581.85341048 0 0 0 0 932646.12921771128 1476779.915664278 0 1476779.915664278 -263153.16008338705 0 0 0 0 -60791005.611572266 -187518773.53326893 0 -187518773.53326893 -512396466.52681541 0 0 0 0 646200347.72402954 69315502.944312155 0 69315502.944312155 -821057675.80022335 0 0 0 0 2006880113.1695099 533868477.76318932 0 533868477.76318932 -68471210.828779221 0 0 0 0 1561799.6574625745 1593050.2837356981 0 1593050.2837356981 2365217.3023618115 0 0 0 0 1573730065.1183624 792610449.69406796 0 792610449.69406796 288444331.96334743 0 0 0 0 2981253502.5815277 494405797.26154983 0 494405797.26154983 -752196738.66334856 0 0 0 0 381050.41457852349 -166310.65074869618 0 -166310.65074869618 1745463.3771186357 0 0 0 0 260147903.95396423 -200837512.67728829 0 -200837512.67728829 102404529.12721825 0 0 0 0 -741380615.11523438 368957420.3761301 0 368957420.3761301 91401003.646019101 0 0 0 0 286393624.8676672 -56685099.236084908 0 -56685099.236084908 25123579.306169987 0 0 0 0 -778306440.14355469 473889901.26200533 0 473889901.26200533 3764906.3161632121 0 0 0 0 -45863380.837142944 -7138764.3368182182 0 -7138764.3368182182 102366550.24169588 0 0 0 0 2315963.5141906738 -215592902.23603177 0 -215592902.23603177 392330908.03652334 0 0 0 0 121892531.28010559 -116925781.18556714 0 -116925781.18556714 93510874.94921267 0 0 0 0 26829563.18737793 -74669158.918661594 0 -74669158.918661594 155119346.63524103 0 0 0 0 11392781.711551666 -18205475.545905948 0 -18205475.545905948 49749043.51828289 0 0 0 0 42399529.41178894 -88105408.924724579 0 -88105408.924724579 104066311.23281431 0 0 0 0 36062914.835571289 -45832071.448126316 0 -45832071.448126316 3084901.1421105936 0 0 0 0 -25365815.705505371 49192038.128629088 0 49192038.128629088 4877220.6584415436 0 0 0 0 6243373.3440551758 -2861600.9905457497 0 -2861600.9905457497 83412967.577158451 0 0 0 0 -27549136.251876831 58960837.556816101 0 58960837.556816101 42835832.509818792 0 0 0 0 -21381444.604076385 51580904.937555313 0 51580904.937555313 -15452545.505526543 0 0 0 0 -100083537.02987671 210081718.13982105 0 210081718.13982105 -35119575.56112051 0 0 0 0 -12704609.423980713 23002252.645445943 0 23002252.645445943 129705083.35070419 0 0 0 0 -194165694.40567017 39913778.096457958 0 39913778.096457958 307857662.02050447 0 0 0 0 37720977.403049469 31493488.417657852 0 31493488.417657852 3734028.3054161072 0 0 0 0 29934869.139583588 42761088.539064407 0 42761088.539064407 7391978.1757507324 0 0 0 0 14997873.202379182 3058176.8807767797 0 3058176.8807767797 -9253893.6287378501 0 0 0 0 7351122.2788543701 45063176.671123505 0 45063176.671123505 -12702644.778910637 0 0 0 0 34264217.097480774 36844807.968013763 0 36844807.968013763 -14336110.870796204 0 0 0 0 38605447.295387268 26485703.220928192 0 26485703.220928192 4702346.9323654175 0 0 0 0 6248840.0514221191 29158915.235599518 0 29158915.235599518 6248018.5879974365 0 0 0 0 36399264.409622192 20345678.589706421 0 20345678.589706421 -11416627.425060272 0 0 0 0 49875920.147001266 -2399428.2594985962 0 -2399428.2594985962 -14913438.613166809 0 0 0 0 30125846.733133316 15073730.969616711 0 15073730.969616711 -350622.47152233124 0 0 0 0 24451718.020118713 42547579.008821011 0 42547579.008821011 -116305841.55984378 0 0 0 0 29189069.505363464 22211968.541461468 0 22211968.541461468 12578963.645619154 0 0 0 0 44612934.488708496 28768367.275460958 0 28768367.275460958 -4769006.4992456436 0 0 0 0 9560156.8656985164 7941584.2969056591 0 7941584.2969056591 3611736.0106624113 0 0 0 0 17839065.763031684 1325119.5947108753 0 1325119.5947108753 -7983578.4395131655 0 0 0 0 13864738.044532776 23114150.76074791 0 23114150.76074791 12384229.114670753 0 0 0 0 14528195.306943934 16631998.226964049 0 16631998.226964049 9586284.5542446338 0 0 0 0 10558963.479957581 31370147.92583847 0 31370147.92583847 13718515.070522308 0 0 0 0 7251625.5364532471 16771770.177879333 0 16771770.177879333 10620216.808292389 0 0 0 0 13453150.027450562 24021083.954661846 0 24021083.954661846 14839907.375717163 0 0 0 0 6215331.8593392372 19482879.947593153 0 19482879.947593153 18932275.677451134 0 0 0 0 8664251.5736141205 35986795.480274558 0 35986795.480274558 9292538.6023378372 0 0 0 0 19165168.853610232 19757484.265268322 0 19757484.265268322 8061994.2107543405 0 0 0 0 -3306088.23960495 12910697.950673342 0 12910697.950673342 -2160043.4622583389 0 0 0 0 51876881.585235596 29521508.150472879 0 29521508.150472879 22297481.213914871 0 0 0 0 49684698.373268127 7961177.3725657463 0 7961177.3725657463 16621664.664433479 0 0 0 0 751097.82582473755 23924193.587337136 0 23924193.587337136 24590105.750199318 0 0 0 0 4115615.6676464882 3022527.0365637951 0 3022527.0365637951 1813379.517497042 0 0 0 0 -39475442.283615112 45241607.844929218 0 45241607.844929218 23834372.857872963 0 0 0 0 68787297.321296692 10966367.932118416 0 10966367.932118416 7822307.7258634567 0 0 0 0 100840890.8825531 71541658.762467265 0 71541658.762467265 -1747403.92222929 0 0 0 0 180580513.5272522 27741869.300958633 0 27741869.300958633 3371092.3609085083 0 0 0 0 42945071.180297852 44822698.675095558 0 44822698.675095558 27594296.792298317 0 0 0 0 2569481.3688039258 1664899.3034852706 0 1664899.3034852706 437780.11884820391 0 0 0 0 43077993.011627197 45772038.800188065 0 45772038.800188065 11800707.58782053 0 0 0 0 2330197.7392972261 2349300.593035914 0 2349300.593035914 -155192.9381994633 0 0 0 0 67810633.5259552 -15197551.631493092 0 -15197551.631493092 58855710.898635864 0 0 0 0 27593225.694526672 40459671.449267626 0 40459671.449267626 17914608.403558731 0 0 0 0 5751313.2214617431 4407981.1777079366 0 4407981.1777079366 458200.57836208609 0 0 0 0 28763141.13117981 32175925.656928062 0 32175925.656928062 -49870469.199301124 0 0 0 0 7621208.3212308884 -115181748.09082276 0 -115181748.09082276 -72411398.571676254 0 0 0 0 -1734031.380859375 34620866.024181604 0 34620866.024181604 17717228.658464193 0 0 0 0 8328202.3372497559 42244575.857317924 0 42244575.857317924 19051404.213314652 0 0 0 0 31000143.306003571 55738491.998871475 0 55738491.998871475 -19419641.272974491 0 0 0 0 88691988.494400024 135902108.86818683 0 135902108.86818683 15111617.475303531 0 0 0 0 183904734.78999329 32742936.467438698 0 32742936.467438698 -9530434.1698970795 0 0 0 0 395506901.44934082 -42326036.957338095 0 -42326036.957338095 -125050480.78203356 0 0 0 0 1058908.9562565982 1323494.6029392183 0 1323494.6029392183 608373.604697929 0 0 0 0 184934151.58314323 34061780.10293743 0 34061780.10293743 -34829949.56826067 0 0 0 0 49764837.220214844 78735094.950846553 0 78735094.950846553 -4134446.8793188334 0 0 0 0 5856539.6186199188 -137121945.55801925 0 -137121945.55801925 131821126.43736124 0 0 0 0 153923786.1335907 1673595.9871541858 0 1673595.9871541858 29535443.294165194 0 0 0 0 207789914.53690529 157092677.75978974 0 157092677.75978974 -67164605.751819819 0 0 0 0 -1742834.3523483276 -17986399.840180993 0 -17986399.840180993 77452833.199271619 0 0 0 0 369981.40236711502 303057.02240660414 0 303057.02240660414 55615.823381110444 0 0 0 0 -23685058.299026489 49833387.804453135 0 49833387.804453135 101105705.02342343 0 0 0 0 357215415.30259705 88393011.472347215 0 88393011.472347215 -127794995.77558878 0 0 0 0 380906328.43494415 -60005371.284981832 0 -60005371.284981832 -180472.48190065811 0 0 0 0 27210914.663574219 -134406003.08787495 0 -134406003.08787495 157284921.02537322 0 0 0 0 162828388.60056305 104620007.05728137 0 104620007.05728137 -30478116.855950251 0 0 0 0 406774169.90188599 -55606086.433589108 0 -55606086.433589108 -55855000.547230914 0 0 0 0 791690.46137211472 -32591.088703876361 0 -32591.088703876361 -105062.44861551462 0 0 0 0 190429831.38780212 -223443121.94650432 0 -223443121.94650432 226329298.79491436 0 0 0 0 78783539.724182129 -60767944.335993826 0 -60767944.335993826 55223929.779647112 0 0 0 0 77091016.55581665 -89196619.952877939 0 -89196619.952877939 71182937.862251759 0 0 0 0 78630408.619735718 -61865337.635344148 0 -61865337.635344148 52255735.864327669 0 0 0 0 2040061.5447192937 109822.45303232223 0 109822.45303232223 -211956.18031434383 0 0 0 0 15979234.769031525 -41660498.797056265 0 -41660498.797056265 133387.46916882397 0 0 0 0 -16562210.443611145 -15375596.086891932 0 -15375596.086891932 -12570736.217036948 0 0 0 0 2121491.8412223961 -9119.0411779284477 0 -9119.0411779284477 -117202.29556946695 0 0 0 0 -11235782.045558929 8855263.8428282514 0 8855263.8428282514 -690123.10499659181 0 0 0 0 3450283.2973286286 -387287.15051571652 0 -387287.15051571652 -85536.296918007196 0 0 0 0 1700608.1383113861 -4330957.2930217627 0 -4330957.2930217627 -5537410.552841872 0 0 0 0 102937243.45071411 -59993504.786203861 0 -59993504.786203861 17932372.409864187 0 0 0 0 1239650.2790506678 576766.30244159698 0 576766.30244159698 2573.0422679139301 0 0 0 0 44255091.862371445 -44086928.585410967 0 -44086928.585410967 52566398.034546614 0 0 0 0 119427538.82351685 -81567654.575370073 0 -81567654.575370073 44525654.553715348 0 0 0 0 114443438.98735046 -113811044.72298515 0 -113811044.72298515 71908246.373217911 0 0 0 0 96911247.614608765 -75116890.435792923 0 -75116890.435792923 54247374.2063694 0 0 0 0 44404721.250335693 -56906120.356297731 0 -56906120.356297731 72962812.84051013 0 0 0 0 21482849.977016449 -81073017.312261999 0 -81073017.312261999 72054667.460285664 0 0 0 0 1063186.7788164839 1068194.4824688807 0 1068194.4824688807 671443.68159220577 0 0 0 0 182069563.64875031 29892498.15607965 0 29892498.15607965 -14963091.528514862 0 0 0 0 67825024.877998352 -82811747.49787128 0 -82811747.49787128 88097739.612901688 0 0 0 0 122313648.06074977 -101712822.95789881 0 -101712822.95789881 36901470.411453247 0 0 0 0 -18651625.693759918 -8184038.6220374107 0 -8184038.6220374107 3535891.6634793282 0 0 0 0 434556.2855183091 296924.70212671533 0 296924.70212671533 -23208.539261605125 0 0 0 0 206895182.59805298 -113130737.21818185 0 -113130737.21818185 39334528.446986198 0 0 0 0 86479538.941646576 -118175684.33873123 0 -118175684.33873123 98632713.175255537 0 0 0 0 104802463.32180023 -93466487.706370831 0 -93466487.706370831 59777106.274925947 0 0 0 0 54456787.832077026 40170936.102117896 0 40170936.102117896 -12583769.64932704 0 0 0 0 -6709590.0140762329 1760354.4547764659 0 1760354.4547764659 6856494.1188545227 0 0 0 0 -758027313.52271271 -285925331.04452741 0 -285925331.04452741 512236564.68131709 0 0 0 0 441495792.62485504 1410890995.2164834 0 1410890995.2164834 422988298.47196078 0 0 0 0 2067528193.4337311 -1155508962.5124831 0 -1155508962.5124831 355544195.37029362 0 0 0 0 2334147.9666184299 -469209.46248663217 0 -469209.46248663217 1349242.8358420827 0 0 0 0 4268374.3939302042 -168083.08273539878 0 -168083.08273539878 -95626.229690076754 0 0 0 0 9322129.8685150146 9605160.0644662231 0 9605160.0644662231 -5719075.2794132233 0 0 0 0 12011553.113418579 -9720313.8169027418 0 -9720313.8169027418 -2871739.6157672852 0 0 0 0 6021339.6881408691 7080898.1260770485 0 7080898.1260770485 -10083357.101556128 0 0 0 0 3971959.2010726929 2687685.3642834425 0 2687685.3642834425 -10971360.408939943 0 0 0 0 25047986.515434265 6572696.712886259 0 6572696.712886259 -11673975.469577253 0 0 0 0 4983266.9707794189 16211673.614916433 0 16211673.614916433 17884.892646920503 0 0 0 0 -6058444.9677200317 -17710884.695520613 0 -17710884.695520613 2140817.7723082276 0 0 0 0 21209931.31138134 -9718769.6983174086 0 -9718769.6983174086 -9973703.1738349795 0 0 0 0 1993292.2965694033 -217388.95063883066 0 -217388.95063883066 91610.475233923644 0 0 0 0 1916138.1176300049 -8183031.9364896342 0 -8183031.9364896342 -10095440.35966368 0 0 0 0 9361890.4743804932 -717799.99811170623 0 -717799.99811170623 -10684440.394429851 0 0 0 0 433206909.53951263 -266707687.49237832 0 -266707687.49237832 143550972.36953217 0 0 0 0 909812624.2695694 292180246.94006944 0 292180246.94006944 -112313653.31714706 0 0 0 0 830065446.23612976 220484106.68187803 0 220484106.68187803 -166952800.99468547 0 0 0 0 1055563342.311203 281150452.61984062 0 281150452.61984062 -153275441.74883488 0 0 0 0 712736.20075676963 -113373.9271944575 0 -113373.9271944575 81904.591761048054 0 0 0 0 1006110920.7258263 201119631.8251057 0 201119631.8251057 -108843945.15940437 0 0 0 0 657856939.3802948 124899075.54123884 0 124899075.54123884 -6897889.5913251154 0 0 0 0 803280030.87483215 157627904.66988358 0 157627904.66988358 -111769166.46118724 0 0 0 0 691657680.48072815 344548841.2639572 0 344548841.2639572 -1655053.0752925798 0 0 0 0 408748251.98722839 111374089.27709103 0 111374089.27709103 -83671658.232438087 0 0 0 0 636722882.01430511 693419459.936409 0 693419459.936409 956439368.14051628 0 0 0 0 965424502.95960999 -360536205.83940798 0 -360536205.83940798 130375005.1298767 0 0 0 0 2137231.3200350627 440996.63115850184 0 440996.63115850184 178760.72089451225 0 0 0 0 1545283081.6871948 141157964.80204681 0 141157964.80204681 -166101939.38399541 0 0 0 0 1154557183.8881607 943921364.42147171 0 943921364.42147171 40348953.121777013 0 0 0 0 917047248.65635681 950144718.78570819 0 950144718.78570819 64602300.550533175 0 0 0 0 5231934.3374928236 697834.79402653128 0 697834.79402653128 -722930.09765142389 0 0 0 0 837927369.22948456 1192619117.0928323 0 1192619117.0928323 588978896.34848666 0 0 0 0 327745730.41303253 -209562701.15762448 0 -209562701.15762448 63245322.435152054 0 0 0 0 234422843.54208374 -21906044.086718202 0 -21906044.086718202 -294056663.40472984 0 0 0 0 11194291.573181152 -4685923.6971912384 0 -4685923.6971912384 -6795413.5384738445 0 0 0 0 29112682.127471924 -2903854.4455361366 0 -2903854.4455361366 -6758032.6957671642 0 0 0 0 2551541.6310272217 -2997207.4400486946 0 -2997207.4400486946 -4847005.4456377029 0 0 0 0 467250.95951843262 17238395.180931211 0 17238395.180931211 -8439479.7351551056 0 0 0 0 14995704.199996948 -9503800.3331862688 0 -9503800.3331862688 -26152350.97661972 0 0 0 0 8526549.7746353149 16316137.214642048 0 16316137.214642048 -27241808.510076404 0 0 0 0 6864356.1274337769 18261940.17996192 0 18261940.17996192 -21197706.675108433 0 0 0 0 13715506.116287231 -5052448.1146979332 0 -5052448.1146979332 -13567802.7993536 0 0 0 0 8916431.4846496582 10110225.912240028 0 10110225.912240028 -1121195.2763066292 0 0 0 0 2680827.4104824066 -1411330.324231673 0 -1411330.324231673 -1733592.6501390943 0 0 0 0 -5060838.2573986053 -6646470.1959684491 0 -6646470.1959684491 98138.187178611755 0 0 0 0 81805301.862045288 13437734.504044771 0 13437734.504044771 -23883168.818256378 0 0 0 0 87357965.790481567 -13251297.379196644 0 -13251297.379196644 -4135248.9303836823 0 0 0 0 -3078266.0015640259 -5666741.5765217543 0 -5666741.5765217543 -3083847.1954421997 0 0 0 0 8007280.431343317 -1762907.2261993401 0 -1762907.2261993401 -3379596.1572377905 0 0 0 0 -21563712.281330109 -19595249.903756261 0 -19595249.903756261 -14787268.374171257 0 0 0 0 -4540128.4097480774 -3666714.5827324688 0 -3666714.5827324688 3505268.0468740463 0 0 0 0 -4386340.8609461114 -2759225.6684307922 0 -2759225.6684307922 1502558.8145234594 0 0 0 0 -6271513.7701263428 -6893756.0914566517 0 -6893756.0914566517 3905984.7921049595 0 0 0 0 -4760523.9335327148 -5890463.091053009 0 -5890463.091053009 -2218716.6511437893 0 0 0 0 -8597931.0549621582 -11627951.478345037 0 -11627951.478345037 -7285552.7545673847 0 0 0 0 -9403648.7213611603 -613464.02028600872 0 -613464.02028600872 -4910447.8790898323 0 0 0 0 1359548.3321013264 207.67097007855773 0 207.67097007855773 -1092678.6084297197 0 0 0 0 11904916.911144257 -4864977.3870911598 0 -4864977.3870911598 -4881737.4431247711 0 0 0 0 49444437.059310913 26834979.717833996 0 26834979.717833996 15731394.710559845 0 0 0 0 184393293.00483704 16118190.690597057 0 16118190.690597057 -39447488.342769861 0 0 0 0 264457.13574790582 79305.173326589167 0 79305.173326589167 -7648.7408161601052 0 0 0 0 4147283.2065736894 126493.43786816671 0 126493.43786816671 -2045012.0985851353 0 0 0 0 -6456925.0172710419 -7731753.2549583912 0 -7731753.2549583912 1284969.3678712845 0 0 0 0 -17849448.956356049 -288611.38856232166 0 -288611.38856232166 9037701.981595993 0 0 0 0 130295576.07282257 18239360.205093861 0 18239360.205093861 -23082742.208159924 0 0 0 0 -545782.66702128015 -579713.3565030694 0 -579713.3565030694 643085.75250680395 0 0 0 0 17269569.9167099 50484977.335824251 0 50484977.335824251 28173361.146200657 0 0 0 0 -31475992.484176636 -5902425.3786695004 0 -5902425.3786695004 -5799102.0218127966 0 0 0 0 13388277.79813385 -41869433.017526045 0 -41869433.017526045 5364770.8248596191 0 0 0 0 2875712.5068638586 -1458907.7362873815 0 -1458907.7362873815 -1928197.308851213 0 0 0 0 -36955107.887939453 9939713.6985430121 0 9939713.6985430121 -8425861.4318313599 0 0 0 0 78824448.849578857 -19323969.448368073 0 -19323969.448368073 -57182387.600631714 0 0 0 0 82912532.199436188 -37864929.281468749 0 -37864929.281468749 10642279.747559547 0 0 0 0 39842075.561296463 55084065.753181815 0 55084065.753181815 55102223.763794899 0 0 0 0 71329249.22129631 71224632.464709818 0 71224632.464709818 40373638.092309952 0 0 0 0 -14350275.704902649 68871859.097297907 0 68871859.097297907 -15749201.156858444 0 0 0 0 30815436.407836914 16600782.812959671 0 16600782.812959671 33482291.401002884 0 0 0 0 87520863.019042969 20752194.966671944 0 20752194.966671944 -8201702.9231648445 0 0 0 0 12236785.463775635 -6287557.4079293013 0 -6287557.4079293013 -9727306.5918159485 0 0 0 0 6190368.3968364671 486266.92688511312 0 486266.92688511312 -2012690.354382141 0 0 0 0 6768753.2855834961 897165.84544610977 0 897165.84544610977 -15705346.180211067 0 0 0 0 -7780134.9343566895 1007458.5821027756 0 1007458.5821027756 -11595587.577680588 0 0 0 0 -10509462.080078125 -7199579.060192585 0 -7199579.060192585 8460899.0298478603 0 0 0 0 1624251.5771245621 -389550.90429156646 0 -389550.90429156646 -1208191.963687038 0 0 0 0 39123580.038650513 -29896590.709572792 0 -29896590.709572792 22035912.767784119 0 0 0 0 -3020719.0697937012 2541106.1701569557 0 2541106.1701569557 -10922805.158855677 0 0 0 0 -35249192.426055908 18197278.21974504 0 18197278.21974504 22995118.992477417 0 0 0 0 10585847.499435425 32200839.073376179 0 32200839.073376179 52522993.87368679 0 0 0 0 9522315.6888656616 3986554.6297633648 0 3986554.6297633648 7459132.4704189301 0 0 0 0 2023594.471206665 -10827021.855659962 0 -10827021.855659962 -12609538.737277985 0 0 0 0 10595014.978927612 -16640773.583931684 0 -16640773.583931684 2551017.8748006821 0 0 0 0 77767133.086715698 24680737.568803787 0 24680737.568803787 11503537.302710891 0 0 0 0 40777082.53768158 21168708.040088415 0 21168708.040088415 4813008.8059215546 0 0 0 0 22050419.628929138 -2593020.9417731762 0 -2593020.9417731762 3169001.1245002747 0 0 0 0 44653003.249221802 -26980027.153079271 0 -26980027.153079271 -3249955.7819919586 0 0 0 0 5772043.4044113159 -13692207.084875584 0 -13692207.084875584 1223090.8171750307 0 0 0 0 9807645.494817514 2289504.1434425265 0 2289504.1434425265 -3291784.2946392968 0 0 0 0 42095845.198307037 45935733.718945026 0 45935733.718945026 44826231.744912148 0 0 0 0 -753389.12778238952 -1019169.5093092602 0 -1019169.5093092602 9933.0496335807256 0 0 0 0 -5433891.1214294434 -4040155.0818097591 0 -4040155.0818097591 2961411.4373221397 0 0 0 0 12312273.572825432 11637815.411891758 0 11637815.411891758 5615984.2751426697 0 0 0 0 14245108.322230764 649480.98772679083 0 649480.98772679083 -11135302.788252745 0 0 0 0 55834660.621269226 34073999.588020325 0 34073999.588020325 -7325306.6059617996 0 0 0 0 18923313.846862793 -5085749.1941890717 0 -5085749.1941890717 2024994.2897219658 0 0 0 0 4576781.5165435821 3038170.9098734763 0 3038170.9098734763 -2041155.092663723 0 0 0 0 10381441.722900391 9699573.2544059753 0 9699573.2544059753 -913794.18249177933 0 0 0 0 7916178.6469497681 20074128.950126648 0 20074128.950126648 -6792141.2051877975 0 0 0 0 31830961.345428467 36696857.111627579 0 36696857.111627579 -536626.32079219818 0 0 0 0 36690054.864334106 13221421.414246559 0 13221421.414246559 9213390.9400320053 0 0 0 0 23927643.220245361 23617706.911824226 0 23617706.911824226 39028225.979765654 0 0 0 0 37067315.119827271 29473855.148509979 0 29473855.148509979 36337582.5012393 0 0 0 0 1678673.3418273926 5774956.6138334274 0 5774956.6138334274 38849890.660354614 0 0 0 0 380877.36306676455 369431.31093748659 0 369431.31093748659 -97009.002318489365 0 0 0 0 27845236.795398712 25102274.273223877 0 25102274.273223877 10208703.096195221 0 0 0 0 28693640.336219788 40261950.143234253 0 40261950.143234253 3139183.2161192894 0 0 0 0 52016292.385810852 23057141.325180054 0 23057141.325180054 13674377.686275482 0 0 0 0 11391240.330802917 14895117.404824972 0 14895117.404824972 14867548.78977108 0 0 0 0 19389524.245240569 19261206.839224353 0 19261206.839224353 -9710182.7743787766 0 0 0 0 1512684.5901945308 822293.85391775146 0 822293.85391775146 178284.00051739812 0 0 0 0 39881809.901660919 26132639.654203415 0 26132639.654203415 8374832.7270088196 0 0 0 0 18335310.473884664 5222084.9656909965 0 5222084.9656909965 -8024431.4865787011 0 0 0 0 36751728.940761566 39368878.050046921 0 39368878.050046921 12957996.596089959 0 0 0 0 14891305.400512695 9879093.8774166107 0 9879093.8774166107 7330106.9480667114 0 0 0 0 7069768.9338226318 2108438.0095529556 0 2108438.0095529556 -6634257.7470741272 0 0 0 0 4441407.502651643 9878507.2459136918 0 9878507.2459136918 3504038.5076604788 0 0 0 0 12279425.938147649 1534012.0722460244 0 1534012.0722460244 -5788218.9587456603 0 0 0 0 19534665.137207031 -144617.78395843506 0 -144617.78395843506 -71482.169105529785 0 0 0 0 18422268.114696275 1264038.3467833027 0 1264038.3467833027 -8819136.3552642576 0 0 0 0 9230068.6096053794 6091216.5705537982 0 6091216.5705537982 -4498022.1800575163 0 0 0 0 -154202918.97886658 17597215.981337547 0 17597215.981337547 -9735574.7972707748 0 0 0 0 3681406.5404270291 4827826.5407241955 0 4827826.5407241955 -2771296.1074269386 0 0 0 0 37573682.944763184 113948051.48403764 0 113948051.48403764 -15156390.804383621 0 0 0 0 128177783.5484314 -57715822.569144249 0 -57715822.569144249 -40200616.023049355 0 0 0 0 -8591368.4857635498 6575322.2259392738 0 6575322.2259392738 24046365.488441944 0 0 0 0 -37860731.887695312 21634467.054197788 0 21634467.054197788 21774664.030753136 0 0 0 0 8374679.8176269531 24909205.243551731 0 24909205.243551731 -6753211.380839929 0 0 0 0 39147801.877170444 -69648690.489612982 0 -69648690.489612982 -2972377.6052765846 0 0 0 0 1044081.3608692624 -99776.112705623731 0 -99776.112705623731 -264851.09838482784 0 0 0 0 18924392.827865601 5454750.6171387434 0 5454750.6171387434 -14592000.022368193 0 0 0 0 11172870.483399946 6509571.5293138474 0 6509571.5293138474 -2524905.5188300805 0 0 0 0 19618976.087677002 3689521.8005162477 0 3689521.8005162477 -41217769.659121275 0 0 0 0 12710160.2265625 23298608.288915396 0 23298608.288915396 -17040174.807651877 0 0 0 0 19052129.797584534 30423128.846153975 0 30423128.846153975 -10137145.015142441 0 0 0 0 14341808.001235962 21679082.315318584 0 21679082.315318584 -9818266.4440948963 0 0 0 0 22731811.381408691 18418515.739474535 0 18418515.739474535 -35232299.82635498 0 0 0 0 28752102.528778076 7337309.3798952103 0 7337309.3798952103 -4986964.6956291199 0 0 0 0 20572463.132987976 30299989.736512423 0 30299989.736512423 2321668.0536899567 0 0 0 0 24899508.036132812 26921022.429148197 0 26921022.429148197 -10944532.213049889 0 0 0 0 -1351371.4954452515 21720047.851615906 0 21720047.851615906 926535.63063037395 0 0 0 0 3753532.1231460571 31285489.011252403 0 31285489.011252403 4169493.3036336899 0 0 0 0 6571644.3503875732 36242867.144224167 0 36242867.144224167 2793736.8800883293 0 0 0 0 -15831769.988998413 46734815.705861092 0 46734815.705861092 -2648221.66971457 0 0 0 0 9813487.1728973389 15206877.453526258 0 15206877.453526258 -18927831.101119995 0 0 0 0 1620156.0626431778 420252.72280442342 0 420252.72280442342 -127319.21302829916 0 0 0 0 9819478.5805664062 1364817.5685548782 0 1364817.5685548782 -10309101.200160265 0 0 0 0 8346017.0309524536 -5043089.2626547813 0 -5043089.2626547813 -30949552.069622517 0 0 0 0 5791119.0139522292 1928098.3216065131 0 1928098.3216065131 633669.47998246574 0 0 0 0 12376585.791992188 1789397.0890312195 0 1789397.0890312195 -3972853.3147873133 0 0 0 0 3951364.532040704 -407790.27084256336 0 -407790.27084256336 -1376337.7290228219 0 0 0 0 27526716.390647888 -10956819.475365162 0 -10956819.475365162 -3577125.372030735 0 0 0 0 -6774587.8173570633 11754862.476026256 0 11754862.476026256 -1182852.6041822433 0 0 0 0 7574501.8550870158 5345067.1520943586 0 5345067.1520943586 -46944.362449388951 0 0 0 0 -4017006.3270263672 5328557.7044101954 0 5328557.7044101954 3021471.7321968079 0 0 0 0 4084705.9541320801 1392561.7537549138 0 1392561.7537549138 -1492746.6648128033 0 0 0 0 3316146.3212432861 561876.10527056456 0 561876.10527056456 -1259653.964432478 0 0 0 0 3951590.2056823149 182226.40277014673 0 182226.40277014673 -701791.74013442092 0 0 0 0 7592119.5620827265 947019.21665656939 0 947019.21665656939 615063.24655039911 0 0 0 0 7564181.9858779907 34357952.538292885 0 34357952.538292885 -10681763.078779697 0 0 0 0 5388444.3505935669 30564812.437183082 0 30564812.437183082 7498872.7640724182 0 0 0 0 8682288.5886422396 5758807.2290449142 0 5758807.2290449142 -432742.97034946061 0 0 0 0 2334330.3401565552 23007228.091421843 0 23007228.091421843 -7494014.1864767075 0 0 0 0 2329960.3006973267 23077674.286093712 0 23077674.286093712 -5097915.9625403881 0 0 0 0 -4075995.179977417 12163959.235994935 0 12163959.235994935 -2170459.5022173524 0 0 0 0 -6806783.1290261745 10567773.222968901 0 10567773.222968901 8652041.6352581978 0 0 0 0 -4966779.6659851074 4944945.3527765274 0 4944945.3527765274 3152553.7858335972 0 0 0 0 -2835344.0580596924 1576437.5701109171 0 1576437.5701109171 17361664.530636474 0 0 0 0 -3419918.2583427429 15647017.943733186 0 15647017.943733186 15720366.454612732 0 0 0 0 5431813.1531066895 -8110019.5702618361 0 -8110019.5702618361 26466092.787376583 0 0 0 0 -3144775.7775268555 17818277.997739553 0 17818277.997739553 8815807.1718364358 0 0 0 0 -3519190.4675369263 26086807.303969741 0 26086807.303969741 45468764.78184104 0 0 0 0 881084.76123046875 1843531.0395092964 0 1843531.0395092964 2981370.6580482721 0 0 0 0 2001269.914276123 1207772.9514980316 0 1207772.9514980316 3198548.271907568 0 0 0 0 -175850.9379119873 303397.1692097187 0 303397.1692097187 1613918.5914322138 0 0 0 0 -4225512.9627685547 5996836.5800600052 0 5996836.5800600052 3376252.8340234756 0 0 0 0 -8412013.0319213867 5704281.0612943172 0 5704281.0612943172 3704827.8125712872 0 0 0 0 -3767903.484588623 3413545.9926850796 0 3413545.9926850796 5444308.4019217491 0 0 0 0 -4795348.6653289795 6518694.1106776595 0 6518694.1106776595 -68489.613693237305 0 0 0 0 -663815.89868164062 2210336.3937210143 0 2210336.3937210143 -417545.75024414062 0 0 0 0 -4018314.6420593262 4120004.3846337795 0 4120004.3846337795 -350225.58822154999 0 0 0 0 60840.178726196289 546036.29584419727 0 546036.29584419727 1978913.4653118849 0 0 0 0 406174.79265594482 1911906.9921304137 0 1911906.9921304137 572593.22056150436 0 0 0 0 30645.229598999023 843458.65081804991 0 843458.65081804991 -888604.25015544891 0 0 0 0 108199904.73257446 -201438540.65129513 0 -201438540.65129513 378005820.93230724 0 0 0 0 248503.49511294812 134022.46676805103 0 134022.46676805103 -399413.55655520118 0 0 0 0 6576166.8406470679 3679359.3282714151 0 3679359.3282714151 2002583.4749287097 0 0 0 0 -72212439.425304413 108666295.6216183 0 108666295.6216183 -4812432.6174427699 0 0 0 0 400434.4178275317 566118.76547304541 0 566118.76547304541 208111.59454527011 0 0 0 0 4090093.7218475342 2174693.3353712559 0 2174693.3353712559 -228530.19770476222 0 0 0 0 3232338.9385676607 2100763.0153986267 0 2100763.0153986267 -753173.2399055718 0 0 0 0 5696581.31300354 1635723.0489969254 0 1635723.0489969254 -996980.09797728062 0 0 0 0 4096677.6191253662 2692063.5625106096 0 2692063.5625106096 -1627985.33852458 0 0 0 0 518468.41170991585 15413.597917575389 0 15413.597917575389 -362461.64150230656 0 0 0 0 4807404.2594054639 4648037.0522294492 0 4648037.0522294492 205717.97987947206 0 0 0 0 3429048.840133667 1502622.0134322047 0 1502622.0134322047 -1814155.7951658964 0 0 0 0 -6996617.9571304321 1320898.0251845121 0 1320898.0251845121 1601763.5415315628 0 0 0 0 166369.09704937041 739885.56844991585 0 739885.56844991585 -86356.174548574854 0 0 0 0 3774323.8363342285 1894100.37037462 0 1894100.37037462 337113.37898658961 0 0 0 0 1004714.4835281372 858206.83808306954 0 858206.83808306954 357.52025726206398 0 0 0 0 2414353.4893328995 1126374.9978319036 0 1126374.9978319036 -175033.87598043543 0 0 0 0 1509866.4530029297 419863.77117287758 0 419863.77117287758 -69687.321325630881 0 0 0 0 4185810.7516784668 2223526.5595284402 0 2223526.5595284402 -206825.72456717491 0 0 0 0 4968045.5601787679 3491788.1204389073 0 3491788.1204389073 893517.88642536663 0 0 0 0 1541309.3896102905 373792.29866268369 0 373792.29866268369 -3558.7011126645552 0 0 0 0 2927256.6858082712 183329.31985702389 0 183329.31985702389 -436869.67587899452 0 0 0 0 4803279.9250335693 567840.06668096781 0 567840.06668096781 -968452.66358208656 0 0 0 0 3748640.5738129616 1096804.8603879716 0 1096804.8603879716 -1145848.2351908684 0 0 0 0 1804597.029876709 -816795.43477559078 0 -816795.43477559078 -366436.76981068734 0 0 0 0 4724252.6537322998 429346.37959212065 0 429346.37959212065 -2320797.8396762609 0 0 0 0 5280891.4055930227 2136226.9159420766 0 2136226.9159420766 -510504.04238612612 0 0 0 0 130008525.68682861 -324460248.00271082 0 -324460248.00271082 -491403.09471648512 0 0 0 0 4836193.9430541992 -94362.255536615849 0 -94362.255536615849 -1911687.8328605294 0 0 0 0 9033265.8766803741 32035917.531739257 0 32035917.531739257 -17200882.132235885 0 0 0 0 7387823.5524749756 3063338.9884416759 0 3063338.9884416759 5368392.1704703569 0 0 0 0 1808295.8977871761 992040.42238685489 0 992040.42238685489 -251731.89745289812 0 0 0 0 2818086.1196136475 -464026.06212727947 0 -464026.06212727947 -4684.5289756335842 0 0 0 0 5860161.5842164308 1081461.9728826843 0 1081461.9728826843 -413746.86317655584 0 0 0 0 5260492.7214039415 -934862.21451992169 0 -934862.21451992169 -1087339.5668688519 0 0 0 0 3277359.4249572754 360137.2469625473 0 360137.2469625473 -2126970.0452381968 0 0 0 0 7067757.5528328493 -2663843.7089285906 0 -2663843.7089285906 -2802724.1950583775 0 0 0 0 2270554.4656982422 -1730172.3610988855 0 -1730172.3610988855 -4071686.2707927823 0 0 0 0 167556959.97420502 -41694610.120391846 0 -41694610.120391846 -135462879.70521545 0 0 0 0 7973700.8870921582 -1426311.8077985873 0 -1426311.8077985873 -2820105.429303037 0 0 0 0 3889345.5159872323 1171726.5007455759 0 1171726.5007455759 -278529.2519616998 0 0 0 0 3015547.7251281738 -1028972.0319445431 0 -1028972.0319445431 -2447007.5019916296 0 0 0 0 5452256.3200874329 93273.971164897084 0 93273.971164897084 -3370192.7462408543 0 0 0 0 4932448.0679016113 -167949.26648616791 0 -167949.26648616791 -3126513.032124877 0 0 0 0 3315296.0338495746 249524.53628342086 0 249524.53628342086 -308125.61369088339 0 0 0 0 5574805.7316455841 741649.48734808341 0 741649.48734808341 -2798164.3927913904 0 0 0 0 3767362.7898025513 841713.59844994545 0 841713.59844994545 -2780922.5292423069 0 0 0 0 6113990.8546142578 -7136445.7584872246 0 -7136445.7584872246 7679754.8642817736 0 0 0 0 2113591.8392791748 20891088.225570202 0 20891088.225570202 -26588.929756164551 0 0 0 0 8849552.2492802851 1398945.977145331 0 1398945.977145331 -1324442.0793054383 0 0 0 0 -522253.11556940153 -587785.72254379839 0 -587785.72254379839 30447.965417024679 0 0 0 0 118550309.50668669 184815070.37975535 0 184815070.37975535 -118600826.33348846 0 0 0 0 -20045301.554122925 5559441.797308445 0 5559441.797308445 -8901750.7438545227 0 0 0 0 -28347495.017021179 -32729670.787896872 0 -32729670.787896872 137148679.39060116 0 0 0 0 -68246594.423995972 -21933174.590423584 0 -21933174.590423584 29031803.764505386 0 0 0 0 133474030.43781281 -40006617.567507744 0 -40006617.567507744 -16594213.948821068 0 0 0 0 367985.76901333407 60823.91369080916 0 60823.91369080916 -317186.38117443305 0 0 0 0 25809989.245582581 25810034.307646275 0 25810034.307646275 -56762549.013697147 0 0 0 0 -3290029.476436615 20144105.844672799 0 20144105.844672799 -9072072.8291215897 0 0 0 0 27415344.791000366 -1245358.8953112811 0 -1245358.8953112811 -6329088.2747278214 0 0 0 0 4179348.4340209961 9966861.4800512791 0 9966861.4800512791 360589.1248960495 0 0 0 0 5843650.4030685425 614274.46582841873 0 614274.46582841873 993016.77817344666 0 0 0 0 -7103089.0022125244 -6803545.9799183756 0 -6803545.9799183756 -4677966.5898843557 0 0 0 0 -20158360.180236816 -22714716.519277483 0 -22714716.519277483 -5367905.542105794 0 0 0 0 -19033972.608364105 -10191435.142284097 0 -10191435.142284097 2811391.1363103986 0 0 0 0 -14390864.091178894 -11285123.345507145 0 -11285123.345507145 -15016107.301665783 0 0 0 0 62136362.83158493 18284692.962630987 0 18284692.962630987 44043053.262187958 0 0 0 0 -27273965.469139099 -24241226.419570923 0 -24241226.419570923 -7894664.4393644333 0 0 0 0 -4172464.7467405945 -1516673.968955813 0 -1516673.968955813 1328516.5679991709 0 0 0 0 -6095452.6157989502 -2878794.2058534622 0 -2878794.2058534622 -3861014.8591242433 0 0 0 0 2740848.2356814817 -1210088.1197193898 0 -1210088.1197193898 -1650985.1526783814 0 0 0 0 153971753.12628174 -48043677.944325447 0 -48043677.944325447 80029788.001293182 0 0 0 0 7923094.0353515819 -1590073.1379519328 0 -1590073.1379519328 -2092673.515526104 0 0 0 0 -7934353.0665283203 -6279051.1391792297 0 -6279051.1391792297 4896305.6171664 0 0 0 0 -17527688.136962891 -22017239.240657806 0 -22017239.240657806 -14083890.285871506 0 0 0 0 -725166.56953272223 -182913.50147974864 0 -182913.50147974864 255489.78551552031 0 0 0 0 -18009536.817425728 -16571049.314394146 0 -16571049.314394146 -19934417.458789825 0 0 0 0 8415167.1821581908 -1441597.4969911389 0 -1441597.4969911389 -1457897.7144086007 0 0 0 0 -65014785.723403931 -57127807.398272991 0 -57127807.398272991 -27726117.612893462 0 0 0 0 -8073652.0685577393 -13872353.339176089 0 -13872353.339176089 -1635004.962778151 0 0 0 0 -1942246.9174346924 -11661814.848256737 0 -11661814.848256737 -7224631.335953474 0 0 0 0 -3172144.5690660477 810966.23256817646 0 810966.23256817646 1766182.8933221698 0 0 0 0 -729415.95265769958 -3003738.298976237 0 -3003738.298976237 -1013554.7519362718 0 0 0 0 355244.73455047607 -313591.40100262687 0 -313591.40100262687 -2406596.7762778997 0 0 0 0 -341203.97667121887 -35707.646261185291 0 -35707.646261185291 458306.19654043764 0 0 0 0 1343171.4134063721 -2474210.6773312092 0 -2474210.6773312092 -2465268.0020154323 0 0 0 0 1103651.9083774984 -1045420.0888256989 0 -1045420.0888256989 639311.21514090302 0 0 0 0 739608.92114257812 -1896609.1239840388 0 -1896609.1239840388 -405277.55688292533 0 0 0 0 1314929.7556762695 -3364128.1147366371 0 -3364128.1147366371 -1654112.0002124368 0 0 0 0 -1645484.6854362637 -2652113.7992868256 0 -2652113.7992868256 -170664.47507379175 0 0 0 0 2273104.7652282715 -2636009.8156592548 0 -2636009.8156592548 -1724794.992693305 0 0 0 0 780460.02928161621 -2219851.7853658199 0 -2219851.7853658199 -1834239.6676542759 0 0 0 0 1299087.7074737549 -740572.21274268627 0 -740572.21274268627 -2449230.1110365153 0 0 0 0 2652517.6460876465 -1245568.2488284013 0 -1245568.2488284013 -3107957.3418037007 0 0 0 0 278377.01042768359 -83922.016021899879 0 -83922.016021899879 -143670.31211881837 0 0 0 0 2555946.015630722 -1041353.3028002544 0 -1041353.3028002544 -1119711.6270927188 0 0 0 0 5384660.5195846558 -916478.84002727829 0 -916478.84002727829 -1010598.3510608105 0 0 0 0 2001525.2184448242 -1604061.0456782747 0 -1604061.0456782747 2035.2132441121691 0 0 0 0 672248.74436950684 -3405771.8843103927 0 -3405771.8843103927 -1079600.2037071341 0 0 0 0 5905738.8845062256 2802170.9630931495 0 2802170.9630931495 2553339.3484588419 0 0 0 0 25975254.769622803 2183516.160053561 0 2183516.160053561 -2850341.3060851372 0 0 0 0 13838882.912441254 -1075373.8700856266 0 -1075373.8700856266 3596.7733307368107 0 0 0 0 10179669.069015503 6511278.7002275735 0 6511278.7002275735 3681656.275402844 0 0 0 0 9926207.0756530762 1709761.9310824256 0 1709761.9310824256 2555328.8502135463 0 0 0 0 3746564.2676086426 -3542786.3849228863 0 -3542786.3849228863 -3719568.2997286906 0 0 0 0 -928815.10948181152 -1282169.2722268421 0 -1282169.2722268421 2941094.8329717219 0 0 0 0 4639691.7762145996 5183509.4707147535 0 5183509.4707147535 836410.26932169497 0 0 0 0 1140046.9782206118 -488782.35207311995 0 -488782.35207311995 263211.0969404956 0 0 0 0 8871756.1739835739 -868318.31269367924 0 -868318.31269367924 -893388.83444723859 0 0 0 0 21950948.598930359 -12659762.543667004 0 -12659762.543667004 -1671169.0026072562 0 0 0 0 26652679.187747955 3372836.1828339528 0 3372836.1828339528 -4034357.932371865 0 0 0 0 33743960.788040161 -4097650.8642960158 0 -4097650.8642960158 -14130.108305161973 0 0 0 0 52732274.147689819 2039950.089320682 0 2039950.089320682 -5010470.4543584352 0 0 0 0 44282345.184597015 -11270994.117465757 0 -11270994.117465757 -1679050.1950326497 0 0 0 0 12155025.94757843 -27609306.380171921 0 -27609306.380171921 13614522.984144883 0 0 0 0 49268890.489299774 -2851651.3459373177 0 -2851651.3459373177 13088418.611740014 0 0 0 0 41473747.614509583 -7191945.2938414654 0 -7191945.2938414654 -251835.37672040984 0 0 0 0 88344894.626480103 -19295681.492470276 0 -19295681.492470276 2870920.8044268936 0 0 0 0 73050423.399106979 28776936.539716281 0 28776936.539716281 10309704.30901596 0 0 0 0 -36901.799484267831 -204070.35507120006 0 -204070.35507120006 63285.034570878619 0 0 0 0 50255496.481811523 8091970.9898529463 0 8091970.9898529463 91159369.9406275 0 0 0 0 57460232.220783234 -44841281.809508502 0 -44841281.809508502 39746614.267793328 0 0 0 0 97459617.279418945 14904616.729036583 0 14904616.729036583 7235311.8787567541 0 0 0 0 56982686.049591064 -5871243.1610148251 0 -5871243.1610148251 -340153.67717345059 0 0 0 0 6633144.4748306274 4792845.2748429142 0 4792845.2748429142 24321774.232687477 0 0 0 0 24473242.911026001 25407697.452177212 0 25407697.452177212 24217751.345910691 0 0 0 0 50638.482423231006 11858.273011423647 0 11858.273011423647 -4863.3994250356554 0 0 0 0 -9045379.1965713501 -1508309.0202089846 0 -1508309.0202089846 15554564.791098535 0 0 0 0 -1186235.3851266727 -1378068.2578441394 0 -1378068.2578441394 -100545.09246641475 0 0 0 0 3103967.2285003662 2362069.4161686897 0 2362069.4161686897 10703336.298656452 0 0 0 0 12164326.290847778 3778633.5916509256 0 3778633.5916509256 -2218131.2672452554 0 0 0 0 -193241.40418043733 -654343.69738443941 0 -654343.69738443941 202226.47603587579 0 0 0 0 14979926.348274231 1101787.0288075209 0 1101787.0288075209 -1404139.5705139711 0 0 0 0 16355056.707595825 13156273.613900667 0 13156273.613900667 8874220.2402145304 0 0 0 0 -2560255.3175506592 6902291.1700588986 0 6902291.1700588986 24696324.496891141 0 0 0 0 -64274.941970825195 -3125960.5227071717 0 -3125960.5227071717 20109758.446492512 0 0 0 0 628955.51924133301 3420354.9461098723 0 3420354.9461098723 77069349.088949561 0 0 0 0 213748.09384155273 -11272496.166052848 0 -11272496.166052848 21229823.725842163 0 0 0 0 8253359.7486419678 -25503404.289175324 0 -25503404.289175324 -6267413.0602893531 0 0 0 0 -8343927.9477539062 -24631341.510987028 0 -24631341.510987028 -11059954.838008698 0 0 0 0 -13013423.948638916 -16799896.759522989 0 -16799896.759522989 18859231.821431533 0 0 0 0 -239536.24058532715 -1031671.0346410051 0 -1031671.0346410051 15725228.060466632 0 0 0 0 -11475889.792648315 -10745142.68919941 0 -10745142.68919941 10310286.476032378 0 0 0 0 -9686555.9624938965 -23980541.4368909 0 -23980541.4368909 -11367471.311244562 0 0 0 0 13790837.529281616 -13735451.719128817 0 -13735451.719128817 -25449953.289066732 0 0 0 0 -167297.06223297119 -22887061.621272638 0 -22887061.621272638 -28332693.245129168 0 0 0 0 1065432.5252151489 -5913713.1975513697 0 -5913713.1975513697 -3759512.6702830791 0 0 0 0 11150811.746627808 5530170.127897501 0 5530170.127897501 -9551020.7324075699 0 0 0 0 720312.93936157227 5761702.8583225012 0 5761702.8583225012 -6118020.2116572857 0 0 0 0 2075524.7592059448 -178010.39795987681 0 -178010.39795987681 -790066.26566894073 0 0 0 0 3568720.8849085346 -4175992.8038444482 0 -4175992.8038444482 -1699469.3038797143 0 0 0 0 -4673837.752456665 1524476.9095156193 0 1524476.9095156193 -4122756.0709371567 0 0 0 0 -13866178.307189941 -3465295.3757956028 0 -3465295.3757956028 -6622123.6076532602 0 0 0 0 22878774.466033936 8930403.9434988052 0 8930403.9434988052 -5916760.8269861042 0 0 0 0 1697685.1721767634 212535.04280637205 0 212535.04280637205 -295221.0174792285 0 0 0 0 -29157654.363284111 -52293407.709410667 0 -52293407.709410667 -24976350.667821407 0 0 0 0 4814767.7009735107 -22747919.123682261 0 -22747919.123682261 -809407.97420114279 0 0 0 0 4622924.9432372749 -4076932.0022063199 0 -4076932.0022063199 -1587753.7278658887 0 0 0 0 12667322.317684174 -51319486.918313622 0 -51319486.918313622 -51160512.913425535 0 0 0 0 -30287145.048324585 -24351762.591212884 0 -24351762.591212884 -6297174.7869446129 0 0 0 0 21374425.287689209 -19063246.589885414 0 -19063246.589885414 -52797187.252959728 0 0 0 0 14645057.361282349 -22016181.044509009 0 -22016181.044509009 -14092061.001910627 0 0 0 0 58679516.831233978 2673543.1126240026 0 2673543.1126240026 -17261433.453128338 0 0 0 0 30064859.596679688 -7918553.1189693809 0 -7918553.1189693809 -16532173.214687785 0 0 0 0 45189180.212280273 -31894327.02987352 0 -31894327.02987352 -10963379.52212356 0 0 0 0 44313239.823104858 -7900797.330686748 0 -7900797.330686748 -29941564.110780865 0 0 0 0 45045940.157745361 -19551692.305274606 0 -19551692.305274606 -35271120.336221874 0 0 0 0 4238205.5618247986 -24663638.872869723 0 -24663638.872869723 -25015271.042829931 0 0 0 0 30395125.780731201 11695107.728392541 0 11695107.728392541 -6535579.9732537158 0 0 0 0 61326609.602300644 24955152.940333165 0 24955152.940333165 -7443214.8519915044 0 0 0 0 38700488.955047607 12219428.46081984 0 12219428.46081984 -14528580.518113017 0 0 0 0 24180917.298128128 14034679.786945533 0 14034679.786945533 438139.54052883387 0 0 0 0 26000393.370269775 6944046.2752323598 0 6944046.2752323598 -11669071.229103237 0 0 0 0 22056966.594314575 -2055082.3310111463 0 -2055082.3310111463 -17571008.022153139 0 0 0 0 33714051.350402832 7089194.352270335 0 7089194.352270335 -19803299.994273484 0 0 0 0 23290859.788848877 -1366636.4108503163 0 -1366636.4108503163 -17456355.739838898 0 0 0 0 18030776.841598511 -25168184.17076546 0 -25168184.17076546 -34778728.426425159 0 0 0 0 16768704.291732788 -8326683.5572444201 0 -8326683.5572444201 -20841445.45332858 0 0 0 0 11082142.154907227 -16219247.33797121 0 -16219247.33797121 -19538457.535941958 0 0 0 0 25910553.803581238 -7505769.6765085086 0 -7505769.6765085086 -28059279.174301803 0 0 0 0 6877912.8240890503 -14286864.690691233 0 -14286864.690691233 -13222731.565769434 0 0 0 0 9793283.211151123 -12204544.234374166 0 -12204544.234374166 -31737987.63611275 0 0 0 0 -23046832.630533218 -12202980.33650339 0 -12202980.33650339 -16359212.881616831 0 0 0 0 -766998.95900671184 -381618.90205756947 0 -381618.90205756947 420716.72834345413 0 0 0 0 6348653.4057678506 -3675588.0904549062 0 -3675588.0904549062 -967242.93126043468 0 0 0 0 4591213.5599746704 -53500877.747079134 0 -53500877.747079134 20002486.685752153 0 0 0 0 4838038.8172912598 -9829268.8232519925 0 -9829268.8232519925 -1563414.8334106803 0 0 0 0 9723243.6596069336 -9305766.1960455179 0 -9305766.1960455179 -9228518.6864295304 0 0 0 0 13187300.929702759 -11714510.189200342 0 -11714510.189200342 -16402824.679623932 0 0 0 0 5215668.5862579346 -10010949.305963933 0 -10010949.305963933 -7374661.2090341449 0 0 0 0 16418569.868721008 -5520899.2434045821 0 -5520899.2434045821 -10241615.37416324 0 0 0 0 13923628.154830933 -5816975.4511742592 0 -5816975.4511742592 -10276124.349611461 0 0 0 0 15252831.181190491 -3174978.8460374177 0 -3174978.8460374177 -5033665.5537523627 0 0 0 0 11855221.64957428 -3596882.9457361251 0 -3596882.9457361251 738874.69777226448 0 0 0 0 12379452.187408447 -3255193.4810477495 0 -3255193.4810477495 -5035904.6536759008 0 0 0 0 -32213387.202159882 1282436.8795170225 0 1282436.8795170225 -730356.40922868252 0 0 0 0 7134025.4802555554 -4032250.1461663172 0 -4032250.1461663172 -981527.02793004108 0 0 0 0 12668606.546005249 -3544053.1463190019 0 -3544053.1463190019 -3364737.8589067012 0 0 0 0 -3940646.6754302979 14067908.055299759 0 14067908.055299759 -15043514.420298457 0 0 0 0 -31622137.772186279 6437630.008387804 0 6437630.008387804 10293216.283426046 0 0 0 0 9993882.2990570068 -4969601.5280703455 0 -4969601.5280703455 -2441127.0183007717 0 0 0 0 -25950037.829086304 2411326.0580581129 0 2411326.0580581129 -7821073.915815562 0 0 0 0 -21667451.558624268 6215037.6311037838 0 6215037.6311037838 5348083.0783908367 0 0 0 0 -20793351.861404419 6344573.6818746924 0 6344573.6818746924 -5468218.1834154129 0 0 0 0 -1770301.2266998291 -10565496.836318433 0 -10565496.836318433 14538748.17493248 0 0 0 0 -1516391.4153594971 -27481783.233501852 0 -27481783.233501852 48389204.349691011 0 0 0 0 -28639622.958862305 8308064.0640113354 0 8308064.0640113354 5263459.7051318884 0 0 0 0 6957449.5344238281 -24186165.28587842 0 -24186165.28587842 4823870.0178406239 0 0 0 0 26626652.858627319 -33683924.975866079 0 -33683924.975866079 8721888.4990084171 0 0 0 0 24495267.946578979 -8245927.7765052319 0 -8245927.7765052319 -6638319.6872267723 0 0 0 0 19199750.926589966 -41221425.331774354 0 -41221425.331774354 1180150.9061808586 0 0 0 0 4714646.577331543 -39117558.277088046 0 -39117558.277088046 24579841.476050079 0 0 0 0 23209130.722610474 -50429465.135890841 0 -50429465.135890841 16851340.071931362 0 0 0 0 17673153.516036987 -60790224.020765424 0 -60790224.020765424 49943754.648906827 0 0 0 0 61703205.43119812 -53848840.198861241 0 -53848840.198861241 81089749.76938498 0 0 0 0 116074773.7532196 -2055259.751714468 0 -2055259.751714468 -124321270.4220252 0 0 0 0 16036206.860015869 55054942.972893953 0 55054942.972893953 -71464846.599071503 0 0 0 0 107803162.41335487 -73445154.452794552 0 -73445154.452794552 -31034464.110858679 0 0 0 0 51799334.388031006 -82383998.473186135 0 -82383998.473186135 31509140.735402107 0 0 0 0 38857329.474578857 -8021511.2085732222 0 -8021511.2085732222 -62325504.803391814 0 0 0 0 26077166.028774261 -44924227.443934113 0 -44924227.443934113 -10288072.779953003 0 0 0 0 12957465.876983643 -15748287.830489874 0 -15748287.830489874 -27440257.640782595 0 0 0 0 44037032.450500488 -40202247.371520996 0 -40202247.371520996 -10047062.44137764 0 0 0 0 5964428.5830383301 11775905.826516867 0 11775905.826516867 -35401229.397369087 0 0 0 0 15434178.234832764 -7506411.3970177174 0 -7506411.3970177174 -17985865.991352081 0 0 0 0 -32709588.437393188 33766275.229768634 0 33766275.229768634 -25132267.30094099 0 0 0 0 28510281.715606689 672008.16861093044 0 672008.16861093044 -32764497.664501667 0 0 0 0 -8687264.894443512 7533463.9945726991 0 7533463.9945726991 -13114442.120003223 0 0 0 0 -4098977.2793121338 5138163.1163828373 0 5138163.1163828373 -13356864.208999157 0 0 0 0 1431269.0097503662 -3145698.8358099461 0 -3145698.8358099461 -17250401.357103348 0 0 0 0 619498.94776295871 -53306.220641102642 0 -53306.220641102642 -240353.01214195276 0 0 0 0 21883991.389007568 23160579.936510086 0 23160579.936510086 -13244214.587558702 0 0 0 0 4190701.7509307861 -22803179.672190666 0 -22803179.672190666 -9294232.4311344624 0 0 0 0 22188220.910217285 -37877117.145732522 0 -37877117.145732522 1662041.8183754981 0 0 0 0 4590975.782913208 -5584924.1994016171 0 -5584924.1994016171 251448.8743814826 0 0 0 0 7796052.7779197693 5064556.4799182415 0 5064556.4799182415 -2668700.1343188286 0 0 0 0 712728.06458893418 -1522094.0879686112 0 -1522094.0879686112 -429706.94546889584 0 0 0 0 -4134824.7535247803 -28584053.405580521 0 -28584053.405580521 12942568.54384172 0 0 0 0 10459667.367534637 -2997449.7878844738 0 -2997449.7878844738 -3846653.6999030113 0 0 0 0 2243311.0311360583 -772624.11192028597 0 -772624.11192028597 -693880.61388793495 0 0 0 0 14976818.396369934 -3946916.977963686 0 -3946916.977963686 -4406895.1458873749 0 0 0 0 12755162.881980896 27356.553343176842 0 27356.553343176842 -5941508.595426932 0 0 0 0 4811660.9925543219 -602753.06918727141 0 -602753.06918727141 -2630920.5852395301 0 0 0 0 5084226.1654028222 -982891.23628989235 0 -982891.23628989235 -2897674.7587851733 0 0 0 0 12733405.759082794 -2277265.1757615805 0 -2277265.1757615805 -2622143.428352356 0 0 0 0 13312371.328315735 -1056698.3332644999 0 -1056698.3332644999 -4387087.8448273838 0 0 0 0 14735667.707290649 806982.05973134935 0 806982.05973134935 -9268265.6245744228 0 0 0 0 14642522.418750763 -1880935.7522435337 0 -1880935.7522435337 -7606861.7466549277 0 0 0 0 14668611.87928009 1131184.9909779727 0 1131184.9909779727 -5406605.5913543552 0 0 0 0 8287938.3319320679 2454341.0459455922 0 2454341.0459455922 -4312116.4193416685 0 0 0 0 15808961.97064209 5207433.4171412736 0 5207433.4171412736 -8862854.7474159449 0 0 0 0 20410722.956624985 3931183.2115649953 0 3931183.2115649953 -8530367.5400299132 0 0 0 0 7902740.696105957 1782896.7285211273 0 1782896.7285211273 91516.502350290306 0 0 0 0 14241605.259977341 7858868.8414290268 0 7858868.8414290268 -1398370.7644108087 0 0 0 0 14035131.608650208 8761997.3891431727 0 8761997.3891431727 892134.80236171186 0 0 0 0 887409.51759338379 -1199769.1197498627 0 -1199769.1197498627 -2256745.5209303331 0 0 0 0 30954085.225902557 -9241604.8238704205 0 -9241604.8238704205 -15547279.466730595 0 0 0 0 2597937.2385080755 -548854.7496149689 0 -548854.7496149689 -2760539.939819884 0 0 0 0 7316338.1504249573 4319998.7792253103 0 4319998.7792253103 -3781897.6044459939 0 0 0 0 -546140.60350513458 15950923.84995389 0 15950923.84995389 -26433293.659353733 0 0 0 0 464940.98720215261 -279536.76525419578 0 -279536.76525419578 -44567.820002167951 0 0 0 0 7231899.154258728 -16571158.891473532 0 -16571158.891473532 -38000266.010277271 0 0 0 0 8323596.7978286743 -4062077.9348773956 0 -4062077.9348773956 2016075.5803003311 0 0 0 0 -1531225.1418151855 -20327593.926539898 0 -20327593.926539898 4447886.6278136373 0 0 0 0 -3442823.124920845 -8322947.4922211766 0 -8322947.4922211766 19617334.486611366 0 0 0 0 4757533.3632087708 -4668583.8368998766 0 -4668583.8368998766 5083017.6303100586 0 0 0 0 13275062.882575989 -14383324.620714188 0 -14383324.620714188 5938450.4311835766 0 0 0 0 -28072.913350373507 42825.87725292705 0 42825.87725292705 -63387.006918650601 0 0 0 0 -2377702.3043556213 3775281.5803687833 0 3775281.5803687833 -1844948.4558276385 0 0 0 0 -3483035.2751464844 1627200.1001051776 0 1627200.1001051776 -3192678.4083735645 0 0 0 0 1719816.6817897484 -394963.96422350034 0 -394963.96422350034 -2579686.8171989485 0 0 0 0 1752237.0354766846 2210153.0763088726 0 2210153.0763088726 -4118546.6872474849 0 0 0 0 2741342.7202529907 -510897.49050083943 0 -510897.49050083943 -713581.39086900651 0 0 0 0 2177670.7189025879 1748487.278506346 0 1748487.278506346 -7238716.473969996 0 0 0 0 -6174463.1293945312 39941.993653528392 0 39941.993653528392 -6832941.7116766945 0 0 0 0 2969031.9393081665 -1174496.0095925741 0 -1174496.0095925741 -10673148.649530217 0 0 0 0 2464500.5191879272 -1291853.1315662283 0 -1291853.1315662283 -4458912.5705489814 0 0 0 0 -3733222.528503418 -1609379.7527101338 0 -1609379.7527101338 -4288521.7769998088 0 0 0 0 7688490.1957817078 -4884654.9287947724 0 -4884654.9287947724 -4887709.7045911551 0 0 0 0 4468492.8465270996 -1646096.9280819669 0 -1646096.9280819669 -2884449.781186223 0 0 0 0 5001130.2881469727 -2020409.4936633185 0 -2020409.4936633185 -7210986.0720203258 0 0 0 0 6877454.6507568359 -1805614.4581287242 0 -1805614.4581287242 -6085934.9938823339 0 0 0 0 1578045.4446716309 -2059273.3475468773 0 -2059273.3475468773 -1121048.7231240124 0 0 0 0 2957721.000869751 -1175901.2438498568 0 -1175901.2438498568 -4836920.2321153283 0 0 0 0 1417532.7012316212 -971804.542170275 0 -971804.542170275 -1243734.0330292992 0 0 0 0 -2515020.2141838074 1499709.4355589459 0 1499709.4355589459 -3578573.0146039277 0 0 0 0 -1312046.8849487305 -1778521.0199950021 0 -1778521.0199950021 -2152924.4118246678 0 0 0 0 577244.10998535156 2814556.8343145922 0 2814556.8343145922 -3370822.3130369671 0 0 0 0 542247.85257720947 1401928.0041332392 0 1401928.0041332392 -8871351.8248210289 0 0 0 0 1177564.4392929077 4265817.4778786181 0 4265817.4778786181 -6945286.8363496549 0 0 0 0 -7270665.6358528137 8192771.4206350474 0 8192771.4206350474 -11238057.029662997 0 0 0 0 -8088749.5599975586 9640846.5319447964 0 9640846.5319447964 -13216171.664121056 0 0 0 0 -15188.202539414167 -112426.12227207795 0 -112426.12227207795 84254.276815224221 0 0 0 0 -1228878.3803024292 -591366.16672839038 0 -591366.16672839038 -13864502.730617195 0 0 0 0 4500618.6126937866 -5149833.6725310124 0 -5149833.6725310124 6277618.6870265249 0 0 0 0 9158564.8063278198 6875643.2472129427 0 6875643.2472129427 14717259.092441052 0 0 0 0 6356367.3511199951 1611362.5429939367 0 1611362.5429939367 -3141192.553280741 0 0 0 0 6436823.9950408936 2237818.043213848 0 2237818.043213848 1664664.5899321213 0 0 0 0 8383678.7995452881 -4860114.5016060751 0 -4860114.5016060751 1375315.1075547813 0 0 0 0 6809697.210144043 -2729801.0991778597 0 -2729801.0991778597 -3567627.0253719091 0 0 0 0 6988276.6661758423 -2347648.0538820056 0 -2347648.0538820056 -2777582.347457312 0 0 0 0 6153818.4124450684 -4904869.6121507026 0 -4904869.6121507026 -9988.999055556953 0 0 0 0 10161059.289932251 -7332633.2540190024 0 -7332633.2540190024 379669.11799699778 0 0 0 0 7680390.3090286255 -5743413.0901532127 0 -5743413.0901532127 284887.24783654511 0 0 0 0 10734979.460757494 -4697720.697400148 0 -4697720.697400148 4738648.3659766 0 0 0 0 70879.441024586558 15730.26163860783 0 15730.26163860783 -5164.4572893386667 0 0 0 0 10373486.925804138 -4049859.4715993986 0 -4049859.4715993986 -74354.260223171208 0 0 0 0 4954795.6531066895 -7056155.0399578884 0 -7056155.0399578884 5125407.6674093092 0 0 0 0 27741.973308593035 2203.1044097058475 0 2203.1044097058475 -5001.4802409706554 0 0 0 0 8043693.6126899719 -1781784.6336434041 0 -1781784.6336434041 -1962768.8408606767 0 0 0 0 18997789.460206985 -4874759.9879286792 0 -4874759.9879286792 5269.1795359391035 0 0 0 0 3482987.6981964111 1546906.4392514059 0 1546906.4392514059 323257.72003624937 0 0 0 0 7079256.1681671143 -2049865.3100102767 0 -2049865.3100102767 -108375.55051036796 0 0 0 0 490744.29225158691 1560354.5493329603 0 1560354.5493329603 927919.9204076312 0 0 0 0 1374603.4517669678 -1014872.4283691267 0 -1014872.4283691267 1388435.0993748177 0 0 0 0 4627156.5969848633 -115619.44075880572 0 -115619.44075880572 -2147769.4716130411 0 0 0 0 2563136.5948486328 -129174.06900372263 0 -129174.06900372263 -2638848.6663373224 0 0 0 0 9097384.405380249 -2845499.5178912287 0 -2845499.5178912287 -927286.97818298358 0 0 0 0 6774922.2470169067 -8323789.286455879 0 -8323789.286455879 9239477.5417148005 0 0 0 0 3984336.5779266357 -4853339.59874155 0 -4853339.59874155 -909943.98123065941 0 0 0 0 5150707.7110366821 -4637292.0829208205 0 -4637292.0829208205 5283755.804365281 0 0 0 0 17966348.553474426 -4471094.0238770498 0 -4471094.0238770498 812279.2995533403 0 0 0 0 15619640.973220825 -15540344.849290248 0 -15540344.849290248 7060203.187121693 0 0 0 0 15222549.527038574 -7625805.3761362173 0 -7625805.3761362173 1593.4643562188776 0 0 0 0 7279631.3252258301 -503879.4093536532 0 -503879.4093536532 2809308.5271983626 0 0 0 0 5486232.3845825195 -2711197.6096852603 0 -2711197.6096852603 2126474.5669802744 0 0 0 0 811351.85197067261 947728.60961337888 0 947728.60961337888 5802.6892296083079 0 0 0 0 761777.2513961792 140139.5534506673 0 140139.5534506673 -3944088.8345330227 0 0 0 0 -473477.39672088623 2321764.8142333301 0 2321764.8142333301 -2201197.4885680722 0 0 0 0 1538084.6941886395 -1008733.0849677268 0 -1008733.0849677268 -1022340.5056078756 0 0 0 0 -364955.43294906616 22908.257276035496 0 22908.257276035496 -643982.39099941135 0 0 0 0 -989620.94956970215 483467.56311382557 0 483467.56311382557 -3032.8583894962603 0 0 0 0 985685.69467241317 -1122541.903322231 0 -1122541.903322231 998677.98737997503 0 0 0 0 1445520.7879915237 -1240864.988027137 0 -1240864.988027137 5250731.2759053484 0 0 0 0 379625.9248925522 -927070.86554519832 0 -927070.86554519832 1037332.1495954201 0 0 0 0 3092068.5946655273 -5022136.9645609511 0 -5022136.9645609511 -1163.3046051042843 0 0 0 0 1354320.2691040039 -2622397.038728958 0 -2622397.038728958 3522112.6415174715 0 0 0 0 2817758.8856201172 -8349466.6363429157 0 -8349466.6363429157 4681455.9582440779 0 0 0 0 244547.70515848137 -271041.1931768544 0 -271041.1931768544 -132464.35732513931 0 0 0 0 1697971.6466827393 -1058278.2762146695 0 -1058278.2762146695 7616793.7743449854 0 0 0 0 -108334407.47062302 1551719.7684308589 0 1551719.7684308589 59568950.564453185 0 0 0 0 966335.31835402921 -2169781.1443810277 0 -2169781.1443810277 1784097.5722403186 0 0 0 0 3861323.2640380859 -2213630.2178447335 0 -2213630.2178447335 593699.72213623673 0 0 0 0 1567099.806095928 -759043.25008828193 0 -759043.25008828193 -438529.82326514251 0 0 0 0 2612681.0309829712 -2292965.3302271366 0 -2292965.3302271366 1642026.9404118061 0 0 0 0 1587847.956943512 -3302906.9774532318 0 -3302906.9774532318 1908100.1860470772 0 0 0 0 -797561.31928253174 -2092583.6749302149 0 -2092583.6749302149 3561411.4803566933 0 0 0 0 1177016.7498371415 -1745578.0194010846 0 -1745578.0194010846 1141492.0230254878 0 0 0 0 734945.11190795898 -1186793.5284674168 0 -1186793.5284674168 1613303.5153593123 0 0 0 0 2402089.0048370361 -3051291.6988310814 0 -3051291.6988310814 3150338.809803009 0 0 0 0 6726863.5527496338 -5568231.0418674946 0 -5568231.0418674946 5679204.0625411272 0 0 0 0 2809749.7678642273 -2252416.0766620636 0 -2252416.0766620636 3006635.8805971146 0 0 0 0 160788.86829291284 -248249.94746455923 0 -248249.94746455923 324798.89358962234 0 0 0 0 245349.6039352417 -3106144.6352732182 0 -3106144.6352732182 14340416.405889034 0 0 0 0 6969266.6810932159 -9811632.1914149895 0 -9811632.1914149895 11742338.394511223 0 0 0 0 -533420.3483505249 -15850.974836349487 0 -15850.974836349487 5631466.7201871872 0 0 0 0 3554329.8923416138 -4022211.4756917953 0 -4022211.4756917953 4811902.3935408592 0 0 0 0 3825002.0958976746 -4118173.6863230467 0 -4118173.6863230467 2682090.4344291687 0 0 0 0 3675983.5977745056 -3976827.4552513361 0 -3976827.4552513361 2368686.6329655647 0 0 0 0 1528759.9426116943 -4168187.2046222687 0 -4168187.2046222687 5514667.9992582798 0 0 0 0 449651.45592423528 -938648.38836469501 0 -938648.38836469501 1222864.548913199 0 0 0 0 2466057.8147888184 122796231.08698556 0 122796231.08698556 -12198605.577648059 0 0 0 0 60415347.648025513 14826514.727370918 0 14826514.727370918 43123295.104159534 0 0 0 0 377766283.15836334 48299948.516044237 0 48299948.516044237 -13489158.263953686 0 0 0 0 649685.74244828522 8043.4526751707308 0 8043.4526751707308 -30417.204296854325 0 0 0 0 310409036.4871521 -101805518.06603475 0 -101805518.06603475 380476.41850198247 0 0 0 0 290947293.84500122 113524591.78135407 0 113524591.78135407 -70387339.794154108 0 0 0 0 590412297.65348816 16857086.256499805 0 16857086.256499805 -288101.51772754878 0 0 0 0 559591205.13712692 -102014245.96293148 0 -102014245.96293148 4460234.9670748711 0 0 0 0 640214778.15338135 -15553297.752426907 0 -15553297.752426907 -111602509.56962278 0 0 0 0 365471227.33422852 -2954401.2029402554 0 -2954401.2029402554 -93362586.080785215 0 0 0 0 608119196.76481628 -81084774.184313893 0 -81084774.184313893 -72122524.480184138 0 0 0 0 587363496.84446716 36449763.769270539 0 36449763.769270539 -78592767.527659208 0 0 0 0 285879095.44297409 -74536988.980828449 0 -74536988.980828449 -48295892.433989726 0 0 0 0 334819019.13771057 21559692.527441368 0 21559692.527441368 -49233028.673013575 0 0 0 0 345791217.19914246 16122305.143664248 0 16122305.143664248 80341583.089760795 0 0 0 0 343360504.38455677 38564106.694885045 0 38564106.694885045 -104833417.15884313 0 0 0 0 299658.4021404162 -524271.61642463133 0 -524271.61642463133 921914.83920068212 0 0 0 0 1889354.0733795166 -1983491.0936554805 0 -1983491.0936554805 5806.726171343742 0 0 0 0 2002429.7582855225 -2614251.5236505354 0 -2614251.5236505354 3499372.4073692393 0 0 0 0 11566308.608848572 51140256.954333335 0 51140256.954333335 -54544814.650776699 0 0 0 0 11046101.434707642 50409306.498651385 0 50409306.498651385 39000896.01221621 0 0 0 0 171654861.02151489 -29704461.117292821 0 -29704461.117292821 30243121.639642186 0 0 0 0 -7035073.9972496033 83540968.917351753 0 83540968.917351753 54246004.650784016 0 0 0 0 -30397113.596511841 -39832628.236233115 0 -39832628.236233115 -43915993.996387959 0 0 0 0 37051256.868103027 -101807422.04235518 0 -101807422.04235518 12949125.118466318 0 0 0 0 575752.76844849437 275989.69891897403 0 275989.69891897403 275103.75190384546 0 0 0 0 387056821.55119324 271460810.40496731 0 271460810.40496731 -187147069.09051704 0 0 0 0 -271682.99342346191 53873288.178754926 0 53873288.178754926 169904544.76590705 0 0 0 0 370334510.03316164 55314481.578940779 0 55314481.578940779 332654993.64646626 0 0 0 0 368731814.58804321 24178983.250614047 0 24178983.250614047 41626074.341032267 0 0 0 0 292154053.10423279 139315425.01895818 0 139315425.01895818 101626101.97011089 0 0 0 0 427965745.09633636 34296245.077312112 0 34296245.077312112 -50404377.662730098 0 0 0 0 258954495.62885284 -76556565.968474805 0 -76556565.968474805 2184825.3411321044 0 0 0 0 768309279.7081852 -230718437.74633887 0 -230718437.74633887 28016290.315339565 0 0 0 0 685940270.58036804 221090987.01749575 0 221090987.01749575 84552277.578171253 0 0 0 0 899996916.10063171 -80131657.110107899 0 -80131657.110107899 -10005709.389659166 0 0 0 0 466541056.47651672 295299562.75181937 0 295299562.75181937 84572020.237675905 0 0 0 0 1122798.7847006321 -544211.38424649462 0 -544211.38424649462 29498.319061575399 0 0 0 0 931252833.21954536 45141711.023947552 0 45141711.023947552 117092044.1334784 0 0 0 0 33751955.430641174 39849842.633849859 0 39849842.633849859 -34594540.274916768 0 0 0 0 9146799.8027267456 46417656.202360928 0 46417656.202360928 32137109.993766904 0 0 0 0 33651290.104171753 -137133885.35161662 0 -137133885.35161662 92758686.170478344 0 0 0 0 -7595698.0878143311 23528147.131534755 0 23528147.131534755 99603351.201798677 0 0 0 0 35286827.087921143 -60193594.703445882 0 -60193594.703445882 112907795.00643289 0 0 0 0 213111153.85117722 -9831693.6606461555 0 -9831693.6606461555 45812804.594496846 0 0 0 0 294954340.67495728 29720642.696228564 0 29720642.696228564 -112139355.05540323 0 0 0 0 293579098.68616486 43724206.323403597 0 43724206.323403597 -83314418.516202927 0 0 0 0 130617330.88254166 8778100.8633704036 0 8778100.8633704036 -39758887.670783997 0 0 0 0 164882196.83731842 179554835.74535635 0 179554835.74535635 106978031.13696861 0 0 0 0 482011787.56300354 38942160.85454452 0 38942160.85454452 -97236288.524098396 0 0 0 0 812349224.8252182 146251928.17675447 0 146251928.17675447 -114361414.57714272 0 0 0 0 383133344.04451752 77203112.637987614 0 77203112.637987614 -108592853.74510074 0 0 0 0 433412930.70253754 -15366218.937768221 0 -15366218.937768221 -71623066.605655193 0 0 0 0 274051697.18117523 -102724041.01093936 0 -102724041.01093936 626279.77955293655 0 0 0 0 656027282.06141472 -357390864.0250774 0 -357390864.0250774 153581128.71154976 0 0 0 0 140851429.94121552 -65003335.138495684 0 -65003335.138495684 14206929.806312084 0 0 0 0 152984769.00602722 -43874995.079189301 0 -43874995.079189301 9148855.3010215759 0 0 0 0 1555116.1765972376 349322.68326395005 0 349322.68326395005 478534.77282156912 0 0 0 0 767625.75034214929 -706549.48952964693 0 -706549.48952964693 372723.87062634528 0 0 0 0 58071792.047515869 -40695440.174276829 0 -40695440.174276829 34820195.824069738 0 0 0 0 167650209.19798279 14219096.070638657 0 14219096.070638657 -17221580.713657856 0 0 0 0 231295069.48461151 -33297703.064487696 0 -33297703.064487696 -5572095.8176165223 0 0 0 0 284084.68902629614 -295063.91579555348 0 -295063.91579555348 128119.98783401214 0 0 0 0 20765857.249973297 23859444.215413213 0 23859444.215413213 26512378.173583508 0 0 0 0 116950649.18681335 150766595.36051273 0 150766595.36051273 14060371.404154539 0 0 0 0 56218579.991020203 20846580.931946516 0 20846580.931946516 63583581.790127993 0 0 0 0 251001977.63631058 20534964.658692002 0 20534964.658692002 -76774656.979921341 0 0 0 0 250010907.48857117 1427649.5574476719 0 1427649.5574476719 57259851.199772835 0 0 0 0 376804598.26105404 75163901.68617323 0 75163901.68617323 -111064977.52666664 0 0 0 0 365996049.30206299 114901325.70056534 0 114901325.70056534 -10972621.226242542 0 0 0 0 258294709.90935516 3077905.1745505333 0 3077905.1745505333 94690720.300535202 0 0 0 0 495810183.83501434 68584530.511780024 0 68584530.511780024 -119227949.3237009 0 0 0 0 322652494.40310669 33621439.012626886 0 33621439.012626886 -126072623.70520484 0 0 0 0 279036097.23668671 54597798.923780322 0 54597798.923780322 -94923809.52762413 0 0 0 0 7014566.6847915649 -7189953.7780740261 0 -7189953.7780740261 5192451.8734722137 0 0 0 0 6293.989161811769 -9635.8047974463552 0 -9635.8047974463552 230799.18052006233 0 0 0 0 -8004496.8733062744 -14536350.038084507 0 -14536350.038084507 4460840.9412119389 0 0 0 0 -2947935.4212112427 -28963520.630494833 0 -28963520.630494833 2880213.6990981102 0 0 0 0 8737723.1940689087 -10183495.347464085 0 -10183495.347464085 -36984045.189302444 0 0 0 0 -9316097.9945869446 16557336.638321936 0 16557336.638321936 321291.03352832794 0 0 0 0 -16331447.778541565 -28778659.92993784 0 -28778659.92993784 -524820.8591966629 0 0 0 0 711801.64254760742 -3135827.4418902397 0 -3135827.4418902397 17575468.517916679 0 0 0 0 730972.49154663086 1968157.465877533 0 1968157.465877533 6736778.4205157757 0 0 0 0 2014446.2525024414 -620220.69552159309 0 -620220.69552159309 962258.37777042389 0 0 0 0 1584458.3512039185 -171582.5871386528 0 -171582.5871386528 3543052.7669361234 0 0 0 0 248618.84058441967 -284024.22191681527 0 -284024.22191681527 587485.37489868375 0 0 0 0 980877.90282440186 -1341019.6312608719 0 -1341019.6312608719 1335179.2487854958 0 0 0 0 -3625345.3064422607 3957980.366481781 0 3957980.366481781 10377444.02636528 0 0 0 0 2648423.2167167664 2446969.5073274076 0 2446969.5073274076 10683107.189397812 0 0 0 0 -27272702.735748291 -15505262.567426205 0 -15505262.567426205 27712339.081782103 0 0 0 0 -513538.50619506836 -1505195.4563741684 0 -1505195.4563741684 19965895.616812229 0 0 0 0 -20252780.337276459 -47679556.633473396 0 -47679556.633473396 -17752352.905592203 0 0 0 0 -21265364.31716156 -34901053.473984003 0 -34901053.473984003 64629807.646730304 0 0 0 0 -4498824.3666763306 -25181860.093328238 0 -25181860.093328238 3290399.1108255386 0 0 0 0 -8551500.0943145752 -14662058.302698851 0 -14662058.302698851 -14814627.790426731 0 0 0 0 -17626154.690704346 -32327735.512686729 0 -32327735.512686729 3619117.5423383713 0 0 0 0 -800831.46752929688 -21848590.429358959 0 -21848590.429358959 10074451.378382683 0 0 0 0 12434401.959091187 -26286417.611578465 0 -26286417.611578465 -5024204.9411759377 0 0 0 0 -6058375.6701507568 -14040690.044317245 0 -14040690.044317245 1691413.6714668274 0 0 0 0 16662156.476455688 -9312581.7537271976 0 -9312581.7537271976 2581608.6657571793 0 0 0 0 2511812.0046005249 -27263344.880578637 0 -27263344.880578637 -115955.87526988983 0 0 0 0 33171117.650947571 -4624134.9863176346 0 -4624134.9863176346 -57597348.997206211 0 0 0 0 8852661.5484279692 -1540543.6777457828 0 -1540543.6777457828 -680578.9150163515 0 0 0 0 106580021.1601944 -102874563.81899452 0 -102874563.81899452 -46115172.751468182 0 0 0 0 -413500.76622516289 -286660.96160738543 0 -286660.96160738543 848634.60159356287 0 0 0 0 -22448951.505477905 -17740178.781946659 0 -17740178.781946659 44963351.988515377 0 0 0 0 138044784.43167877 9896061.7804613113 0 9896061.7804613113 -12771296.567954063 0 0 0 0 -24894570.853286743 -28684273.919235706 0 -28684273.919235706 49940001.470890284 0 0 0 0 -10497006.079391479 -21080496.038901091 0 -21080496.038901091 27899526.969313145 0 0 0 0 3866184.4353904724 -26909374.787624359 0 -26909374.787624359 -94194310.238093376 0 0 0 0 6677580.6476048529 -1380078.3683664813 0 -1380078.3683664813 -245161.70166085038 0 0 0 0 30282483.17773819 -12271499.624712467 0 -12271499.624712467 11170933.149751186 0 0 0 0 -14519412.9140625 -32031698.565616846 0 -32031698.565616846 70496963.562947258 0 0 0 0 256363.12359619141 -30960490.692012906 0 -30960490.692012906 -13557281.535190105 0 0 0 0 -6160365.2791213989 -30120365.006976843 0 -30120365.006976843 7687452.5204566419 0 0 0 0 1911648.3193235993 -1528577.8614626434 0 -1528577.8614626434 -818085.37019335502 0 0 0 0 6360982.7580909729 -7460516.4419654608 0 -7460516.4419654608 -42175493.140554905 0 0 0 0 52171673.069824219 2089877.8653225899 0 2089877.8653225899 -3543434.5175056458 0 0 0 0 156750948.76239014 50411524.095064163 0 50411524.095064163 -14837658.159566879 0 0 0 0 95709.912231117487 -148714.77070430852 0 -148714.77070430852 -65113.257583101746 0 0 0 0 20731242.046058655 -30899852.944122076 0 -30899852.944122076 -22865507.067545891 0 0 0 0 22723166.909660339 -44162806.01119113 0 -44162806.01119113 -60664444.207896233 0 0 0 0 -29081461.634540558 -20119023.034385443 0 -20119023.034385443 -11166223.178499818 0 0 0 0 -531591.84290740639 -955984.36935192347 0 -955984.36935192347 1614029.4319555932 0 0 0 0 63878647.771266937 9818158.9371706247 0 9818158.9371706247 -31759947.586857796 0 0 0 0 79146695.718078613 4591362.6792931557 0 4591362.6792931557 -67587413.04028511 0 0 0 0 76155693.755935669 30855038.402972698 0 30855038.402972698 -19795273.784764051 0 0 0 0 -25747904.876205444 314066.76623892784 0 314066.76623892784 14368524.699486017 0 0 0 0 564982443.63870239 241518722.09639049 0 241518722.09639049 260097895.88903236 0 0 0 0 297337586.36537933 3639947.4961810112 0 3639947.4961810112 149692769.50355816 0 0 0 0 430258919.5051651 -163631000.41312826 0 -163631000.41312826 252345539.53229427 0 0 0 0 583584036.65953827 -2612472.3937625885 0 -2612472.3937625885 -63042858.968167305 0 0 0 0 384167251.35128784 273831486.60460806 0 273831486.60460806 1577092.8226709366 0 0 0 0 1611918.5792543367 -264157.88590114249 0 -264157.88590114249 30869.476418736449 0 0 0 0 658418917.52405548 -129578371.85155511 0 -129578371.85155511 -83237123.671740532 0 0 0 0 68011182.680305481 -122658230.10994935 0 -122658230.10994935 338138771.25607681 0 0 0 0 35926867.379081726 18216644.536533594 0 18216644.536533594 93715996.861515522 0 0 0 0 4389210.5958970487 -900144.7518141754 0 -900144.7518141754 -44028.824097639852 0 0 0 0 123236253.95310211 -26132635.981008291 0 -26132635.981008291 -165525195.51749468 0 0 0 0 -51331579.108329773 -25234841.479239702 0 -25234841.479239702 151265522.91808867 0 0 0 0 1927847.7525756657 -1293784.8373369146 0 -1293784.8373369146 -918295.93285451038 0 0 0 0 32292527.855358124 1599174.1962403059 0 1599174.1962403059 -147283587.51487207 0 0 0 0 61329639.496429443 -152363209.21388912 0 -152363209.21388912 132708844.29317331 0 0 0 0 61820410.312286377 -98440235.281777859 0 -98440235.281777859 30512649.608870506 0 0 0 0 99330534.11951828 -115043783.75508165 0 -115043783.75508165 127014255.18787718 0 0 0 0 -87116692.69972229 -91956312.197940588 0 -91956312.197940588 60338443.630538821 0 0 0 0 230954713.04349136 175489068.70102859 0 175489068.70102859 -279931483.62655735 0 0 0 0 921885.33604926616 -586492.22659965046 0 -586492.22659965046 -443850.1626303473 0 0 0 0 188541887.7819519 -278608267.08522356 0 -278608267.08522356 375536407.00307989 0 0 0 0 518367403.70220947 -21207241.71183753 0 -21207241.71183753 51604131.726024091 0 0 0 0 61017260.817596436 3724323.8252732754 0 3724323.8252732754 69206659.91041398 0 0 0 0 315853009.00421524 165690913.67300093 0 165690913.67300093 103836120.93102932 0 0 0 0 -10377216.032108307 101562317.95585528 0 101562317.95585528 17279396.710368156 0 0 0 0 311940158.7114563 157362211.03832126 0 157362211.03832126 15470967.598387241 0 0 0 0 97783045.866482735 -130538487.71433213 0 -130538487.71433213 -227524200.74596548 0 0 0 0 175830159.75319672 18093571.938964605 0 18093571.938964605 -102387091.52225089 0 0 0 0 1045396.9880267978 -1008943.282522398 0 -1008943.282522398 164078.88313851744 0 0 0 0 -39894532.64692688 -22839635.524912834 0 -22839635.524912834 -50698324.207239926 0 0 0 0 41925877.732032776 34851613.053651094 0 34851613.053651094 -52432748.103099346 0 0 0 0 -65004628.454826355 -135222092.12832868 0 -135222092.12832868 131106430.54075146 0 0 0 0 452391.17863699049 -673373.12160197692 0 -673373.12160197692 133331.10686709511 0 0 0 0 82874014.523178101 -224449655.01779366 0 -224449655.01779366 103327298.64090204 0 0 0 0 315727961.37355042 -186013374.28420448 0 -186013374.28420448 30556379.589024339 0 0 0 0 331738252.37971497 -174158348.60840726 0 -174158348.60840726 -22980146.172249794 0 0 0 0 166841040.22689819 -37305409.26671052 0 -37305409.26671052 -136362480.7705195 0 0 0 0 199405385.88375092 -10387522.798699141 0 -10387522.798699141 -41556667.120967865 0 0 0 0 156791967.97515106 -51140191.827893853 0 -51140191.827893853 -59007913.207854807 0 0 0 0 81006013.076416016 -67689300.891872048 0 -67689300.891872048 -35934983.842980623 0 0 0 0 25393373.734329224 -61902399.338255495 0 -61902399.338255495 -30196165.860769272 0 0 0 0 31688798.349609375 -23737587.680875167 0 -23737587.680875167 -67079819.13156423 0 0 0 0 -6583906.685836792 21764397.784165472 0 21764397.784165472 -41591013.031612396 0 0 0 0 -40415813.865787506 -25668975.97407335 0 -25668975.97407335 -30347361.669595003 0 0 0 0 -8483135.1044006348 -3837973.0555973053 0 -3837973.0555973053 -43464479.636913061 0 0 0 0 -56171777.700366974 -19880106.237904072 0 -19880106.237904072 -32381782.333839178 0 0 0 0 -26963206.540458679 -31654008.026468456 0 -31654008.026468456 -138170842.09599757 0 0 0 0 -2828015.7836151123 14657928.970428705 0 14657928.970428705 -87666659.971788228 0 0 0 0 63987787.372238159 -56860244.203144431 0 -56860244.203144431 -27775363.534330845 0 0 0 0 -8155458.4097652435 -1201114.537773028 0 -1201114.537773028 -23438519.460586071 0 0 0 0 30923510.849254608 -31158986.173271537 0 -31158986.173271537 -15541717.587020874 0 0 0 0 70243726.180755615 -24849858.142417192 0 -24849858.142417192 -48607879.750739336 0 0 0 0 77880222.156494141 18866081.607648969 0 18866081.607648969 -41840539.286765754 0 0 0 0 73134480.89345932 10060248.410340428 0 10060248.410340428 -17484081.854179859 0 0 0 0 92789717.098543167 -1167436.268999517 0 -1167436.268999517 -54309835.521575928 0 0 0 0 37668399.621200562 9872878.2574734688 0 9872878.2574734688 -31305932.787181497 0 0 0 0 40623674.608917236 -1713809.6178641319 0 -1713809.6178641319 -52333229.751396418 0 0 0 0 -46951053.605957031 -39000054.514505863 0 -39000054.514505863 -97723138.598619223 0 0 0 0 22393709.78338623 -5933499.4062576294 0 -5933499.4062576294 -49011358.6414814 0 0 0 0 -43067639.276649475 -52327787.496798277 0 -52327787.496798277 -64894476.065518856 0 0 0 0 270226.80355118215 -89017.316045090556 0 -89017.316045090556 486110.89638792397 0 0 0 0 -55929629.226303101 -33517100.087445259 0 -33517100.087445259 7931043.1011639833 0 0 0 0 -30936483.159357071 -94342850.736409426 0 -94342850.736409426 -105729933.68734741 0 0 0 0 -13862280.439819336 -50884958.048751831 0 -50884958.048751831 -130172087.85501933 0 0 0 0 -26534471.118759155 -46480668.307181358 0 -46480668.307181358 -42080565.365099907 0 0 0 0 -12848166.185668945 41537038.145691872 0 41537038.145691872 9833758.0912091732 0 0 0 0 324119322.85250854 -198576567.28082228 0 -198576567.28082228 88048566.652181745 0 0 0 0 192077624.39605713 96283426.139488697 0 96283426.139488697 -50081232.175369263 0 0 0 0 -23958.394297339022 -89028.366570107639 0 -89028.366570107639 399797.07855957164 0 0 0 0 -88155878.823318481 -166429861.30360198 0 -166429861.30360198 57074192.007495403 0 0 0 0 100741512.59529114 -250100160.36037111 0 -250100160.36037111 66588479.313769579 0 0 0 0 23937461.245780945 -122561711.00909162 0 -122561711.00909162 5104564.0619163513 0 0 0 0 306753122.63407135 -147849701.19245696 0 -147849701.19245696 -49978468.635255814 0 0 0 0 24990861.949111938 -20690705.537429571 0 -20690705.537429571 -32625934.236609578 0 0 0 0 -86929693.987020493 -30676906.155766554 0 -30676906.155766554 -32121110.058647156 0 0 0 0 -5070969.02759552 -107918976.69163346 0 -107918976.69163346 39893977.51055479 0 0 0 0 82538509.090057373 -133187256.96583912 0 -133187256.96583912 3691265.3886418343 0 0 0 0 114023437.77559853 -36242448.140836954 0 -36242448.140836954 -19996348.754475355 0 0 0 0 108820185.3922348 -145948794.19814146 0 -145948794.19814146 -27051187.910679698 0 0 0 0 92833898.755317688 -117715171.16373622 0 -117715171.16373622 -47041769.066620804 0 0 0 0 206042359.70191193 -108827025.22571045 0 -108827025.22571045 -46587564.216955498 0 0 0 0 241948148.889534 35067629.538985044 0 35067629.538985044 25053832.478204429 0 0 0 0 115749720.98157501 -38564691.277263641 0 -38564691.277263641 -17544351.650651097 0 0 0 0 106077469.54015207 44416799.647033244 0 44416799.647033244 37391071.990543962 0 0 0 0 63341086.066066742 -3048986.9578773975 0 -3048986.9578773975 -15323452.991035938 0 0 0 0 90082569.193206787 -31922955.920624942 0 -31922955.920624942 43023057.814186193 0 0 0 0 166901.57698822021 -23294204.490434408 0 -23294204.490434408 34169796.108588457 0 0 0 0 -11062231.804447174 -10122956.493027925 0 -10122956.493027925 22404252.422844946 0 0 0 0 4750148.5038404465 4489604.2262441963 0 4489604.2262441963 -35340966.231837749 0 0 0 0 5837220.0063934326 -1849913.3322412968 0 -1849913.3322412968 -5033289.8448760509 0 0 0 0 45281480.289505005 20853919.21368289 0 20853919.21368289 2682600.5711678863 0 0 0 0 34445620.68119812 -12925656.282918811 0 -12925656.282918811 -19858924.667212248 0 0 0 0 5714247.0432281494 16227798.460728884 0 16227798.460728884 -13469582.32918787 0 0 0 0 1568961.9713478088 11139381.197892129 0 11139381.197892129 -16817935.854824543 0 0 0 0 724926.47287021577 -756255.62809005473 0 -756255.62809005473 -597875.62649542058 0 0 0 0 80926104.583159447 -27625944.279713899 0 -27625944.279713899 -15385393.798676968 0 0 0 0 400025.17753272504 -397336.00009374507 0 -397336.00009374507 -315782.79401025153 0 0 0 0 25040814.061824799 -8424391.0502789021 0 -8424391.0502789021 -27631047.434672356 0 0 0 0 14816084.293762207 -19391948.599467993 0 -19391948.599467993 -37373349.745523453 0 0 0 0 359535.54675292969 19960197.65157795 0 19960197.65157795 -65923580.183082342 0 0 0 0 -7647635.2254104614 -7989830.8535768986 0 -7989830.8535768986 -23877135.705170631 0 0 0 0 -10936112.051147461 14011238.210266471 0 14011238.210266471 -15969015.811616063 0 0 0 0 -74190805.216094971 -12966030.538962364 0 -12966030.538962364 -37033433.411380768 0 0 0 0 692867.2747047171 -841266.60227433685 0 -841266.60227433685 -638087.55772633106 0 0 0 0 27648718.518478394 6596048.8067560196 0 6596048.8067560196 -43927307.684882641 0 0 0 0 -12312306.030336857 -38069030.104999036 0 -38069030.104999036 -74789781.071571827 0 0 0 0 -124358361.22618866 -54796391.43530941 0 -54796391.43530941 -20122266.784566641 0 0 0 0 1592487.5446225293 736216.59575913846 0 736216.59575913846 133512.70425310615 0 0 0 0 -14640952.988220215 -22478445.800689608 0 -22478445.800689608 -15797939.674676418 0 0 0 0 -47708609.203178406 -23032268.038469493 0 -23032268.038469493 -1305677.1794640422 0 0 0 0 5997343.1189669929 1911802.5286542773 0 1911802.5286542773 268643.1310697688 0 0 0 0 -93217771.629058838 -39080003.831493169 0 -39080003.831493169 6701621.6223541498 0 0 0 0 -48018494.060736179 -27890002.894652091 0 -27890002.894652091 -29247496.17408967 0 0 0 0 50784607.751396179 12681549.607901692 0 12681549.607901692 -9439842.5510748923 0 0 0 0 54743783.016708374 -1157114.734700352 0 -1157114.734700352 38899606.473904878 0 0 0 0 21653245.537314892 -15519959.642023198 0 -15519959.642023198 -31574278.703613281 0 0 0 0 14992567.577583313 -30902123.936033249 0 -30902123.936033249 -39088991.7021088 0 0 0 0 75975501.6483078 31217149.558334589 0 31217149.558334589 -95349102.50759685 0 0 0 0 116472704.25402832 39186426.140201449 0 39186426.140201449 -52539495.683662415 0 0 0 0 35342081.937454939 -21678171.456960738 0 -21678171.456960738 -1613897.7572288513 0 0 0 0 8860765.25847435 -9802777.1498069763 0 -9802777.1498069763 8196191.6094808578 0 0 0 0 25032484.257894516 24245027.225183487 0 24245027.225183487 20117469.305693805 0 0 0 0 18791763.218213558 1161488.7963621989 0 1161488.7963621989 -11802517.756227255 0 0 0 0 18331878.272684179 -5899865.0036747418 0 -5899865.0036747418 -6851914.8105700389 0 0 0 0 20869888.04746294 -11737961.000478536 0 -11737961.000478536 -8646612.74933815 0 0 0 0 -7205943.5708236694 -19701698.530840635 0 -19701698.530840635 -2792118.5376914144 0 0 0 0 28289494.577253103 729359.63050621375 0 729359.63050621375 10888144.938770294 0 0 0 0 19812476.460426331 1928888.5623366833 0 1928888.5623366833 -8764155.2691249847 0 0 0 0 2827999.5207824707 -482094.0162062645 0 -482094.0162062645 -7338119.9333238602 0 0 0 0 17444781.72772247 -4943264.6174586443 0 -4943264.6174586443 -7857772.85012771 0 0 0 0 13804165.102561951 -21391984.920488596 0 -21391984.920488596 -29253724.393288136 0 0 0 0 27569899.890197754 -7670472.2192018032 0 -7670472.2192018032 -15660984.014946699 0 0 0 0 48212114.199157715 -58551657.056661725 0 -58551657.056661725 -30800211.627548218 0 0 0 0 -12743387.057971954 -45617846.423333466 0 -45617846.423333466 -46540064.144449234 0 0 0 0 1233399.9606628418 -21176592.351225853 0 -21176592.351225853 -62665987.135812283 0 0 0 0 -28499613.466144562 -19511647.785254359 0 -19511647.785254359 -26755524.854971409 0 0 0 0 6770529.5866088867 -5684407.3251862526 0 -5684407.3251862526 -51228895.370445967 0 0 0 0 12229682.894340515 -18327257.334550619 0 -18327257.334550619 -28029619.247772694 0 0 0 0 55915725.064926147 -13967881.519514561 0 -13967881.519514561 -54942631.0639925 0 0 0 0 48954059.838424683 -21665578.358459473 0 -21665578.358459473 36548311.802865386 0 0 0 0 20475701.938858032 10975122.394617558 0 10975122.394617558 7052382.1202964783 0 0 0 0 23576731.752487183 19654094.791379929 0 19654094.791379929 -18004865.511137009 0 0 0 0 -18442648.123016357 -62702088.412047386 0 -62702088.412047386 46592869.081852436 0 0 0 0 373698.7586934939 -491331.71319367085 0 -491331.71319367085 -358230.99416338443 0 0 0 0 -1395232.9481086731 -103474062.75885022 0 -103474062.75885022 -3056048.5172796249 0 0 0 0 -72487167.071121216 -95307896.052442074 0 -95307896.052442074 -2169179.9150876999 0 0 0 0 106608575.37918091 3436539.0395741463 0 3436539.0395741463 -13371479.498101234 0 0 0 0 485019.35088413954 81759.713642925024 0 81759.713642925024 -51549.158049244201 0 0 0 0 -36628983.029319763 -43046876.799136877 0 -43046876.799136877 -31144818.704415321 0 0 0 0 32136458.890647888 -3393602.43714571 0 -3393602.43714571 -2515843.8672884405 0 0 0 0 29755736.400848389 -18860467.979207039 0 -18860467.979207039 -11099237.146994352 0 0 0 0 68895333.448303223 8500190.3198804855 0 8500190.3198804855 -2854506.0031369776 0 0 0 0 43963868.153114319 -20723684.612945557 0 -20723684.612945557 2447237.827627182 0 0 0 0 35940535.855392456 -4872137.7695622444 0 -4872137.7695622444 -25342915.182064533 0 0 0 0 24560165.605003357 -14837748.124816418 0 -14837748.124816418 -523925.14081764221 0 0 0 0 29037460.407569885 -16843066.849661112 0 -16843066.849661112 -10649271.568161964 0 0 0 0 43042031.27872467 -8786441.7386937141 0 -8786441.7386937141 -11533566.274116039 0 0 0 0 29747293.109548569 -21367465.304661274 0 -21367465.304661274 -2677521.6736650467 0 0 0 0 23074134.746917725 -2964391.4736027718 0 -2964391.4736027718 -1982061.9976042509 0 0 0 0 32639897.827011108 -2887172.8364639282 0 -2887172.8364639282 -2339357.455470562 0 0 0 0 2174428.7846113071 -223127.07539916039 0 -223127.07539916039 -786613.29847942758 0 0 0 0 6103028.8506820053 72200.166188236326 0 72200.166188236326 -1407426.2437205177 0 0 0 0 8196792.7816314697 -2275055.2972794175 0 -2275055.2972794175 -2060213.3114650846 0 0 0 0 7469301.2995948792 -2240860.9672924876 0 -2240860.9672924876 -2022057.3246107101 0 0 0 0 5509711.8315238953 771076.95928989351 0 771076.95928989351 -3323441.2842710018 0 0 0 0 5512373.5177459717 837202.33540475368 0 837202.33540475368 -2650925.2052648067 0 0 0 0 6330906.7757369429 -1096483.9666542225 0 -1096483.9666542225 -2270620.3256803779 0 0 0 0 17426383.730400085 -10170985.389954567 0 -10170985.389954567 6218529.3041765094 0 0 0 0 23781105.633087158 -15424257.34368372 0 -15424257.34368372 8731959.0050964355 0 0 0 0 15275098.793869019 -15474738.466784477 0 -15474738.466784477 17662112.379325867 0 0 0 0 26746270.648529053 -22634696.461204529 0 -22634696.461204529 9485684.1980552673 0 0 0 0 23265453.990905762 -17138619.373059273 0 -17138619.373059273 933312.39206409454 0 0 0 0 23105905.188194275 -16764531.945309162 0 -16764531.945309162 5447601.1342191696 0 0 0 0 -4115859.2767181396 -37368602.462060452 0 -37368602.462060452 -46078191.410891771 0 0 0 0 6973294.112991333 -19624635.558538675 0 -19624635.558538675 -17689233.324101448 0 0 0 0 -37575679.42325592 -19484365.002083063 0 -19484365.002083063 4258948.1022119522 0 0 0 0 1041424.1421358995 -342280.1795471143 0 -342280.1795471143 -405594.31496220687 0 0 0 0 2263067.7290575691 -3822058.6054784842 0 -3822058.6054784842 1189183.4947239552 0 0 0 0 -1277599.6033782959 -9530730.7625870705 0 -9530730.7625870705 -6054373.2225208282 0 0 0 0 -8623954.5034446716 -14263829.960319996 0 -14263829.960319996 42287.101191520691 0 0 0 0 2106301.7971954346 -19059219.751172066 0 -19059219.751172066 -17754886.887004852 0 0 0 0 7576492.9886856079 -5731548.8852264881 0 -5731548.8852264881 2134.3158828504384 0 0 0 0 2524215.756980896 -13866569.488501072 0 -13866569.488501072 -2638392.1832699776 0 0 0 0 2983504.9763748255 -5463663.0632440113 0 -5463663.0632440113 1364585.9028531199 0 0 0 0 8357245.8204078674 -3468107.4147052169 0 -3468107.4147052169 -3498864.5177477598 0 0 0 0 4495373.4593391418 -9378323.9512782693 0 -9378323.9512782693 -1071962.6257579029 0 0 0 0 20385485.89604187 -3591806.7736025155 0 -3591806.7736025155 -5423950.035351038 0 0 0 0 -36675968.163024902 20560935.069555759 0 20560935.069555759 14928427.043820381 0 0 0 0 -11801100.882415771 30679203.824950814 0 30679203.824950814 22938866.93586649 0 0 0 0 395555.09343100339 -115234.77592036687 0 -115234.77592036687 -444902.75163911644 0 0 0 0 20703215.522628784 -14512442.518011563 0 -14512442.518011563 -6009367.4194140434 0 0 0 0 13473377.464828491 -9492653.8881287575 0 -9492653.8881287575 -4794433.7968275547 0 0 0 0 14632778.319858551 -15829470.0494736 0 -15829470.0494736 -4787673.2761645317 0 0 0 0 27537132.229278564 -9863028.561074391 0 -9863028.561074391 -6249384.8393808752 0 0 0 0 -1093448.2712554932 -9125562.7330740988 0 -9125562.7330740988 -849281.47260326147 0 0 0 0 969333.65811980516 -787097.22149578109 0 -787097.22149578109 -721504.34451663774 0 0 0 0 8716978.4430389404 39605115.504922509 0 39605115.504922509 -19814038.965837777 0 0 0 0 4377593.4282904491 -1688150.8891795501 0 -1688150.8891795501 -3432304.7346336022 0 0 0 0 -56730140.482282639 -34724398.6258111 0 -34724398.6258111 27404952.354038715 0 0 0 0 29601436.219165802 -51570497.080899775 0 -51570497.080899775 -18967803.19865799 0 0 0 0 5320384.0006561279 3256388.7097802758 0 3256388.7097802758 -519318.03852760792 0 0 0 0 2960135.0867462158 -175453.02471828461 0 -175453.02471828461 -1203312.1144781113 0 0 0 0 2565781.2955566198 -179140.79119816981 0 -179140.79119816981 -2077071.249202386 0 0 0 0 2287502.4786682129 -347632.46682953835 0 -347632.46682953835 -1995018.2784919739 0 0 0 0 4629220.7979769222 -392342.5985869281 0 -392342.5985869281 -2455119.7308670334 0 0 0 0 4018615.6750946045 2671693.1429634094 0 2671693.1429634094 -3893512.4585638046 0 0 0 0 5799532.9719093964 -722884.83100111224 0 -722884.83100111224 -1477701.574864652 0 0 0 0 1317896.3078268543 -560824.31090320647 0 -560824.31090320647 -817305.70982539561 0 0 0 0 30241164.977706909 -7267979.3501935005 0 -7267979.3501935005 -577213.09782218933 0 0 0 0 -2699079.7826766968 -2118658.9554948211 0 -2118658.9554948211 -3098688.7669525146 0 0 0 0 9059851.3382415771 -344576.74140268564 0 -344576.74140268564 -3006275.2835358083 0 0 0 0 12182474.831573486 3496230.120318532 0 3496230.120318532 -637046.59568655491 0 0 0 0 14799601.055358887 -4648414.3214846849 0 -4648414.3214846849 -5563965.305180788 0 0 0 0 12463403.757522583 1903609.2766769826 0 1903609.2766769826 -2440813.0093566179 0 0 0 0 -2256711.3838195801 -3489430.5627177954 0 -3489430.5627177954 -12237942.32610929 0 0 0 0 -178780.29283650964 -1287860.385931046 0 -1287860.385931046 -183304.60109571562 0 0 0 0 897115.500931032 -729666.37913361378 0 -729666.37913361378 -1189589.0488138916 0 0 0 0 7804092.0358886719 -6966685.8672617674 0 -6966685.8672617674 -21700810.517691195 0 0 0 0 -14801238.60055542 6891883.8357460499 0 6891883.8357460499 -13380989.260529041 0 0 0 0 28022410.42195797 -2864728.5540981442 0 -2864728.5540981442 -7211614.6034055948 0 0 0 0 20351920.356506348 1726297.0581332445 0 1726297.0581332445 -4003410.671207428 0 0 0 0 57749219.577125549 -35021494.12229076 0 -35021494.12229076 -9016035.5511915088 0 0 0 0 -7599934.258605957 30613.04930627346 0 30613.04930627346 -4905344.3827240467 0 0 0 0 199459.56053990126 -500699.50945609389 0 -500699.50945609389 -267494.94440868701 0 0 0 0 6461106.8001418412 -1813527.4533066736 0 -1813527.4533066736 -2744714.2526049991 0 0 0 0 2206925.1471546143 -1879830.0647988729 0 -1879830.0647988729 -2036399.162450104 0 0 0 0 635299.12707519531 -1409321.1910899878 0 -1409321.1910899878 -3976973.1132724285 0 0 0 0 6529772.8373227194 -1184915.0027003624 0 -1184915.0027003624 -2968671.0157371694 0 0 0 0 6380561.5654525161 163686.25966430083 0 163686.25966430083 -2687495.6712122164 0 0 0 0 3878133.8856811523 -570211.75284028053 0 -570211.75284028053 -3617885.3792510033 0 0 0 0 757395.16598510742 -6016721.39476192 0 -6016721.39476192 -10147429.631442189 0 0 0 0 3230349.3707733154 154332.26474094391 0 154332.26474094391 -4159928.2923073769 0 0 0 0 3415703.9148073047 -1554906.664973788 0 -1554906.664973788 -363545.34481267992 0 0 0 0 3473429.2043190002 -421969.15071892738 0 -421969.15071892738 -3689061.9589977264 0 0 0 0 941406.15258789062 1215653.1835536957 0 1215653.1835536957 -8069392.3537538052 0 0 0 0 3244741.2727737427 -1436015.2984228134 0 -1436015.2984228134 -244131.1746711731 0 0 0 0 1332186.70703125 285232.00597524643 0 285232.00597524643 -8142646.2239376903 0 0 0 0 2952776.9234349728 -39131.508960984647 0 -39131.508960984647 -3280625.5863349438 0 0 0 0 6368443.0637165308 -636989.7055111425 0 -636989.7055111425 -2758775.5714748064 0 0 0 0 1679762.3565813303 1066103.8365804565 0 1066103.8365804565 -2191998.4907199163 0 0 0 0 18104.304190050811 -18194.536652553827 0 -18194.536652553827 16513.714367822045 0 0 0 0 30850544.791244507 4213270.2382082939 0 4213270.2382082939 10496350.080687284 0 0 0 0 6190676.4524495583 611606.22223936021 0 611606.22223936021 -2215234.906439919 0 0 0 0 3236477.4158096313 -1493303.7734518051 0 -1493303.7734518051 -598703.34150266647 0 0 0 0 56784132.980255127 -27216950.217368126 0 -27216950.217368126 6713363.5357933044 0 0 0 0 44474215.626678467 -50763471.893280029 0 -50763471.893280029 -23655713.840715408 0 0 0 0 471934.41854637861 339358.89565446135 0 339358.89565446135 -427477.94372275751 0 0 0 0 17884325.481567383 -12169374.462099075 0 -12169374.462099075 421178.93458366394 0 0 0 0 4723299.1925429255 -3486533.386179924 0 -3486533.386179924 -1418554.4395081867 0 0 0 0 3053963.4732001796 -856454.22891069949 0 -856454.22891069949 -287018.20319025544 0 0 0 0 -6299300.4588317871 4187801.2815275192 0 4187801.2815275192 9543809.7265825272 0 0 0 0 11464158.453308105 5908633.9541454315 0 5908633.9541454315 9060448.6901049614 0 0 0 0 -10858723.939086914 306099.72643947601 0 306099.72643947601 19953918.375387192 0 0 0 0 44996294.975585938 -1650969.3171510696 0 -1650969.3171510696 9687983.4880065918 0 0 0 0 3360522.5693054199 275327.3030257225 0 275327.3030257225 -4545469.0829069614 0 0 0 0 27516552.930311203 -16055472.789775789 0 -16055472.789775789 3592017.9288797379 0 0 0 0 -725012.11047363281 -3891407.4277086258 0 -3891407.4277086258 1891565.2820520401 0 0 0 0 1248893.0038168877 -2727588.1178465062 0 -2727588.1178465062 -1429129.4006875129 0 0 0 0 10293206.307731569 -1482210.6812496781 0 -1482210.6812496781 -2264359.7572280569 0 0 0 0 4130393.5239868164 1491307.3480844498 0 1491307.3480844498 -8177297.6231584549 0 0 0 0 1710724.134147644 -22120.353167057037 0 -22120.353167057037 -3764467.6936964989 0 0 0 0 7145867.9173897281 -1341103.0218199922 0 -1341103.0218199922 -2407133.0095901485 0 0 0 0 10530364.986939803 -1303358.1303121503 0 -1303358.1303121503 -1624753.3469036848 0 0 0 0 6007166.0662265234 -4139172.4193098992 0 -4139172.4193098992 -2533185.5257092165 0 0 0 0 -6811474.0535736084 -8283900.6940994263 0 -8283900.6940994263 -9325840.7348608971 0 0 0 0 30983564.88053894 41346448.104307652 0 41346448.104307652 -84372129.454052448 0 0 0 0 12906711.435375214 -4687621.7313709259 0 -4687621.7313709259 -15923901.069172382 0 0 0 0 -6133435.4618530273 109202291.99199677 0 109202291.99199677 -4431551.1180839539 0 0 0 0 -46465316.511039734 94479796.826113462 0 94479796.826113462 109872604.32882118 0 0 0 0 -39504203.075805664 -5107665.0372257233 0 -5107665.0372257233 179709096.15444231 0 0 0 0 -6774669.4649353027 10107310.447369576 0 10107310.447369576 30293233.231078863 0 0 0 0 16427047.25553894 -27991979.481261253 0 -27991979.481261253 29535118.566755295 0 0 0 0 109681232.43995667 -88395874.171675682 0 -88395874.171675682 83611987.645377636 0 0 0 0 -10308787.294540405 9565011.8353900909 0 9565011.8353900909 12065566.048256397 0 0 0 0 -17908889.104957581 5139416.0468049049 0 5139416.0468049049 64902870.846004486 0 0 0 0 -11268546.564300537 -3875157.4082612991 0 -3875157.4082612991 30345024.612099648 0 0 0 0 -5383696.2306213379 -11364310.736108303 0 -11364310.736108303 28547845.620188832 0 0 0 0 116032.18659210205 -11887350.452197313 0 -11887350.452197313 14393465.093619347 0 0 0 0 327855.23870849609 -17181475.505604744 0 -17181475.505604744 14186343.904854909 0 0 0 0 23076756.494255066 -14170380.357355595 0 -14170380.357355595 21097657.493955135 0 0 0 0 15319124.296821594 6408464.038711071 0 6408464.038711071 -20556351.356122494 0 0 0 0 84055191.303124428 -29097443.570195407 0 -29097443.570195407 -2329642.1892404556 0 0 0 0 30410466.235786438 44738976.574440002 0 44738976.574440002 -92948145.582315683 0 0 0 0 -19328053.623374939 15140832.428333759 0 15140832.428333759 -29629784.608240128 0 0 0 0 24177816.205951691 -9747586.1666920185 0 -9747586.1666920185 -18882299.650623322 0 0 0 0 -10299127.108276367 -14041562.63332504 0 -14041562.63332504 -16537762.600373268 0 0 0 0 8525221.7914199829 -9868541.0732533932 0 -9868541.0732533932 -47887726.897840023 0 0 0 0 5215255.6552734375 -10407621.150611162 0 -10407621.150611162 -16544976.704683304 0 0 0 0 2952517.3244094849 -2425376.6716239452 0 -2425376.6716239452 -7035334.0524995327 0 0 0 0 11428525.796234131 -20059257.398288727 0 -20059257.398288727 -11530165.473521233 0 0 0 0 17467616.887832642 -8959293.738006115 0 -8959293.738006115 -28022228.943921566 0 0 0 0 17754150.276550293 -19714199.40866518 0 -19714199.40866518 -9975274.80986166 0 0 0 0 31157963.519287109 -23491999.706109524 0 -23491999.706109524 -12535868.477099657 0 0 0 0 29610312.774799347 -20951840.149207473 0 -20951840.149207473 -1083596.1166906357 0 0 0 0 18341630.576751709 -11321175.580091 0 -11321175.580091 -674199.82137393951 0 0 0 0 32016925.103892088 -11519364.430327609 0 -11519364.430327609 19663818.002744675 0 0 0 0 29153998.065002441 -21964297.911009789 0 -21964297.911009789 1690587.4187743664 0 0 0 0 32439875.10446167 -28890131.402638435 0 -28890131.402638435 11570520.001932144 0 0 0 0 30803418.49861145 -21183305.356100559 0 -21183305.356100559 -1131225.7169504166 0 0 0 0 23266115.491424561 -17874496.959032774 0 -17874496.959032774 26569522.314664841 0 0 0 0 10678546.060279846 -10464520.330017567 0 -10464520.330017567 22814603.369627953 0 0 0 0 3916473.3239593506 1286417.4857711792 0 1286417.4857711792 3296493.1318722963 0 0 0 0 40540269.886230469 -39981255.661907196 0 -39981255.661907196 29298303.681759834 0 0 0 0 50667464.154571533 -34910294.808024406 0 -34910294.808024406 27949734.917088509 0 0 0 0 749092.58330324478 -173114.46849666163 0 -173114.46849666163 46167.29470584821 0 0 0 0 32363929.502365112 -20856784.83720994 0 -20856784.83720994 5565834.6815719604 0 0 0 0 34775445.988754272 -16717153.37953043 0 -16717153.37953043 12513664.345682144 0 0 0 0 8455369.6189880371 -5904613.115530014 0 -5904613.115530014 13056121.100744247 0 0 0 0 9103708.1455078125 -2156677.7627296448 0 -2156677.7627296448 20102857.614075601 0 0 0 0 -3678870.9698982239 -10857714.301198244 0 -10857714.301198244 14932336.664470673 0 0 0 0 1291832.8792800903 -4133339.7277374268 0 -4133339.7277374268 12839856.382176399 0 0 0 0 10209645.734313965 -14866340.731863022 0 -14866340.731863022 -72949.597723960876 0 0 0 0 14946541.846946716 -6646148.7174310684 0 -6646148.7174310684 14161983.2765131 0 0 0 0 2205970408.0964184 293739519.59494913 0 293739519.59494913 -122864740.54663204 0 0 0 0 1852743962.9947662 83752305.615089774 0 83752305.615089774 -48479539.842083991 0 0 0 0 1356380.1404383015 -622243.28196192905 0 -622243.28196192905 -117315.4879496152 0 0 0 0 2073895766.9432411 195246653.75310403 0 195246653.75310403 -24542699.144927979 0 0 0 0 -94024577.96055603 -54113937.796656393 0 -54113937.796656393 57304790.417051226 0 0 0 0 51868809.733322144 14852200.77949208 0 14852200.77949208 -38059290.704888463 0 0 0 0 2013986099.9911346 186933075.54770723 0 186933075.54770723 -11800753.238154225 0 0 0 0 1875683587.3125982 69926388.184300587 0 69926388.184300587 -100981926.19351244 0 0 0 0 42475756.272285461 11569351.832182527 0 11569351.832182527 -11609198.745296955 0 0 0 0 3725897.5816071872 -1578588.7593670189 0 -1578588.7593670189 -326696.3663524845 0 0 0 0 -19326899.988056183 -17617765.229282357 0 -17617765.229282357 -2957862.4596307278 0 0 0 0 1022379709.0145683 -225266014.04260466 0 -225266014.04260466 206760457.11729875 0 0 0 0 6539378.1380380224 -1524548.3005038723 0 -1524548.3005038723 -899320.72079782514 0 0 0 0 -27256890.076843262 -20313722.32923758 0 -20313722.32923758 13431458.287691355 0 0 0 0 -8516410.8897705078 -27403569.302226484 0 -27403569.302226484 -50415.856560945511 0 0 0 0 2000897207.0530281 177154487.42210212 0 177154487.42210212 -181396586.37255716 0 0 0 0 2149896190.7906342 273897051.23589665 0 273897051.23589665 -62582428.858284764 0 0 0 0 2095323896.8677025 90238158.169622749 0 90238158.169622749 -188339138.11894232 0 0 0 0 2024288664.7396736 172709549.54342183 0 172709549.54342183 -96077180.218626663 0 0 0 0 2137057468.1033745 141684444.74694106 0 141684444.74694106 128235554.81896278 0 0 0 0 2203573281.2506275 100408654.49020059 0 100408654.49020059 -48490050.658766292 0 0 0 0 2131834773.0317583 83628941.522787571 0 83628941.522787571 509945725.61803865 0 0 0 0 1987640808.1955338 25511101.788222671 0 25511101.788222671 -81576.840134954691 0 0 0 0 1713271360.6751862 47198896.152356111 0 47198896.152356111 -82794430.904829651 0 0 0 0 1493302935.9010468 215227039.83122623 0 215227039.83122623 -44309648.845159329 0 0 0 0 23054736.054746628 3525808.2111452995 0 3525808.2111452995 -3113421.8929869337 0 0 0 0 4001969.8901545852 914707.81317106262 0 914707.81317106262 125204.10575006533 0 0 0 0 731896649.53739166 349684763.08191985 0 349684763.08191985 450731798.67983282 0 0 0 0 5430281.5077354386 909921.0456867367 0 909921.0456867367 -423186.4964104016 0 0 0 0 16683571.872596741 1142758.4032797199 0 1142758.4032797199 -2810238.9509382471 0 0 0 0 11811279.693237305 2936162.0437874049 0 2936162.0437874049 215666.32008760498 0 0 0 0 2432047953.8635178 208428247.12757269 0 208428247.12757269 -206987121.75239521 0 0 0 0 1430452397.1509628 1002607007.3864574 0 1002607007.3864574 411742291.04939175 0 0 0 0 1781554.7319828346 -22407.822249857825 0 -22407.822249857825 27450.077473347206 0 0 0 0 2214209017.2599831 -716830473.07410109 0 -716830473.07410109 28863472.477334619 0 0 0 0 2339374128.2711487 381414594.72446322 0 381414594.72446322 -34145619.20596835 0 0 0 0 23506837.415161133 9704637.1806797981 0 9704637.1806797981 -16067218.923017979 0 0 0 0 12982765.688774645 2065926.9173462356 0 2065926.9173462356 -1450650.7687292406 0 0 0 0 -34272092.545066833 -43847080.595793128 0 -43847080.595793128 -50777315.361039639 0 0 0 0 315742810.62493896 11590365.295805216 0 11590365.295805216 -91818407.807554007 0 0 0 0 12294596.210250773 -335120.18109642895 0 -335120.18109642895 -918323.86457056378 0 0 0 0 -25676740.131515503 132704093.07477117 0 132704093.07477117 28056135.667615175 0 0 0 0 -63148436.349716187 10045469.062109828 0 10045469.062109828 40431620.29539299 0 0 0 0 -177088730.70022583 -98136925.783502102 0 -98136925.783502102 -60741580.548079491 0 0 0 0 1162796.937858019 175313.44701208174 0 175313.44701208174 -455891.81776995759 0 0 0 0 -14913513.5 -67701378.68143037 0 -67701378.68143037 -8353199.0781159699 0 0 0 0 7946485.7419013977 540630.89046164602 0 540630.89046164602 -1358350.4372420795 0 0 0 0 4837063.3971363977 1239903.8931015208 0 1239903.8931015208 -869346.65299838281 0 0 0 0 16157132.996299744 7677527.5080611631 0 7677527.5080611631 -8830976.5116085652 0 0 0 0 11601293.508514404 -1746951.0121149402 0 -1746951.0121149402 -876925.97069058567 0 0 0 0 12064203.965019226 -162401.37121407758 0 -162401.37121407758 2613247.6864489401 0 0 0 0 10652354.611824036 2639134.1353352615 0 2639134.1353352615 -2716071.9936494888 0 0 0 0 28552445.034141541 15042752.514236175 0 15042752.514236175 887549.31118195876 0 0 0 0 2146875.3533368334 918251.58330471814 0 918251.58330471814 209321.99410979962 0 0 0 0 5867698.5793533325 -3403715.0327865253 0 -3403715.0327865253 -289958.33222634811 0 0 0 0 840985.49859619141 -2376179.6242181058 0 -2376179.6242181058 -1081.4279965540456 0 0 0 0 6622689.4456176758 2608212.699532765 0 2608212.699532765 -989732.8860046519 0 0 0 0 12367675.042255402 -2905619.5398556883 0 -2905619.5398556883 5663.1989632210825 0 0 0 0 26108807.06829834 -893278.67974245548 0 -893278.67974245548 -9877741.2561544105 0 0 0 0 20069612.641784668 5199759.7171392236 0 5199759.7171392236 112623.23731156175 0 0 0 0 43559450.639781952 23547602.640834585 0 23547602.640834585 6132939.0240730019 0 0 0 0 1289027.5629105195 731413.67952538654 0 731413.67952538654 379739.86612744932 0 0 0 0 17003817.708045959 97291.440010104328 0 97291.440010104328 -2371886.8335806783 0 0 0 0 26919353.649261475 3669540.2846164703 0 3669540.2846164703 -20683096.719151836 0 0 0 0 18371732.787885666 1280173.4614176741 0 1280173.4614176741 -5893041.7634302713 0 0 0 0 15031958.261711121 -8266525.2198099764 0 -8266525.2198099764 -7838852.8782778606 0 0 0 0 18245485.751045227 2158496.4645426311 0 2158496.4645426311 -18997327.13606777 0 0 0 0 8519647.3910064697 -3855526.4102860317 0 -3855526.4102860317 -7530308.4062833823 0 0 0 0 5183268.3570404053 30023697.681002975 0 30023697.681002975 -31732193.192682747 0 0 0 0 11211636.914467476 991142.88963635045 0 991142.88963635045 -446703.73215111298 0 0 0 0 30376295.40124321 5845924.8906923383 0 5845924.8906923383 -9520857.0783650875 0 0 0 0 27570412.962509155 -896736.60152664781 0 -896736.60152664781 11076573.850040436 0 0 0 0 9946328.1149760932 1212964.4464224631 0 1212964.4464224631 -121130.65607098877 0 0 0 0 -134005094.24475098 24410234.930463791 0 24410234.930463791 13983591.026877403 0 0 0 0 26382327.139152527 9396698.7112552077 0 9396698.7112552077 -41536.008054375648 0 0 0 0 13068525.87902832 -4892647.674742274 0 -4892647.674742274 -11584440.817765474 0 0 0 0 -25252189.78555581 -27832865.297447845 0 -27832865.297447845 -516411.2147166729 0 0 0 0 861152.18486631662 137938.62911332399 0 137938.62911332399 -530389.4946990913 0 0 0 0 -5580446.7532272339 7148319.4930779934 0 7148319.4930779934 346560.73407781124 0 0 0 0 1286795.8592332713 -238170.0776398629 0 -238170.0776398629 -129176.36868488404 0 0 0 0 -11473905.36605835 10722865.048110008 0 10722865.048110008 582566.89210784435 0 0 0 0 35726847.638786316 16817816.764617264 0 16817816.764617264 8095029.7928454876 0 0 0 0 -7109738.6229858398 1057448.7504602671 0 1057448.7504602671 2664560.1447184086 0 0 0 0 -8982427.6603469849 3580606.7452789545 0 3580606.7452789545 8872475.0849616528 0 0 0 0 -19348964.481119633 -5850785.6045430414 0 -5850785.6045430414 3414676.3779171705 0 0 0 0 1805793.343678914 942411.1514020972 0 942411.1514020972 -459983.83636129956 0 0 0 0 -20326641.648460388 4437454.5975854397 0 4437454.5975854397 4425849.3685321808 0 0 0 0 -11608276.074485779 10168410.233297523 0 10168410.233297523 12038380.34512952 0 0 0 0 24500386.057282448 19038021.610324621 0 19038021.610324621 -15458979.207189322 0 0 0 0 -37645901.301540375 25302567.013629168 0 25302567.013629168 6285760.4946345016 0 0 0 0 39918.739992393181 -30726.868194229901 0 -30726.868194229901 521125.38870513794 0 0 0 0 243773083.61411667 15338213.627161533 0 15338213.627161533 -55140204.635411263 0 0 0 0 82065796.635650635 -27210744.14950037 0 -27210744.14950037 12514622.42065382 0 0 0 0 52574461.450332642 35712764.357317805 0 35712764.357317805 23283262.613295376 0 0 0 0 41929621.783615112 7230949.7026048601 0 7230949.7026048601 17005237.246286705 0 0 0 0 3690621.1813278198 6477567.2212761641 0 6477567.2212761641 12402434.571380191 0 0 0 0 76792992.95475769 -2146614.4252676368 0 -2146614.4252676368 -9121882.6193340421 0 0 0 0 722926.23675050773 635133.23419032618 0 635133.23419032618 1018993.0026511187 0 0 0 0 3298969.9389675036 954615.20181579702 0 954615.20181579702 -2393412.5434150561 0 0 0 0 74520207.830242157 28370725.042922035 0 28370725.042922035 -3801414.8251111433 0 0 0 0 58385761.752231598 -20681.084827326238 0 -20681.084827326238 -4136811.0523090065 0 0 0 0 4875327.9532737732 12415745.536587715 0 12415745.536587715 7910266.4880657196 0 0 0 0 -298119.07210922241 -1236702.2620382309 0 -1236702.2620382309 2613354.3490927219 0 0 0 0 -11148717.578414917 6600698.3440706134 0 6600698.3440706134 7870631.6925597191 0 0 0 0 703054.46009771153 2876782.6474423334 0 2876782.6474423334 5091910.67296826 0 0 0 0 13242224.808197021 7904495.1677339673 0 7904495.1677339673 2821927.0978324413 0 0 0 0 13000966.86289978 6816094.0062469244 0 6816094.0062469244 2096115.7649366856 0 0 0 0 1772006.9508011341 1093454.7995040976 0 1093454.7995040976 4744364.6114436323 0 0 0 0 142276639.48123169 -106110934.91713476 0 -106110934.91713476 184600933.79099274 0 0 0 0 10025852.31288147 15657962.75290966 0 15657962.75290966 10367349.560876131 0 0 0 0 -6030838.9725799561 6292082.3024345636 0 6292082.3024345636 6962278.9276229143 0 0 0 0 20602104.166999817 2599101.7020570636 0 2599101.7020570636 6644795.4110686779 0 0 0 0 -8469842.1132659912 7404823.4203323126 0 7404823.4203323126 13867297.6859231 0 0 0 0 -5386765.9431152344 5981390.1694844961 0 5981390.1694844961 6557306.9758837223 0 0 0 0 -5531614.2128143311 5508103.4157216549 0 5508103.4157216549 2597302.4351160526 0 0 0 0 -10397577.943893433 -2704626.6420642138 0 -2704626.6420642138 84854.281730055809 0 0 0 0 53947531.07611084 48224955.628433228 0 48224955.628433228 41828374.313682556 0 0 0 0 3158276.9372558594 7868584.2943639755 0 7868584.2943639755 -56054132.358933449 0 0 0 0 4829182.057929486 -1638290.9864667244 0 -1638290.9864667244 -2132881.5026339013 0 0 0 0 214614777.50012207 156867513.34449339 0 156867513.34449339 180906420.69093323 0 0 0 0 149102863.60487366 22762581.163027763 0 22762581.163027763 4106957.7373332977 0 0 0 0 19286753.750976562 19136822.348428726 0 19136822.348428726 -58836130.737152815 0 0 0 0 104904298.77545166 73135575.249352455 0 73135575.249352455 -6371748.5595359802 0 0 0 0 34881942.266616821 -29107784.245513439 0 -29107784.245513439 -29064529.447076797 0 0 0 0 222010510.22103882 97020656.14043045 0 97020656.14043045 -15368788.744671822 0 0 0 0 269158887.42698669 65608399.365614891 0 65608399.365614891 -44471900.808612823 0 0 0 0 403676280.42340088 120925449.83387375 0 120925449.83387375 -80196695.789706111 0 0 0 0 421302851.79063416 153500078.59596777 0 153500078.59596777 -39339813.793087006 0 0 0 0 333204928.98034668 140715007.14058685 0 140715007.14058685 -9052051.0458278656 0 0 0 0 434873931.56118774 142058135.43188095 0 142058135.43188095 -115390578.551054 0 0 0 0 415525936.89686584 214473729.68625259 0 214473729.68625259 -37879371.479593277 0 0 0 0 392915754.22692871 229045008.19729137 0 229045008.19729137 110162350.74653435 0 0 0 0 392173931.96670532 173741873.14899445 0 173741873.14899445 -4079671.5619525909 0 0 0 0 391973063.25106812 159104830.40851402 0 159104830.40851402 -35174373.306852341 0 0 0 0 452430028.90076447 389093095.64830208 0 389093095.64830208 217657891.88682449 0 0 0 0 471899837.39976501 -141351319.20135212 0 -141351319.20135212 -26816930.873441696 0 0 0 0 34038395.886238098 -116099880.3218565 0 -116099880.3218565 -20171320.211127281 0 0 0 0 1616477.7481807917 -532953.87514596619 0 -532953.87514596619 -610507.25407352485 0 0 0 0 619392798.24443054 283056549.97131538 0 283056549.97131538 5348549.7473430634 0 0 0 0 722255965.7820282 -394593757.65277481 0 -394593757.65277481 91759499.231464386 0 0 0 0 3543800.6196212769 39172158.41133976 0 39172158.41133976 -827214.12441062927 0 0 0 0 32534331.739345074 39503980.208172739 0 39503980.208172739 -30863061.8465271 0 0 0 0 15772301.059188843 -6617583.9587211609 0 -6617583.9587211609 -43314500.796173215 0 0 0 0 -1483668.1292037964 27274346.115492821 0 27274346.115492821 -15284604.12830162 0 0 0 0 93787.241770006716 -185276.82720325887 0 -185276.82720325887 -61627.882980808616 0 0 0 0 -3531363.5100231171 49684124.308785081 0 49684124.308785081 669093.13426780701 0 0 0 0 12176979.406509399 21029762.820570946 0 21029762.820570946 21272118.975735188 0 0 0 0 58042977.429107666 -60642012.656754971 0 -60642012.656754971 87622785.904903412 0 0 0 0 552202.2398109436 3046294.3662652969 0 3046294.3662652969 892470.15645503998 0 0 0 0 71721326.684204102 -2144317.6791779995 0 -2144317.6791779995 -16130858.042507172 0 0 0 0 11366511.653488159 -6295065.5055203438 0 -6295065.5055203438 -344433.66108512878 0 0 0 0 40240812.490524292 350886.34711813927 0 350886.34711813927 -4876432.8576169014 0 0 0 0 2416435.2797081624 184248.31250301003 0 184248.31250301003 -4329693.8133962303 0 0 0 0 719708.61375578493 -231353.35749155283 0 -231353.35749155283 -605911.06635995582 0 0 0 0 3374855.4438476562 283933.35254478455 0 283933.35254478455 752732.26644134521 0 0 0 0 -2467572.3596801758 -9083403.0534706116 0 -9083403.0534706116 -14152379.216319561 0 0 0 0 -7160515.7615013123 15602260.232637882 0 15602260.232637882 -31995282.879997253 0 0 0 0 5433525.7477722168 -8389678.6768608093 0 -8389678.6768608093 13570517.944503784 0 0 0 0 -53888.736560039222 -70561.310918940231 0 -70561.310918940231 -299912.24302222161 0 0 0 0 41734839.94354248 -31960124.887634277 0 -31960124.887634277 -54462763.671606064 0 0 0 0 35049362.170227051 -12299291.02507782 0 -12299291.02507782 -44330735.164287567 0 0 0 0 -43117200.734863281 -30983300.90464592 0 -30983300.90464592 -32383401.370996475 0 0 0 0 60853369.522491455 -29041999.241695404 0 -29041999.241695404 -46786292.584806442 0 0 0 0 31709381.734680176 -49791226.514873505 0 -49791226.514873505 -81425126.100585938 0 0 0 0 38865833.66076088 4653524.8798947334 0 4653524.8798947334 -3457579.2062072754 0 0 0 0 -59350456.21496582 -77575819.000677109 0 -77575819.000677109 -55079883.236934662 0 0 0 0 3676874.005467542 -1822415.1231659278 0 -1822415.1231659278 -2212408.6686608945 0 0 0 0 -116027756.4831543 -54198492.067176819 0 -54198492.067176819 -21663133.057697296 0 0 0 0 4123072.2073669434 -963085.30570566654 0 -963085.30570566654 -954164.60873031616 0 0 0 0 4835314.5874637589 -618939.87640491687 0 -618939.87640491687 -5579256.7744660405 0 0 0 0 -46116302.47996521 -48187536.739898682 0 -48187536.739898682 -30858302.65637207 0 0 0 0 6982497.2952717692 -2377341.8343178052 0 -2377341.8343178052 -4236450.5495582316 0 0 0 0 1913305.5772230327 486583.64570355415 0 486583.64570355415 -3567494.0521713961 0 0 0 0 3814386.9199639335 -1992339.3802553378 0 -1992339.3802553378 -1249178.9197755009 0 0 0 0 13205394.303573608 -5645436.8697341979 0 -5645436.8697341979 -10019313.273726702 0 0 0 0 5629948.8214416504 2947841.0645860434 0 2947841.0645860434 6045623.5289440155 0 0 0 0 68907677.189025879 3051086.3683795929 0 3051086.3683795929 -51094208.601516724 0 0 0 0 93063123.842681885 49188566.865056515 0 49188566.865056515 -18880800.161697388 0 0 0 0 2263275.6423339844 -2727346.5663299561 0 -2727346.5663299561 -7573998.2049064636 0 0 0 0 6912017.6448364258 -7749355.2217240334 0 -7749355.2217240334 -3461577.8353512287 0 0 0 0 1999884.8417627066 -343314.77811805531 0 -343314.77811805531 -2603675.2653678409 0 0 0 0 -1570260.7626342773 -4832216.1645965576 0 -4832216.1645965576 -6723507.9282579422 0 0 0 0 26934130.497161865 5207914.155466795 0 5207914.155466795 -957216.76012516022 0 0 0 0 9550153.1940727234 3383478.636465013 0 3383478.636465013 819869.0667142868 0 0 0 0 11771531.964157104 -2586297.703660965 0 -2586297.703660965 -4867214.5047333241 0 0 0 0 -3591747.4134063721 11327900.088108301 0 11327900.088108301 4331569.6864681244 0 0 0 0 120753.40376460925 9484.3848228044808 0 9484.3848228044808 -58856.391955244122 0 0 0 0 -3941230.6924133301 -7194155.1860792637 0 -7194155.1860792637 -11119815.873045921 0 0 0 0 311294.94516849518 -12614865.009937931 0 -12614865.009937931 -13849380.857657433 0 0 0 0 -70455.890846252441 -9234537.4494219422 0 -9234537.4494219422 -3760786.578323245 0 0 0 0 -2041918.2537078857 -3732946.7292323112 0 -3732946.7292323112 -7131698.4953929186 0 0 0 0 1494587.4265975356 -1699400.4903576523 0 -1699400.4903576523 299430.97300413006 0 0 0 0 10865703.871917725 -1869912.161524415 0 -1869912.161524415 -9637861.4722611457 0 0 0 0 9657994.8742828369 -14468466.151964426 0 -14468466.151964426 -7056214.0559149981 0 0 0 0 -9070484.5845336914 -11871484.679722905 0 -11871484.679722905 -10367361.298019588 0 0 0 0 2563996.1241689739 -925537.21366420388 0 -925537.21366420388 -5325724.8140039425 0 0 0 0 20654399.278022766 -11717754.578827173 0 -11717754.578827173 -11798997.534287333 0 0 0 0 42543626.483200073 38841714.194787979 0 38841714.194787979 58960572.789031982 0 0 0 0 24172410.472183228 -4214914.942348659 0 -4214914.942348659 -14262344.992170811 0 0 0 0 1115019.7781249583 775038.54609882459 0 775038.54609882459 762335.56255275244 0 0 0 0 15442877.057609558 7638757.8150673509 0 7638757.8150673509 -41458287.052375793 0 0 0 0 129862356.21328735 -103894632.26787472 0 -103894632.26787472 65749811.863942146 0 0 0 0 653792322.12689209 -31784849.376796722 0 -31784849.376796722 -14874259.674146175 0 0 0 0 611808117.51393127 51662848.657160759 0 51662848.657160759 -35268139.236011505 0 0 0 0 366779706.03839111 -76415138.508033752 0 -76415138.508033752 -21630029.358393908 0 0 0 0 337307793.47637939 19876698.133601189 0 19876698.133601189 45293208.606384277 0 0 0 0 331245084.00860596 27363181.585196495 0 27363181.585196495 47225120.021229744 0 0 0 0 466330675.39202881 57212838.401628494 0 57212838.401628494 16113108.751070976 0 0 0 0 27583061.670410156 -418031.49125552177 0 -418031.49125552177 116075233.55525398 0 0 0 0 176356264.71240234 -10189207.574345589 0 -10189207.574345589 59475232.359171867 0 0 0 0 171044458.32684326 29875688.836532593 0 29875688.836532593 39475133.101583481 0 0 0 0 117743753.92272949 7098143.2701387405 0 7098143.2701387405 40051190.067574084 0 0 0 0 197250357.12481689 53844673.746566772 0 53844673.746566772 -17629799.257640839 0 0 0 0 323885343.31016541 32198548.644621849 0 32198548.644621849 7797432.6834011078 0 0 0 0 316244346.16324615 36357123.670133591 0 36357123.670133591 76063697.478908539 0 0 0 0 203566681.13250732 34589746.451735497 0 34589746.451735497 18136176.813606262 0 0 0 0 316526701.10162354 26747215.046956301 0 26747215.046956301 -28348982.616514206 0 0 0 0 191656707.29031372 61214681.812652588 0 61214681.812652588 -24942903.79533577 0 0 0 0 344937826.29087067 86707834.163036346 0 86707834.163036346 -49910901.410007477 0 0 0 0 360353911.15039062 58393018.952615738 0 58393018.952615738 -51440506.723934174 0 0 0 0 286587642.72860718 96589903.950890541 0 96589903.950890541 -41614259.197100639 0 0 0 0 266855588.97045898 42764475.827508211 0 42764475.827508211 -51216035.849025726 0 0 0 0 105713827.11752319 38241569.507862091 0 38241569.507862091 -11031132.329436779 0 0 0 0 163285235.26040649 5784382.8162298203 0 5784382.8162298203 -24649149.01333046 0 0 0 0 34290184.404709816 6958671.3044618629 0 6958671.3044618629 3014196.8606613874 0 0 0 0 1616768.3528159857 724648.5784137845 0 724648.5784137845 3380964.9201880363 0 0 0 0 462055041.8992157 94063942.571596146 0 94063942.571596146 -70464612.803420067 0 0 0 0 431881630.30740356 122154369.4756279 0 122154369.4756279 -93144907.119866371 0 0 0 0 449308608.67352295 76973930.923303604 0 76973930.923303604 -81204106.936462402 0 0 0 0 389701739.89639282 117119262.17680359 0 117119262.17680359 -80066412.02118665 0 0 0 0 431580061.92611694 58175565.108316422 0 58175565.108316422 -42813623.529994011 0 0 0 0 431016773.95494843 32172990.439288855 0 32172990.439288855 64002604.714836121 0 0 0 0 366919301.09780884 67556031.295444489 0 67556031.295444489 -36345289.080329895 0 0 0 0 4157998.1735877059 -68094.989273261279 0 -68094.989273261279 -70312.967768353526 0 0 0 0 17213311.507522583 4212892.3301961422 0 4212892.3301961422 2920992.6482343823 0 0 0 0 2253043.6545359083 665412.0911571756 0 665412.0911571756 2121527.1093931287 0 0 0 0 666379629.02444458 213639077.84754419 0 213639077.84754419 -9815176.6244163513 0 0 0 0 558658844.93491364 233859106.77526438 0 233859106.77526438 80937063.170526505 0 0 0 0 396760691.41586304 133074871.67612934 0 133074871.67612934 164129960.34593105 0 0 0 0 16828824.915456772 3011010.809566021 0 3011010.809566021 892362.79048609734 0 0 0 0 -25472794.977460504 105947679.00433767 0 105947679.00433767 -15486141.949651718 0 0 0 0 665197417.60267639 199702426.48173046 0 199702426.48173046 42967208.50165844 0 0 0 0 9030695.6350768879 1707359.4223352228 0 1707359.4223352228 153252.4465933168 0 0 0 0 15292591.704711914 2830086.3455499858 0 2830086.3455499858 336010.19039020326 0 0 0 0 -46702997.737541199 106652159.06303072 0 106652159.06303072 44248493.271285057 0 0 0 0 42594.074477884918 -68090.5917737782 0 -68090.5917737782 757735.36006340478 0 0 0 0 1009185709.1988373 131652128.87404895 0 131652128.87404895 -57682653.162055016 0 0 0 0 824279372.68371582 28093780.664547443 0 28093780.664547443 -4716489.8765034676 0 0 0 0 742146615.39792633 439862480.74989939 0 439862480.74989939 200299342.81274033 0 0 0 0 23401.855885498226 119697.24523385242 0 119697.24523385242 102140.36047626105 0 0 0 0 951642056.70956421 240664882.97264385 0 240664882.97264385 -234951812.80865526 0 0 0 0 808133855.20063782 197041347.27186483 0 197041347.27186483 159429438.1306839 0 0 0 0 3667659.5071394108 -432909.54582196102 0 -432909.54582196102 1524810.0866431028 0 0 0 0 10483421.989646912 264759.73690733872 0 264759.73690733872 1082892.6278167441 0 0 0 0 772330886.45326233 313115622.29365247 0 313115622.29365247 -56416059.315222442 0 0 0 0 289760572.7273407 249092910.60742188 0 249092910.60742188 102346912.25805855 0 0 0 0 14529409.514352798 -1413568.9465353033 0 -1413568.9465353033 -257542.40722884238 0 0 0 0 5157939.8090744019 -6941021.9617159292 0 -6941021.9617159292 -7607045.915109653 0 0 0 0 3762422.822363127 272997.79440988973 0 272997.79440988973 -154044.12869966988 0 0 0 0 16861989.98500824 2629618.9845965095 0 2629618.9845965095 -1450313.76012218 0 0 0 0 -2384374.3765869141 -16961887.969830904 0 -16961887.969830904 -11570154.329431269 0 0 0 0 25552413.184114456 9283847.9151686616 0 9283847.9151686616 -9809648.4125757217 0 0 0 0 1145509.2700531445 115977.70949453488 0 115977.70949453488 -39333.23886923604 0 0 0 0 1254071.7748439461 -243374.52212151513 0 -243374.52212151513 253695.08738981973 0 0 0 0 -12944885.589723587 -46104524.570318423 0 -46104524.570318423 -29118578.752833664 0 0 0 0 -2588688.7719726562 -12248444.548068829 0 -12248444.548068829 -26130865.055545077 0 0 0 0 38067281.396179199 -3415100.7854378894 0 -3415100.7854378894 -33440310.271248721 0 0 0 0 72722831.631637573 12911081.568964124 0 12911081.568964124 -210192.62840289911 0 0 0 0 24063086.335208893 -51555968.594922863 0 -51555968.594922863 -54258241.32487274 0 0 0 0 470782201.03027344 -63419045.638059728 0 -63419045.638059728 -77169832.700565293 0 0 0 0 20234261.829803467 9697850.4252493624 0 9697850.4252493624 -13527500.96813198 0 0 0 0 10887524.27381897 -5794909.1490743365 0 -5794909.1490743365 -2288669.8148607835 0 0 0 0 84969363.194791794 -39021288.007568754 0 -39021288.007568754 -20893921.676203065 0 0 0 0 94517787.238891602 -74957268.385436416 0 -74957268.385436416 71118320.056083471 0 0 0 0 52954154.597305298 -33139856.968698122 0 -33139856.968698122 276638.25800391642 0 0 0 0 338417644.25467873 237133434.18933737 0 237133434.18933737 206040325.04278129 0 0 0 0 358943.93048554705 -223120.60326199234 0 -223120.60326199234 -810682.14754958695 0 0 0 0 842915665.24844742 186033828.18761167 0 186033828.18761167 -225258622.37356269 0 0 0 0 176468060.93430328 106049776.15802133 0 106049776.15802133 162224509.44332254 0 0 0 0 -67624954.382110596 46889636.186513662 0 46889636.186513662 17278845.328890234 0 0 0 0 53071986.000091553 81503688.099998012 0 81503688.099998012 -39089147.248288944 0 0 0 0 54802745.980585098 50805963.59720742 0 50805963.59720742 68097391.030496299 0 0 0 0 44301629.3996315 23955915.132377908 0 23955915.132377908 -21780486.756237328 0 0 0 0 21871168.188430786 12521087.359344065 0 12521087.359344065 -19459260.509651877 0 0 0 0 522852473.71890259 50278813.35522902 0 50278813.35522902 -37613955.157924891 0 0 0 0 89766146.350357056 -111811660.65000868 0 -111811660.65000868 13738834.441306949 0 0 0 0 1183255.1362528349 -530766.16126934811 0 -530766.16126934811 -2857049.9766477095 0 0 0 0 -43707146.701845169 -39871853.842154711 0 -39871853.842154711 50376489.825637817 0 0 0 0 22026817.158120155 12508577.40309963 0 12508577.40309963 -11602532.118743062 0 0 0 0 9068963.2454681396 -20506446.690261364 0 -20506446.690261364 -25655935.849225163 0 0 0 0 17353709.953125 3868963.7296664715 0 3868963.7296664715 -27574739.195454776 0 0 0 0 16104774.303970337 4220585.9555178881 0 4220585.9555178881 -21451480.62249279 0 0 0 0 -72473.265523150563 -55548.982214754447 0 -55548.982214754447 -111769.18028517615 0 0 0 0 1603203.3627311029 -1379635.7815164179 0 -1379635.7815164179 130346.5371957217 0 0 0 0 -14251686.862854004 -30298511.548347831 0 -30298511.548347831 -33217177.519285023 0 0 0 0 -17212813.877349854 -21447051.428964734 0 -21447051.428964734 -15780389.428127646 0 0 0 0 -14462189.392448425 3530525.9681051373 0 3530525.9681051373 -6046214.122122407 0 0 0 0 9753537.0431976318 -10031420.272266269 0 -10031420.272266269 -37006163.330259085 0 0 0 0 12961358.896697998 -23692601.692313433 0 -23692601.692313433 -54815919.030626893 0 0 0 0 -6475197.3984832764 -13990185.589811325 0 -13990185.589811325 -47794528.949114323 0 0 0 0 -37942725.672241211 -11603258.146138966 0 -11603258.146138966 -43212441.448487997 0 0 0 0 -4927079.7224578857 -34055096.660238862 0 -34055096.660238862 -41799899.943964243 0 0 0 0 8321945.1092376709 -9131590.0146299601 0 -9131590.0146299601 -34590955.99407047 0 0 0 0 468147.62205815315 -69709.75450646691 0 -69709.75450646691 -303898.56995298457 0 0 0 0 489134.16607666016 -4753937.514621973 0 -4753937.514621973 3214035.1162593961 0 0 0 0 70879119.06980896 115457815.62809259 0 115457815.62809259 72649213.334296942 0 0 0 0 21462306.969573975 -3358663.9698488712 0 -3358663.9698488712 16499937.741089642 0 0 0 0 -14208769.144363403 12191842.98275888 0 12191842.98275888 11809255.945170641 0 0 0 0 37402994.105323792 -30127184.380309463 0 -30127184.380309463 10685442.123557925 0 0 0 0 73254063.859130859 -35873063.853951335 0 -35873063.853951335 7279691.9952273369 0 0 0 0 85242253.875350952 -9117685.0697296262 0 -9117685.0697296262 586083.7848277688 0 0 0 0 -51005545.834265709 -85202075.237149209 0 -85202075.237149209 -28458252.492180586 0 0 0 0 747529.97826769948 -782059.56927308068 0 -782059.56927308068 407707.68755750876 0 0 0 0 -60800774.195175171 -20160322.544194639 0 -20160322.544194639 -27707571.727783918 0 0 0 0 -6445188.7258176804 -77677663.34635821 0 -77677663.34635821 -45498583.518873215 0 0 0 0 27904698.258541107 -1482579.3782972395 0 -1482579.3782972395 -43282147.607432365 0 0 0 0 -40075885.584335327 -32553863.647393703 0 -32553863.647393703 -34286999.929935694 0 0 0 0 35541208.841033936 -42292349.885886848 0 -42292349.885886848 -39491058.12113905 0 0 0 0 -10828244.706613541 -51134152.337358139 0 -51134152.337358139 -26104434.380449891 0 0 0 0 25084724.049835205 6448296.8470091671 0 6448296.8470091671 -28033146.378478885 0 0 0 0 26391395.379470825 6556666.4044980109 0 6556666.4044980109 -28304627.540240586 0 0 0 0 83766231.505569458 -114027804.62696257 0 -114027804.62696257 59876902.277843244 0 0 0 0 75406424.85925293 15848873.792435706 0 15848873.792435706 -28249947.722028337 0 0 0 0 214465271.58129883 -11793494.98147887 0 -11793494.98147887 -22755259.411587987 0 0 0 0 90333460.893676758 -71886288.938903123 0 -71886288.938903123 -21848249.055885646 0 0 0 0 -29683679.128372192 -38740127.891595677 0 -38740127.891595677 -20356594.940347582 0 0 0 0 -54502252.23841095 -81309901.063483357 0 -81309901.063483357 135691822.08012748 0 0 0 0 -18005048.694580078 -71209781.130718157 0 -71209781.130718157 50655480.808796793 0 0 0 0 -83789012.352613449 -39707000.747768313 0 -39707000.747768313 72811374.761917308 0 0 0 0 -119645189.40013123 -15269793.187456548 0 -15269793.187456548 68743753.445613742 0 0 0 0 43444550.022006989 10074058.854297582 0 10074058.854297582 -33590589.924744077 0 0 0 0 455697.38475948572 -174014.79101650394 0 -174014.79101650394 11539.241420704495 0 0 0 0 145137466.52027893 -51160022.914448649 0 -51160022.914448649 -122156.94404944536 0 0 0 0 -56321623.465805054 17434782.28482205 0 17434782.28482205 162421.79494533845 0 0 0 0 229026075.21066284 -60001698.473506212 0 -60001698.473506212 -136588015.73569393 0 0 0 0 -39004290.072433472 12865655.636294082 0 12865655.636294082 -30837157.203089919 0 0 0 0 1102712.4188413024 -186906.83729628543 0 -186906.83729628543 -27730.197765890862 0 0 0 0 -13609307.951057434 -17659584.888632234 0 -17659584.888632234 -36402.562208884861 0 0 0 0 213349.53142378107 -248845.22508868575 0 -248845.22508868575 203766.68274239052 0 0 0 0 -90778874.823963165 -3968186.356094433 0 -3968186.356094433 52292691.636096835 0 0 0 0 214572.8932123147 -155159.42636156455 0 -155159.42636156455 8323.3375746486709 0 0 0 0 350147042.46563721 -4196224.6649724245 0 -4196224.6649724245 -115262201.33529383 0 0 0 0 281878478.14974976 -192631464.25895452 0 -192631464.25895452 113217311.03916687 0 0 0 0 155749026.47244263 85996421.21746254 0 85996421.21746254 11326401.092852592 0 0 0 0 66122652.836357117 -72208135.878359377 0 -72208135.878359377 43660528.854173899 0 0 0 0 85069374.266372681 22695205.026028425 0 22695205.026028425 55399455.245301127 0 0 0 0 -121176898.07182002 23537455.312968731 0 23537455.312968731 36632462.515212387 0 0 0 0 -144887528.2303772 -177595414.82616985 0 -177595414.82616985 46452506.38616845 0 0 0 0 9962857.3087387085 -123650346.45809409 0 -123650346.45809409 60501684.640250206 0 0 0 0 -199919917.60987854 25421296.33866027 0 25421296.33866027 91040979.161939859 0 0 0 0 43131862.931732178 19579529.635292232 0 19579529.635292232 90535687.69370307 0 0 0 0 -53969539.72151947 -64672020.886247486 0 -64672020.886247486 102446623.99412572 0 0 0 0 10559977.812789917 -23880125.362644792 0 -23880125.362644792 104437997.54665269 0 0 0 0 19408247.702411652 -31585271.659816369 0 -31585271.659816369 10169683.743363619 0 0 0 0 2992799.259552002 34070039.738216698 0 34070039.738216698 17964796.348279089 0 0 0 0 79845930.865867615 9171110.3310242072 0 9171110.3310242072 -60362162.97634244 0 0 0 0 125743860.76408386 -42261037.99979198 0 -42261037.99979198 -32702657.788162112 0 0 0 0 116274511.28427124 98007098.323972762 0 98007098.323972762 14117331.620813251 0 0 0 0 678481.75213382393 -400299.80266402289 0 -400299.80266402289 -268891.593120203 0 0 0 0 -15714560.67024231 13962624.686887771 0 13962624.686887771 -3075980.4438472986 0 0 0 0 39955996.037002563 -16987294.493895411 0 -16987294.493895411 140093719.39864302 0 0 0 0 129066887.8286171 98557905.774594814 0 98557905.774594814 -54632989.814763784 0 0 0 0 15858712.418998718 4446873.7559018135 0 4446873.7559018135 19137964.360005498 0 0 0 0 6731077.2726516724 -13056733.365865767 0 -13056733.365865767 -57829572.172164142 0 0 0 0 2342213.4199878722 -1410663.2987506706 0 -1410663.2987506706 302794.97512549174 0 0 0 0 5636122.1561079025 5401795.7080836333 0 5401795.7080836333 -1626034.203846097 0 0 0 0 34478998.645088196 -89142135.055853605 0 -89142135.055853605 -80506140.778453827 0 0 0 0 66757032.328926086 60576423.311527491 0 60576423.311527491 -6708978.4983514547 0 0 0 0 1506680.6711672852 -950586.4652755633 0 -950586.4652755633 -1127034.2340404391 0 0 0 0 2743878.7430364862 -1948619.2882009856 0 -1948619.2882009856 466221.00874803669 0 0 0 0 6277233.5259933472 -1148855.3333925605 0 -1148855.3333925605 -10500669.749960661 0 0 0 0 13093810.947277069 -3341774.584507972 0 -3341774.584507972 6245387.8554182053 0 0 0 0 57790402.685241699 -8378668.8808860779 0 -8378668.8808860779 -27540182.035981238 0 0 0 0 44547630.586257935 18379240.334532499 0 18379240.334532499 48250864.683809698 0 0 0 0 62059250.330322266 30881034.557557583 0 30881034.557557583 10287534.259127617 0 0 0 0 961181.4842626527 -473817.83225346915 0 -473817.83225346915 -540114.40954899706 0 0 0 0 38925592.791091919 20167405.454193354 0 20167405.454193354 11683324.945537567 0 0 0 0 -1511154.1344680786 -634941.61990237236 0 -634941.61990237236 -4842484.9742634296 0 0 0 0 -993717.80847167969 -3552299.2464330196 0 -3552299.2464330196 -3428523.6641316414 0 0 0 0 46109269.805778503 13549039.951096773 0 13549039.951096773 10534837.018527985 0 0 0 0 2007911.8792407624 -325918.41651261225 0 -325918.41651261225 -2019580.9281936057 0 0 0 0 42021911.137268066 21449971.96258378 0 21449971.96258378 -2211289.287225008 0 0 0 0 19976452.423278809 17038764.730694771 0 17038764.730694771 12234829.293894053 0 0 0 0 42602211.116603851 16870770.668945357 0 16870770.668945357 1956634.0022616386 0 0 0 0 24541562.758199692 14234741.314707637 0 14234741.314707637 758529.53912734985 0 0 0 0 38541552.81967926 15825888.044511199 0 15825888.044511199 2312763.6160135269 0 0 0 0 47047834.758285522 10155832.07441783 0 10155832.07441783 767829.67839682102 0 0 0 0 49949901.358032227 21957516.284234285 0 21957516.284234285 5200966.5920077562 0 0 0 0 4858274.8174133301 -17739389.132390022 0 -17739389.132390022 -128581548.50572014 0 0 0 0 2678134.7824882641 -1339575.6693800371 0 -1339575.6693800371 -284160.02466899529 0 0 0 0 42233434.703956604 17421555.370128393 0 17421555.370128393 1599201.0030814409 0 0 0 0 42807983.355369568 15672432.491150379 0 15672432.491150379 2081879.817442596 0 0 0 0 41384609.073806763 37026075.558111906 0 37026075.558111906 26969012.436009407 0 0 0 0 38826402.611686707 17076336.464162827 0 17076336.464162827 12804484.760764122 0 0 0 0 40623806.498585343 21775149.744235765 0 21775149.744235765 984999.94994068146 0 0 0 0 -60181331.479679108 -120179514.97440624 0 -120179514.97440624 -68626276.063788414 0 0 0 0 115077730.89447021 53078844.324492455 0 53078844.324492455 13694947.126517057 0 0 0 0 1489970.0761951208 -729099.62348402478 0 -729099.62348402478 -142679.97761077108 0 0 0 0 -83312119.775604248 -94013475.609722018 0 -94013475.609722018 -12900804.632291794 0 0 0 0 -57058301.178085327 -127279023.9857614 0 -127279023.9857614 -106310773.14387369 0 0 0 0 -93281216.526000977 -82720382.432926178 0 -82720382.432926178 32182898.808548331 0 0 0 0 96116218.760620117 12296595.015134335 0 12296595.015134335 -121165706.26071548 0 0 0 0 92307993.962905884 15282878.85417366 0 15282878.85417366 -14938472.41946125 0 0 0 0 268648108.52807617 -46743495.628862858 0 -46743495.628862858 -12070570.658465862 0 0 0 0 47618408.391601562 -13444669.894739628 0 -13444669.894739628 -52196738.918735623 0 0 0 0 160807311.54976654 -98073965.277493238 0 -98073965.277493238 -113324061.80102348 0 0 0 0 -143295446.31545258 -168327663.30388379 0 -168327663.30388379 -124724627.94077206 0 0 0 0 659426.76253523584 -608461.1978479512 0 -608461.1978479512 -436833.02126987185 0 0 0 0 234132506.04888916 117298389.47532678 0 117298389.47532678 100775455.32228935 0 0 0 0 40089963.510135651 -28438119.379028916 0 -28438119.379028916 213423292.98282528 0 0 0 0 26275875.885726929 20103896.086479187 0 20103896.086479187 59677145.425248981 0 0 0 0 -30935836.250289917 -53502436.306766033 0 -53502436.306766033 -15294817.271627843 0 0 0 0 -26272112.451526642 -74568298.678374767 0 -74568298.678374767 22108343.662101746 0 0 0 0 -46844772.778594971 -64363391.779597282 0 -64363391.779597282 -100543514.87921524 0 0 0 0 -79816107.534591675 -18358686.152535915 0 -18358686.152535915 -38380215.585841656 0 0 0 0 -61209052.700126648 -77616273.360196352 0 -77616273.360196352 -14841371.046720505 0 0 0 0 -69973424.251815796 -25027177.342729568 0 -25027177.342729568 -3830142.7769767046 0 0 0 0 -51496452.029159546 -40750046.662872791 0 -40750046.662872791 9140153.2102227211 0 0 0 0 -69711473.257716894 -49122947.411095358 0 -49122947.411095358 -3905351.6101512909 0 0 0 0 -72831706.804405212 -15539767.094118595 0 -15539767.094118595 48034776.55530262 0 0 0 0 -68747078.019264221 -25024704.827815652 0 -25024704.827815652 12535140.458956718 0 0 0 0 -72981195.957092285 -24913572.653648376 0 -24913572.653648376 13020094.598005772 0 0 0 0 -54280672.186698914 -24627733.053002357 0 -24627733.053002357 102002215.81643867 0 0 0 0 -2906117.7718887329 52870694.283280134 0 52870694.283280134 73951693.793049693 0 0 0 0 -24838833.525436401 4213452.092926383 0 4213452.092926383 -731929.09186649323 0 0 0 0 14772741.866466522 68068694.006191492 0 68068694.006191492 49749956.41873455 0 0 0 0 199027.64386763534 189073.03813806549 0 189073.03813806549 -90730.199556083418 0 0 0 0 9884245.7912147641 -2451237.795483727 0 -2451237.795483727 -15155801.860015869 0 0 0 0 -59648080.572952271 37323960.424732208 0 37323960.424732208 28481421.327368498 0 0 0 0 -4636810.3559951782 29989952.226882935 0 29989952.226882935 -19432960.185511589 0 0 0 0 -4172836.6668777466 12859517.343728542 0 12859517.343728542 -14249050.234697223 0 0 0 0 139005552.47276306 36652394.167178154 0 36652394.167178154 -103677373.02717841 0 0 0 0 30961657.756996155 -40678836.807184458 0 -40678836.807184458 -116247726.71510965 0 0 0 0 64041801.837905884 23622882.376257896 0 23622882.376257896 31435030.788096905 0 0 0 0 66179767.51331234 41780412.340329826 0 41780412.340329826 121030071.916605 0 0 0 0 215722313.75508881 143332426.16778243 0 143332426.16778243 16941826.784743786 0 0 0 0 249714753.14524841 91380798.741914988 0 91380798.741914988 40165615.940997958 0 0 0 0 310490757.29463196 157646369.38803983 0 157646369.38803983 18547552.420642853 0 0 0 0 301072424.31921387 128528811.01860702 0 128528811.01860702 -49223749.239429951 0 0 0 0 213490709.79013062 214491742.63968194 0 214491742.63968194 150693795.4759407 0 0 0 0 87255.336809806526 26561.157910661772 0 26561.157910661772 53909.883315623738 0 0 0 0 111945250.01581573 95635544.702349901 0 95635544.702349901 93518762.983030796 0 0 0 0 156541816.4083252 97189806.112347126 0 97189806.112347126 43157713.026499033 0 0 0 0 153173629.73470306 38525473.445532203 0 38525473.445532203 34611543.09694314 0 0 0 0 437954729.487854 119642240.49771881 0 119642240.49771881 271793927.03334808 0 0 0 0 685080686.45907593 105035140.85649765 0 105035140.85649765 -115017231.78339195 0 0 0 0 142496098.8626709 85716255.196243048 0 85716255.196243048 38344673.04783535 0 0 0 0 45282.471428543329 77971.346551693976 0 77971.346551693976 236126.10088913399 0 0 0 0 406356998.25434875 237839161.01730764 0 237839161.01730764 -66071727.987574339 0 0 0 0 207610066.03347778 -126744702.40871024 0 -126744702.40871024 22514879.375422001 0 0 0 0 554878.37998331338 -462523.51481620688 0 -462523.51481620688 81696.733223088435 0 0 0 0 70046325.082977295 -80527861.526680708 0 -80527861.526680708 18010615.26955986 0 0 0 0 265740721.97686005 13648329.88022542 0 13648329.88022542 -97372853.924578905 0 0 0 0 -14260.409845218062 174920.87175248563 0 174920.87175248563 374612.18784791091 0 0 0 0 198561799.08019447 65883156.843262032 0 65883156.843262032 -71700067.361030817 0 0 0 0 199866549.00714874 67536319.134604931 0 67536319.134604931 -104709250.02732265 0 0 0 0 140879725.11074829 92429373.085986137 0 92429373.085986137 41596039.099193573 0 0 0 0 178931069.81816864 47256677.424769998 0 47256677.424769998 -48707649.501909971 0 0 0 0 130954357.36592102 231247.00386869907 0 231247.00386869907 -82642435.833733261 0 0 0 0 145315430.07492828 -10558672.001224875 0 -10558672.001224875 -101910285.82616758 0 0 0 0 126602737.65603638 52836409.449175715 0 52836409.449175715 75149216.19364357 0 0 0 0 114597799.75436401 29688044.646385431 0 29688044.646385431 41057871.147441864 0 0 0 0 47929423.655914307 59209767.650738478 0 59209767.650738478 87120249.200752258 0 0 0 0 60511144.278320312 14187304.968595266 0 14187304.968595266 37186521.502057672 0 0 0 0 137343955.32635498 53075247.717651129 0 53075247.717651129 51043793.652469158 0 0 0 0 138171233.38324738 71548998.717627048 0 71548998.717627048 31307733.883651733 0 0 0 0 166152288.90168762 95169177.639957905 0 95169177.639957905 33706068.334070206 0 0 0 0 134143153.55247498 83363509.539550304 0 83363509.539550304 35835385.068695068 0 0 0 0 164775101.53212738 64541031.371882915 0 64541031.371882915 44677554.913656712 0 0 0 0 146927969.31291962 88318131.432149649 0 88318131.432149649 31536040.335519791 0 0 0 0 132027369.43562317 72411956.015045643 0 72411956.015045643 33099645.368141651 0 0 0 0 131151161.4884491 76659645.832126379 0 76659645.832126379 19419861.14935112 0 0 0 0 76458665.514160156 53015046.811025143 0 53015046.811025143 25216916.139636993 0 0 0 0 85686947.47869873 5816858.7279410362 0 5816858.7279410362 -7250619.2845253944 0 0 0 0 108498910.48495483 48853509.193203688 0 48853509.193203688 18866503.987185478 0 0 0 0 130267405.49102783 56481074.27746582 0 56481074.27746582 -1191154.2090916634 0 0 0 0 118386301.04772949 73044066.739149332 0 73044066.739149332 33576815.767461777 0 0 0 0 127314476.83143616 78333414.336993933 0 78333414.336993933 77659542.224741459 0 0 0 0 -37578915.278546095 -13698734.894766735 0 -13698734.894766735 49032038.317473888 0 0 0 0 205490116.46182251 44662399.97490406 0 44662399.97490406 7142609.8936843872 0 0 0 0 -84358.471369877399 271460.09044396132 0 271460.09044396132 64027.80407264363 0 0 0 0 184967847.87045288 91605340.45716095 0 91605340.45716095 21632739.659257889 0 0 0 0 -849225.75288886204 765382.85467772558 0 765382.85467772558 166808.12193228188 0 0 0 0 172585621.81872559 47754580.737054825 0 47754580.737054825 -74441214.643604279 0 0 0 0 -1950.0603447854519 24735.314110983163 0 24735.314110983163 -35634.132086244877 0 0 0 0 759172.97129850555 405329.97883796319 0 405329.97883796319 -819256.26895662723 0 0 0 0 732422.624604702 379078.05832801759 0 379078.05832801759 -405288.71286487579 0 0 0 0 95187509.593086243 52515942.114257097 0 52515942.114257097 32482287.911245167 0 0 0 0 27120913.3881073 34056844.426530838 0 34056844.426530838 39453795.935720921 0 0 0 0 2043904.7481928691 492919.22060372494 0 492919.22060372494 -658055.86343544 0 0 0 0 68304299.112411499 65060105.370023727 0 65060105.370023727 34919279.58422184 0 0 0 0 105231276.10414124 50198443.130316257 0 50198443.130316257 18438706.834427595 0 0 0 0 120335736.47340393 75580136.975492954 0 75580136.975492954 34591605.850352645 0 0 0 0 102338129.19915771 61071213.35576123 0 61071213.35576123 31795992.535291672 0 0 0 0 122103254.95007324 73160629.132200718 0 73160629.132200718 35747411.565008163 0 0 0 0 94070368.945037842 49939521.626574993 0 49939521.626574993 42983637.917416275 0 0 0 0 92404915.083221436 69709313.817905664 0 69709313.817905664 64034026.086257577 0 0 0 0 138942521.75858307 92611742.558894634 0 92611742.558894634 45894944.576763153 0 0 0 0 7174992.9218125343 2116677.8117581829 0 2116677.8117581829 -392814.69196605682 0 0 0 0 741740.91228947171 441352.84117759019 0 441352.84117759019 -262039.16273072921 0 0 0 0 614178.49740956724 212347.67277255841 0 212347.67277255841 -270234.85932720592 0 0 0 0 -2849072.2376950979 10206727.581254192 0 10206727.581254192 -17811162.32504797 0 0 0 0 1101317.726677604 2618121.2982403822 0 2618121.2982403822 62847.196749384981 0 0 0 0 2894030.7435913086 1010413.7108831406 0 1010413.7108831406 441138.9452470094 0 0 0 0 5034393.5178833008 2301584.8792147636 0 2301584.8792147636 392315.59401069582 0 0 0 0 11367283.465164185 13729770.616794705 0 13729770.616794705 -137100.35889953375 0 0 0 0 2507286.3631439209 -3155940.0307674408 0 -3155940.0307674408 9444791.9962100983 0 0 0 0 -5228975.0776596069 5492191.5776700974 0 5492191.5776700974 15270630.571074486 0 0 0 0 64299965.964500427 29951041.965374708 0 29951041.965374708 -17504610.108965158 0 0 0 0 -1972143.0236129761 -24404747.307834148 0 -24404747.307834148 -18821434.92042923 0 0 0 0 -48982985.708572388 -10750119.091985226 0 -10750119.091985226 9577090.772285223 0 0 0 0 -16876075.864383698 64647550.437151194 0 64647550.437151194 -10764892.483282089 0 0 0 0 -7061980.7886295319 -1553021.1691094041 0 -1553021.1691094041 865134.21022796631 0 0 0 0 3063028.2549133301 1339333.5003829002 0 1339333.5003829002 112739.71929550171 0 0 0 0 3303270.2823486328 1694554.0952515602 0 1694554.0952515602 457812.92183494568 0 0 0 0 4532919.8506317139 176717.58634662628 0 176717.58634662628 -271351.25974655151 0 0 0 0 3185114.4253692627 1115863.3572621346 0 1115863.3572621346 617806.34737300873 0 0 0 0 210204.49115030468 -764.42543624714017 0 -764.42543624714017 -63415.97347921133 0 0 0 0 18973545.343780518 4814311.4997110367 0 4814311.4997110367 -475083.84453070164 0 0 0 0 545051.4220321849 1016612.0999903269 0 1016612.0999903269 -429169.2227486968 0 0 0 0 533733.87768177688 1770951.3326820154 0 1770951.3326820154 -987725.24325121613 0 0 0 0 1183448.2347335815 462920.33404231071 0 462920.33404231071 -536469.36605072021 0 0 0 0 -730605.97644050419 1601665.0317921117 0 1601665.0317921117 16042.271199503914 0 0 0 0 -6068739.792098999 21420083.254559517 0 21420083.254559517 -5021974.6075201035 0 0 0 0 1383559.5728702545 -9590192.1574515998 0 -9590192.1574515998 -25998567.784507751 0 0 0 0 8963180.9228820801 28025108.06680584 0 28025108.06680584 -2877686.8707740307 0 0 0 0 19490186.435653687 31882955.379853129 0 31882955.379853129 64860012.814496517 0 0 0 0 7596902.9451293945 45938811.66488266 0 45938811.66488266 97866937.14428091 0 0 0 0 4204751.6308383942 7881933.1723259687 0 7881933.1723259687 48533440.838772774 0 0 0 0 -7448578.8772544861 5480217.0570717454 0 5480217.0570717454 86070304.120853424 0 0 0 0 1205144.481628418 13584126.031002045 0 13584126.031002045 46572654.42378056 0 0 0 0 19554737.063598633 24867570.533781528 0 24867570.533781528 -9399903.857925415 0 0 0 0 159003.94993313402 2079813.5321308151 0 2079813.5321308151 -2057586.4666242166 0 0 0 0 791065.21694536507 738351.99999211915 0 738351.99999211915 -995281.18861042056 0 0 0 0 -110214585.95571136 -13932426.843504906 0 -13932426.843504906 -7851119.8264052868 0 0 0 0 -132152233.58396912 76380100.70672226 0 76380100.70672226 -42045121.562392235 0 0 0 0 -199487553.04979706 95893261.886591911 0 95893261.886591911 -5566028.8843374252 0 0 0 0 -85151948.045349121 -179018225.01000881 0 -179018225.01000881 54444628.769694805 0 0 0 0 55091742.60848999 -131589331.26433659 0 -131589331.26433659 4760097.3213944435 0 0 0 0 -266380200.98280334 -2127501.9242420197 0 -2127501.9242420197 149173267.1214447 0 0 0 0 119889329.47042847 -119715370.77382696 0 -119715370.77382696 -17115106.906951666 0 0 0 0 63215363.670730591 8945318.8397686481 0 8945318.8397686481 44148482.082771063 0 0 0 0 3900474.2566223145 -2758637.6857275963 0 -2758637.6857275963 61767849.473267078 0 0 0 0 36941179.061878204 19412653.870716393 0 19412653.870716393 76585370.120697021 0 0 0 0 772736.05079650879 18591291.3790133 0 18591291.3790133 101935702.65415955 0 0 0 0 -5339221.8460845947 -6508030.0035395622 0 -6508030.0035395622 119052401.53231025 0 0 0 0 353883772.80665588 247859813.14078379 0 247859813.14078379 35151502.858003616 0 0 0 0 102265733.35511208 118156079.03651333 0 118156079.03651333 17806818.665729523 0 0 0 0 242748799.61439514 140683020.70862103 0 140683020.70862103 -8506239.5226383209 0 0 0 0 226415690.47750854 -30780825.908578873 0 -30780825.908578873 -70796736.919010878 0 0 0 0 143780875.64722443 -260397037.96464086 0 -260397037.96464086 133306338.0327177 0 0 0 0 546289378.22257996 -25450674.65058279 0 -25450674.65058279 -74621383.069670081 0 0 0 0 1282019715.219738 -199242277.69390297 0 -199242277.69390297 -278874340.24279785 0 0 0 0 270616735.18978882 269685715.70365334 0 269685715.70365334 443475746.86204433 0 0 0 0 132804486.32362366 -16445681.236386061 0 -16445681.236386061 -144008185.23727942 0 0 0 0 -205127530.99217224 141846201.28016138 0 141846201.28016138 248145416.83191633 0 0 0 0 166034.76009567641 354038.92528291419 0 354038.92528291419 1374628.5614438681 0 0 0 0 -288437246.51152802 99234010.408802032 0 99234010.408802032 49178254.920739174 0 0 0 0 44063591.860092163 208502568.52933788 0 208502568.52933788 56631659.928439975 0 0 0 0 -2269012.749420166 8678565.788392067 0 8678565.788392067 -150756539.13210094 0 0 0 0 405832036.70149994 142297072.77400351 0 142297072.77400351 99455100.295700848 0 0 0 0 58963907.31803894 144233495.32902849 0 144233495.32902849 -188445737.21043491 0 0 0 0 536179.51280464232 301568.51521869376 0 301568.51521869376 -716491.49768706504 0 0 0 0 -188311504.42041016 81623665.624653339 0 81623665.624653339 187866663.85874462 0 0 0 0 526509441.36954498 111605417.9748199 0 111605417.9748199 -449814729.65576649 0 0 0 0 418148259.66952515 -271250824.10378027 0 -271250824.10378027 175053991.55940104 0 0 0 0 163045000.37832642 105644539.23364067 0 105644539.23364067 -29742673.724301338 0 0 0 0 198632043.67295074 -98323318.259277105 0 -98323318.259277105 -59172411.467645645 0 0 0 0 1755108.6333804447 1376900.1574847586 0 1376900.1574847586 -2378416.8849737085 0 0 0 0 -74419621.44594574 17561621.978956699 0 17561621.978956699 66433795.997760773 0 0 0 0 379900013.81755829 -37521576.449853897 0 -37521576.449853897 -44434764.229388237 0 0 0 0 690060302.33450699 -162081396.15655041 0 -162081396.15655041 -64101564.069548607 0 0 0 0 866485.85095207766 1886163.8723250404 0 1886163.8723250404 3740771.8952750186 0 0 0 0 -131953714.26177979 185272462.84206647 0 185272462.84206647 159814213.47637022 0 0 0 0 326236225.99327087 -93117772.764883041 0 -93117772.764883041 91076662.527038574 0 0 0 0 340714174.84382629 1583570.2122468948 0 1583570.2122468948 26212412.085093975 0 0 0 0 323721202.7722702 -33304695.675113678 0 -33304695.675113678 -37955643.907978058 0 0 0 0 339357876.7482605 -7399917.0501613617 0 -7399917.0501613617 -41876211.28477478 0 0 0 0 347119952.49202538 -37947964.061187625 0 -37947964.061187625 -57352613.620471954 0 0 0 0 198757706.46361542 -50044541.738886833 0 -50044541.738886833 10766976.383166313 0 0 0 0 377433558.97412491 -44418450.418584824 0 -44418450.418584824 -57391026.912693977 0 0 0 0 322426690.03750992 -113962171.7580986 0 -113962171.7580986 36574201.818855286 0 0 0 0 1585364.4026201442 2558253.2422144562 0 2558253.2422144562 -283225.2251325706 0 0 0 0 -1735168.4662208557 -5934289.4613323212 0 -5934289.4613323212 -32467182.300367355 0 0 0 0 178669679.49746037 28338654.290021539 0 28338654.290021539 -18046634.366021156 0 0 0 0 158497951.8902359 -34589093.84394598 0 -34589093.84394598 -26290246.294133186 0 0 0 0 245393053.4908905 45108572.358466148 0 45108572.358466148 -17674523.348922491 0 0 0 0 1980871.1865127943 3642676.3699630909 0 3642676.3699630909 -161629.60923558706 0 0 0 0 3562783.8968200684 812336.53160953522 0 812336.53160953522 -1715814.7849636078 0 0 0 0 2756765.1881866455 -2191824.5140635967 0 -2191824.5140635967 -2757346.9686053991 0 0 0 0 4462732.0648956299 2721869.0014467239 0 2721869.0014467239 1605244.7535457611 0 0 0 0 2046367.9134368896 -447724.82528710365 0 -447724.82528710365 1206820.6905356348 0 0 0 0 -16342319.504455566 37759732.183957815 0 37759732.183957815 -42640310.595140457 0 0 0 0 13791913.272872925 1122765.7083954811 0 1122765.7083954811 -11340607.850449085 0 0 0 0 1899675.9278652733 2222552.3474305533 0 2222552.3474305533 -3560564.3439088734 0 0 0 0 146380354.22793579 -141786771.2483077 0 -141786771.2483077 145249864.19247532 0 0 0 0 114494556.4666748 31444475.331307411 0 31444475.331307411 -111250089.22633123 0 0 0 0 -4935441.8172225952 -26338489.290821075 0 -26338489.290821075 -46729317.262890339 0 0 0 0 -17665209.180229187 -3776253.699947834 0 -3776253.699947834 -3610714.8405165672 0 0 0 0 -43567275.670211792 -64605694.776508331 0 -64605694.776508331 -12016666.963467479 0 0 0 0 85098060.619509697 -80790310.813113213 0 -80790310.813113213 -17606640.195342064 0 0 0 0 -73321629.456207275 -61939095.701378822 0 -61939095.701378822 -10358575.7723279 0 0 0 0 459704.25318580121 -207395.79484153539 0 -207395.79484153539 -51559.071397434454 0 0 0 0 -8269143.2409057617 167636332.34085464 0 167636332.34085464 106838593.76581573 0 0 0 0 59065014.693313599 101759946.83551121 0 101759946.83551121 32142057.362774849 0 0 0 0 13006466.379499435 11984729.741767883 0 11984729.741767883 72712134.414262772 0 0 0 0 116275048.85415649 115701279.71319723 0 115701279.71319723 -407280.27252388 0 0 0 0 1497193.4933853499 1371680.0087059624 0 1371680.0087059624 -3618722.0093858768 0 0 0 0 92024840.6902771 39994051.959388256 0 39994051.959388256 -38107840.565314829 0 0 0 0 -31979995.14738369 -11982652.998547077 0 -11982652.998547077 62864367.381418228 0 0 0 0 39616022.431594849 -12909131.137439728 0 -12909131.137439728 2069786.2335190773 0 0 0 0 44858111.04817009 6784977.1622425318 0 6784977.1622425318 10887651.290140152 0 0 0 0 468180724.98190308 86577094.382947922 0 86577094.382947922 -1899732.4236469269 0 0 0 0 715675347.38918304 -7783796.7504348755 0 -7783796.7504348755 -182017359.2664566 0 0 0 0 526151381.98288727 82377997.341468334 0 82377997.341468334 -214896169.21097183 0 0 0 0 46475573.40953064 107208922.94693756 0 107208922.94693756 40891574.428377151 0 0 0 0 554931409.04571533 -230742490.84354877 0 -230742490.84354877 -22207379.967610598 0 0 0 0 -12312385.705444336 75277953.342936516 0 75277953.342936516 26254990.079540253 0 0 0 0 702474.87633097917 837248.96244656667 0 837248.96244656667 -122755.09735779557 0 0 0 0 6321585.894241333 -12020703.969449043 0 -12020703.969449043 -28003480.398224831 0 0 0 0 80190975.843223572 21078972.691225052 0 21078972.691225052 -16848240.48241806 0 0 0 0 -6506069.2860488892 1079807.5256724358 0 1079807.5256724358 4894678.9357721806 0 0 0 0 508846331.91840458 137922200.90783158 0 137922200.90783158 -60315095.329057693 0 0 0 0 2189505.2793134972 3525028.0403542519 0 3525028.0403542519 5770345.0178107275 0 0 0 0 -218416369.02377319 17841343.963783264 0 17841343.963783264 166723044.59145546 0 0 0 0 153485936.15290833 -166132574.01442242 0 -166132574.01442242 148189129.28274393 0 0 0 0 435787606.05052185 357793579.25479698 0 357793579.25479698 -251228561.76642227 0 0 0 0 -486638.12604448199 1771274.0778993256 0 1771274.0778993256 5981313.6818362596 0 0 0 0 -1017319.5761032104 7835819.6411480904 0 7835819.6411480904 3490262.9984804988 0 0 0 0 -8359834.4880867004 8598905.3480582237 0 8598905.3480582237 11216896.95933342 0 0 0 0 -360825.57811737061 2114314.4335136414 0 2114314.4335136414 7084699.9419808686 0 0 0 0 18511691.661392212 13439457.429084063 0 13439457.429084063 9588055.9289793968 0 0 0 0 19415801.454885244 25540984.920980081 0 25540984.920980081 15139764.392242432 0 0 0 0 3454213.8218160234 -74166.058191332966 0 -74166.058191332966 -2508116.7650863798 0 0 0 0 14512628.770095825 2998855.1700247526 0 2998855.1700247526 7902721.6280946732 0 0 0 0 8228848.5828533173 18636448.293147802 0 18636448.293147802 20489979.706291199 0 0 0 0 -5720194.1917800903 6566179.9512498379 0 6566179.9512498379 9071195.9222300053 0 0 0 0 400094.41934967041 3211965.6488089561 0 3211965.6488089561 9326463.3820939362 0 0 0 0 -8006403.0791168213 4032052.2051995397 0 4032052.2051995397 756821.27878856659 0 0 0 0 -7013472.027633667 1448740.3900632858 0 1448740.3900632858 6094604.2774111032 0 0 0 0 824555.29560661316 18515594.930647969 0 18515594.930647969 -9361385.0061438084 0 0 0 0 19688886.63999939 12848334.17767632 0 12848334.17767632 -12428007.469231725 0 0 0 0 -30156986.532360077 -464479.07171869278 0 -464479.07171869278 -148898.97841691971 0 0 0 0 -9555882.9572525024 35776051.771744989 0 35776051.771744989 -25292903.459264994 0 0 0 0 31042807.818313599 -20613612.013147891 0 -20613612.013147891 -77780561.405701876 0 0 0 0 9214356.4018096924 -26479434.806100607 0 -26479434.806100607 -37210952.334913015 0 0 0 0 15608346.874118805 28956636.971520185 0 28956636.971520185 9458634.1652684212 0 0 0 0 -11895937.002365112 1138181.181836307 0 1138181.181836307 6701223.8435716629 0 0 0 0 2367725.3238579165 2323741.5899902955 0 2323741.5899902955 -468586.20484171831 0 0 0 0 927816.05367694423 4760830.8147733025 0 4760830.8147733025 9313313.7089158129 0 0 0 0 58046835.986167908 101865260.1003418 0 101865260.1003418 32464623.9634161 0 0 0 0 368728269.65294266 -20435409.250467062 0 -20435409.250467062 -43208968.820360184 0 0 0 0 1303615.0800579041 3575271.9216254279 0 3575271.9216254279 6353566.4127249718 0 0 0 0 -35504164.657478333 20806629.485988379 0 20806629.485988379 22299945.767577887 0 0 0 0 -37559132.871520996 33597899.681527615 0 33597899.681527615 -52769962.8387146 0 0 0 0 -2522479.3005065918 4350647.0441141725 0 4350647.0441141725 -113490249.50693905 0 0 0 0 -95272188.187042236 -22710939.813105837 0 -22710939.813105837 -84413538.100400507 0 0 0 0 8376445.8940696716 27431953.013804227 0 27431953.013804227 -62218312.377659112 0 0 0 0 -2253189.8516750336 1115158.4811359644 0 1115158.4811359644 -75811592.429313183 0 0 0 0 25405641.351969719 -45189070.156843513 0 -45189070.156843513 -109882674.14288843 0 0 0 0 1090983.0878206715 1899.4552493095398 0 1899.4552493095398 -754299.0263240675 0 0 0 0 81431185.823097229 26011055.566520214 0 26011055.566520214 -115137085.05026872 0 0 0 0 25179605.235710144 386206.59900867939 0 386206.59900867939 -117180095.04002357 0 0 0 0 134526825.76551819 -26127911.310762063 0 -26127911.310762063 -205436671.18917644 0 0 0 0 37782924.223129272 27153896.255152941 0 27153896.255152941 86360148.048400879 0 0 0 0 49497126.749534607 66579494.671036959 0 66579494.671036959 -28239465.370828629 0 0 0 0 34126801.09821701 8560964.5055927038 0 8560964.5055927038 15613449.048483849 0 0 0 0 1125751.7889240384 1144509.1809616508 0 1144509.1809616508 -454182.83260163991 0 0 0 0 -930801.71089172363 113657860.06444335 0 113657860.06444335 132783572.7508601 0 0 0 0 58362258.248382568 166617176.93992949 0 166617176.93992949 -82422104.37003994 0 0 0 0 28956854.576301575 133000416.89578402 0 133000416.89578402 90932164.92924881 0 0 0 0 -1409637.0535430908 38864737.633540154 0 38864737.633540154 10245202.159719944 0 0 0 0 43638654.974372864 14790963.368993998 0 14790963.368993998 -42986077.980741024 0 0 0 0 43889496.754514933 21930190.469142988 0 21930190.469142988 7848686.3023085594 0 0 0 0 -63146088.055503845 30088378.914155126 0 30088378.914155126 42255431.788254738 0 0 0 0 54003816.554636478 20009846.111625314 0 20009846.111625314 12872488.406614304 0 0 0 0 54641394.16254425 29206513.311221123 0 29206513.311221123 12519351.841400623 0 0 0 0 53100238.911869049 19574915.45782876 0 19574915.45782876 31967697.210109711 0 0 0 0 47087888.761917114 27914544.461409569 0 27914544.461409569 20517252.563535213 0 0 0 0 54706204.493453979 53999176.947002888 0 53999176.947002888 29449275.590285301 0 0 0 0 71146479.931991577 24835217.812774658 0 24835217.812774658 13484419.29418087 0 0 0 0 105810526.1348877 103560493.32570964 0 103560493.32570964 67241491.443839073 0 0 0 0 21833053.811775208 21451707.506155014 0 21451707.506155014 19223941.207928658 0 0 0 0 23322529.019580841 7653047.6170916557 0 7653047.6170916557 9894210.7432022095 0 0 0 0 43929038.063835144 16041510.130540371 0 16041510.130540371 18251469.927006721 0 0 0 0 24557904.41493988 24472503.943110466 0 24472503.943110466 17738520.461909771 0 0 0 0 18652287.849464417 22226718.581263304 0 22226718.581263304 7870472.4828748703 0 0 0 0 35972119.805011749 13798431.811415792 0 13798431.811415792 10399331.251792908 0 0 0 0 41291986.278259277 24351695.191730976 0 24351695.191730976 16867794.83743906 0 0 0 0 -5975334.0341148376 6997697.3857488632 0 6997697.3857488632 16995668.326014519 0 0 0 0 20438490.562551498 8733775.0416353345 0 8733775.0416353345 -13320916.813588023 0 0 0 0 3001298.354626283 1968850.7255951455 0 1968850.7255951455 -464979.90074069687 0 0 0 0 34992564.68062973 13232166.873896599 0 13232166.873896599 2054167.8167216778 0 0 0 0 36940796.593162537 -5636199.3105581999 0 -5636199.3105581999 -92094966.159205139 0 0 0 0 -159380561.97676086 -50614221.694904268 0 -50614221.694904268 32963505.762735963 0 0 0 0 -68637248.729904175 15053001.590793058 0 15053001.590793058 -2164099.9782108366 0 0 0 0 -32748855.647695541 61707245.300862402 0 61707245.300862402 -73742318.109693557 0 0 0 0 21815746.510482788 4087286.7568543255 0 4087286.7568543255 -15693384.551927686 0 0 0 0 73675363.353300095 43287822.021046758 0 43287822.021046758 -65756098.222283602 0 0 0 0 11231551.276847839 -59850045.895940483 0 -59850045.895940483 -110944624.07940817 0 0 0 0 774074.40238112956 620571.11343791708 0 620571.11343791708 -350715.46912879334 0 0 0 0 32116025.475204468 44541285.493402421 0 44541285.493402421 68103285.635703087 0 0 0 0 152058811.53386688 -60542282.022963122 0 -60542282.022963122 -72642330.510174513 0 0 0 0 -3346117.460319519 2490373.0813279748 0 2490373.0813279748 -31171791.680296123 0 0 0 0 15705945.951828003 -2368195.7871251106 0 -2368195.7871251106 -9691492.6082011461 0 0 0 0 1896246.5258096606 1660977.2282997742 0 1660977.2282997742 -518283.53454588098 0 0 0 0 -1456551.5959243774 42543870.306500196 0 42543870.306500196 24751993.458347678 0 0 0 0 479985.88218688965 -5186124.1474905014 0 -5186124.1474905014 -4832249.4913804531 0 0 0 0 38844299.252456665 -4768341.0834100246 0 -4768341.0834100246 -28194687.750955701 0 0 0 0 25941043.619655609 5536690.894389838 0 5536690.894389838 -23422675.357435465 0 0 0 0 -9172985.8176116943 15647284.545242071 0 15647284.545242071 -26266626.035130262 0 0 0 0 5509752.1322525814 3266022.2442898601 0 3266022.2442898601 -218065.43891591445 0 0 0 0 7402000.0864334106 -3415235.1608932018 0 -3415235.1608932018 -4054342.4560697079 0 0 0 0 843253.81064792164 63704.226496551186 0 63704.226496551186 -23158.311189726694 0 0 0 0 11435272.042831421 -1652943.9718155861 0 -1652943.9718155861 -4910177.1555809975 0 0 0 0 4077996.7011637902 1969061.7557285558 0 1969061.7557285558 2812957.7209147047 0 0 0 0 13244627.490626335 -8846213.0248444602 0 -8846213.0248444602 13044117.466137767 0 0 0 0 16203125.463577271 10435529.538379312 0 10435529.538379312 55663528.707049996 0 0 0 0 13066720.530731201 6940615.0524506569 0 6940615.0524506569 1763145.9450793266 0 0 0 0 -3862468.708984375 2080177.4905517399 0 2080177.4905517399 10275542.209361553 0 0 0 0 1731479325.3762589 -712966559.53870904 0 -712966559.53870904 39242355.057344258 0 0 0 0 1233723778.4950409 -791109058.38013375 0 -791109058.38013375 252177207.49130186 0 0 0 0 1571472064.3955917 -593114217.09989154 0 -593114217.09989154 -48607006.365539767 0 0 0 0 1991336.2229054254 -117370.67182392627 0 -117370.67182392627 -1005270.0488026069 0 0 0 0 23861704.747001648 9251417.9430921078 0 9251417.9430921078 215895.52828085423 0 0 0 0 1162904065.4827042 -609905567.41461039 0 -609905567.41461039 93646797.32867147 0 0 0 0 27606864.127189636 -5039312.9633861184 0 -5039312.9633861184 -4858535.45388937 0 0 0 0 10090013.706980921 -308463.6476739659 0 -308463.6476739659 87938.480385323928 0 0 0 0 14338414.57472229 -146678.22617697716 0 -146678.22617697716 -4653813.81554842 0 0 0 0 -5782692.7369995117 -636433.20469284058 0 -636433.20469284058 -1059856.2282204032 0 0 0 0 18510729.525115967 6607.7513256072998 0 6607.7513256072998 -7731672.2091245651 0 0 0 0 20349482.891387939 6558087.6241827011 0 6558087.6241827011 -149655.37681949139 0 0 0 0 5810892.9568405151 834085.51717400551 0 834085.51717400551 -1654217.3833303452 0 0 0 0 4178509.9759147391 1854659.8281896729 0 1854659.8281896729 2184957.6605920354 0 0 0 0 676091961.26831055 -512357521.37274635 0 -512357521.37274635 798444065.04063511 0 0 0 0 1020726.3028335571 7472719.2086601257 0 7472719.2086601257 6438375.7241969109 0 0 0 0 2202498929.2937355 -1329541425.7837956 0 -1329541425.7837956 289253171.25932056 0 0 0 0 1061679685.5679092 -1087278548.9132156 0 -1087278548.9132156 492073321.99963242 0 0 0 0 1593679758.0440521 -1034459847.9751965 0 -1034459847.9751965 413120690.09083271 0 0 0 0 4397258.6731215939 -217822.5445240736 0 -217822.5445240736 -2270945.6861070148 0 0 0 0 561730203.07218266 -1223845951.4099159 0 -1223845951.4099159 1739612073.5816319 0 0 0 0 4050775.7927763015 3010715.6007310813 0 3010715.6007310813 323701.37990350666 0 0 0 0 2198353653.3481903 496302.00837392779 0 496302.00837392779 -1716194.6946072553 0 0 0 0 4474922.8810806274 27876463.053999424 0 27876463.053999424 853741670.02407217 0 0 0 0 1768210.5798573308 249601.34411622025 0 249601.34411622025 803373.25340362417 0 0 0 0 679345664.63735199 1065515836.4668194 0 1065515836.4668194 796748355.88105035 0 0 0 0 2547707.4520712793 3426115.761632361 0 3426115.761632361 -627269.92403689085 0 0 0 0 9571502.2000350952 12310145.068624258 0 12310145.068624258 7072600.8998826742 0 0 0 0 24657864.61895752 4384366.5351337194 0 4384366.5351337194 -6709670.0501412451 0 0 0 0 22852761.538192749 9116495.5171865225 0 9116495.5171865225 -2347854.3308103085 0 0 0 0 2202086649.175066 1025662931.5429273 0 1025662931.5429273 -23007590.936840821 0 0 0 0 1887362884.3396454 646740064.72468567 0 646740064.72468567 42039820.967984304 0 0 0 0 1676987.9183514416 -193166.07461191714 0 -193166.07461191714 -991570.61798483995 0 0 0 0 47617352.341644287 12397921.036183119 0 12397921.036183119 -45216148.025125146 0 0 0 0 23283477.20124054 14288787.12635693 0 14288787.12635693 -67182019.598075628 0 0 0 0 -6499068.0255661011 -7269148.131136179 0 -7269148.131136179 13184027.963109732 0 0 0 0 3262742.0848158337 -383659.73355207406 0 -383659.73355207406 -2015876.0295412336 0 0 0 0 32723889.843402863 34734199.909773111 0 34734199.909773111 9532047.0246428698 0 0 0 0 1323169410.5512199 277546702.94304496 0 277546702.94304496 -495422.48678633571 0 0 0 0 229444027.82286572 -167287570.99023154 0 -167287570.99023154 16309442.110971272 0 0 0 0 234322183.07189941 84622420.195976809 0 84622420.195976809 24229509.513920169 0 0 0 0 1018714438.2674942 285312258.78995556 0 285312258.78995556 -400542.74196506664 0 0 0 0 1241621815.5445862 52909694.569268778 0 52909694.569268778 -38021250.826906085 0 0 0 0 1355396456.8580465 344964843.43783236 0 344964843.43783236 -93759984.668937832 0 0 0 0 1940475069.0918341 438724530.82450736 0 438724530.82450736 -124066017.26635945 0 0 0 0 1691025646.6122208 394331776.00890762 0 394331776.00890762 -93656880.459688485 0 0 0 0 46630584.50223732 -424868584.12820983 0 -424868584.12820983 626954870.22390795 0 0 0 0 1773311.4597958669 1202973.805182647 0 1202973.805182647 -324236.42615845369 0 0 0 0 1477834454.8187675 -745344550.5494839 0 -745344550.5494839 144722724.97775865 0 0 0 0 1364310317.3593216 -1216922654.0094507 0 -1216922654.0094507 724755361.75664043 0 0 0 0 191078735.12692261 -236644535.20361114 0 -236644535.20361114 513715258.21256161 0 0 0 0 945835389.53111267 -278619814.2391597 0 -278619814.2391597 -58388878.793964624 0 0 0 0 309606162.45980835 -441622925.20500815 0 -441622925.20500815 122871945.80458832 0 0 0 0 221769366.20042419 -385253769.70932245 0 -385253769.70932245 737346294.44821131 0 0 0 0 624045655.22507477 -819878906.77623188 0 -819878906.77623188 839070912.63012409 0 0 0 0 574212625.9600544 -789637635.89083374 0 -789637635.89083374 948529113.53219891 0 0 0 0 496557240.41426086 -883314256.63742971 0 -883314256.63742971 1020900563.970274 0 0 0 0 1453299560.9152298 -1636017173.988096 0 -1636017173.988096 1481334938.4208665 0 0 0 0 1892793210.1380157 -1350679436.6239059 0 -1350679436.6239059 678734406.06565344 0 0 0 0 2242373191.0892982 -1841537292.8128216 0 -1841537292.8128216 819272485.54547989 0 0 0 0 2206184966.4667282 -1188876889.675766 0 -1188876889.675766 714318214.77428377 0 0 0 0 2945970736.0381966 -532733456.70224953 0 -532733456.70224953 1288118524.9730039 0 0 0 0 2101782385.3522186 -1149667454.8282926 0 -1149667454.8282926 917571940.8320322 0 0 0 0 1983269885.4616041 -1428644679.4608409 0 -1428644679.4608409 475197939.01354182 0 0 0 0 1811713653.0817585 -1227325168.4512696 0 -1227325168.4512696 1112424526.8059399 0 0 0 0 2429732155.8677807 -1205260085.7256315 0 -1205260085.7256315 607880222.85109854 0 0 0 0 1599606680.3811073 -1390137120.9122753 0 -1390137120.9122753 1112680983.9048028 0 0 0 0 2037979390.979229 -1142755235.7026584 0 -1142755235.7026584 30226817.725799829 0 0 0 0 1207602683.1343498 -341679335.98907709 0 -341679335.98907709 17352856.801011562 0 0 0 0 294234384.60011387 536422957.42971921 0 536422957.42971921 1128423372.4654155 0 0 0 0 1491293.9466782524 312699.10757852625 0 312699.10757852625 4524955.5227578934 0 0 0 0 332577313.80586386 631010124.75444341 0 631010124.75444341 455791996.27187347 0 0 0 0 130186960.60492325 260655581.60932732 0 260655581.60932732 288222772.65346146 0 0 0 0 310566647.93727875 133478109.62198639 0 133478109.62198639 -199305257.97491455 0 0 0 0 380902059.3374939 420707813.5245254 0 420707813.5245254 131129056.76265335 0 0 0 0 -105116537.22643757 585112035.34316015 0 585112035.34316015 1279074237.7822294 0 0 0 0 38990695.687915802 398270534.66035461 0 398270534.66035461 530859950.54968834 0 0 0 0 175337832.98298454 317838214.59587193 0 317838214.59587193 263981358.55968857 0 0 0 0 -197432538.66799641 238207460.88431025 0 238207460.88431025 748625385.35998058 0 0 0 0 -197998718.69419479 245617385.0707221 0 245617385.0707221 713642222.69111919 0 0 0 0 -78674853.926210403 94724693.822774887 0 94724693.822774887 272769076.90496445 0 0 0 0 -14992092.772806168 90856243.155534744 0 90856243.155534744 169598072.06645203 0 0 0 0 -15770621.72133255 199723830.51298904 0 199723830.51298904 442976730.06385899 0 0 0 0 50590478.322953224 78357969.69024992 0 78357969.69024992 154304438.1504631 0 0 0 0 3738084.8537998199 -20801348.565530777 0 -20801348.565530777 55310285.719022751 0 0 0 0 -10847395.525370598 -41306429.018526077 0 -41306429.018526077 90875003.474933624 0 0 0 0 -11550572.905216217 45150894.696388245 0 45150894.696388245 283668702.65652323 0 0 0 0 -19378206.631011009 -23684912.435020983 0 -23684912.435020983 60086938.941848516 0 0 0 0 117513330.12125587 240009671.5763377 0 240009671.5763377 63134088.100603625 0 0 0 0 4864846.1789977048 27038.778529750649 0 27038.778529750649 11208686.850729482 0 0 0 0 -285384557.45372772 -85696502.136141777 0 -85696502.136141777 105005443.77440262 0 0 0 0 -17877496.82399559 -168631222.04443932 0 -168631222.04443932 -52457042.664857864 0 0 0 0 -62836029.675907135 -88485681.570905685 0 -88485681.570905685 -26746319.004547119 0 0 0 0 10412512.537062805 -1434965.4027808011 0 -1434965.4027808011 15115699.645138381 0 0 0 0 61275437.924570084 51220746.798218548 0 51220746.798218548 -22485634.444543362 0 0 0 0 -67417257.874782562 448496.71244621277 0 448496.71244621277 -25171138.28962326 0 0 0 0 -29023107.756990433 -83854772.649446487 0 -83854772.649446487 -44189060.613469124 0 0 0 0 -13779778.719216704 -43694885.472521782 0 -43694885.472521782 91508535.326263428 0 0 0 0 -64590305.251974583 -19057798.623306274 0 -19057798.623306274 79447732.227905273 0 0 0 0 -28538130.428171158 -99276171.500061035 0 -99276171.500061035 13880843.084396362 0 0 0 0 29161402.130981453 -4090240.8713594135 0 -4090240.8713594135 6481206.0877138898 0 0 0 0 47603271.894584656 31615812.439191818 0 31615812.439191818 -23372789.650033951 0 0 0 0 17357511.140537977 -68861263.081231117 0 -68861263.081231117 -111368437.39770317 0 0 0 0 16222400.987163544 8879768.3558216691 0 8879768.3558216691 17622986.656791687 0 0 0 0 7088878.9823359102 3279784.5046465853 0 3279784.5046465853 5342844.4244528674 0 0 0 0 8179833.6044721771 3174735.4518720545 0 3174735.4518720545 6921283.7392836902 0 0 0 0 11756240.641738892 -41890842.477264404 0 -41890842.477264404 -15462469.337432861 0 0 0 0 16557055.287844475 -2658936.5852316078 0 -2658936.5852316078 9719449.9354329184 0 0 0 0 2005862.8789291382 265019.76106452942 0 265019.76106452942 -1731157.0368347168 0 0 0 0 14508035.489459857 -71694.412388578057 0 -71694.412388578057 837852.55363967735 0 0 0 0 12021622.45108711 3443006.8319396013 0 3443006.8319396013 7515834.0866454747 0 0 0 0 -636725.47234344482 -785210.50603485107 0 -785210.50603485107 3522813.2613048553 0 0 0 0 10700688.563819177 346612.20367659442 0 346612.20367659442 11965794.822653921 0 0 0 0 -537004.34206104279 -1941729.4662811756 0 -1941729.4662811756 3044070.2804851532 0 0 0 0 316005687.08369446 168714675.5357455 0 168714675.5357455 -5986183.8070317339 0 0 0 0 5666934.3120107241 1959444.9375801687 0 1959444.9375801687 10018024.687662696 0 0 0 0 65995941.750534058 18623714.99766165 0 18623714.99766165 -22081941.447716415 0 0 0 0 -36668067.04604578 27598967.578519497 0 27598967.578519497 22784465.097540319 0 0 0 0 5714651.8683429742 3920129.8888610406 0 3920129.8888610406 -1522406.4049578756 0 0 0 0 6523583.9968131036 -518510.71568834037 0 -518510.71568834037 4118817.4017700995 0 0 0 0 -76496749.654712677 166118155.4153254 0 166118155.4153254 -245822680.21384645 0 0 0 0 38610833.692466736 -50703791.713022858 0 -50703791.713022858 17699240.295947526 0 0 0 0 6545358.7570009232 -7221183.1015958805 0 -7221183.1015958805 233787568.79847986 0 0 0 0 -124992944.50029564 109497829.62230504 0 109497829.62230504 650283570.22328568 0 0 0 0 152405717.20082283 370777837.81128347 0 370777837.81128347 -74823205.631380081 0 0 0 0 2202637890.6922684 -624334669.6368109 0 -624334669.6368109 -146849790.43226126 0 0 0 0 2350562053.6478729 -1154767762.443691 0 -1154767762.443691 1456127355.9128194 0 0 0 0 2360718162.7281113 25357044.621539049 0 25357044.621539049 -110350188.94664431 0 0 0 0 2189508.8427712284 -545433.32220795192 0 -545433.32220795192 1856080.599322468 0 0 0 0 298686533.35506439 -707277387.32369184 0 -707277387.32369184 1413769136.8411105 0 0 0 0 2404996.9960274361 1413586.8904288663 0 1413586.8904288663 8492786.5423751418 0 0 0 0 1646370792.7415791 -1017974266.578808 0 -1017974266.578808 396715902.93918461 0 0 0 0 170660127.86981201 144111495.16685185 0 144111495.16685185 115128876.67328674 0 0 0 0 706977001.19323349 1188899768.5837102 0 1188899768.5837102 1281200419.8443141 0 0 0 0 2201288476.897541 954379811.03696883 0 954379811.03696883 -95264824.609370604 0 0 0 0 39536739.825149536 59064151.489663035 0 59064151.489663035 198080082.14923513 0 0 0 0 297283907.39658737 126015786.47447975 0 126015786.47447975 173386764.95121169 0 0 0 0 517524331.57030487 445796129.33225226 0 445796129.33225226 352044498.69944775 0 0 0 0 446132096.18730068 -14407589.114473134 0 -14407589.114473134 -77654895.944848299 0 0 0 0 1316221897.6613998 410102492.37813067 0 410102492.37813067 -149917727.31334519 0 0 0 0 660646795.9510746 293950437.65911829 0 293950437.65911829 -68414950.714175224 0 0 0 0 770525174.34249878 151309469.54412371 0 151309469.54412371 -143392415.58321959 0 0 0 0 2205166394.2613487 376068145.5523991 0 376068145.5523991 -473258185.61900318 0 0 0 0 1311650931.9015503 519742881.35366225 0 519742881.35366225 -283298504.41483945 0 0 0 0 1383292503.0569839 -55620469.205385417 0 -55620469.205385417 -441758805.76684964 0 0 0 0 856217564.02868652 -130688337.80051999 0 -130688337.80051999 -140182234.51532668 0 0 0 0 1293481235.2977409 241668673.55407903 0 241668673.55407903 -198739494.90049267 0 0 0 0 1255731855.9332008 -614918742.70079839 0 -614918742.70079839 90630464.309204429 0 0 0 0 595924806.68118477 31366611.9402996 0 31366611.9402996 5839379.2417817116 0 0 0 0 2204403553.1145287 -238930126.52030089 0 -238930126.52030089 -429301013.74593782 0 0 0 0 1305670635.0717468 -505751922.94678295 0 -505751922.94678295 -57983121.32087791 0 0 0 0 12368145.673412323 5183873.0653002262 0 5183873.0653002262 13368936.200316429 0 0 0 0 27662617.304870605 22171106.880720377 0 22171106.880720377 14125763.201704979 0 0 0 0 3212968.2167586703 2159536.1290971264 0 2159536.1290971264 6368082.0188704412 0 0 0 0 1354165.5228767395 6331432.8149328232 0 6331432.8149328232 14892967.444148064 0 0 0 0 355677014.56074905 -176975823.68666109 0 -176975823.68666109 63231866.762381315 0 0 0 0 16181187.248168945 6271614.5665593147 0 6271614.5665593147 4132575.3487854004 0 0 0 0 31664847.520729065 22451510.497156143 0 22451510.497156143 12080079.771100044 0 0 0 0 33466265.572558403 23243513.08189106 0 23243513.08189106 9421425.9813613892 0 0 0 0 53957295.602104187 38355402.683393478 0 38355402.683393478 19814015.049766541 0 0 0 0 4215862.1334915161 -357604.10547780991 0 -357604.10547780991 16796617.080112457 0 0 0 0 290003671.92925262 75620266.033431321 0 75620266.033431321 110368264.93262362 0 0 0 0 4032285.6178319547 1978106.1503063552 0 1978106.1503063552 9185961.5119782481 0 0 0 0 71354458.391828537 -13064037.181878567 0 -13064037.181878567 602987.23517608643 0 0 0 0 35900154.104885101 16059812.16274929 0 16059812.16274929 7872292.3651767075 0 0 0 0 4240080.2455992717 1542533.9697419796 0 1542533.9697419796 473832.26277571172 0 0 0 0 20458252.785297394 31925831.768943787 0 31925831.768943787 27023548.559123993 0 0 0 0 52729652.488998413 10525010.643885612 0 10525010.643885612 -1079922.405893594 0 0 0 0 6795407.742016268 2095446.1453736629 0 2095446.1453736629 10973231.24062163 0 0 0 0 10761033.897709902 6103112.5904320301 0 6103112.5904320301 -1490401.8658601344 0 0 0 0 36519274.33846426 11497401.604454041 0 11497401.604454041 12547393.478998184 0 0 0 0 28634982.949508667 26615089.617493629 0 26615089.617493629 32523063.140749931 0 0 0 0 3295596.1122848615 1847171.6777392561 0 1847171.6777392561 -531164.52082828525 0 0 0 0 -2691450.3980255127 8424102.6250095367 0 8424102.6250095367 17582782.415880203 0 0 0 0 72964956.96031189 84049966.361521721 0 84049966.361521721 28739463.434102774 0 0 0 0 48512649.816492081 9782683.8232970238 0 9782683.8232970238 644731.77540397644 0 0 0 0 23626635.961135864 42614756.756093979 0 42614756.756093979 -26130459.730700493 0 0 0 0 35915809.741844177 57937831.752767563 0 57937831.752767563 33619034.564840317 0 0 0 0 25055006.126600266 16404986.879458666 0 16404986.879458666 15472171.400745392 0 0 0 0 33176808.25791502 25204037.571371257 0 25204037.571371257 16021569.788660049 0 0 0 0 50474848.147903442 33090951.1966362 0 33090951.1966362 16493196.382733345 0 0 0 0 29382433.05796814 19107773.885877609 0 19107773.885877609 19581247.688297987 0 0 0 0 52416797.641647816 49990990.67244339 0 49990990.67244339 34603526.314502716 0 0 0 0 39640304.49357605 31869477.280366898 0 31869477.280366898 30963552.282154322 0 0 0 0 33792543.461702347 30021184.679547191 0 30021184.679547191 36461929.42310524 0 0 0 0 44485519.145515442 31852921.347003937 0 31852921.347003937 23289075.07382679 0 0 0 0 29291652.26049614 16732618.655412078 0 16732618.655412078 17364561.106342316 0 0 0 0 42227158.147686005 32300368.812965393 0 32300368.812965393 22396532.320514679 0 0 0 0 104981296.40136719 38736246.571795464 0 38736246.571795464 37807205.503206015 0 0 0 0 78929250.064086914 28153196.291514874 0 28153196.291514874 40870945.467184067 0 0 0 0 162419182.86697388 67076584.221036911 0 67076584.221036911 28250409.947817743 0 0 0 0 77558266.295799255 32415687.095042229 0 32415687.095042229 27899228.068762541 0 0 0 0 44481389.747016028 30593596.153945029 0 30593596.153945029 50287255.387348175 0 0 0 0 56992728.637489319 47303869.405426025 0 47303869.405426025 44059968.247872591 0 0 0 0 71019961.526779175 16447626.264724255 0 16447626.264724255 48817226.249473572 0 0 0 0 176979278.75628662 35097334.354139805 0 35097334.354139805 44229077.361611366 0 0 0 0 132060977.67636871 6770620.1989603043 0 6770620.1989603043 63263842.46496582 0 0 0 0 74783348.969276428 -3554167.5699005127 0 -3554167.5699005127 53571900.536651611 0 0 0 0 143673425.29702759 7741539.6658859253 0 7741539.6658859253 13582927.910551071 0 0 0 0 69267351.924812317 40980669.190806389 0 40980669.190806389 20600166.320888519 0 0 0 0 34159643.817703247 28289158.669921875 0 28289158.669921875 28268309.477264404 0 0 0 0 26807520.621261597 -3026340.9730186462 0 -3026340.9730186462 -68559591.114897728 0 0 0 0 47289622.82522583 61887272.678627014 0 61887272.678627014 -5053265.0782670975 0 0 0 0 67691584.400515556 2153265.3093328476 0 2153265.3093328476 -52047438.873451233 0 0 0 0 10576885.179138184 31145004.541726112 0 31145004.541726112 -55980137.231987 0 0 0 0 -36488571.849526405 90090859.988729477 0 90090859.988729477 -115940081.20305634 0 0 0 0 212985312.80827332 195357448.37355995 0 195357448.37355995 44611301.663917542 0 0 0 0 135182597.95969772 65637794.927544594 0 65637794.927544594 -113913021.05883598 0 0 0 0 325014312.58495045 -52438119.938499451 0 -52438119.938499451 -153078443.64667869 0 0 0 0 -30280770.181348324 47264570.697335243 0 47264570.697335243 -145062615.92496109 0 0 0 0 164207748.51175952 -98694013.399597883 0 -98694013.399597883 48416172.519668579 0 0 0 0 223270482.07241392 5356579.1471910477 0 5356579.1471910477 -518112761.69029045 0 0 0 0 45010561.662921876 -2185652.2599502578 0 -2185652.2599502578 -773495.82269525272 0 0 0 0 71076899.236526489 31784591.251860619 0 31784591.251860619 -151735356.49283409 0 0 0 0 37549946.699317753 -2954528.6268903166 0 -2954528.6268903166 2087132.3401146349 0 0 0 0 60409337.917924881 -218909987.93502426 0 -218909987.93502426 -132444979.7293663 0 0 0 0 72518585.678062439 15285113.739965439 0 15285113.739965439 -99080105.451375961 0 0 0 0 129265626.77134204 -49792233.224201202 0 -49792233.224201202 -394781244.05301476 0 0 0 0 -22220000.082643151 -100324838.33102894 0 -100324838.33102894 -35556572.216974258 0 0 0 0 43949195.232664108 -104518776.17329788 0 -104518776.17329788 -35495588.06238547 0 0 0 0 -28541518.029520392 -174467147.32125092 0 -174467147.32125092 196828477.53106308 0 0 0 0 102142208.81733572 -111639945.91540337 0 -111639945.91540337 -92604487.076178074 0 0 0 0 47556825.723021984 -194652413.04877853 0 -194652413.04877853 168634419.66556931 0 0 0 0 189167009.7618742 -232235787.36617088 0 -232235787.36617088 166830846.49547768 0 0 0 0 -65134780.243418187 -231593113.56115234 0 -231593113.56115234 560591484.94432449 0 0 0 0 -60278652.616995871 -191915385.42113841 0 -191915385.42113841 472607689.23773193 0 0 0 0 104863729.26541328 -337628687.56158257 0 -337628687.56158257 537951592.59587002 0 0 0 0 -51036558.047607899 -73555213.77869606 0 -73555213.77869606 235400857.14090014 0 0 0 0 -57323216.129443884 -51279607.884410858 0 -51279607.884410858 366931624.18201447 0 0 0 0 -236127037.03807765 -100238554.26997566 0 -100238554.26997566 565600245.21300483 0 0 0 0 -95275035.871222496 114033582.90102267 0 114033582.90102267 492226081.79751205 0 0 0 0 -386169517.58964825 209662372.05579424 0 209662372.05579424 961274929.43139839 0 0 0 0 -258634977.77149582 54905211.913233757 0 54905211.913233757 589965605.88205624 0 0 0 0 -248248486.7812379 2914117.7247772217 0 2914117.7247772217 847583087.65232658 0 0 0 0 -515498640.00025296 56688879.465350151 0 56688879.465350151 841610876.70338643 0 0 0 0 -330969682.51943254 -128629461.03454208 0 -128629461.03454208 894429024.78883362 0 0 0 0 -161920278.67356128 -282563322.80280781 0 -282563322.80280781 964537860.9281292 0 0 0 0 -410623248.34456587 -113694678.29757929 0 -113694678.29757929 1004389861.5624256 0 0 0 0 -317118869.24604946 -289912339.94474971 0 -289912339.94474971 1368839305.4976044 0 0 0 0 1332437957.5020018 -84966854.872920036 0 -84966854.872920036 151325887.40424728 0 0 0 0 -26670793.00487709 -583636189.23408604 0 -583636189.23408604 1665861094.437746 0 0 0 0 698370311.13411331 -985282742.02188683 0 -985282742.02188683 1191805704.3393621 0 0 0 0 436212473.35140324 -624902857.74059677 0 -624902857.74059677 712981191.14495277 0 0 0 0 218920796.40607738 299781158.12927866 0 299781158.12927866 329858555.3771286 0 0 0 0 660695255.74958038 -977577878.66960144 0 -977577878.66960144 -201186489.69873428 0 0 0 0 279382197.75181484 95122323.739987373 0 95122323.739987373 219688907.2898159 0 0 0 0 298252359.81009102 55613783.945109367 0 55613783.945109367 73695342.965446472 0 0 0 0 658643647.94808769 -23181412.212440491 0 -23181412.212440491 47712790.553220749 0 0 0 0 326655299.87966919 -419268999.86544704 0 -419268999.86544704 416672762.50732803 0 0 0 0 101229386.74011278 -324244901.68866444 0 -324244901.68866444 535155255.21633148 0 0 0 0 -57931575.758811951 42484466.467029572 0 42484466.467029572 54054376.033489227 0 0 0 0 -22553733.031732559 40046874.349851608 0 40046874.349851608 10391301.10704422 0 0 0 0 63964326.548171043 230829819.04645824 0 230829819.04645824 255509175.81537819 0 0 0 0 -107987279.25784874 70592422.976951599 0 70592422.976951599 106197800.67134428 0 0 0 0 -88057684.529154778 -106968061.08185768 0 -106968061.08185768 -66258641.39389801 0 0 0 0 2729525.1554695163 -2813884.0819640476 0 -2813884.0819640476 857398.55331461877 0 0 0 0 -244799226.94218636 -39548468.13215065 0 -39548468.13215065 271118050.44276386 0 0 0 0 -29685466.088010788 -2732781.7741966248 0 -2732781.7741966248 67011314.891788244 0 0 0 0 4166118.2003109232 691459.51587761939 0 691459.51587761939 -547952.99134458834 0 0 0 0 -25776738.760070801 -335715.45637083054 0 -335715.45637083054 3998031.6101284027 0 0 0 0 350303465.25605392 79576362.619812012 0 79576362.619812012 -416062376.45317411 0 0 0 0 130742377.82070923 68798567.680988312 0 68798567.680988312 45053413.302085876 0 0 0 0 363026411.28372192 -39666155.144568443 0 -39666155.144568443 -272894132.12082672 0 0 0 0 -46201226.361286163 -87561095.21909523 0 -87561095.21909523 -92637373.763305664 0 0 0 0 1790872.2191510396 -317656.39825889654 0 -317656.39825889654 -619619.61715028621 0 0 0 0 403597118.65583038 -354168976.5838871 0 -354168976.5838871 -275521341.99197865 0 0 0 0 -1058287.4662863836 -3177359.9831773955 0 -3177359.9831773955 1051092.2450483001 0 0 0 0 226405098.60791397 -493432813.82842839 0 -493432813.82842839 274001477.48104095 0 0 0 0 -117198368.88285828 -24006598.700274944 0 -24006598.700274944 338552639.78804398 0 0 0 0 20373719.831388 -3494558.2345215678 0 -3494558.2345215678 -838042.04184612073 0 0 0 0 692538556.67271233 956925940.70395947 0 956925940.70395947 1064118416.1594391 0 0 0 0 461418693.33312607 462953852.89207077 0 462953852.89207077 22702672.848163605 0 0 0 0 -109083.18814086914 16580657.195486069 0 16580657.195486069 14961652.909843445 0 0 0 0 7277815.0077018738 19788861.649464607 0 19788861.649464607 6836113.741859436 0 0 0 0 1654292.2937145233 25645802.483354568 0 25645802.483354568 2083054.9494552612 0 0 0 0 -11111320.349975586 21729868.193115234 0 21729868.193115234 12667430.019519806 0 0 0 0 36304568.30203937 -7017281.8754927767 0 -7017281.8754927767 -6205637.9940182697 0 0 0 0 -1691656.4072990417 32336519.85477829 0 32336519.85477829 -354386.79754781723 0 0 0 0 48789995.045940399 24330131.792203903 0 24330131.792203903 -40186636.738874435 0 0 0 0 -192863381.90517807 -196346442.43162394 0 -196346442.43162394 -106007692.99817181 0 0 0 0 440662799.71452236 196979220.16027904 0 196979220.16027904 -191710342.34015274 0 0 0 0 1010920246.4752884 440699589.155756 0 440699589.155756 -400988078.39293671 0 0 0 0 403466583.95302582 55807829.089868546 0 55807829.089868546 -518128324.89311695 0 0 0 0 204363165.8949852 -524843210.67178154 0 -524843210.67178154 -570913315.02622414 0 0 0 0 1314216052.2360535 -251500176.24151611 0 -251500176.24151611 -1024678294.9697495 0 0 0 0 207635054.04373169 85155192.798287392 0 85155192.798287392 -221284963.48399353 0 0 0 0 295594745.02296066 25068077.598484993 0 25068077.598484993 -217020834.06867409 0 0 0 0 313655553.27664471 -5709977.3487565517 0 -5709977.3487565517 -294008472.09658051 0 0 0 0 11381969.901647288 -2614348.1926714242 0 -2614348.1926714242 -6031100.5209837975 0 0 0 0 87456189.531642914 -36160182.359069347 0 -36160182.359069347 -178987608.15706253 0 0 0 0 42271970.791433334 -1783640.318662405 0 -1783640.318662405 7337110.7663822174 0 0 0 0 35159971.935561396 -5571028.8239762131 0 -5571028.8239762131 -3835290.3414226454 0 0 0 0 41785558.850549482 696750.87327990867 0 696750.87327990867 -8292113.7240072712 0 0 0 0 20241515.843643188 -1082019.0150704384 0 -1082019.0150704384 -8396601.2229324877 0 0 0 0 56759838.693087868 -317966.37283605803 0 -317966.37283605803 -8056976.4042523578 0 0 0 0 63213998.933242798 -24830265.722312927 0 -24830265.722312927 -90981525.640162826 0 0 0 0 32762857.877343178 51509785.634859085 0 51509785.634859085 -81013674.748025894 0 0 0 0 52022144.238359362 -12552731.619874438 0 -12552731.619874438 -9296745.2251577862 0 0 0 0 -1169558.6745185852 61607280.562597275 0 61607280.562597275 -26850620.10966301 0 0 0 0 1061351.1005477905 42729135.048095703 0 42729135.048095703 10425729.293117255 0 0 0 0 15478170.402336121 194711389.42695236 0 194711389.42695236 84075673.237188339 0 0 0 0 178022.55832409859 72455703.227008581 0 72455703.227008581 -89172252.489059448 0 0 0 0 51285114.355217308 -1502886.7424657643 0 -1502886.7424657643 -3597781.7963076574 0 0 0 0 103988344.99420166 -19182130.179014206 0 -19182130.179014206 -180160258.56576088 0 0 0 0 108983985.0236702 124382072.24670792 0 124382072.24670792 -300382290.03823674 0 0 0 0 71316915.471405029 25401982.220738411 0 25401982.220738411 -86467199.082042694 0 0 0 0 121407094.17272949 -54845525.508090973 0 -54845525.508090973 -43559315.292789459 0 0 0 0 54738858.070457458 -74145175.537246704 0 -74145175.537246704 -31745538.834692001 0 0 0 0 43780195.381950378 -67851898.570328712 0 -67851898.570328712 -14921342.748371124 0 0 0 0 52312257.880439758 -51131181.677746773 0 -51131181.677746773 -325733.41332817078 0 0 0 0 10216057.7084198 -40889394.560239792 0 -40889394.560239792 99539478.925592422 0 0 0 0 107500705.0620575 -110785618.91134453 0 -110785618.91134453 43673388.921116829 0 0 0 0 292728.94685422257 -499355.63564855978 0 -499355.63564855978 -493405.49205986224 0 0 0 0 58516328.710067749 6421997.1329467297 0 6421997.1329467297 -11634555.246892929 0 0 0 0 10067886.848162189 -4696897.6361949965 0 -4696897.6361949965 -4068750.3888200326 0 0 0 0 149895881.82000732 -1685814.5157184601 0 -1685814.5157184601 16562531.86362648 0 0 0 0 250172255.30358887 -97799897.39076519 0 -97799897.39076519 35525274.172744751 0 0 0 0 201827947.3243103 -107849740.66394615 0 -107849740.66394615 92157709.134982109 0 0 0 0 140066620.00682068 7507672.1566534042 0 7507672.1566534042 21509908.743804932 0 0 0 0 287075577.84861755 -51632741.525905609 0 -51632741.525905609 42402723.137008667 0 0 0 0 6844806.2466888428 49176461.729063034 0 49176461.729063034 -17873502.813831329 0 0 0 0 274678070.27480888 -105210136.20593953 0 -105210136.20593953 34227125.353271484 0 0 0 0 662695.20924209431 192933.21551338211 0 192933.21551338211 -591061.76301614009 0 0 0 0 93591377.011924744 6437664.7725805044 0 6437664.7725805044 -13172301.478070855 0 0 0 0 3939949.0364154205 2799904.6692980193 0 2799904.6692980193 -8613174.7784450036 0 0 0 0 -10600449.888341904 -52055701.786005139 0 -52055701.786005139 -42625486.881217957 0 0 0 0 110053505.43913269 -18402572.515625954 0 -18402572.515625954 -107724740.93553829 0 0 0 0 36335423.244667053 53567194.948804855 0 53567194.948804855 -63396945.660938263 0 0 0 0 163315850.23209763 81121017.755265951 0 81121017.755265951 -53117084.76699543 0 0 0 0 259817274.22702789 17684084.993378162 0 17684084.993378162 -31925217.040647507 0 0 0 0 178751352.42712402 99315032.484520912 0 99315032.484520912 -53716990.44993782 0 0 0 0 106495177.32097626 17763727.647193819 0 17763727.647193819 -61670599.551311612 0 0 0 0 189277.22236633301 90717211.780769348 0 90717211.780769348 -64086989.079508305 0 0 0 0 74237593.00062561 -27571365.568609953 0 -27571365.568609953 -10024808.217635155 0 0 0 0 4379036.2270502113 -754814.37851168588 0 -754814.37851168588 -477080.48023996886 0 0 0 0 45452645.624393463 56669499.305707216 0 56669499.305707216 -176790025.30691147 0 0 0 0 1164593.2278656028 2599978.0331936628 0 2599978.0331936628 -4911576.0859140996 0 0 0 0 6002768.3198385239 141465474.4878186 0 141465474.4878186 -140137523.47276115 0 0 0 0 -8512769.6360778809 196762436.73458791 0 196762436.73458791 -251028535.65521622 0 0 0 0 -119436412.77692413 116813426.4741376 0 116813426.4741376 -26356042.369273424 0 0 0 0 64761737.013786316 -3122449.1681890488 0 -3122449.1681890488 98291146.965387106 0 0 0 0 92291016.684830189 -16258682.489041381 0 -16258682.489041381 -12642794.709264278 0 0 0 0 14048023.311073303 50252141.108415216 0 50252141.108415216 -49752854.551641226 0 0 0 0 -19636846.164440155 25401205.882226005 0 25401205.882226005 -22973293.848044395 0 0 0 0 19428073.869853973 25015960.90288198 0 25015960.90288198 -34008107.450029492 0 0 0 0 23299106.316383362 17421204.008143529 0 17421204.008143529 -25129567.759540454 0 0 0 0 30395834.306617737 18614474.500962585 0 18614474.500962585 -34974594.650526285 0 0 0 0 15807887.957142388 -4295238.8714732304 0 -4295238.8714732304 -1047945.4829094966 0 0 0 0 59789128.28105545 -28198843.343865871 0 -28198843.343865871 -1506834.4471647739 0 0 0 0 54576131.057650566 -20507724.136232033 0 -20507724.136232033 -12847466.968863964 0 0 0 0 54054876.176513672 -55155343.853004456 0 -55155343.853004456 7914114.4034347534 0 0 0 0 19081900.644020613 -7836409.0301251989 0 -7836409.0301251989 -9477026.1733383965 0 0 0 0 61439830.055660248 -58436338.986050606 0 -58436338.986050606 -25549296.967357635 0 0 0 0 24384854.291637421 -41756210.343962193 0 -41756210.343962193 4077112.6581420898 0 0 0 0 -1193344.0994548872 -2104103.0428823335 0 -2104103.0428823335 361750.20253178757 0 0 0 0 20676165.525585175 44409837.157285035 0 44409837.157285035 -4948604.6974846125 0 0 0 0 26488380.855567932 21641107.434723228 0 21641107.434723228 -36511717.637017012 0 0 0 0 15076504.734647948 7899270.0052960403 0 7899270.0052960403 -7779053.6001881389 0 0 0 0 54880217.497745514 1944405.2980923355 0 1944405.2980923355 -94725942.207491666 0 0 0 0 36665295.994781494 37810380.157768041 0 37810380.157768041 -43473621.736520648 0 0 0 0 12713982.975242615 83777364.211364031 0 83777364.211364031 69284989.387801886 0 0 0 0 79190441.703357697 -1037596.7875500917 0 -1037596.7875500917 -83273046.170679331 0 0 0 0 6957980.5991126448 1428237.2326704832 0 1428237.2326704832 -2255058.8205067706 0 0 0 0 -4307554.3689193726 -20177506.435352832 0 -20177506.435352832 -37914234.453412294 0 0 0 0 86470871.773406982 -87643021.528340429 0 -87643021.528340429 -88342773.071200788 0 0 0 0 51012328.411056519 -97212433.30281657 0 -97212433.30281657 -77170909.649834871 0 0 0 0 -95751.886032216251 142726.53232278675 0 142726.53232278675 203196.07568165497 0 0 0 0 188249342.60352325 115581792.73956341 0 115581792.73956341 38362602.353677355 0 0 0 0 177216335.33321381 66879928.067200005 0 66879928.067200005 -35652792.637907892 0 0 0 0 144995786.67243195 -688853.80190232396 0 -688853.80190232396 -135936551.94723606 0 0 0 0 269857255.25230408 -15015411.500803947 0 -15015411.500803947 -135158490.33703172 0 0 0 0 69185154.816650391 -15534277.834616601 0 -15534277.834616601 -95396730.060767859 0 0 0 0 60583355.660243034 -62048244.685379662 0 -62048244.685379662 -80348322.440894723 0 0 0 0 142013281.01605988 -15440087.847406685 0 -15440087.847406685 -68018702.797695458 0 0 0 0 155990005.09550858 -62954788.288374737 0 -62954788.288374737 -109123603.81928647 0 0 0 0 136003141.00749969 -46677116.814239115 0 -46677116.814239115 -82676528.006185099 0 0 0 0 1836483.9632339478 92428843.091100514 0 92428843.091100514 -63710079.524813116 0 0 0 0 440484779.49906921 -117048813.61422521 0 -117048813.61422521 -99726737.743917793 0 0 0 0 392749127.0636692 188896632.46351963 0 188896632.46351963 -45437978.677550912 0 0 0 0 428383774.45784378 -365145666.29855072 0 -365145666.29855072 -297692408.85785186 0 0 0 0 531187888.25798035 94094217.937962174 0 94094217.937962174 -25512774.74541378 0 0 0 0 2198123.9460925683 295638.97523485776 0 295638.97523485776 -545703.9625073584 0 0 0 0 105476271.96162796 -139656969.6271821 0 -139656969.6271821 3613692.7254013121 0 0 0 0 174181264.16912842 319361891.29710388 0 319361891.29710388 369129056.93353927 0 0 0 0 19467995.720962524 80379575.193413496 0 80379575.193413496 228972915.54281628 0 0 0 0 146126142.766922 151507600.26661563 0 151507600.26661563 -94211306.809235096 0 0 0 0 -18610705.053695679 -147650.94088935852 0 -147650.94088935852 -159369101.68806767 0 0 0 0 -52407857.831819534 -437407050.84842765 0 -437407050.84842765 -114013473.49470502 0 0 0 0 12911410.938768022 4083057.9204020537 0 4083057.9204020537 -3608713.3797359853 0 0 0 0 -193295256.42462158 -49226938.697033405 0 -49226938.697033405 -56528559.816691399 0 0 0 0 11953046.800071403 3372125.2553561255 0 3372125.2553561255 -4242677.2924782634 0 0 0 0 41856183.990997314 -153928450.56506443 0 -153928450.56506443 -125804645.11974812 0 0 0 0 45209111.587389365 -7776430.5834343107 0 -7776430.5834343107 -177446.61169428445 0 0 0 0 32464546.516584288 -50142262.650355577 0 -50142262.650355577 142856752.87255478 0 0 0 0 39456525.267127991 -6059217.9530583816 0 -6059217.9530583816 -78616792.003578961 0 0 0 0 -23440911.194747925 65853942.829843998 0 65853942.829843998 -500363747.15864754 0 0 0 0 38083282.267473124 20358407.832675114 0 20358407.832675114 -19587413.318890296 0 0 0 0 65892125.055426598 20796059.36400032 0 20796059.36400032 289366083.59849548 0 0 0 0 74986139.761383772 42485205.390467644 0 42485205.390467644 -71233488.551609039 0 0 0 0 9786552.8334863521 -4430129.6440296173 0 -4430129.6440296173 108598488.86119747 0 0 0 0 -22287601.940019608 79678283.729721069 0 79678283.729721069 -58471906.564581633 0 0 0 0 79113877.842781067 -37641673.300304413 0 -37641673.300304413 67387563.452785492 0 0 0 0 54006786.38539362 74574875.402778864 0 74574875.402778864 27382052.216049194 0 0 0 0 72965055.639108658 44576826.101071358 0 44576826.101071358 -55044198.332805634 0 0 0 0 -29257506.500865936 23960834.5801754 0 23960834.5801754 64538225.239191055 0 0 0 0 52511865.398168363 7596402.113132434 0 7596402.113132434 -1830451.5999570277 0 0 0 0 89704129.365621567 -16017258.92953825 0 -16017258.92953825 131170334.83566523 0 0 0 0 59582642.878890991 90284325.411143303 0 90284325.411143303 91629343.682514191 0 0 0 0 119534569.30224991 92921301.225087166 0 92921301.225087166 -238312603.38458252 0 0 0 0 166563549.94762421 -69757571.419111252 0 -69757571.419111252 70742300.650404215 0 0 0 0 174686384.53035545 29340216.704422951 0 29340216.704422951 41080619.910029411 0 0 0 0 5920761.3790048305 3176154.2083857972 0 3176154.2083857972 -4283327.8538056146 0 0 0 0 -10099857.396129608 38119750.864179611 0 38119750.864179611 148345534.02686214 0 0 0 0 78410470.289234161 46211764.636189461 0 46211764.636189461 27223488.810731888 0 0 0 0 55017589.086433433 -241325.20447154925 0 -241325.20447154925 -1473773.272723956 0 0 0 0 118248192.56518555 6054857.774723053 0 6054857.774723053 -13054304.18904382 0 0 0 0 65218734.85899353 80812305.006536484 0 80812305.006536484 -63501180.298110962 0 0 0 0 49526710.714092255 43610510.944509745 0 43610510.944509745 -93786299.408563614 0 0 0 0 53848876.282011032 173679018.51330757 0 173679018.51330757 -46487669.297122955 0 0 0 0 210213875.1632843 103953939.18319321 0 103953939.18319321 -87453087.482862473 0 0 0 0 162193022.68161011 152874112.89305496 0 152874112.89305496 -96526705.91181469 0 0 0 0 177351857.31079865 251324930.32463837 0 251324930.32463837 -133879650.30805779 0 0 0 0 5734438.3615207672 113663999.01676941 0 113663999.01676941 -17045127.567002296 0 0 0 0 -95858103.245243073 74275847.726264954 0 74275847.726264954 -28608601.312952518 0 0 0 0 7825605.4025855623 3765935.4993137182 0 3765935.4993137182 391998.58519200701 0 0 0 0 46105602.520337105 52615541.882289886 0 52615541.882289886 -208842870.08782959 0 0 0 0 93574020.889585495 99899011.164452553 0 99899011.164452553 -393158786.46032429 0 0 0 0 -247648671.75325012 20339521.627091408 0 20339521.627091408 -67988459.60786438 0 0 0 0 2497713.3080630116 1681550.8448249283 0 1681550.8448249283 470861.12336527277 0 0 0 0 191109870.63520432 -184097188.68797874 0 -184097188.68797874 178632451.76261616 0 0 0 0 201802000.21360779 281892348.50654602 0 281892348.50654602 67246876.715457916 0 0 0 0 297531887.52441406 -151494986.51873875 0 -151494986.51873875 -65951144.73964119 0 0 0 0 118518211.50072289 -78556967.090270042 0 -78556967.090270042 65626151.345288277 0 0 0 0 128369701.93409729 -53185450.460291862 0 -53185450.460291862 -19710485.405771255 0 0 0 0 52574293.454216003 -33304593.307421684 0 -33304593.307421684 -15237414.323638916 0 0 0 0 12820774.068343621 4994771.0363072287 0 4994771.0363072287 -574989.98035409115 0 0 0 0 24987641.25453186 13813640.220084667 0 13813640.220084667 -45964379.273273468 0 0 0 0 51572247.297806501 70586368.173974991 0 70586368.173974991 -287959094.23719597 0 0 0 0 88792954.433542252 -15264993.316454887 0 -15264993.316454887 -147340917.09411812 0 0 0 0 -42089196.235816956 873874.8323135376 0 873874.8323135376 -148061648.92787552 0 0 0 0 -32190602.749433517 152025527.35792542 0 152025527.35792542 -201147351.38308144 0 0 0 0 91313409.5377388 28677764.037870407 0 28677764.037870407 -21322172.008281708 0 0 0 0 32782065.539485931 25357823.461375237 0 25357823.461375237 -3811881.9448595047 0 0 0 0 10657762.840270996 15663320.466789246 0 15663320.466789246 -1300175.3659038544 0 0 0 0 32919777.744129181 10730241.889473915 0 10730241.889473915 -13056038.60847187 0 0 0 0 10436135.092702866 13404258.398032248 0 13404258.398032248 -15953563.735834122 0 0 0 0 27579436.913600922 27237339.52997303 0 27237339.52997303 -14177910.321708679 0 0 0 0 47597714.937568665 4947417.3707990646 0 4947417.3707990646 -18110711.641462326 0 0 0 0 176869271.58370399 -18937596.840248108 0 -18937596.840248108 -71796954.717533112 0 0 0 0 170595067.3719101 -28693396.126011848 0 -28693396.126011848 -36621798.355873108 0 0 0 0 208223514.46689606 -35456482.917671204 0 -35456482.917671204 -137191293.94752026 0 0 0 0 224552183.41854858 52029.721696853638 0 52029.721696853638 -77854925.679559708 0 0 0 0 201367933.73413849 -22761357.335400581 0 -22761357.335400581 -39000856.151279449 0 0 0 0 202982540.30199981 -3074763.7462831736 0 -3074763.7462831736 -63985194.211734772 0 0 0 0 243047938.27186203 11398664.330974579 0 11398664.330974579 -49167947.974222183 0 0 0 0 164228999.08766556 -27383768.710203171 0 -27383768.710203171 -33471691.234465599 0 0 0 0 96085754.39256525 -2962040.6536700726 0 -2962040.6536700726 -34848083.931282043 0 0 0 0 188261707.56415939 -5598200.1666555405 0 -5598200.1666555405 -48804211.276987076 0 0 0 0 186141447.32098389 31411726.895270348 0 31411726.895270348 -35515583.987241745 0 0 0 0 112254963.165905 24660754.673253059 0 24660754.673253059 -12187520.013360023 0 0 0 0 232189759.37075424 73706544.814519882 0 73706544.814519882 -12296726.839954376 0 0 0 0 287018242.010149 -24107999.174248219 0 -24107999.174248219 -22913370.294303894 0 0 0 0 130862331.6112709 3780900.9777565002 0 3780900.9777565002 46483372.029834747 0 0 0 0 215030426.40394783 -329883722.44182301 0 -329883722.44182301 31721816.331026077 0 0 0 0 411504138.35548782 -130881965.40045547 0 -130881965.40045547 -30493571.208542824 0 0 0 0 238536185.30532455 -79312143.012928009 0 -79312143.012928009 -4512189.9319095612 0 0 0 0 328334552.10964203 -26073169.25436306 0 -26073169.25436306 -98003089.910223007 0 0 0 0 2030571.1965310965 1843352.0895638959 0 1843352.0895638959 1869921.1311003482 0 0 0 0 562785750.10076523 -353675941.67705822 0 -353675941.67705822 -9534093.0112857819 0 0 0 0 205680835.97528076 244219876.4974637 0 244219876.4974637 515732892.43174171 0 0 0 0 861978700.42884064 -54270295.035498619 0 -54270295.035498619 -107907510.44805717 0 0 0 0 231580737.10674286 -105226587.24460983 0 -105226587.24460983 20342353.85752511 0 0 0 0 399004404.03640747 451731273.76063728 0 451731273.76063728 193106871.72945404 0 0 0 0 688791.95837919042 -652758.65922019724 0 -652758.65922019724 -362105.09634653293 0 0 0 0 153459267.51417542 -537671187.2208147 0 -537671187.2208147 703320107.02250099 0 0 0 0 116950282.13477707 35875547.110409737 0 35875547.110409737 -18188483.476751328 0 0 0 0 763753.8820929192 -4164006.6866935212 0 -4164006.6866935212 -1571099.2516757147 0 0 0 0 2957562.0973499715 1865786.3456022143 0 1865786.3456022143 -1519177.0668697024 0 0 0 0 1434951.9653015137 -1850773.5816555023 0 -1850773.5816555023 -11984902.260018587 0 0 0 0 1032968.8343887329 32995036.833744049 0 32995036.833744049 19221728.905108452 0 0 0 0 107479328.41557455 42187067.195965409 0 42187067.195965409 -12077575.079120636 0 0 0 0 -812923.982006073 -16852010.465666771 0 -16852010.465666771 -41694613.336076736 0 0 0 0 3365118.9646572247 1075830.4686946124 0 1075830.4686946124 -2606526.0318355728 0 0 0 0 -2593074.9081830978 -8651254.0570223331 0 -8651254.0570223331 -20935165.956268311 0 0 0 0 1967536.3633728027 10308129.392230034 0 10308129.392230034 631838.39674186707 0 0 0 0 -6074733.5421254635 -23129014.749434531 0 -23129014.749434531 -29495861.760158539 0 0 0 0 3221612.9628639221 -2046696.2307758331 0 -2046696.2307758331 -10752747.822487354 0 0 0 0 1274295.3013048172 -2041063.1189110279 0 -2041063.1189110279 -9719037.5268874168 0 0 0 0 2544893.9192196503 -3840865.6875892328 0 -3840865.6875892328 -2590242.3080136222 0 0 0 0 52629763.364627838 22338332.37636435 0 22338332.37636435 3513926.6262607574 0 0 0 0 -27218091.258426666 -19516608.221864223 0 -19516608.221864223 166029673.07826328 0 0 0 0 11790935.818494797 -71516076.178146482 0 -71516076.178146482 180759199.46588707 0 0 0 0 345194320.6390686 45132674.644020081 0 45132674.644020081 221518884.19962788 0 0 0 0 110677500.94097948 -177135570.19313371 0 -177135570.19313371 478182326.87409306 0 0 0 0 73230960.602590561 -59640016.514820099 0 -59640016.514820099 170999428.07189083 0 0 0 0 -1521874.9368629456 -104492717.16861439 0 -104492717.16861439 167800491.53986549 0 0 0 0 15227424.478820801 -122055488.7411027 0 -122055488.7411027 235252090.37924123 0 0 0 0 284567349.09506989 -199525547.9975512 0 -199525547.9975512 64995128.876924992 0 0 0 0 282415510.90236282 -162551600.4073143 0 -162551600.4073143 21813539.995636463 0 0 0 0 104327326.12746644 -93503994.557290524 0 -93503994.557290524 210334.45763635635 0 0 0 0 380560819.09852219 -18668739.893624783 0 -18668739.893624783 898836.0142159462 0 0 0 0 403548125.01380444 -217174334.77670249 0 -217174334.77670249 -32813353.697092056 0 0 0 0 517118112.87997437 -349839025.96066618 0 -349839025.96066618 143828041.42705727 0 0 0 0 253782287.98948479 -176437910.32117438 0 -176437910.32117438 120083534.32632399 0 0 0 0 518513705.55028784 87214875.749772623 0 87214875.749772623 382431750.52898598 0 0 0 0 1132042.3824039605 831753.31819025706 0 831753.31819025706 521998.66780287959 0 0 0 0 486437291.98096848 -490035069.17134428 0 -490035069.17134428 343223045.61087418 0 0 0 0 525300362.50742149 -122422759.22122097 0 -122422759.22122097 -60401076.473608017 0 0 0 0 413638236.42911148 -319749029.62997818 0 -319749029.62997818 -101105805.33434677 0 0 0 0 80172001.920597076 -264448059.22582531 0 -264448059.22582531 193762408.28871155 0 0 0 0 629616090.39040375 -486992591.25620031 0 -486992591.25620031 8258918.8397674561 0 0 0 0 811520523.51790619 -489298799.32068539 0 -489298799.32068539 122129508.64767456 0 0 0 0 337302366.24720764 -300852550.31497097 0 -300852550.31497097 271146555.71266389 0 0 0 0 -191920335.80286598 23010910.132176876 0 23010910.132176876 361101225.84000683 0 0 0 0 228520.63573958061 528847.19978329446 0 528847.19978329446 2062472.6475713411 0 0 0 0 561858.81741361145 400668.80865928717 0 400668.80865928717 4737945.2262838511 0 0 0 0 -37041783.442975998 -73546371.102652311 0 -73546371.102652311 286103807.84942222 0 0 0 0 434235867.21294022 -203981919.85729694 0 -203981919.85729694 -23823751.022766113 0 0 0 0 276544126.15874147 -14947036.227761626 0 -14947036.227761626 -77623766.907659531 0 0 0 0 946469865.53127289 -443330257.98152655 0 -443330257.98152655 -163926944.73798335 0 0 0 0 -207760047.15293768 3707393.3340297057 0 3707393.3340297057 384728992.57033604 0 0 0 0 367603860.33273697 -565021559.60854828 0 -565021559.60854828 542797222.29282761 0 0 0 0 1271529.6057739351 -412046.7091637589 0 -412046.7091637589 4085438.2251023925 0 0 0 0 197281175.19971466 28398934.792164139 0 28398934.792164139 9686988.6779665947 0 0 0 0 -88197846.072942734 4468750.1307520866 0 4468750.1307520866 68013328.973199844 0 0 0 0 -27896319.278518677 51132757.323914051 0 51132757.323914051 58314294.126285553 0 0 0 0 135853747.422966 58796612.481107235 0 58796612.481107235 5390021.2164478302 0 0 0 0 2651047.3888607379 -2359133.4438180677 0 -2359133.4438180677 42720.986059661911 0 0 0 0 1650380104.8051291 -994469608.20593798 0 -994469608.20593798 592429745.87468958 0 0 0 0 809279356.60592651 130409053.0349685 0 130409053.0349685 -339327227.42104948 0 0 0 0 1256193917.0288582 -1187922259.9790728 0 -1187922259.9790728 672078168.12793565 0 0 0 0 996502571.96504784 -226141470.93515441 0 -226141470.93515441 697524867.79895258 0 0 0 0 1224465970.9685783 -51415275.320168674 0 -51415275.320168674 359746108.36498463 0 0 0 0 1591398356.75846 -1018320676.8906621 0 -1018320676.8906621 676816896.33519769 0 0 0 0 662744706.88117599 -325817294.92783034 0 -325817294.92783034 269488544.22874594 0 0 0 0 756297774.57959175 -99257056.949455857 0 -99257056.949455857 -133349741.35351706 0 0 0 0 246965267.53666687 168362252.39494181 0 168362252.39494181 15138695.253923178 0 0 0 0 974589379.63649368 -273189969.98626375 0 -273189969.98626375 19064121.746440411 0 0 0 0 507783300.09307575 -270126856.43106842 0 -270126856.43106842 53913441.160564899 0 0 0 0 427224533.7546463 -337504446.1529088 0 -337504446.1529088 93342439.935156822 0 0 0 0 563425214.09483528 -320028502.50776219 0 -320028502.50776219 95574597.136004686 0 0 0 0 438531597.98301315 -314028971.21196103 0 -314028971.21196103 141754744.01382542 0 0 0 0 266517411.82945824 -334168084.1283493 0 -334168084.1283493 139998125.43388999 0 0 0 0 255869716.03787994 -253416131.30346417 0 -253416131.30346417 200160100.94963741 0 0 0 0 263607134.24997711 -291454067.27389717 0 -291454067.27389717 208605835.26234198 0 0 0 0 305206886.13525581 -211001885.34581661 0 -211001885.34581661 134374579.80065346 0 0 0 0 585549467.17666245 -161207202.04978061 0 -161207202.04978061 142397522.43912029 0 0 0 0 247173262.72714233 -308216364.29833221 0 -308216364.29833221 536316419.3733902 0 0 0 0 308470053.9478035 -683018522.5976758 0 -683018522.5976758 464693915.92351437 0 0 0 0 120340397.45614243 -284629969.34298992 0 -284629969.34298992 292573663.09109807 0 0 0 0 226543826.82904053 294407779.09542465 0 294407779.09542465 244838620.6279155 0 0 0 0 108914055.28319836 -193965076.0577209 0 -193965076.0577209 119670191.10334587 0 0 0 0 2037044.5885695964 1829778.0023356229 0 1829778.0023356229 1574677.5979473535 0 0 0 0 411405322.56833649 -359637761.9360652 0 -359637761.9360652 107910361.85672951 0 0 0 0 374154857.37168121 -216968993.1444931 0 -216968993.1444931 -87490749.462999344 0 0 0 0 1124529.3393421303 825717.51172591746 0 825717.51172591746 222746.71490236372 0 0 0 0 327885305.64418221 -355424395.08461857 0 -355424395.08461857 95296648.868141174 0 0 0 0 157012831.41306114 -25065440.583730698 0 -25065440.583730698 21790910.262908936 0 0 0 0 151315253.50833988 -97292045.113904893 0 -97292045.113904893 163454701.00830269 0 0 0 0 151861071.88566971 -27326173.139280319 0 -27326173.139280319 70007115.420257568 0 0 0 0 46663322.186538696 7118353.8131361008 0 7118353.8131361008 98923599.272457123 0 0 0 0 208156393.33934593 59969593.316975117 0 59969593.316975117 -222391352.81312943 0 0 0 0 -154220885.76462936 205143100.21892166 0 205143100.21892166 -83998231.646993637 0 0 0 0 202944480.78920841 64714778.87298274 0 64714778.87298274 -565321754.48254013 0 0 0 0 192337454.56665039 7085301.7011356354 0 7085301.7011356354 -130647061.80177498 0 0 0 0 -146778158.0504882 -261813274.38235018 0 -261813274.38235018 217079910.98848152 0 0 0 0 -109847504.01125836 256501844.85010743 0 256501844.85010743 -169213208.38965416 0 0 0 0 77508548.758430481 -299266247.31175327 0 -299266247.31175327 -146465069.06753588 0 0 0 0 176494082.97941589 -90365276.25895977 0 -90365276.25895977 230194599.3056016 0 0 0 0 -120123076.94316292 -193097159.68634796 0 -193097159.68634796 230683079.09347534 0 0 0 0 17710064.000114441 -78010344.757008553 0 -78010344.757008553 158323211.73461533 0 0 0 0 -48788825.502090454 -245154628.17116714 0 -245154628.17116714 598848758.6070652 0 0 0 0 189653425.27170086 -406393123.87200737 0 -406393123.87200737 162165883.62108612 0 0 0 0 150383480.20465469 -366514431.28771687 0 -366514431.28771687 330115772.59028053 0 0 0 0 398801169.10498428 -433411325.0922451 0 -433411325.0922451 164803832.85901642 0 0 0 0 284009306.47029018 -299732261.15138745 0 -299732261.15138745 171240885.86313629 0 0 0 0 59233156.7821455 -212060091.22420406 0 -212060091.22420406 187141214.10910225 0 0 0 0 -247908635.39001942 95568366.918019295 0 95568366.918019295 -173392289.47689009 0 0 0 0 618909657.53907776 -514428902.13140678 0 -514428902.13140678 -97383751.326765537 0 0 0 0 440679535.02867794 -338242120.1166234 0 -338242120.1166234 -8854766.904458046 0 0 0 0 481073511.80831337 -723277285.10767555 0 -723277285.10767555 499688822.84852219 0 0 0 0 103488230.9800005 -648540872.33740377 0 -648540872.33740377 1381667985.6956596 0 0 0 0 964905812.44470787 -1041414536.6648798 0 -1041414536.6648798 413879987.93610382 0 0 0 0 1002717.4837735789 -1779237.3840584792 0 -1779237.3840584792 640863.67724013957 0 0 0 0 808760086.55926752 -320249613.56249475 0 -320249613.56249475 -603093388.39806175 0 0 0 0 -692476.72637648834 -1925113.4288163627 0 -1925113.4288163627 4051202.9435892068 0 0 0 0 603447845.0829252 -1155879965.0461595 0 -1155879965.0461595 321704127.0134964 0 0 0 0 -455585343.28070259 318565903.66567695 0 318565903.66567695 877319204.37070656 0 0 0 0 -390855235.4268856 60247006.640049934 0 60247006.640049934 1401354913.404577 0 0 0 0 -281118362.78132343 65071081.315849304 0 65071081.315849304 -20691309.793921247 0 0 0 0 -452305002.53058577 -64754159.239999771 0 -64754159.239999771 939721048.74639034 0 0 0 0 -578738.8370211611 -4022542.3548494708 0 -4022542.3548494708 7398319.8404783029 0 0 0 0 -671681139.16963196 -860146054.57495165 0 -860146054.57495165 -39494403.503154129 0 0 0 0 -550155236.87179208 -509672106.05044413 0 -509672106.05044413 -44547773.842545509 0 0 0 0 -57872040.009003639 -281568645.27341223 0 -281568645.27341223 -86668798.113901019 0 0 0 0 -312834952.71923792 -45789693.504017413 0 -45789693.504017413 464386265.39159775 0 0 0 0 -219554971.04843092 -597171648.74327874 0 -597171648.74327874 984074758.95810807 0 0 0 0 212323140.24395847 -393036511.24279451 0 -393036511.24279451 393971263.55819082 0 0 0 0 -140597331.45746088 -92461424.399537921 0 -92461424.399537921 185051013.6668272 0 0 0 0 474525142.53110886 -235413177.65378141 0 -235413177.65378141 -93252201.90235424 0 0 0 0 459204323.72856379 -377415049.3943789 0 -377415049.3943789 53350172.110033035 0 0 0 0 433013668.5786953 -326957608.69546938 0 -326957608.69546938 49607415.907691091 0 0 0 0 214323413.70298767 -385646357.16902101 0 -385646357.16902101 189628064.16780472 0 0 0 0 437802312.98647881 -499768417.49591088 0 -499768417.49591088 245855571.98190117 0 0 0 0 662669278.45167542 -715143565.67547584 0 -715143565.67547584 211764777.83311009 0 0 0 0 372168377.58371353 -552026838.36350012 0 -552026838.36350012 218325759.54210192 0 0 0 0 216305972.1104095 -713935566.45877528 0 -713935566.45877528 537066242.43484795 0 0 0 0 -97104403.729049444 -666426460.24007583 0 -666426460.24007583 580188028.59404826 0 0 0 0 1350344577.6121244 -810745097.11277342 0 -810745097.11277342 181707834.27749026 0 0 0 0 438477938.97279406 -1152675035.5424986 0 -1152675035.5424986 741621862.89517844 0 0 0 0 -294308643.66463852 -241520186.7664547 0 -241520186.7664547 787947346.92936468 0 0 0 0 93224233.154885769 -342412224.04840136 0 -342412224.04840136 -457616802.50721645 0 0 0 0 4271453.9425289473 -8228678.552122361 0 -8228678.552122361 1147079.8179868038 0 0 0 0 1216833.7143116277 -1657958.5727678481 0 -1657958.5727678481 1312214.8463844748 0 0 0 0 176364114.44026399 -437498204.43070006 0 -437498204.43070006 -1045476741.5422618 0 0 0 0 5980020.2142004771 -6523575.5596734649 0 -6523575.5596734649 40828.967481445929 0 0 0 0 -183738751.36221933 -260316977.62203908 0 -260316977.62203908 118411276.59440541 0 0 0 0 -76696281.391548723 -807991871.97414255 0 -807991871.97414255 595387497.16778708 0 0 0 0 9693312.2963685989 -691356694.19136322 0 -691356694.19136322 72797999.722153425 0 0 0 0 -208983299.68542242 -482364083.71920466 0 -482364083.71920466 443686428.00992018 0 0 0 0 -51441053.028385974 -721582815.95410907 0 -721582815.95410907 596028927.17922926 0 0 0 0 180937248.68677759 -1208122443.1170702 0 -1208122443.1170702 1321008262.1770208 0 0 0 0 1190302612.2125077 -158074628.53170532 0 -158074628.53170532 259111093.68446726 0 0 0 0 1100346370.6880503 -1033859397.865428 0 -1033859397.865428 429712400.9344632 0 0 0 0 1344539048.6722913 -421990744.01230985 0 -421990744.01230985 -85354120.014139831 0 0 0 0 194440910.68827224 -439514877.69048733 0 -439514877.69048733 41503004.684520721 0 0 0 0 -150664774.72440922 -65070451.200509012 0 -65070451.200509012 -661609063.94484615 0 0 0 0 477357296.41205621 -703711245.07500505 0 -703711245.07500505 -342481210.5586257 0 0 0 0 301043212.92560542 129591083.79316205 0 129591083.79316205 -376436753.05549073 0 0 0 0 939531835.59427452 -68581425.532117724 0 -68581425.532117724 -762835605.09404373 0 0 0 0 -473978641.13151288 143099898.38690543 0 143099898.38690543 -759411336.28119469 0 0 0 0 381358510.85619974 -463489235.75585377 0 -463489235.75585377 -1869149046.0968039 0 0 0 0 6098508.1940007089 -4494123.8670292245 0 -4494123.8670292245 -483888.29803153116 0 0 0 0 2135908342.1192977 -191766312.82298762 0 -191766312.82298762 -542907408.38566172 0 0 0 0 2140953794.9583969 69235949.702831089 0 69235949.702831089 -1331781354.1138718 0 0 0 0 1211024186.185533 677293593.24105406 0 677293593.24105406 -1716202293.1282911 0 0 0 0 2847310.0737873977 -1576494.3481818493 0 -1576494.3481818493 -303382.71715503663 0 0 0 0 267066818.15501022 -382439940.43935525 0 -382439940.43935525 436644311.13260114 0 0 0 0 1020883617.4595149 591314647.27478278 0 591314647.27478278 -979895205.88147712 0 0 0 0 1925055298.866874 55747466.162110366 0 55747466.162110366 -695211025.93054867 0 0 0 0 2205292207.6188769 165492001.32803616 0 165492001.32803616 -1015418051.1490597 0 0 0 0 1476659035.3363914 226877817.78102946 0 226877817.78102946 -530222847.54011619 0 0 0 0 2204101147.9717379 -325502726.26428032 0 -325502726.26428032 -140732406.19320115 0 0 0 0 1582416740.1283674 -215007284.81536564 0 -215007284.81536564 195201141.28368115 0 0 0 0 2205131904.3450031 -597371280.64496136 0 -597371280.64496136 366264858.57568705 0 0 0 0 1713029053.7040124 -769057224.87924206 0 -769057224.87924206 588584032.42211139 0 0 0 0 1389077266.7071185 -561243045.18989635 0 -561243045.18989635 802984993.81076086 0 0 0 0 1275463974.742521 -1120165035.0450747 0 -1120165035.0450747 713480674.90763879 0 0 0 0 1292464536.3190179 -806994089.77413964 0 -806994089.77413964 -779095898.88708889 0 0 0 0 -427524392.21106553 -332416483.25070649 0 -332416483.25070649 1715210033.2158606 0 0 0 0 -326336.58190950588 -2041456.1861325714 0 -2041456.1861325714 3887760.8275034716 0 0 0 0 1738075019.6933975 -833191164.82109797 0 -833191164.82109797 749339082.57794034 0 0 0 0 2190342711.6533165 -819025181.60092223 0 -819025181.60092223 82031907.519241571 0 0 0 0 -689532916.90542662 -258014046.82323793 0 -258014046.82323793 871205296.33728528 0 0 0 0 415146330.56538224 -364595627.28951216 0 -364595627.28951216 1131606744.6313095 0 0 0 0 -20125508.668066978 177880302.30603409 0 177880302.30603409 552245748.28861547 0 0 0 0 137779832.44936943 -751906430.48314095 0 -751906430.48314095 2728265221.6599007 0 0 0 0 1614202659.6299362 -1296558689.4088092 0 -1296558689.4088092 2066619070.273478 0 0 0 0 2034907605.4595966 -409172910.69394207 0 -409172910.69394207 1582007283.2119031 0 0 0 0 2204009163.6255188 -917124960.71419668 0 -917124960.71419668 1251499359.6357777 0 0 0 0 1816547543.9853382 -1214393083.3721881 0 -1214393083.3721881 1038396900.2589984 0 0 0 0 2101273487.3314953 -601876103.77219081 0 -601876103.77219081 615853333.86183882 0 0 0 0 39714358.033164978 -20948836.516014099 0 -20948836.516014099 42323698.191078991 0 0 0 0 39195683.458732605 -27711664.180351257 0 -27711664.180351257 32199744.400777817 0 0 0 0 27797203.599956512 -31239438.636507988 0 -31239438.636507988 32287835.977809787 0 0 0 0 69467472.757381439 -28344368.99079895 0 -28344368.99079895 16126547.60044384 0 0 0 0 75586393.627969742 -15654266.403679371 0 -15654266.403679371 17530542.998670578 0 0 0 0 76697855.191841125 -21016190.492861748 0 -21016190.492861748 15452777.861436844 0 0 0 0 64851210.434501648 -16272780.629876137 0 -16272780.629876137 17601159.684215546 0 0 0 0 55776782.091247559 -20569757.348365784 0 -20569757.348365784 29258267.10541153 0 0 0 0 39806969.835264325 -28951424.980419777 0 -28951424.980419777 25377794.932769775 0 0 0 0 71242079.84475708 -15269504.420530319 0 -15269504.420530319 14955465.842969894 0 0 0 0 16910453.943820953 -2027404.6176958084 0 -2027404.6176958084 -7990811.6732988358 0 0 0 0 32925630.607464086 -628725.96182953706 0 -628725.96182953706 -3536836.3612599913 0 0 0 0 57880091.38482666 -12626364.50485611 0 -12626364.50485611 16461669.455258369 0 0 0 0 40360299.689620972 -22372841.303079605 0 -22372841.303079605 -14962603.421848297 0 0 0 0 23651410.225849152 1806399.5994796753 0 1806399.5994796753 -20082903.071460724 0 0 0 0 -15241048.02646637 30863215.070955276 0 30863215.070955276 -26106326.050866842 0 0 0 0 -8837599.4037475586 -25287967.843149185 0 -25287967.843149185 -19974475.545870423 0 0 0 0 -11250873.632987976 -14273586.204949379 0 -14273586.204949379 -66050517.095695496 0 0 0 0 -24198807.57957077 -29953919.717425346 0 -29953919.717425346 -74958250.697372437 0 0 0 0 29718927.556809664 -35266750.700412869 0 -35266750.700412869 -26637292.675345421 0 0 0 0 3692075.5392150879 -56470153.880237579 0 -56470153.880237579 -154084006.9645195 0 0 0 0 8932390.4879074097 46990081.281320572 0 46990081.281320572 -57328250.138757706 0 0 0 0 48916928.934898376 26825475.722553253 0 26825475.722553253 -126626967.18027878 0 0 0 0 43458700.866638184 -6898680.8175773621 0 -6898680.8175773621 42680239.068645626 0 0 0 0 41904927.489784241 -12195551.967824936 0 -12195551.967824936 24711013.589780807 0 0 0 0 32818974.384535402 -11742586.23600498 0 -11742586.23600498 -6409763.3023632001 0 0 0 0 20733472.425535202 -15414587.508484364 0 -15414587.508484364 82809601.670510292 0 0 0 0 36131812.370892987 -4013111.6830362566 0 -4013111.6830362566 -8485423.1688682307 0 0 0 0 27449570.738945007 -13270076.726849556 0 -13270076.726849556 -34270170.674031019 0 0 0 0 57325670.375411987 -52312546.200282216 0 -52312546.200282216 -106853081.21596754 0 0 0 0 26070181.587698251 -16373530.07590276 0 -16373530.07590276 -4548005.7329200795 0 0 0 0 42848354.697579913 -2901771.2941281796 0 -2901771.2941281796 -15608199.977597974 0 0 0 0 34126156.308695197 70588407.858347982 0 70588407.858347982 120596391.97663307 0 0 0 0 25016562.953771591 -41868860.311413288 0 -41868860.311413288 45686774.322304726 0 0 0 0 22061034.417991638 -30069141.552059174 0 -30069141.552059174 71802045.404477119 0 0 0 0 39688906.082988739 -28274867.268809319 0 -28274867.268809319 18636559.229978561 0 0 0 0 -17010350.346529007 -46492574.027383327 0 -46492574.027383327 14968993.904090881 0 0 0 0 -149883110.3615675 81339108.863479137 0 81339108.863479137 15259010.246688843 0 0 0 0 74794742.080726624 7821524.8245820999 0 7821524.8245820999 31277918.074035645 0 0 0 0 72166175.786182404 58996804.771486282 0 58996804.771486282 -246036767.42674732 0 0 0 0 36882722.745014191 2471880.4527759552 0 2471880.4527759552 -172343348.5490942 0 0 0 0 -71411480.405584335 -131069019.80699062 0 -131069019.80699062 -111017823.04918098 0 0 0 0 34079453.53055191 3111583.4037857056 0 3111583.4037857056 -35712393.614971161 0 0 0 0 70701066.106834412 -41385908.855078697 0 -41385908.855078697 -89519273.248527527 0 0 0 0 44897813.54822731 -48557230.713374615 0 -48557230.713374615 851465.13033103943 0 0 0 0 89758255.892368317 -33004098.947636604 0 -33004098.947636604 -22563967.907289505 0 0 0 0 73367705.04251194 -25953101.846504927 0 -25953101.846504927 -15157081.409067154 0 0 0 0 104135071.05875778 -33829723.863563061 0 -33829723.863563061 -31388832.731706619 0 0 0 0 124646359.83440018 8081243.8402881622 0 8081243.8402881622 -2588155.4920525551 0 0 0 0 101467869.49164963 51348244.320302963 0 51348244.320302963 17866586.746860981 0 0 0 0 36024406.106212616 1419689.9285607338 0 1419689.9285607338 7364500.9633460045 0 0 0 0 92209067.413299561 -8883869.4067964554 0 -8883869.4067964554 -1437907.2586832047 0 0 0 0 11383877.968715796 231014.27778051421 0 231014.27778051421 -2043101.4609188149 0 0 0 0 89163830.49325943 -13748310.502378464 0 -13748310.502378464 -9204240.4076797962 0 0 0 0 96239122.463151932 -19391468.997027636 0 -19391468.997027636 -6758486.8573551178 0 0 0 0 16046885.037166495 15118690.69277435 0 15118690.69277435 4793308.0003995113 0 0 0 0 6931486.9245147705 110050579.15105724 0 110050579.15105724 66624119.387453556 0 0 0 0 96211625.024108887 -29578009.854419708 0 -29578009.854419708 -45374431.475952148 0 0 0 0 121115101.69635105 -50631783.653380156 0 -50631783.653380156 -47471210.776012421 0 0 0 0 6630670.1155766901 -128438.04186814651 0 -128438.04186814651 -1587743.9013073118 0 0 0 0 -3831958.6294822693 43901316.8438797 0 43901316.8438797 -6365822.1758623123 0 0 0 0 2425690.6720695496 26767994.832157135 0 26767994.832157135 -16406475.224915504 0 0 0 0 5033941.779253006 35694633.467787743 0 35694633.467787743 13443786.517776489 0 0 0 0 -28860572.156982422 22544537.369457722 0 22544537.369457722 24650855.654696465 0 0 0 0 -8573468.6927032471 14018315.285673141 0 14018315.285673141 49766109.205586433 0 0 0 0 -8273309.9730529785 17440129.91799736 0 17440129.91799736 10520936.072682381 0 0 0 0 18119299.441416249 13854798.191421397 0 13854798.191421397 3024378.2902942719 0 0 0 0 42316757.695068359 13245414.130428791 0 13245414.130428791 11988310.429544449 0 0 0 0 -29553325.328751683 30126165.2950266 0 30126165.2950266 14920354.929109573 0 0 0 0 4172300.6247825623 30756336.462184906 0 30756336.462184906 -19243488.113413811 0 0 0 0 160526.84496649355 11242854.577858631 0 11242854.577858631 1702536.6718202461 0 0 0 0 -18152899.100196838 25462826.426245689 0 25462826.426245689 4184123.3791437149 0 0 0 0 13383096.900138855 13826704.492639542 0 13826704.492639542 -1766723.1560001373 0 0 0 0 10365830.950210571 18823843.754703522 0 18823843.754703522 -6362200.2974157333 0 0 0 0 -17725805.679679871 28394795.902979851 0 28394795.902979851 4174189.8682374954 0 0 0 0 -10386618.546455383 -17914992.439529419 0 -17914992.439529419 -6456061.3144006729 0 0 0 0 61205135.178924561 -704668.5988843441 0 -704668.5988843441 -3185939.6679592133 0 0 0 0 37804545.076095581 -13208850.344092369 0 -13208850.344092369 11398798.733387709 0 0 0 0 80576120.675989151 -14723565.672252655 0 -14723565.672252655 13968736.654268265 0 0 0 0 7166899.2215764076 281794.20006497856 0 281794.20006497856 -3057126.0054140463 0 0 0 0 79275514.976675034 -34558557.407131195 0 -34558557.407131195 16194802.251142502 0 0 0 0 103571390.84723663 -24005856.911010742 0 -24005856.911010742 -7921754.5879199505 0 0 0 0 18633536.423773449 -2997302.1349455458 0 -2997302.1349455458 28781.75792172458 0 0 0 0 39770982.539855957 5568305.9029817581 0 5568305.9029817581 8085978.0990924835 0 0 0 0 56025175.771629333 3153254.7264518738 0 3153254.7264518738 -1520952.5090255737 0 0 0 0 20667584.492308877 3171917.9808778744 0 3171917.9808778744 -2042606.0583872013 0 0 0 0 9424193.523888588 310503.89450502396 0 310503.89450502396 -2263286.6417427063 0 0 0 0 14148420.409028064 4063669.2492984519 0 4063669.2492984519 152754.32616273407 0 0 0 0 8276382.7893102169 -1210397.2219963074 0 -1210397.2219963074 -3973854.3565292358 0 0 0 0 9017455.3795740604 1112312.9482903481 0 1112312.9482903481 -5957063.0633728355 0 0 0 0 10595710.190774679 3760817.7977333069 0 3760817.7977333069 -7249725.3691501617 0 0 0 0 11159821.343778849 2004266.5986022949 0 2004266.5986022949 -10063073.488180161 0 0 0 0 7240109.2473463677 -1493277.9310702323 0 -1493277.9310702323 -414277.11806825676 0 0 0 0 19865152.430859238 19993012.817578856 0 19993012.817578856 -3498517.1518014297 0 0 0 0 10348410.307596922 4788261.0571975708 0 4788261.0571975708 -4998588.8747309446 0 0 0 0 33336441.176177979 -13304541.306725979 0 -13304541.306725979 22548307.854476929 0 0 0 0 20693894.300574716 -3331052.987118124 0 -3331052.987118124 -4272510.2717316141 0 0 0 0 20357016.897558372 -2755479.3115399601 0 -2755479.3115399601 -5802055.5768488254 0 0 0 0 44308987.342811584 -1048134.6532263756 0 -1048134.6532263756 -8288406.9692230225 0 0 0 0 6491609.6841001511 -618683.81371212006 0 -618683.81371212006 -6044824.2566108704 0 0 0 0 20925857.308528617 -578841.87223712588 0 -578841.87223712588 -238097.34846979752 0 0 0 0 52490376.851898193 -15634215.838603973 0 -15634215.838603973 -22577441.057179451 0 0 0 0 72898466.310133934 -23427108.278055668 0 -23427108.278055668 -28655551.987358093 0 0 0 0 37625019.097082138 967309.89322900772 0 967309.89322900772 -3416794.3403968811 0 0 0 0 69134620.575683594 -39190151.40423584 0 -39190151.40423584 -15577725.786439896 0 0 0 0 12622769.277185654 -1374003.1988456142 0 -1374003.1988456142 -2783132.3707956765 0 0 0 0 30263821.254829407 -3195373.5756406784 0 -3195373.5756406784 -3616723.6804795265 0 0 0 0 37558537.366547734 -2564431.4267509431 0 -2564431.4267509431 -1424066.7936668396 0 0 0 0 18320977.25609608 -1370536.0059087863 0 -1370536.0059087863 -1263530.2931496017 0 0 0 0 12831412.245884193 2413016.1588479141 0 2413016.1588479141 -2113061.7931950148 0 0 0 0 61226786.379318237 -12561836.521525383 0 -12561836.521525383 -6089304.010008812 0 0 0 0 3266570.5919695105 326540.10986420047 0 326540.10986420047 -1188165.9156173449 0 0 0 0 45098555.565320969 -4364723.1131210327 0 -4364723.1131210327 -14805066.646179199 0 0 0 0 26566881.864865303 442123.61477947235 0 442123.61477947235 -15858059.174894333 0 0 0 0 10835905.437274933 -3439319.505613327 0 -3439319.505613327 6886306.7190971375 0 0 0 0 67205560.799575806 -21702249.381629944 0 -21702249.381629944 -12317896.243083954 0 0 0 0 67244208.566131592 -2076397.1000871658 0 -2076397.1000871658 -37062353.300523758 0 0 0 0 43195258.609485626 -938944.69069194794 0 -938944.69069194794 -34431023.061203003 0 0 0 0 34304384.992595673 11109691.003885746 0 11109691.003885746 -48784991.119344711 0 0 0 0 15299619.84137249 11925401.486302137 0 11925401.486302137 -14077360.779533386 0 0 0 0 45646727.65297699 6491365.7862257957 0 6491365.7862257957 -20441640.058145523 0 0 0 0 42292302.48890686 -4720964.2304515839 0 -4720964.2304515839 -18777333.727178574 0 0 0 0 4479649.0793151855 18195746.98429966 0 18195746.98429966 23310372.898583889 0 0 0 0 7256524.888217926 13327674.25492382 0 13327674.25492382 2242034.6931266785 0 0 0 0 7329871.9157562256 14711009.634750366 0 14711009.634750366 8945177.2762050629 0 0 0 0 2898767.1053237915 9039559.1214122772 0 9039559.1214122772 8654494.5845394135 0 0 0 0 2324746.1462020874 9411291.6148195267 0 9411291.6148195267 3947143.3933029175 0 0 0 0 3341995.6491737366 14946176.714743614 0 14946176.714743614 319832.10889148712 0 0 0 0 2910149.6149368286 15163398.713860512 0 15163398.713860512 13203365.712121964 0 0 0 0 -2017853.19231987 25283460.789318085 0 25283460.789318085 5293249.7840480804 0 0 0 0 -4038809.9183502197 151153.21546173096 0 151153.21546173096 6277616.3208070993 0 0 0 0 3639670.4251804352 10697517.282389164 0 10697517.282389164 5130112.175658226 0 0 0 0 8349612.3141358905 2318917.3731324635 0 2318917.3731324635 -776249.24715740792 0 0 0 0 5060310.0478630066 -5567999.2787666321 0 -5567999.2787666321 9747090.0319366455 0 0 0 0 5548668.0470294952 6077263.757235527 0 6077263.757235527 470749.21863126755 0 0 0 0 4556439.4472866058 17529372.474167466 0 17529372.474167466 24665012.194477081 0 0 0 0 -95727506.419448853 28358470.757528305 0 28358470.757528305 -21815366.740286827 0 0 0 0 573681.36009336077 2272073.6036729878 0 2272073.6036729878 996326.1463871398 0 0 0 0 -19911906.535556793 79217992.757883549 0 79217992.757883549 -59666106.871667862 0 0 0 0 6652674.7950973511 -12623892.303139687 0 -12623892.303139687 -79662569.967931747 0 0 0 0 7831581.850566864 -9524188.5366983414 0 -9524188.5366983414 -965403.6947851181 0 0 0 0 14541602.378289223 3521794.1882548332 0 3521794.1882548332 -50823967.234985352 0 0 0 0 800176.54994985647 191099.09274838213 0 191099.09274838213 -323807.14554020204 0 0 0 0 1280282.7634589151 -1125066.282403603 0 -1125066.282403603 -960728.5547556472 0 0 0 0 -13276768.429210663 316927.05256080627 0 316927.05256080627 18777463.556263208 0 0 0 0 -34527649.302633286 36318293.073721886 0 36318293.073721886 -27953514.349704742 0 0 0 0 30584102.394207001 -21774436.986965179 0 -21774436.986965179 -1578771.3885476589 0 0 0 0 -39893138.301567435 -54250981.198035061 0 -54250981.198035061 1152998.8568534851 0 0 0 0 -237064.57428359985 19098797.328923225 0 19098797.328923225 -80953401.712158203 0 0 0 0 -2140452.1950403452 -29534137.708140314 0 -29534137.708140314 -36244514.752832413 0 0 0 0 167335157.428689 -16841462.267885685 0 -16841462.267885685 -40888983.4622612 0 0 0 0 115523070.72806549 96778434.447183609 0 96778434.447183609 -27550713.3652215 0 0 0 0 5303385.2963008881 39020111.74607861 0 39020111.74607861 15027820.106216431 0 0 0 0 65880594.535736084 -24147765.675451279 0 -24147765.675451279 -16842498.823986053 0 0 0 0 24483098.688720703 -25590705.706612587 0 -25590705.706612587 11652625.564487457 0 0 0 0 80277292.811599731 -75561924.220624447 0 -75561924.220624447 50883564.644966125 0 0 0 0 318719.0014011357 -172400.47239012178 0 -172400.47239012178 -189066.8860733537 0 0 0 0 28197091.952903748 -8646630.9024858475 0 -8646630.9024858475 -41642596.412264824 0 0 0 0 37053061.07841301 40935077.088020802 0 40935077.088020802 -44399320.594486237 0 0 0 0 106015150.28429794 -19015136.714630127 0 -19015136.714630127 -14800713.707996368 0 0 0 0 19328169.802035574 -6951950.1216335502 0 -6951950.1216335502 -5871271.0557245314 0 0 0 0 28198040.574028015 -23030041.712165356 0 -23030041.712165356 1915034.2546517253 0 0 0 0 39285664.833408356 31069877.554532152 0 31069877.554532152 15543233.772267163 0 0 0 0 94571072.577011108 21947691.088125169 0 21947691.088125169 -13392717.041046768 0 0 0 0 -57513837.654579163 -19213126.066235691 0 -19213126.066235691 -19920490.587937862 0 0 0 0 -48871427.977140427 -41963939.579104409 0 -41963939.579104409 16265242.990240693 0 0 0 0 -40404623.529903412 -35046557.505711257 0 -35046557.505711257 -8332042.025057286 0 0 0 0 -18802358.313743591 -39686421.376756847 0 -39686421.376756847 -15329225.469539404 0 0 0 0 20046033.504977763 -7932279.3275729325 0 -7932279.3275729325 -4904913.2434746334 0 0 0 0 -48887513.372062683 -42262845.203476757 0 -42262845.203476757 -1787920.0479113758 0 0 0 0 60355183.530521393 3020863.9456787705 0 3020863.9456787705 -7483670.9614462554 0 0 0 0 -9563502.6857147217 -28762694.421386719 0 -28762694.421386719 -27043367.72518158 0 0 0 0 13999981.95011165 3698198.0864280071 0 3698198.0864280071 560721.52857732296 0 0 0 0 15549344.490833819 21481921.267313704 0 21481921.267313704 -29856731.164390564 0 0 0 0 29395780.110141754 -78256190.369456291 0 -78256190.369456291 -718143.09547328949 0 0 0 0 3213041.1532148765 -728854.29165696166 0 -728854.29165696166 -303265.68925364129 0 0 0 0 10627433.580841038 1938928.1230685338 0 1938928.1230685338 -76469.956859701313 0 0 0 0 -22488593.384548187 -54105144.961727619 0 -54105144.961727619 13636049.54340744 0 0 0 0 29451765.648010254 -25694742.599456787 0 -25694742.599456787 -39236556.516971588 0 0 0 0 -8652245.8474273682 -55572776.997503102 0 -55572776.997503102 -29626419.828150213 0 0 0 0 26731904.721412368 -5523695.8972222907 0 -5523695.8972222907 -3629866.7323770151 0 0 0 0 50547328.828443527 -887666.18531131744 0 -887666.18531131744 -4033421.6378803253 0 0 0 0 83207921.973396301 27185902.58111012 0 27185902.58111012 -14864941.218702316 0 0 0 0 -101715451.45802689 -79248347.7266922 0 -79248347.7266922 -39071582.105150223 0 0 0 0 3329640.2884263098 585798.78901012335 0 585798.78901012335 -33676.737424279563 0 0 0 0 -89879916.084149361 -38616514.532788754 0 -38616514.532788754 8068491.7746505737 0 0 0 0 56850570.852111816 -7632155.3827781677 0 -7632155.3827781677 -25310169.197320938 0 0 0 0 -11748397.119377136 -43350366.04925251 0 -43350366.04925251 45657586.171668053 0 0 0 0 -16381987.517822266 -21026048.229739189 0 -21026048.229739189 -31437533.450631142 0 0 0 0 28262581.023220062 -48603528.951418877 0 -48603528.951418877 -65733257.564961731 0 0 0 0 39072686.507270813 -72307733.061562359 0 -72307733.061562359 -60225944.344044469 0 0 0 0 -7712238.9021377563 -51606389.007320821 0 -51606389.007320821 -18125506.409551144 0 0 0 0 19230128.035004616 -61074078.25001289 0 -61074078.25001289 32556455.193464547 0 0 0 0 19554234.850959778 -61775217.321189433 0 -61775217.321189433 -15259186.700555205 0 0 0 0 -18440451.366309643 -44024406.622475803 0 -44024406.622475803 29829153.675743043 0 0 0 0 15842143.268875122 -21003633.399558619 0 -21003633.399558619 2598828.1156540662 0 0 0 0 24231606.856025696 -34884475.738630027 0 -34884475.738630027 16925732.627766803 0 0 0 0 41792802.068099976 -2436121.1274219379 0 -2436121.1274219379 69464564.251661867 0 0 0 0 97068565.984607697 -76579706.699250355 0 -76579706.699250355 3922962.7024166584 0 0 0 0 48504113.949111938 -86404512.317158967 0 -86404512.317158967 54473537.955513135 0 0 0 0 81773915.942832947 -16928683.33594051 0 -16928683.33594051 66549196.495368719 0 0 0 0 314867935.94927979 -63421569.627610505 0 -63421569.627610505 54261109.361681163 0 0 0 0 100979837.56980133 7547535.9819339886 0 7547535.9819339886 184688921.03051555 0 0 0 0 382791.87823683769 -255911.25405521505 0 -255911.25405521505 459708.93444448023 0 0 0 0 295732370.23085022 204986550.24963865 0 204986550.24963865 181115380.66990659 0 0 0 0 19537826.635349274 -161531546.18531942 0 -161531546.18531942 -15700909.690494895 0 0 0 0 90623473.080245972 121792013.50779277 0 121792013.50779277 109586373.72513872 0 0 0 0 56548445.985870361 53340999.587613434 0 53340999.587613434 106281846.35540283 0 0 0 0 203681330.50667953 -25360393.204506084 0 -25360393.204506084 -32550707.465354145 0 0 0 0 25549385.230072021 -53247482.029266119 0 -53247482.029266119 -92237907.171177983 0 0 0 0 95062570.292770386 -73841450.054425627 0 -73841450.054425627 -99998381.689911678 0 0 0 0 68322334.341373444 -52421108.27828379 0 -52421108.27828379 -16350091.699478924 0 0 0 0 33661044.714653015 -70944204.30172345 0 -70944204.30172345 -19652394.995660305 0 0 0 0 53107472.206031799 7685513.8526261449 0 7685513.8526261449 -39749849.274163753 0 0 0 0 -367938686.19437408 -215984850.08884865 0 -215984850.08884865 17683218.549893454 0 0 0 0 -16495237.462780476 -30212942.69674024 0 -30212942.69674024 -118675353.16969529 0 0 0 0 71968421.276473999 -31616936.229052722 0 -31616936.229052722 -111198882.57685819 0 0 0 0 -163545698.4823761 -148273662.11237127 0 -148273662.11237127 -128736969.81875464 0 0 0 0 -83326403.282104492 6016313.4155903012 0 6016313.4155903012 -79760804.666958809 0 0 0 0 31976604.570858002 -46741180.64351055 0 -46741180.64351055 -105304379.02812344 0 0 0 0 60007122.831729889 101833463.9874163 0 101833463.9874163 51321308.016859949 0 0 0 0 55993833.244361877 -70506059.122320116 0 -70506059.122320116 -105191477.93579054 0 0 0 0 408981.49767644331 502841.51418008283 0 502841.51418008283 351475.99767821445 0 0 0 0 1516930.2965660021 -488386.7162939366 0 -488386.7162939366 892094.26058493787 0 0 0 0 70903593.529922485 11397006.825887084 0 11397006.825887084 -2650559.4471728802 0 0 0 0 4488706.6317062378 49789697.063787788 0 49789697.063787788 -18623562.312303886 0 0 0 0 89759669.079689026 10755863.50893417 0 10755863.50893417 -15494156.017247677 0 0 0 0 -8630008.3329391479 51611311.149789497 0 51611311.149789497 -30099432.24174469 0 0 0 0 44807150.06819725 127253244.96409199 0 127253244.96409199 122052932.74167776 0 0 0 0 3102464.6413381621 -278231.73083822802 0 -278231.73083822802 932044.85518284712 0 0 0 0 3116419.2941572219 1575624.6160713993 0 1575624.6160713993 36448.413324618246 0 0 0 0 70441623.391120434 108613851.84854376 0 108613851.84854376 -18798887.519834042 0 0 0 0 6065774.359861657 837303.22892939672 0 837303.22892939672 157271.77800954756 0 0 0 0 43953953.799970627 117998974.45236351 0 117998974.45236351 48878959.682608604 0 0 0 0 -7166116.1146621704 -26156977.201653071 0 -26156977.201653071 15519696.740667665 0 0 0 0 66675237.245956421 -70242138.938535333 0 -70242138.938535333 -17463524.466269374 0 0 0 0 39083190.272796631 58530486.190205932 0 58530486.190205932 -14822466.598728061 0 0 0 0 -204519151.53526306 176435409.24008161 0 176435409.24008161 295770689.73394138 0 0 0 0 73338441.421881318 -10029573.897915363 0 -10029573.897915363 -68233944.454637527 0 0 0 0 59120088.00730896 60551508.536799625 0 60551508.536799625 -59856576.385714635 0 0 0 0 18830170.012828827 -1756624.8976588249 0 -1756624.8976588249 110873643.09954357 0 0 0 0 97017117.744293213 32335390.486402839 0 32335390.486402839 -169531945.47630176 0 0 0 0 41583853.609058335 -2102459.2998614437 0 -2102459.2998614437 -264802.52402030351 0 0 0 0 28039070.301070929 -54721011.733247757 0 -54721011.733247757 24713503.462018013 0 0 0 0 33024533.570456147 -44137040.191870809 0 -44137040.191870809 45959829.954667091 0 0 0 0 87572613.177108765 7741465.4361287653 0 7741465.4361287653 -214851520.2109459 0 0 0 0 37956763.975607827 -1425135.3224730904 0 -1425135.3224730904 -577462.17966514791 0 0 0 0 39657998.77661705 -3816540.3585128784 0 -3816540.3585128784 -4329060.4695930481 0 0 0 0 49249264.934679985 -9767653.6721019745 0 -9767653.6721019745 -51443391.148259163 0 0 0 0 25916490.91901207 -39192486.997600079 0 -39192486.997600079 -14308190.120093346 0 0 0 0 39629845.482374191 -7260102.0238368511 0 -7260102.0238368511 -56444638.81791687 0 0 0 0 33342821.713627815 -8016521.4973049164 0 -8016521.4973049164 -47614852.068147659 0 0 0 0 43018645.035260677 12707988.071949005 0 12707988.071949005 -118566331.24255943 0 0 0 0 30672649.029249668 6946298.5261154175 0 6946298.5261154175 -119311442.81324387 0 0 0 0 75503895.769155264 -24132485.576527596 0 -24132485.576527596 -63246611.662109375 0 0 0 0 19851086.002509117 -5759701.8607215881 0 -5759701.8607215881 -57365730.832296848 0 0 0 0 43297849.197708607 -11065744.322057724 0 -11065744.322057724 -138766025.73571014 0 0 0 0 47583821.718061492 13198757.783511877 0 13198757.783511877 -161325607.53787613 0 0 0 0 -9061522.5091810226 28796599.364625931 0 28796599.364625931 -104469109.14265442 0 0 0 0 3864539.3580172658 57017512.195537567 0 57017512.195537567 -156926521.22898483 0 0 0 0 52910747.983497381 54129146.588165283 0 54129146.588165283 -226557610.61104202 0 0 0 0 17805240.285391595 5374698.5016453676 0 5374698.5016453676 -3083002.6300221793 0 0 0 0 3100097.1579021215 22877527.908699036 0 22877527.908699036 -62238882.125998497 0 0 0 0 738205.87665247917 -30147638.411916733 0 -30147638.411916733 -148951887.26691246 0 0 0 0 11287168.056192398 -31513930.524243355 0 -31513930.524243355 -36495150.045958519 0 0 0 0 19951290.616355896 -11884701.865375519 0 -11884701.865375519 -32865514.946593881 0 0 0 0 2380737.3814182281 -27860951.280052662 0 -27860951.280052662 -34118594.183012962 0 0 0 0 14166291.387901306 -33917340.184044838 0 -33917340.184044838 -95623467.84550415 0 0 0 0 18883289.694717407 -20451242.175272703 0 -20451242.175272703 -10485696.219810486 0 0 0 0 30046657.314133734 -4634067.4306327626 0 -4634067.4306327626 -2180374.8771328218 0 0 0 0 91334980.019420624 -26783281.469104618 0 -26783281.469104618 -211824871.76082504 0 0 0 0 102153557.39390564 11773270.815534532 0 11773270.815534532 -214278926.78709805 0 0 0 0 34107122.012871355 -2047561.5976239718 0 -2047561.5976239718 -1119629.1542533045 0 0 0 0 37820100.440979958 -28610694.424941063 0 -28610694.424941063 8734006.8960913718 0 0 0 0 35708715.997886658 -9016998.3471498489 0 -9016998.3471498489 -22248961.175450325 0 0 0 0 37666651.788956642 -19005036.198478699 0 -19005036.198478699 -30910322.92340374 0 0 0 0 40478863.208507538 -23324478.271378517 0 -23324478.271378517 -29290758.28887701 0 0 0 0 37686392.014011383 -10699695.190013885 0 -10699695.190013885 -35221279.821237564 0 0 0 0 32007570.252412796 -14670860.560907364 0 -14670860.560907364 -37672995.806212425 0 0 0 0 30377617.716189004 -1876075.6487034613 0 -1876075.6487034613 -13903987.250007741 0 0 0 0 192743475.59903336 18365979.56919384 0 18365979.56919384 -36922909.350542068 0 0 0 0 21286704.42218399 -13562729.972416878 0 -13562729.972416878 -30805855.012385368 0 0 0 0 28854864.785345554 -22120652.387143135 0 -22120652.387143135 -37952177.50825119 0 0 0 0 118401370.69307327 198300308.7343297 0 198300308.7343297 53310920.498157501 0 0 0 0 33343763.226026282 -3064474.7375178626 0 -3064474.7375178626 -13266518.498601101 0 0 0 0 185108454.04742432 60737015.348420143 0 60737015.348420143 -166276794.13632298 0 0 0 0 57118339.601348877 23173033.046203613 0 23173033.046203613 19654949.231133461 0 0 0 0 -70397670.672855377 149857677.094028 0 149857677.094028 47545881.590709686 0 0 0 0 60244230.91144371 5530683.3367538452 0 5530683.3367538452 -91420367.237947464 0 0 0 0 76505913.971424103 59206511.569530487 0 59206511.569530487 -115151062.36615372 0 0 0 0 -138348723.70484161 -282319055.46753645 0 -282319055.46753645 28624398.104825974 0 0 0 0 1384848.1234765872 857108.6793950526 0 857108.6793950526 -2982565.6486608395 0 0 0 0 72435466.626102448 -55620192.938988686 0 -55620192.938988686 -229714712.00107002 0 0 0 0 72421609.721570969 -88093283.323936224 0 -88093283.323936224 388058741.38406944 0 0 0 0 328902270.06808472 122848039.88817978 0 122848039.88817978 -57268654.139079571 0 0 0 0 285739654.82583237 -205467637.19727039 0 -205467637.19727039 -32431494.042724609 0 0 0 0 12062939.37770462 -48530187.987032413 0 -48530187.987032413 -52966320.589016438 0 0 0 0 339941156.98064053 -238336778.67898229 0 -238336778.67898229 -9935915.7538337708 0 0 0 0 363101533.96818924 172276049.71097469 0 172276049.71097469 -22619339.636807442 0 0 0 0 37768530.887264252 2557081.8728027344 0 2557081.8728027344 -40374717.347006798 0 0 0 0 3047764.5958336778 -5182653.8531757295 0 -5182653.8531757295 -4653291.5716070086 0 0 0 0 30187896.249891311 713439.10339198355 0 713439.10339198355 -14229929.21559749 0 0 0 0 13193691.285114288 -33270104.590662479 0 -33270104.590662479 -20634300.765294075 0 0 0 0 40856433.166268826 4452007.4974153042 0 4452007.4974153042 -62728210.745285034 0 0 0 0 -1745301.6791687012 -18995810.028701305 0 -18995810.028701305 -39439385.024620056 0 0 0 0 2749962.3260578662 -3108648.7493802719 0 -3108648.7493802719 -6124549.406513636 0 0 0 0 17782777.508023068 7098786.6158113554 0 7098786.6158113554 -8269782.3464880697 0 0 0 0 30983579.857551575 -10797061.406610489 0 -10797061.406610489 -29742013.548443794 0 0 0 0 43291196.415967464 -25045077.122704178 0 -25045077.122704178 -14955787.490739822 0 0 0 0 148659738.5630455 179920103.64637804 0 179920103.64637804 124957769.66452885 0 0 0 0 -102112288.5557251 -17431060.866203308 0 -17431060.866203308 -27951377.287077665 0 0 0 0 60709883.795639038 3382593.74974823 0 3382593.74974823 -97090225.817279816 0 0 0 0 1197689.8352379352 -461803.82380285696 0 -461803.82380285696 -1937879.1071315594 0 0 0 0 51718193.974838257 59265353.505661011 0 59265353.505661011 16597314.254588127 0 0 0 0 167048271.24234009 93788214.254892349 0 93788214.254892349 -23123259.619211197 0 0 0 0 162928396.0293026 57140836.298808336 0 57140836.298808336 -64680428.891820908 0 0 0 0 111594996.21282005 -41256699.792884707 0 -41256699.792884707 3148684.3322048187 0 0 0 0 171541164.51406097 30001693.914875031 0 30001693.914875031 -29813342.471263885 0 0 0 0 26504769.450492859 17201627.419429779 0 17201627.419429779 -69999825.403615475 0 0 0 0 6565051.120115079 36294.640031600371 0 36294.640031600371 -6438966.6088559292 0 0 0 0 19652317.291399956 6464588.1271673441 0 6464588.1271673441 -24443365.627437592 0 0 0 0 17181779.491752625 898731.68397569656 0 898731.68397569656 1684821.1594572067 0 0 0 0 77590095.403045654 443180324.69487381 0 443180324.69487381 -274185312.9238143 0 0 0 0 -129495167.37975311 -45336412.74709487 0 -45336412.74709487 64939194.808307648 0 0 0 0 297917.87582487613 74886.290569498204 0 74886.290569498204 -1276957.8544496279 0 0 0 0 76899188.334518433 81626721.485028267 0 81626721.485028267 47212992.942958355 0 0 0 0 171908157.25531182 80201445.887006819 0 80201445.887006819 -43242419.203929901 0 0 0 0 318742758.48973083 65231901.588112354 0 65231901.588112354 -64271856.36260128 0 0 0 0 251338594.4486084 273890315.74219847 0 273890315.74219847 14362181.715295792 0 0 0 0 260165398.76464081 -82391686.618956566 0 -82391686.618956566 -6938759.0826765895 0 0 0 0 894644.39610884339 131657.11148755252 0 131657.11148755252 -743536.56156900618 0 0 0 0 85426585.3020401 57818827.254144669 0 57818827.254144669 -34360515.179055214 0 0 0 0 90563352.672225952 28654343.524812698 0 28654343.524812698 -104028070.51570988 0 0 0 0 127569570.05335999 -83728318.063694 0 -83728318.063694 105231248.2066195 0 0 0 0 155903973.98745728 161923774.09728479 0 161923774.09728479 121249428.77413559 0 0 0 0 3186093.7204048093 2115188.1080421461 0 2115188.1080421461 -5573908.7507268321 0 0 0 0 -69955373.26632309 14304186.53707397 0 14304186.53707397 82590077.739096642 0 0 0 0 -69227908.003082275 -91669831.193071723 0 -91669831.193071723 -24862957.711941719 0 0 0 0 30619010.199102402 6048345.8863922358 0 6048345.8863922358 -10805772.615087509 0 0 0 0 95982135.221071243 -10991742.529646516 0 -10991742.529646516 -50570287.840358734 0 0 0 0 2871818.3585166931 -19653280.090539932 0 -19653280.090539932 18831527.608848572 0 0 0 0 20389537.183551788 -20800207.594125748 0 -20800207.594125748 -313457.68152809143 0 0 0 0 12162722.824741364 -10579897.157530785 0 -10579897.157530785 -11176254.451547623 0 0 0 0 8901726.1735610962 23160551.575864792 0 23160551.575864792 26826729.443534732 0 0 0 0 -136341959.17800903 -26632446.730054379 0 -26632446.730054379 13670390.535665512 0 0 0 0 39382667.179470062 104962607.22703886 0 104962607.22703886 -128337801.49812126 0 0 0 0 172493354.74685669 99160606.745495319 0 99160606.745495319 -93497305.8633461 0 0 0 0 74132006.918060303 48804946.147062302 0 48804946.147062302 -54987223.332704544 0 0 0 0 88444604.237323761 14252325.672597885 0 14252325.672597885 -80896894.924526215 0 0 0 0 94786561.231697083 6274477.1269655228 0 6274477.1269655228 -200440551.3649044 0 0 0 0 9829627.5825691223 9787843.1147146225 0 9787843.1147146225 -21045707.05578804 0 0 0 0 2132148.3513145447 4687652.341545105 0 4687652.341545105 -8159980.0294780731 0 0 0 0 4521789.5337457657 -291113.69388437271 0 -291113.69388437271 -30501730.60578537 0 0 0 0 6539035.3777313232 10547842.535457611 0 10547842.535457611 -17870916.615943909 0 0 0 0 8019511.0385246277 24460245.762534142 0 24460245.762534142 -14988328.938932419 0 0 0 0 6180144.1936225891 22413194.454773903 0 22413194.454773903 -17155123.684958458 0 0 0 0 -13379328.631530762 26430053.008155823 0 26430053.008155823 -26587002.09938255 0 0 0 0 4713611.5357475281 -21661138.214277506 0 -21661138.214277506 -13375156.701604843 0 0 0 0 20403376.286338806 19587809.6918993 0 19587809.6918993 -26711755.26568985 0 0 0 0 9799389.2618713379 7050308.3018732071 0 7050308.3018732071 -56140372.187892914 0 0 0 0 -1905666.2493400574 -12681260.660644531 0 -12681260.660644531 -26704235.795406342 0 0 0 0 1993498.6695050886 2348569.4760368485 0 2348569.4760368485 -1846190.7134769019 0 0 0 0 3441942.1740188599 13340886.01069355 0 13340886.01069355 -20439141.229003906 0 0 0 0 -16857001.582386017 36821267.098442078 0 36821267.098442078 -30717400.894388199 0 0 0 0 27118410.192147732 76085.331580162048 0 76085.331580162048 -30004651.317430496 0 0 0 0 16328128.517227173 28948645.051305771 0 28948645.051305771 -49896795.854976654 0 0 0 0 12703503.112761771 10557844.50909386 0 10557844.50909386 -437230.55128361704 0 0 0 0 10143429.920351028 8960074.1188073158 0 8960074.1188073158 -25917887.380223274 0 0 0 0 13789124.372874714 -1064931.6872912277 0 -1064931.6872912277 -7975183.0050101709 0 0 0 0 -28709577.93106842 -18803177.361905575 0 -18803177.361905575 -9703273.7074775696 0 0 0 0 24135004.882330209 4776009.999032218 0 4776009.999032218 -8318287.3792906385 0 0 0 0 4844254.9626808167 2986396.4045696259 0 2986396.4045696259 -10206949.469612598 0 0 0 0 13389101.479381561 8136534.1987977028 0 8136534.1987977028 -21211038.440031767 0 0 0 0 13015337.197983978 -1279550.6603823577 0 -1279550.6603823577 -11347181.781163899 0 0 0 0 14297692.2069664 -1633409.5175175667 0 -1633409.5175175667 -13354573.01775074 0 0 0 0 15945936.252056122 4418867.911179781 0 4418867.911179781 -19278853.209640741 0 0 0 0 9687953.662174169 2838695.7058260972 0 2838695.7058260972 -6935539.3806285765 0 0 0 0 19990216.967757702 -17282244.914643407 0 -17282244.914643407 -18017297.08380127 0 0 0 0 4563602.2009124756 2075436.8519935608 0 2075436.8519935608 -5058631.7502746582 0 0 0 0 849539.09377936274 -2562760.6366915982 0 -2562760.6366915982 -5265972.3989869934 0 0 0 0 102439973.27079773 -74342363.413747787 0 -74342363.413747787 -607450220.91686583 0 0 0 0 -106488493.61940765 598995646.63191986 0 598995646.63191986 264685526.05485821 0 0 0 0 818044131.13831329 -605115006.36379075 0 -605115006.36379075 -321483853.88139915 0 0 0 0 -490042308.7130127 -316478357.98646879 0 -316478357.98646879 658340399.73918247 0 0 0 0 -596572667.52570343 -21423503.427000999 0 -21423503.427000999 146162294.48737717 0 0 0 0 4265833.374786377 -1066508.9605879784 0 -1066508.9605879784 -4298166.1680788994 0 0 0 0 7221521.4048181344 -2500274.5472419821 0 -2500274.5472419821 -6589507.0523388125 0 0 0 0 -132650474.89538574 -52109070.594080925 0 -52109070.594080925 -191324826.24010468 0 0 0 0 1212794.0643968582 -912089.12780940533 0 -912089.12780940533 -7067092.1558456421 0 0 0 0 8123645.9697296396 -70951.604194715619 0 -70951.604194715619 -5126205.4468233772 0 0 0 0 2744709.4730224609 -354066.56086587906 0 -354066.56086587906 -3051432.6654491425 0 0 0 0 2566995.6750191785 -641072.34600881708 0 -641072.34600881708 -7637159.5687958077 0 0 0 0 3977083.7345335893 102747.75144406594 0 102747.75144406594 -5564053.5058431979 0 0 0 0 6784974.6741288826 1649706.4634624543 0 1649706.4634624543 -4159308.2449601418 0 0 0 0 4875853.7367935181 2357220.2576634884 0 2357220.2576634884 -5075656.4772367477 0 0 0 0 4716258.9843215942 2120991.9438695908 0 2120991.9438695908 -5178426.3140087128 0 0 0 0 3654786.4122972637 4209684.0104705114 0 4209684.0104705114 -8725708.2867206428 0 0 0 0 4079365.4255599976 1981632.307135582 0 1981632.307135582 -2918804.1422930956 0 0 0 0 2494941.9418856576 -1928599.7121516741 0 -1928599.7121516741 -5094328.1918766806 0 0 0 0 2234034.8694108315 1247711.2821509503 0 1247711.2821509503 -2687302.4060582281 0 0 0 0 1997880.6926794052 -426051.25867629051 0 -426051.25867629051 -5794555.6804761887 0 0 0 0 -479373.60329055786 -2029221.9790306091 0 -2029221.9790306091 -16176628.851593971 0 0 0 0 3695011.3120269775 -1456734.2471590042 0 -1456734.2471590042 -9422724.8462637663 0 0 0 0 3149856.2519122381 -226951.36593055166 0 -226951.36593055166 -3785492.4721768158 0 0 0 0 2672207.254907608 -1798276.0925931931 0 -1798276.0925931931 -7965499.325823307 0 0 0 0 490989.09190613776 -1103532.5354400338 0 -1103532.5354400338 -1461669.3439132024 0 0 0 0 4882886.435798645 -4701815.6693687439 0 -4701815.6693687439 -27531476.100194931 0 0 0 0 6073067.2793006897 -5213107.3239870071 0 -5213107.3239870071 -36458593.256895065 0 0 0 0 -38749058.145652771 -80506431.926856041 0 -80506431.926856041 195130435.59569597 0 0 0 0 -18012930.787586212 -102263351.55640173 0 -102263351.55640173 94439589.518976212 0 0 0 0 -5197614.3184719086 -4673581.4451255798 0 -4673581.4451255798 -8389651.8286724091 0 0 0 0 9195110.4944610596 -6090450.3219223022 0 -6090450.3219223022 -13240196.345184326 0 0 0 0 4007895.2801999152 -3591632.6479894239 0 -3591632.6479894239 -4174768.1913286331 0 0 0 0 -22798488.550010681 -67896060.154641151 0 -67896060.154641151 99479890.666151047 0 0 0 0 14130132.909103394 -14280039.369685173 0 -14280039.369685173 -33868163.322071075 0 0 0 0 -37588837.111572266 -51066259.22703743 0 -51066259.22703743 -49972055.313615799 0 0 0 0 1071675.8893459067 -146494.43410146981 0 -146494.43410146981 -1398310.4918847233 0 0 0 0 7845609.05809021 -26423075.201597214 0 -26423075.201597214 2213642.7005653381 0 0 0 0 136863856.0726738 -76416833.865880013 0 -76416833.865880013 11705881.613365173 0 0 0 0 3731872.277431488 -127170631.20413065 0 -127170631.20413065 110244008.70643234 0 0 0 0 138020439.33233643 -206217223.57779312 0 -206217223.57779312 132773983.41494203 0 0 0 0 32189321.021409988 33766917.230263472 0 33766917.230263472 52372652.108839035 0 0 0 0 -21229217.778457642 -4047285.76343894 0 -4047285.76343894 25755549.917209625 0 0 0 0 39015644.999332428 6975421.6515908241 0 6975421.6515908241 -63379441.715568542 0 0 0 0 3969093.9384717122 -4391171.0362181365 0 -4391171.0362181365 -6461574.2985652052 0 0 0 0 74961029.098388672 -2186988.9129462242 0 -2186988.9129462242 -61045671.817052841 0 0 0 0 1349699115.1084976 642083333.96573877 0 642083333.96573877 -663227965.09526396 0 0 0 0 31835719.421581268 -6779439.0348908901 0 -6779439.0348908901 -19102517.916995704 0 0 0 0 7059967.625276871 -2829369.426919275 0 -2829369.426919275 -4974239.5673752706 0 0 0 0 14648378.558101654 9892299.7803673744 0 9892299.7803673744 32463250.385213852 0 0 0 0 3417734.0667917766 -4424365.2473265156 0 -4424365.2473265156 -11586677.591240469 0 0 0 0 1240893.1945843287 -3411245.0181874353 0 -3411245.0181874353 -8736989.5973832551 0 0 0 0 137468116.6625042 -41923770.347588539 0 -41923770.347588539 -60541495.103178978 0 0 0 0 57883212.483104706 -122052912.04858279 0 -122052912.04858279 74591569.132635117 0 0 0 0 169307076.7021637 -150591814.52235532 0 -150591814.52235532 55201448.330349445 0 0 0 0 160208591.57764816 -96835659.50878334 0 -96835659.50878334 -62056778.060323715 0 0 0 0 191268494.78695679 22527242.598815918 0 22527242.598815918 41790764.689433098 0 0 0 0 99874789.945440292 -189256914.43066859 0 -189256914.43066859 173745048.70468616 0 0 0 0 -60261139.637554169 -192533654.00076723 0 -192533654.00076723 241641742.06791782 0 0 0 0 -610624.33063878119 140026.223721141 0 140026.223721141 1328737.5911587351 0 0 0 0 -238507553.51485062 -125330052.0239315 0 -125330052.0239315 218493977.59443057 0 0 0 0 248725649.53541756 -181304909.17470598 0 -181304909.17470598 -8374318.6382007599 0 0 0 0 104706339.49486923 -97671316.937675953 0 -97671316.937675953 -105121080.74207139 0 0 0 0 -143593863.9801178 23833435.527068615 0 23833435.527068615 66534104.911981821 0 0 0 0 -119204819.86624146 -93970098.587150097 0 -93970098.587150097 203852091.83520389 0 0 0 0 8886046.7984743118 -82391945.445283353 0 -82391945.445283353 140320562.55150032 0 0 0 0 -30857488.981018066 63251078.495135784 0 63251078.495135784 -69164957.85483551 0 0 0 0 -43002648.25164032 17276129.831897259 0 17276129.831897259 -7334687.5741524696 0 0 0 0 1174985.0875674747 1366284.7328249812 0 1366284.7328249812 -1550531.6885105686 0 0 0 0 5124113.7744027339 28820.720650613308 0 28820.720650613308 -553132.33211766579 0 0 0 0 4833413.5557174683 628256.71714305878 0 628256.71714305878 -6185238.205696106 0 0 0 0 4695747.101600647 906434.08786535263 0 906434.08786535263 -5145369.0452880859 0 0 0 0 5055494.79255867 -741961.55434787273 0 -741961.55434787273 -6674473.4813308716 0 0 0 0 5124043.4519195557 -782218.21241903305 0 -782218.21241903305 -3096158.7699670792 0 0 0 0 6057112.3569200672 -2336640.1334674279 0 -2336640.1334674279 -1419836.6732061303 0 0 0 0 5174176.3401184082 -1372774.5964536667 0 -1372774.5964536667 -4478783.7612969875 0 0 0 0 3867110.3921432495 -1008663.451997757 0 -1008663.451997757 -5597627.6263790131 0 0 0 0 6495847.212414939 -1367359.8320039583 0 -1367359.8320039583 -1997897.8572330361 0 0 0 0 3694956.7581176758 491257.54312705994 0 491257.54312705994 -5956271.71525383 0 0 0 0 2884118.2022094727 2228679.1666479111 0 2228679.1666479111 -9365788.6815013885 0 0 0 0 5307500.2135314941 -3208031.0547466278 0 -3208031.0547466278 -11215638.625720978 0 0 0 0 247698.27174746245 -39558.730563847348 0 -39558.730563847348 -104171.23188757151 0 0 0 0 105080685.36457825 -35700176.320105076 0 -35700176.320105076 -140998985.2945981 0 0 0 0 3731070.5342311859 4114619.1968579292 0 4114619.1968579292 -10577065.709035873 0 0 0 0 3486564.0864982605 2386880.3737835884 0 2386880.3737835884 -10577164.243657112 0 0 0 0 6642550.7214914002 -949220.80571961217 0 -949220.80571961217 -1010153.7478030424 0 0 0 0 4550438.267497398 5319910.9927264303 0 5319910.9927264303 -3387233.4717717217 0 0 0 0 59780507.469547272 55844159.706453323 0 55844159.706453323 -71246049.609331131 0 0 0 0 44628631.237243652 -11588448.235032558 0 -11588448.235032558 -34529606.377368927 0 0 0 0 -218905210.59903717 18744096.034683824 0 18744096.034683824 106612757.04814434 0 0 0 0 -567144007.45957947 653740475.0383358 0 653740475.0383358 -464435123.72283792 0 0 0 0 -104064.32718230039 525869.85643612477 0 525869.85643612477 -196904.68362080585 0 0 0 0 340395625.00610352 219977793.03206539 0 219977793.03206539 87278185.716192245 0 0 0 0 -297938250.90617371 -550246614.14828467 0 -550246614.14828467 26301772.63174057 0 0 0 0 887493103.3505249 -242862969.18886185 0 -242862969.18886185 36397851.618213654 0 0 0 0 -155157252.17381287 151507808.99993074 0 151507808.99993074 388160083.70982063 0 0 0 0 63663266.899230957 -125219857.48987579 0 -125219857.48987579 290340910.63581085 0 0 0 0 2706939.2136629298 -826749.09121771716 0 -826749.09121771716 -1541971.9730412057 0 0 0 0 3993692.9360645637 1916337.9395785108 0 1916337.9395785108 -487887.83083008975 0 0 0 0 65400606.379898071 26659005.841585159 0 26659005.841585159 19932742.120336533 0 0 0 0 -837616687.90497971 -1822871801.8715143 0 -1822871801.8715143 1006097755.9501114 0 0 0 0 1134035466.2190933 -156212039.19922781 0 -156212039.19922781 -83825386.236063004 0 0 0 0 102895953.86481476 138497616.45375824 0 138497616.45375824 90652551.031604767 0 0 0 0 175612477.09449005 11121028.169209957 0 11121028.169209957 -30894305.788620949 0 0 0 0 381797188.29702759 45205490.340438366 0 45205490.340438366 -80457058.386762619 0 0 0 0 173446663.79214478 -108852160.03868389 0 -108852160.03868389 -83473667.337170124 0 0 0 0 182338715.78762817 -33971968.577198982 0 -33971968.577198982 -104276923.0962162 0 0 0 0 172130301.73792267 -6854654.5366044044 0 -6854654.5366044044 -85237196.092361122 0 0 0 0 -5655970.5646057129 72795202.24609375 0 72795202.24609375 -86999448.854433537 0 0 0 0 73414879.863708496 -32681565.804929256 0 -32681565.804929256 -67146750.169416904 0 0 0 0 127514382.08433914 -25626427.729623199 0 -25626427.729623199 -72516829.889816284 0 0 0 0 122918426.23040771 -53350051.37465477 0 -53350051.37465477 -70582091.763335347 0 0 0 0 133349903.5365448 -16550000.866964817 0 -16550000.866964817 -99858653.484753609 0 0 0 0 123246303.41776276 -102166742.92711043 0 -102166742.92711043 -113095322.29631355 0 0 0 0 134944282.29376793 -57344896.083989739 0 -57344896.083989739 -11730586.553719044 0 0 0 0 67575645.670368195 -37345824.653729439 0 -37345824.653729439 23957776.609773636 0 0 0 0 89577634.268276215 5178773.1028805971 0 5178773.1028805971 -7615755.7500963211 0 0 0 0 70874851.955960393 30160441.775077648 0 30160441.775077648 -227973653.2034626 0 0 0 0 -59149395.950050354 -115242101.16664505 0 -115242101.16664505 -105073645.23110199 0 0 0 0 31067166.902887344 73326814.693249226 0 73326814.693249226 -202892221.61958313 0 0 0 0 -2300832.4124345779 78730216.683616519 0 78730216.683616519 -141304420.39513493 0 0 0 0 79660243.774391174 -52813269.734466791 0 -52813269.734466791 -326026266.59028149 0 0 0 0 129262505.69520569 180860605.16023028 0 180860605.16023028 154839956.86353999 0 0 0 0 169379033.79146957 97749421.348926544 0 97749421.348926544 55418967.446903467 0 0 0 0 54226662.308691978 71822635.76503171 0 71822635.76503171 165299673.74869776 0 0 0 0 67019721.522567749 -36620421.993218422 0 -36620421.993218422 -27768856.262240887 0 0 0 0 19455448.50920105 -10621638.850182533 0 -10621638.850182533 -26826010.243957162 0 0 0 0 12329355.664413452 6287970.8935284615 0 6287970.8935284615 -20851711.489422083 0 0 0 0 -2985790.5886459351 -19166318.182816982 0 -19166318.182816982 -19598457.49250412 0 0 0 0 155108246.47592926 -124431848.02754498 0 -124431848.02754498 9763681.3443107605 0 0 0 0 4110580.9296810068 -680934.30228449591 0 -680934.30228449591 -1800007.2950889519 0 0 0 0 181442710.4901123 139695457.69583321 0 139695457.69583321 108482942.28069687 0 0 0 0 -4885369.4438705444 12453039.871957779 0 12453039.871957779 -63179309.323308945 0 0 0 0 196932786.34942627 89137894.823386192 0 89137894.823386192 -76366832.189594269 0 0 0 0 88819.562183275819 -129184.45076356805 0 -129184.45076356805 15379.126469474286 0 0 0 0 334872220.24412727 -307658468.59961236 0 -307658468.59961236 190410012.93409157 0 0 0 0 -35202053.726257324 174262630.51497269 0 174262630.51497269 -205280452.28504276 0 0 0 0 -33463956.982162476 400188296.39935589 0 400188296.39935589 -206791758.73714828 0 0 0 0 144969088.73808289 -56308672.702370167 0 -56308672.702370167 -91583583.167097092 0 0 0 0 215933289.3441925 61867338.35201478 0 61867338.35201478 -313492444.05117989 0 0 0 0 180552008.57688904 69669908.40007782 0 69669908.40007782 -95338653.902384758 0 0 0 0 173673264.60592651 190616007.6468873 0 190616007.6468873 23495923.154769897 0 0 0 0 159014995.87351227 120407214.26366377 0 120407214.26366377 63961110.668721199 0 0 0 0 201436960.07567596 151934022.22290707 0 151934022.22290707 -69372698.355485916 0 0 0 0 34411856.733558655 17613313.964850187 0 17613313.964850187 -5824150.6395688057 0 0 0 0 4976584.5073871613 9554432.9256252646 0 9554432.9256252646 2912973.5374937057 0 0 0 0 5106523.9408569336 -4478143.128724575 0 -4478143.128724575 -1026121.619720459 0 0 0 0 12377190.570030212 -4324623.2097001076 0 -4324623.2097001076 -21416710.746984959 0 0 0 0 -50912637.527664185 66683735.523015022 0 66683735.523015022 -71841523.884694576 0 0 0 0 10912945.383766174 -7756631.713906765 0 -7756631.713906765 -12266616.086969376 0 0 0 0 4803813.4890442342 -215957.04560040822 0 -215957.04560040822 -1041047.8174860282 0 0 0 0 4802274.7221431732 2737781.3414409161 0 2737781.3414409161 -12999784.317382812 0 0 0 0 1135562.3307900541 399629.70087436121 0 399629.70087436121 -1405548.4683144158 0 0 0 0 2497145.3922268562 1581136.0016485099 0 1581136.0016485099 -4263537.9802380288 0 0 0 0 13661941.844388962 7446391.0997946262 0 7446391.0997946262 -8995562.0898852348 0 0 0 0 47440073.298313141 2977081.8504395485 0 2977081.8504395485 -3922957.8298435211 0 0 0 0 5733302.1897706352 -269882.32112623216 0 -269882.32112623216 -1311255.5839934121 0 0 0 0 54458352.840179443 -47114005.200442314 0 -47114005.200442314 -308993739.39210892 0 0 0 0 66687163.243110657 2109211.8246049881 0 2109211.8246049881 -304029803.27777863 0 0 0 0 103646246.77722168 -8483590.3883876801 0 -8483590.3883876801 -302907306.71890068 0 0 0 0 84249453.897583008 19023589.802301407 0 19023589.802301407 -445696720.66225815 0 0 0 0 103945621.52580261 -45851864.448965073 0 -45851864.448965073 -331729005.38282967 0 0 0 0 72176600.900550842 20922838.971657753 0 20922838.971657753 -154864990.14587402 0 0 0 0 75187328.13369751 -52077419.450380325 0 -52077419.450380325 -320309195.55993462 0 0 0 0 -36024916.815811157 -80904133.330644608 0 -80904133.330644608 -153929405.03696632 0 0 0 0 58795040.637542725 -5199726.8588690758 0 -5199726.8588690758 -333030488.727808 0 0 0 0 21600331.47101593 -123276149.65343666 0 -123276149.65343666 -260893769.95721436 0 0 0 0 101693948.48293304 88416491.640899658 0 88416491.640899658 -326072911.41885948 0 0 0 0 -51263839.054725647 158804300.67712402 0 158804300.67712402 -112034166.88650513 0 0 0 0 200139975.3431778 74783428.612091541 0 74783428.612091541 -84178533.702796936 0 0 0 0 51489215.716087341 -61823585.81621933 0 -61823585.81621933 174069158.57404327 0 0 0 0 40170205.179550171 58454817.915141106 0 58454817.915141106 -31546671.623537064 0 0 0 0 170888464.58407593 220266838.53308964 0 220266838.53308964 91802999.382621765 0 0 0 0 -37983019.681373596 214580438.70583153 0 214580438.70583153 368564414.64114046 0 0 0 0 48203224.769210815 -10758331.247301102 0 -10758331.247301102 -129184782.36108017 0 0 0 0 -3773192.1726760864 73203367.289997101 0 73203367.289997101 118852157.03660202 0 0 0 0 -3607157.8708267212 195475195.87127113 0 195475195.87127113 143831800.14823675 0 0 0 0 83197980.398490906 226206993.99302101 0 226206993.99302101 -6903372.2669072151 0 0 0 0 16785250.212913513 43878381.254353523 0 43878381.254353523 -29289060.193447113 0 0 0 0 20315266.522850037 127329660.94505787 0 127329660.94505787 -155771005.83246803 0 0 0 0 961266.31686385907 -1028678.1574313287 0 -1028678.1574313287 -510250.80068789981 0 0 0 0 -68212469.873046875 142473929.91234016 0 142473929.91234016 -36875155.17930603 0 0 0 0 4790551.2683539391 177928.98922371864 0 177928.98922371864 -2330606.4553909302 0 0 0 0 6574814.3875294067 955088.55089319777 0 955088.55089319777 -3172779.8734284388 0 0 0 0 439739.20443700254 -472289.26150375418 0 -472289.26150375418 -78652.302175276447 0 0 0 0 -88644414.877624512 -5039208.708278656 0 -5039208.708278656 -2410887.197060585 0 0 0 0 48773571.114265442 101977138.47491169 0 101977138.47491169 -157001492.31379509 0 0 0 0 70552988.349618912 -39320137.975912809 0 -39320137.975912809 -1556762.8444805145 0 0 0 0 107454035.23716736 15497511.815666199 0 15497511.815666199 42667973.720196694 0 0 0 0 87213002.062561035 99869315.460848808 0 99869315.460848808 -69419241.247182846 0 0 0 0 184358502.05921555 -17217482.354355812 0 -17217482.354355812 -188110961.80665588 0 0 0 0 91585745.751674652 178481071.24294686 0 178481071.24294686 39442597.244625092 0 0 0 0 3088365.2730564922 -416018.36569771031 0 -416018.36569771031 -1695730.6402010154 0 0 0 0 -235421.08636474609 -1461821.3107318878 0 -1461821.3107318878 2452582.6162071228 0 0 0 0 2708947.7676696777 -4087524.2158021927 0 -4087524.2158021927 -8872981.2952136993 0 0 0 0 828559.40277099609 -6512407.6041698456 0 -6512407.6041698456 3059652.4766905308 0 0 0 0 6450750.0762293171 -2117949.6531501412 0 -2117949.6531501412 -1728103.3982068617 0 0 0 0 5519195.018901825 -850505.67431211472 0 -850505.67431211472 -3940562.5596885681 0 0 0 0 2399623.1034660339 -183192.11567783356 0 -183192.11567783356 -4326603.6353244781 0 0 0 0 -9145508.4836502075 -7335781.2825927734 0 -7335781.2825927734 6704403.2999610901 0 0 0 0 9804815.0477647781 2736986.997718811 0 2736986.997718811 -20161661.240619659 0 0 0 0 2780349.9372694306 -940489.63017071784 0 -940489.63017071784 -290540.89872081205 0 0 0 0 888903.31321778987 -215038.21534159221 0 -215038.21534159221 -130421.0238091182 0 0 0 0 -24083914.105175018 46290440.403880119 0 46290440.403880119 -52481646.620121002 0 0 0 0 -10027503.358703613 23327768.321884155 0 23327768.321884155 -15624482.207174301 0 0 0 0 -8147044.8267974854 14903797.749969482 0 14903797.749969482 -10191743.822613716 0 0 0 0 10848038.46754837 24283500.100893021 0 24283500.100893021 -35731913.749298096 0 0 0 0 -5669797.6157913208 29797464.430007458 0 29797464.430007458 -32198161.020862579 0 0 0 0 -396959.39791107178 19192049.610050201 0 19192049.610050201 -24335260.906645775 0 0 0 0 463691.03115081787 20141562.195510864 0 20141562.195510864 -35955682.559080124 0 0 0 0 5519658.9060021602 -45910.885055315681 0 -45910.885055315681 -1475276.8776243175 0 0 0 0 -29492.339096069336 11615844.135744095 0 11615844.135744095 -25962284.573701859 0 0 0 0 1090956.1598587036 10491269.177660942 0 10491269.177660942 -27050676.03978157 0 0 0 0 4712506.7975769043 -8737369.7617950439 0 -8737369.7617950439 -10150912.613940239 0 0 0 0 1489552.3711776733 -12250482.396085739 0 -12250482.396085739 -1315929.2492485046 0 0 0 0 3518796.0696657598 -171985.26689109253 0 -171985.26689109253 -600061.61222950649 0 0 0 0 16105844.002830505 10078830.460128069 0 10078830.460128069 -24084111.314807892 0 0 0 0 -989812.21773529053 -18045071.680864334 0 -18045071.680864334 -29731696.808898449 0 0 0 0 -19285250.362457275 6116666.4853315353 0 6116666.4853315353 16121991.075265884 0 0 0 0 45101981.812400818 -73263.826150894165 0 -73263.826150894165 -92921301.408939362 0 0 0 0 1282434.9710121676 312798.07282521017 0 312798.07282521017 -903935.69409785513 0 0 0 0 -71911732.660614014 -47616530.117679596 0 -47616530.117679596 34046311.546482086 0 0 0 0 29220428.13973999 2549649.4628324509 0 2549649.4628324509 -38562586.07990694 0 0 0 0 77938358.861381531 -29516743.223432541 0 -29516743.223432541 -51531443.194787979 0 0 0 0 -39634818.800292969 -2661459.6833543777 0 -2661459.6833543777 -57381536.399885178 0 0 0 0 21836982.364559174 16704171.870155334 0 16704171.870155334 -46288389.645645142 0 0 0 0 19547566.454200745 -7678060.4563312531 0 -7678060.4563312531 -74163919.354400635 0 0 0 0 -3349115.9591560364 2061480.8453919888 0 2061480.8453919888 -42243094.574604034 0 0 0 0 18954481.447555542 11107998.689081192 0 11107998.689081192 -49784147.75615406 0 0 0 0 9759304.6396331787 29938237.237246037 0 29938237.237246037 -5537443.4492931366 0 0 0 0 33499769.584213257 23817228.623249054 0 23817228.623249054 -39165797.393864632 0 0 0 0 8851804.6484565735 23661896.873716831 0 23661896.873716831 -5980043.994468689 0 0 0 0 92904327.383049011 38114343.513855457 0 38114343.513855457 -24919722.500982285 0 0 0 0 61517535.423243523 -7877610.5608453751 0 -7877610.5608453751 -2674565.2678565979 0 0 0 0 110203998.41349411 15437728.021065235 0 15437728.021065235 -28900122.227916718 0 0 0 0 43994616.149956703 32463268.429447889 0 32463268.429447889 -55923440.261199951 0 0 0 0 -9828929.7437858582 61744663.699845791 0 61744663.699845791 -81134684.525300026 0 0 0 0 -233392094.3256073 -153296307.14874363 0 -153296307.14874363 -123559563.7247448 0 0 0 0 -38316922.31357193 44622259.044120789 0 44622259.044120789 55292256.2831707 0 0 0 0 -38657930.108366013 48760484.574102461 0 48760484.574102461 5323634.1615886688 0 0 0 0 338461.95665164851 228096.30766071472 0 228096.30766071472 -871075.52241263539 0 0 0 0 15578070.798606873 -77695329.712638855 0 -77695329.712638855 46419955.867231965 0 0 0 0 1938411.2504739761 -8642549.8359344006 0 -8642549.8359344006 -93834816.477586746 0 0 0 0 263995.70827102661 -3182923.9962730408 0 -3182923.9962730408 -10316254.104394913 0 0 0 0 1276515.8810462952 13986170.577492714 0 13986170.577492714 -48135916.804222107 0 0 0 0 1255924.6359138489 16386173.565815926 0 16386173.565815926 -25919987.715547562 0 0 0 0 146835580.52479935 32804885.161589622 0 32804885.161589622 -70635982.249063969 0 0 0 0 116810265.01076031 105237889.25226283 0 105237889.25226283 5300566.1050014496 0 0 0 0 136155946.21043015 33035549.220359325 0 33035549.220359325 -69629827.973743439 0 0 0 0 18797022.222499847 41999101.338447571 0 41999101.338447571 -29900559.389130592 0 0 0 0 21337163.247680664 59846004.245251656 0 59846004.245251656 -46442957.63090229 0 0 0 0 94093791.663726807 50830104.088980675 0 50830104.088980675 -49603052.275530815 0 0 0 0 -59697135.8893013 81062907.335792065 0 81062907.335792065 -20545546.603992462 0 0 0 0 -28365017.449169159 -240040.19177031517 0 -240040.19177031517 -25826436.593862534 0 0 0 0 143592366.78005028 35155428.505091667 0 35155428.505091667 -69084224.701728821 0 0 0 0 109473430.52049923 15939286.330933332 0 15939286.330933332 -68122488.500394821 0 0 0 0 152437613.93684387 -1102676.9544296265 0 -1102676.9544296265 -53738564.148039341 0 0 0 0 4970871.6954528969 636258.08111974783 0 636258.08111974783 -959939.04652996827 0 0 0 0 51007646.006210327 -6478761.8832812309 0 -6478761.8832812309 -41438445.333026886 0 0 0 0 185471254.42490387 5564223.9440596104 0 5564223.9440596104 -26329361.164167404 0 0 0 0 120232164.55118179 -7256282.0798425674 0 -7256282.0798425674 15281385.637800694 0 0 0 0 1398491.7650919091 277476.52042807452 0 277476.52042807452 -298895.3250201568 0 0 0 0 123876052.22306061 -57717791.827886343 0 -57717791.827886343 -64417449.791852951 0 0 0 0 254838802.10858917 53547810.6181283 0 53547810.6181283 -31102583.249012947 0 0 0 0 -72500070.829675674 -130560768.83181334 0 -130560768.83181334 -51426491.350688934 0 0 0 0 258349858.24152374 176979274.34233975 0 176979274.34233975 103830219.8900032 0 0 0 0 378033880.1398325 -129053011.16264582 0 -129053011.16264582 -173296244.71240997 0 0 0 0 -3049582.603515625 -94872217.929279327 0 -94872217.929279327 8804556.6726970673 0 0 0 0 112557.54376220703 -57400742.959293365 0 -57400742.959293365 17711487.411569595 0 0 0 0 13006824.916656494 -64014861.479478836 0 -64014861.479478836 -64715682.859398365 0 0 0 0 120910422.79051208 188566577.57835579 0 188566577.57835579 344945596.86515522 0 0 0 0 1296719.6028158329 7348.2036129748449 0 7348.2036129748449 -159928.43138043233 0 0 0 0 160346855.59246826 233604282.61862373 0 233604282.61862373 369804710.06023026 0 0 0 0 117854884.99415016 79741301.923223972 0 79741301.923223972 155395012.35296249 0 0 0 0 80752165.876022339 114292783.18860817 0 114292783.18860817 395830049.30861998 0 0 0 0 168293814.8006134 23297891.935171127 0 23297891.935171127 186616125.5790329 0 0 0 0 395879429.74252701 20810893.87012291 0 20810893.87012291 59833803.127548218 0 0 0 0 231275134.05224609 -153895172.37094212 0 -153895172.37094212 110959574.41978836 0 0 0 0 200917255.28704071 202683501.97221088 0 202683501.97221088 292438615.52990532 0 0 0 0 196875923.75763702 -65488999.892332554 0 -65488999.892332554 -80525226.453035355 0 0 0 0 165986416.97919083 -52047081.299600601 0 -52047081.299600601 54660450.162137508 0 0 0 0 116175574.89309311 -24739132.579419136 0 -24739132.579419136 271151141.48921013 0 0 0 0 108076661.24079275 25846748.429272175 0 25846748.429272175 19547344.590528488 0 0 0 0 44562362.339286804 25734181.116629601 0 25734181.116629601 61514513.738986015 0 0 0 0 13892865.699981689 78129062.687788963 0 78129062.687788963 23669932.248744965 0 0 0 0 -10009540.377380371 48148899.208654404 0 48148899.208654404 9642944.2695674896 0 0 0 0 -1093735.379989624 27482988.91203022 0 27482988.91203022 44908251.919725895 0 0 0 0 20005841.386827469 45797507.092326164 0 45797507.092326164 -7620302.9572811127 0 0 0 0 102407840.18276596 41252097.180495739 0 41252097.180495739 -21276689.484096527 0 0 0 0 299718716.22407532 77375846.287707329 0 77375846.287707329 -15843189.504616737 0 0 0 0 18382377.929698944 175238962.18204308 0 175238962.18204308 132500393.83342743 0 0 0 0 285754009.44790649 -116901397.53764534 0 -116901397.53764534 -280941687.66489792 0 0 0 0 320445273.7710228 -26822421.913646698 0 -26822421.913646698 -72394520.319669724 0 0 0 0 1451218.7984228916 840823.03780173673 0 840823.03780173673 -768029.22363290563 0 0 0 0 176432206.62219238 368340685.11744595 0 368340685.11744595 553546504.24503422 0 0 0 0 509523333.2017355 296087564.51954353 0 296087564.51954353 75408670.755411148 0 0 0 0 443746376.52134323 -63435302.500751495 0 -63435302.500751495 -13962397.909097672 0 0 0 0 61770626.680305481 31041850.479271889 0 31041850.479271889 -33703944.309620857 0 0 0 0 -40707125.884277344 -59631581.850465775 0 -59631581.850465775 78401019.298278809 0 0 0 0 117416043.46117401 -96203520.378247261 0 -96203520.378247261 194290250.05810356 0 0 0 0 55854143.853721619 13859361.915813446 0 13859361.915813446 -212337138.44152069 0 0 0 0 -33512610.62953949 97585238.386842728 0 97585238.386842728 -41445153.72527504 0 0 0 0 127219813.66352081 133890892.24467278 0 133890892.24467278 42916622.16906929 0 0 0 0 107591370.53811979 48040736.07355547 0 48040736.07355547 -24049284.923545837 0 0 0 0 46171810.333702087 37103158.649759293 0 37103158.649759293 160403357.94847286 0 0 0 0 84344141.111732483 49483583.010034561 0 49483583.010034561 -216652460.26315308 0 0 0 0 28891286.490150452 -98066175.489014626 0 -98066175.489014626 -152563916.15977097 0 0 0 0 173171185.65574646 29096185.626008034 0 29096185.626008034 -87542057.123500824 0 0 0 0 56241623.591941833 -78619529.949803352 0 -78619529.949803352 37565581.155200481 0 0 0 0 50323442.666465759 -260456050.50045681 0 -260456050.50045681 -363231731.33430576 0 0 0 0 69340491.934180498 51909409.498455673 0 51909409.498455673 -321172672.30098152 0 0 0 0 3858164.1649683155 2179813.4161578249 0 2179813.4161578249 -2265208.3041586541 0 0 0 0 8623374.0128479004 8479454.5879440308 0 8479454.5879440308 -534729924.58897173 0 0 0 0 84471807.646774292 -91201560.874464035 0 -91201560.874464035 -537901268.2303791 0 0 0 0 87426479.196853638 131122859.77449417 0 131122859.77449417 124284950.08329296 0 0 0 0 -162843944.1505661 26127675.201316833 0 26127675.201316833 -319408262.16292572 0 0 0 0 -36671851.501327515 -104702824.14093399 0 -104702824.14093399 -339083310.20771217 0 0 0 0 660822.21301241964 961.24129696376622 0 961.24129696376622 -600370.1862687543 0 0 0 0 -126666296.87958527 -284707313.22154045 0 -284707313.22154045 -658952803.96137238 0 0 0 0 -31722898.544570923 -13638907.144489288 0 -13638907.144489288 -308110331.37768555 0 0 0 0 -13314266.297622681 85726742.073516846 0 85726742.073516846 -605487357.04764986 0 0 0 0 11499963.653121948 -66213418.865890503 0 -66213418.865890503 -271431503.79276752 0 0 0 0 -78029827.460678101 127077332.0117569 0 127077332.0117569 -305483661.09140396 0 0 0 0 64883457.680750847 106068096.14425397 0 106068096.14425397 102945194.30978775 0 0 0 0 97266728.394248962 103940586.08897018 0 103940586.08897018 60094484.489801407 0 0 0 0 163479999.01161194 141792474.06371689 0 141792474.06371689 31826033.008592129 0 0 0 0 150576783.60657883 158364896.07188654 0 158364896.07188654 17346255.658336639 0 0 0 0 120802720.59588623 133393903.87064743 0 133393903.87064743 95479234.772111893 0 0 0 0 104020743.33986092 147829397.21260929 0 147829397.21260929 135910314.75546646 0 0 0 0 189099767.96054077 215354206.99877024 0 215354206.99877024 92389799.079252243 0 0 0 0 157666253.51351929 131270263.61392093 0 131270263.61392093 101424650.49243355 0 0 0 0 177457466.49343109 149178355.16848516 0 149178355.16848516 19731728.94767189 0 0 0 0 155618073.91032028 146579531.21673107 0 146579531.21673107 91306457.59989357 0 0 0 0 186968864.69296265 149007429.49429083 0 149007429.49429083 9089749.3261423111 0 0 0 0 115246588.13027954 117062314.03992462 0 117062314.03992462 32040246.079349518 0 0 0 0 67001892.794769287 -72011670.440429688 0 -72011670.440429688 -36428346.830084324 0 0 0 0 51647918.287490845 27682772.307144165 0 27682772.307144165 -136493855.70522118 0 0 0 0 63886770.63659668 -61989122.240737915 0 -61989122.240737915 -34191026.211704254 0 0 0 0 15867536.301452637 -106974578.93512726 0 -106974578.93512726 12376704.648654938 0 0 0 0 66060374.325454712 -125461400.73921204 0 -125461400.73921204 17452991.237522125 0 0 0 0 115017389.15683746 -86676866.401544094 0 -86676866.401544094 -26234287.250938416 0 0 0 0 94539927.57154274 -51546141.488989592 0 -51546141.488989592 54483633.153491974 0 0 0 0 53297237.456108093 149146889.26917934 0 149146889.26917934 93349889.277646184 0 0 0 0 242155196.16882896 195874730.38944077 0 195874730.38944077 -71381637.420984268 0 0 0 0 179130644.11525726 -79613277.150808334 0 -79613277.150808334 -58134020.013561249 0 0 0 0 -659908.52955364436 1104891.4896181524 0 1104891.4896181524 655110.62899706233 0 0 0 0 69596288.868429661 80050266.582121372 0 80050266.582121372 6078945.1545028687 0 0 0 0 119505939.58893585 58718811.789360523 0 58718811.789360523 -34047394.432662845 0 0 0 0 1551360.7499656603 9874749.9331485145 0 9874749.9331485145 -12001833.650540341 0 0 0 0 -44980904.396816254 47614374.258597374 0 47614374.258597374 -16311245.096723557 0 0 0 0 -1753095.5236206055 124801485.47485352 0 124801485.47485352 99558898.774944782 0 0 0 0 70060259.217586517 141704670.63419914 0 141704670.63419914 101465592.83831024 0 0 0 0 -310664.90675555542 10794291.28294366 0 10794291.28294366 -10266533.636287283 0 0 0 0 25983623.183479309 85159082.751226425 0 85159082.751226425 151168100.37714386 0 0 0 0 71058979.628982544 67605347.037245154 0 67605347.037245154 -26501832.842876434 0 0 0 0 52252558.695838928 -60292178.909032822 0 -60292178.909032822 -39969823.053753853 0 0 0 0 33640704.573062897 155630926.58412361 0 155630926.58412361 -84521599.750104904 0 0 0 0 103025708.33553386 55364409.136450768 0 55364409.136450768 -148082038.25140381 0 0 0 0 38048531.423988342 2119403.0280890465 0 2119403.0280890465 -20139357.449256897 0 0 0 0 59860737.265003204 36434996.728328705 0 36434996.728328705 -21828939.054875374 0 0 0 0 108361145.33430862 23603196.613744736 0 23603196.613744736 -36156853.401077271 0 0 0 0 71785764.806789398 19979554.989938498 0 19979554.989938498 -31489086.592521667 0 0 0 0 75238957.25976944 6301971.1348102093 0 6301971.1348102093 -32485064.324443817 0 0 0 0 105145805.25563908 -29831252.568548679 0 -29831252.568548679 -94955010.31219101 0 0 0 0 68649390.129505157 -25650533.798433304 0 -25650533.798433304 40170631.482606888 0 0 0 0 144009010.46406937 106909989.08329844 0 106909989.08329844 220478549.59525013 0 0 0 0 202975020.6559906 137830702.80964518 0 137830702.80964518 92817886.967151999 0 0 0 0 57473877.928520203 -36006288.137639761 0 -36006288.137639761 22033397.715330124 0 0 0 0 -480755.81731818803 6589943.5126295332 0 6589943.5126295332 -11990885.640642282 0 0 0 0 165980246.49500656 172817889.3431859 0 172817889.3431859 116594695.08679366 0 0 0 0 7099863.3436943255 952348.15069224034 0 952348.15069224034 -5266022.0090965452 0 0 0 0 30590347.318275452 37087212.849134445 0 37087212.849134445 9304064.2918663025 0 0 0 0 -135915619.48866272 -1769375.9707653522 0 -1769375.9707653522 143778522.85393953 0 0 0 0 -378097632.02080536 72695451.713579655 0 72695451.713579655 125586665.5105325 0 0 0 0 310827949.58864594 -62519871.62764287 0 -62519871.62764287 25633351.357768059 0 0 0 0 -158833842.77459717 65747018.277256489 0 65747018.277256489 -1406.0231704711914 0 0 0 0 -389243684.66699409 -203355566.33999181 0 -203355566.33999181 278432089.32009745 0 0 0 0 265656868.23265076 -26538854.654339075 0 -26538854.654339075 -83489279.649010658 0 0 0 0 374624723.40326691 14455383.827671528 0 14455383.827671528 -209409334.53282785 0 0 0 0 -112457769.51464081 311381960.02393818 0 311381960.02393818 -175073412.22180653 0 0 0 0 -312008.30153506622 4116114.419990031 0 4116114.419990031 -9700401.2678963095 0 0 0 0 -31257318.435531616 275567744.33048511 0 275567744.33048511 -566775361.03869057 0 0 0 0 307069.79817962646 -5983770.1014194489 0 -5983770.1014194489 30954094.193653107 0 0 0 0 52046661.543037415 16828813.365200043 0 16828813.365200043 -1907834.3375110626 0 0 0 0 62175851.585468292 82218093.56622982 0 82218093.56622982 57464873.476158142 0 0 0 0 42585791.275251389 97878242.236298084 0 97878242.236298084 150354019.15361023 0 0 0 0 56730292.737804413 89428657.862757683 0 89428657.862757683 105382420.60628891 0 0 0 0 61606378.923797607 99237757.91959095 0 99237757.91959095 60618878.1450634 0 0 0 0 72512384.469772339 99345232.610048294 0 99345232.610048294 42183303.61860466 0 0 0 0 -470590312.42346573 -94763394.588952541 0 -94763394.588952541 139420366.07513046 0 0 0 0 -198836.51938081533 659987.00082452036 0 659987.00082452036 -1349123.3943340825 0 0 0 0 -191522.27617807686 2167985.3254114576 0 2167985.3254114576 -5996409.2450217269 0 0 0 0 58219263.143150806 68347289.444842637 0 68347289.444842637 88323131.91283226 0 0 0 0 55326338.521110058 120680909.63339758 0 120680909.63339758 254457612.51094246 0 0 0 0 86189980.004199982 32263767.359712601 0 32263767.359712601 103926800.07824898 0 0 0 0 71685246.04234314 51647249.770601273 0 51647249.770601273 86557990.328408241 0 0 0 0 50439668.045890808 8785396.2659482956 0 8785396.2659482956 47316454.721336365 0 0 0 0 47340368.907135725 61533176.339218795 0 61533176.339218795 99928616.839015961 0 0 0 0 85471878.617500305 144039410.25133181 0 144039410.25133181 167863642.35041761 0 0 0 0 55894836.660734653 89020653.583180547 0 89020653.583180547 206407378.09856415 0 0 0 0 63009274.553882599 71635130.71926403 0 71635130.71926403 89913393.830364227 0 0 0 0 81465185.172391891 119603674.12087393 0 119603674.12087393 310805854.2861824 0 0 0 0 142688374.93251801 255522907.27606916 0 255522907.27606916 246591377.56564999 0 0 0 0 158229641.33946419 222775943.11557376 0 222775943.11557376 133774613.43549633 0 0 0 0 99618941.412014008 204919997.26881456 0 204919997.26881456 187215573.92919779 0 0 0 0 98666148.805049896 208754410.58968616 0 208754410.58968616 172200556.29646236 0 0 0 0 94168936.284726143 194689873.76209903 0 194689873.76209903 135207580.15535736 0 0 0 0 65144417.641460419 130742672.86220741 0 130742672.86220741 200786182.96255112 0 0 0 0 78083808.432987213 137013718.21197367 0 137013718.21197367 132493204.62652969 0 0 0 0 66343082.82170105 121575173.33813047 0 121575173.33813047 128402321.72054577 0 0 0 0 91376030.900245667 113390079.17865753 0 113390079.17865753 110575318.2829771 0 0 0 0 103792557.93613434 154517823.27758694 0 154517823.27758694 149792972.37808895 0 0 0 0 82266605.539089203 94162899.868833065 0 94162899.868833065 98037345.8332901 0 0 0 0 112179803.31365967 61292638.954040527 0 61292638.954040527 74882544.16667366 0 0 0 0 152079683.76554871 73519883.053100586 0 73519883.053100586 77309087.880683899 0 0 0 0 136646949.31113434 114931315.60672569 0 114931315.60672569 105809269.20108986 0 0 0 0 103532759.50299072 134472766.39706898 0 134472766.39706898 95045183.391786575 0 0 0 0 233608144.04132843 112228676.43692732 0 112228676.43692732 47369523.015882492 0 0 0 0 230602206.9313457 193875621.45021752 0 193875621.45021752 -16647080.448711395 0 0 0 0 177612153.09622192 211925082.0450592 0 211925082.0450592 45820325.863729477 0 0 0 0 161925390.66062737 156565190.80289912 0 156565190.80289912 92935554.968820572 0 0 0 0 128940564.02876663 201062594.51041794 0 201062594.51041794 61242577.210065842 0 0 0 0 159702717.81451416 170986658.76017094 0 170986658.76017094 2257673.7701759338 0 0 0 0 157362150.73800659 221449417.81233358 0 221449417.81233358 63059918.301134109 0 0 0 0 85550165.653289795 294384854.42401695 0 294384854.42401695 53202359.799656689 0 0 0 0 178848708.53080153 273464274.43897736 0 273464274.43897736 -113461753.77054787 0 0 0 0 98474921.664829254 212058908.71553171 0 212058908.71553171 150706390.5643363 0 0 0 0 103768157.29627228 185680387.38705349 0 185680387.38705349 123639407.01232719 0 0 0 0 127287628.88581085 193196086.44792008 0 193196086.44792008 112665400.40777206 0 0 0 0 95630675.254974365 225413651.05203104 0 225413651.05203104 99488271.90668726 0 0 0 0 66495941.883359909 236592847.79184347 0 236592847.79184347 189667344.94437483 0 0 0 0 81669495.029258728 226053044.58346963 0 226053044.58346963 145884254.70264578 0 0 0 0 42041355.986850739 268210308.85353521 0 268210308.85353521 148870328.82279441 0 0 0 0 32961618.578016281 207685998.14357728 0 207685998.14357728 269117578.50165892 0 0 0 0 88602267.002807617 314004148.71364284 0 314004148.71364284 153425284.56331825 0 0 0 0 102289005.45188141 248255647.65222716 0 248255647.65222716 150183824.99655342 0 0 0 0 60491898.225816727 160666008.7657752 0 160666008.7657752 118598707.01493454 0 0 0 0 39902732.293697357 183581025.56457317 0 183581025.56457317 225310495.00707722 0 0 0 0 112436149.78281784 183157575.93709588 0 183157575.93709588 92208427.722453952 0 0 0 0 98324237.703796387 149078645.99073577 0 149078645.99073577 108458042.19491148 0 0 0 0 136991299.78987169 214247443.60959697 0 214247443.60959697 131293925.44016838 0 0 0 0 110113826.75536156 204591033.70969915 0 204591033.70969915 156675530.97693539 0 0 0 0 333752267.24494171 180824878.95127288 0 180824878.95127288 30427822.009040236 0 0 0 0 386154175.02446651 187003415.55587292 0 187003415.55587292 -1967402.6176841259 0 0 0 0 346336617.62023926 160404999.51258981 0 160404999.51258981 -4409426.8196103275 0 0 0 0 330783862.26115417 117092535.00677732 0 117092535.00677732 12874280.284037359 0 0 0 0 331205113.366745 71268111.282263055 0 71268111.282263055 -51466692.84221828 0 0 0 0 385905072.34941101 109755731.2325747 0 109755731.2325747 -34731183.370963156 0 0 0 0 383143270.96703458 41044556.085796334 0 41044556.085796334 -104034082.71811008 0 0 0 0 401656460.21075439 122103934.81131887 0 122103934.81131887 -58844371.792214394 0 0 0 0 476316194.94793701 171205493.78698778 0 171205493.78698778 -29153225.165668368 0 0 0 0 424015449.64299774 182076098.64414299 0 182076098.64414299 10553030.374050617 0 0 0 0 438027919.91381836 88314902.41637367 0 88314902.41637367 -49034937.193141937 0 0 0 0 511178956.14665985 193983650.18701822 0 193983650.18701822 136824736.41554832 0 0 0 0 549012450.78494263 126935940.86932468 0 126935940.86932468 23304295.547582865 0 0 0 0 490355825.41035461 160509411.506441 0 160509411.506441 4304025.7398147583 0 0 0 0 556360029.22135925 199421839.01140785 0 199421839.01140785 12800762.162298977 0 0 0 0 313973886.31909454 173945752.55016685 0 173945752.55016685 29719679.544941545 0 0 0 0 497279275.86165619 251214434.80125141 0 251214434.80125141 50882995.639365554 0 0 0 0 32632785.269569397 146240053.35527349 0 146240053.35527349 194896194.95751071 0 0 0 0 317660204.8313446 253666435.54923129 0 253666435.54923129 64986269.767412722 0 0 0 0 435138379.28046417 198097016.71225929 0 198097016.71225929 -5731221.7741239071 0 0 0 0 535304726.22885132 231347468.69378901 0 231347468.69378901 220089140.19007993 0 0 0 0 756748.45462512225 60920.544396732002 0 60920.544396732002 -1867608.3014886125 0 0 0 0 234749347.91959763 107196205.58463669 0 107196205.58463669 209980882.5033145 0 0 0 0 103532603.02996826 150533285.85222769 0 150533285.85222769 318918928.98590249 0 0 0 0 152034499.32807159 243611581.47293806 0 243611581.47293806 266049973.33119464 0 0 0 0 512958780.92795944 247310625.4276073 0 247310625.4276073 84711040.044910192 0 0 0 0 360706282.52160263 -96402229.650733948 0 -96402229.650733948 -144519683.02552795 0 0 0 0 -132837179.08058167 324935463.10244703 0 324935463.10244703 198336697.33033466 0 0 0 0 626149.06405272335 1072244.5595696159 0 1072244.5595696159 -4194711.5828505801 0 0 0 0 318203565.53157854 192328100.40607339 0 192328100.40607339 76460797.797946632 0 0 0 0 316219249.5582695 173574024.50279346 0 173574024.50279346 34689995.605654061 0 0 0 0 274650553.2048645 147733594.65975311 0 147733594.65975311 80516002.191093743 0 0 0 0 291309660.61955833 142997732.18146923 0 142997732.18146923 120249927.40665875 0 0 0 0 289478518.50125122 155371623.57502708 0 155371623.57502708 59243580.261921883 0 0 0 0 -1090919541.3855247 333025941.48533678 0 333025941.48533678 612960184.14815521 0 0 0 0 -905873064.30356598 -821710649.24391317 0 -821710649.24391317 -296445407.05769348 0 0 0 0 29492965.221595764 453840538.30429077 0 453840538.30429077 -25865847.38834095 0 0 0 0 32793413.454238892 65608364.839561939 0 65608364.839561939 -270640693.74680996 0 0 0 0 129653.50362321362 460458.62759535387 0 460458.62759535387 -2105344.6312864828 0 0 0 0 379403225.22506523 195718506.13320091 0 195718506.13320091 23467096.120668173 0 0 0 0 -206342.03264409862 1625490.0677800253 0 1625490.0677800253 -3744480.7720149737 0 0 0 0 350195992.76815796 120768581.25519586 0 120768581.25519586 52190401.514576197 0 0 0 0 256499603.6230011 142047839.64909863 0 142047839.64909863 38936336.595030785 0 0 0 0 270299738.06682587 120512428.33574069 0 120512428.33574069 71145903.193285823 0 0 0 0 312151553.96668243 160856758.28150219 0 160856758.28150219 25165595.019715786 0 0 0 0 268497744.44416809 140372630.70578122 0 140372630.70578122 29133007.715157151 0 0 0 0 270478005.66643524 144575279.38617992 0 144575279.38617992 -2151431.175347805 0 0 0 0 210195722.33305359 118474730.47906876 0 118474730.47906876 33498333.083400607 0 0 0 0 179269996.59460449 113343017.37918186 0 113343017.37918186 36012692.380074501 0 0 0 0 214611485.57136536 108212376.8971014 0 108212376.8971014 -1920922.7394223213 0 0 0 0 164108034.73832703 85264003.311812162 0 85264003.311812162 41246520.056752503 0 0 0 0 179292179.72639465 69207875.152541399 0 69207875.152541399 -2562596.4503822327 0 0 0 0 258216645.87685394 63344441.559067369 0 63344441.559067369 45628693.349253416 0 0 0 0 243232203.05937576 95722261.999232948 0 95722261.999232948 39099900.007652283 0 0 0 0 302668708.82163239 112052317.19629917 0 112052317.19629917 38270795.465681016 0 0 0 0 218661050.73363495 91365724.081221119 0 91365724.081221119 56199124.487509251 0 0 0 0 360126448.67333221 7188708.2524880096 0 7188708.2524880096 -18390939.190012023 0 0 0 0 343620691.61712646 55195650.103658631 0 55195650.103658631 -31098763.656600609 0 0 0 0 251950294.05674744 -11919300.159947515 0 -11919300.159947515 63215548.118861914 0 0 0 0 175759971.25228882 7394020.7353453636 0 7394020.7353453636 59327768.517521322 0 0 0 0 189100899.474617 24188945.983833194 0 24188945.983833194 11703209.137821674 0 0 0 0 248282412.16996002 -208544587.91087565 0 -208544587.91087565 110461623.52720547 0 0 0 0 97400068.622467041 107641620.82596266 0 107641620.82596266 -232056801.47934484 0 0 0 0 -131282404.6328125 30096444.949915886 0 30096444.949915886 60583831.00330162 0 0 0 0 118716064.77563477 -71615914.303921461 0 -71615914.303921461 -309343817.96320975 0 0 0 0 80164458.598602295 -15530172.597843885 0 -15530172.597843885 -2399729.0504703522 0 0 0 0 115629035.83091736 52744295.523986101 0 52744295.523986101 4210451.1254198551 0 0 0 0 139310289.92498779 72250912.487981915 0 72250912.487981915 -101335218.56512451 0 0 0 0 204175945.36182404 108710799.82794857 0 108710799.82794857 -58166311.039242029 0 0 0 0 133118030.15759277 112753961.03539157 0 112753961.03539157 -1695175.65846771 0 0 0 0 80614008.478820801 55119588.765898705 0 55119588.765898705 -37326650.356030464 0 0 0 0 125613780.19113922 37081811.167641163 0 37081811.167641163 -126110065.88714695 0 0 0 0 12166212.892318726 -8946355.4827976227 0 -8946355.4827976227 -77029913.412761331 0 0 0 0 -52151296.072242737 -9288440.1217575073 0 -9288440.1217575073 -74808393.588701725 0 0 0 0 71319240.187660217 -9280202.0524036884 0 -9280202.0524036884 -131104878.2229476 0 0 0 0 2138833.9978597723 897697.09403835027 0 897697.09403835027 -915605.33168828581 0 0 0 0 -79912285.260131836 -186951691.20924735 0 -186951691.20924735 -185989456.60074735 0 0 0 0 -7015147.4896774292 28300502.271840453 0 28300502.271840453 54431366.904175639 0 0 0 0 4721103.7702255249 6197084.2358288169 0 6197084.2358288169 -5375809.535435915 0 0 0 0 2024261.2396766953 513717.25275078835 0 513717.25275078835 -718547.50974011165 0 0 0 0 685452.29214189947 446402.57279299945 0 446402.57279299945 -1208932.4290753647 0 0 0 0 276758270.20583344 73393685.922177315 0 73393685.922177315 -18821963.633109093 0 0 0 0 357809960.18692589 66345230.643270433 0 66345230.643270433 -105359799.7197113 0 0 0 0 304444958.41654968 117423844.2014308 0 117423844.2014308 46204018.023209453 0 0 0 0 298572501.36361694 179443108.14334154 0 179443108.14334154 68174886.014112711 0 0 0 0 383220271.62240601 134045072.96985579 0 134045072.96985579 -59680362.528141022 0 0 0 0 312619397.77581024 139297603.27145565 0 139297603.27145565 -53128484.226822853 0 0 0 0 174903490.03659058 129205019.59266758 0 129205019.59266758 -19241396.145851731 0 0 0 0 274039837.10875702 160998982.8374604 0 160998982.8374604 -33607245.261464119 0 0 0 0 319495652.53063583 163898206.95026135 0 163898206.95026135 -10544542.184387684 0 0 0 0 290917326.33634567 134306010.27941048 0 134306010.27941048 2711879.8102817535 0 0 0 0 187904239.87875366 120287275.04599071 0 120287275.04599071 5074873.2555016875 0 0 0 0 186681883.50018311 121907224.1281755 0 121907224.1281755 -34926558.989341259 0 0 0 0 7647414.8653106689 -8492786.4827537537 0 -8492786.4827537537 -9004678.7569314837 0 0 0 0 100194866.28463745 161975754.18700981 0 161975754.18700981 106895363.28823495 0 0 0 0 343676566.65223694 240761914.16371655 0 240761914.16371655 5259142.9146585464 0 0 0 0 375126992.19395065 381317763.67726898 0 381317763.67726898 254745854.87338495 0 0 0 0 422654314.76262665 145177100.00387287 0 145177100.00387287 -88245707.967890263 0 0 0 0 419145538.25566101 138212531.31251001 0 138212531.31251001 -101057485.07551765 0 0 0 0 710766916.92349243 45353526.509104252 0 45353526.509104252 -250609230.21173668 0 0 0 0 694388680.69626617 273981687.79272985 0 273981687.79272985 -97534294.988093078 0 0 0 0 373535298.86721802 3387716.6875963211 0 3387716.6875963211 -107175943.60049295 0 0 0 0 473806207.80051422 88331339.138249636 0 88331339.138249636 -111060457.88148117 0 0 0 0 1034742.7267423943 484349.499923 0 484349.499923 -359896.23641155253 0 0 0 0 2112349.541904401 218345.62599851191 0 218345.62599851191 -1341018.5714229143 0 0 0 0 360739813.37767029 68074122.892513752 0 68074122.892513752 -429872439.56607533 0 0 0 0 895893623.81192017 59006434.22847271 0 59006434.22847271 -432017265.41735256 0 0 0 0 459148726.18516541 538170655.9096632 0 538170655.9096632 347352713.79803371 0 0 0 0 904534419.85515594 268898413.99601245 0 268898413.99601245 -24309289.420285225 0 0 0 0 -195761579.07126999 16266494.752864599 0 16266494.752864599 120483788.61576223 0 0 0 0 355299613.98604202 -356508538.45390642 0 -356508538.45390642 -90120716.969772816 0 0 0 0 351708748.4201355 -31490662.672429085 0 -31490662.672429085 -54074782.244606972 0 0 0 0 16111312.195610046 -136291669.71586418 0 -136291669.71586418 15785351.304791451 0 0 0 0 1708974.4708071724 819162.08832576685 0 819162.08832576685 -2777509.5157466587 0 0 0 0 299365280.17628479 370838612.83570099 0 370838612.83570099 396681331.59698129 0 0 0 0 204843393.38523102 11804919.025825024 0 11804919.025825024 70712569.222398996 0 0 0 0 142475606.91408539 197220953.54312372 0 197220953.54312372 140361795.33981228 0 0 0 0 13430428.082572937 11470297.512507677 0 11470297.512507677 21337572.093632221 0 0 0 0 16887177.868907928 38127990.83791697 0 38127990.83791697 -49129628.45147419 0 0 0 0 23359908.382404327 37287637.678757906 0 37287637.678757906 1473343.819258213 0 0 0 0 1649534.1668927073 568203.25337635912 0 568203.25337635912 -2054034.5226948545 0 0 0 0 -177778301.7396965 41705460.433213949 0 41705460.433213949 -11516147.728274107 0 0 0 0 22103239.267749786 -6312393.3671770096 0 -6312393.3671770096 -8002900.5529489517 0 0 0 0 4183719.0557403564 18183.829475879669 0 18183.829475879669 8518924.3277139664 0 0 0 0 258899.03952789307 7367839.15363276 0 7367839.15363276 -4732430.8309850693 0 0 0 0 -6064244.3695802689 -30258537.334761143 0 -30258537.334761143 -64751635.344566345 0 0 0 0 2386322.3191175312 -269629.22112874314 0 -269629.22112874314 -1206105.1328033437 0 0 0 0 -23831241.012733459 44526991.356853962 0 44526991.356853962 26398932.684775114 0 0 0 0 8781837.3844909668 5559221.1997457743 0 5559221.1997457743 45322958.39095974 0 0 0 0 419762710.45527649 104283385.84382737 0 104283385.84382737 60465017.552556515 0 0 0 0 7190464.2020797729 -159066113.53291425 0 -159066113.53291425 -44432921.43354249 0 0 0 0 955976.14035273716 -95734.043814888224 0 -95734.043814888224 -510914.77916682069 0 0 0 0 133014680.6917038 25610239.68227911 0 25610239.68227911 75870108.501966238 0 0 0 0 164092260.84677887 -98777380.221548557 0 -98777380.221548557 -14717703.726262838 0 0 0 0 51090198.567340851 -98234175.078505397 0 -98234175.078505397 50184085.08027792 0 0 0 0 608088.34588340297 -2281901.6202445161 0 -2281901.6202445161 -6308164.3557895357 0 0 0 0 194752052.86326599 -93277875.166686893 0 -93277875.166686893 26100101.843333244 0 0 0 0 265614089.23692322 -10213182.027537704 0 -10213182.027537704 -32078604.755018592 0 0 0 0 8957614.3745765686 17051484.587669015 0 17051484.587669015 125381879.67563313 0 0 0 0 611212.44977046549 -1038934.8247129153 0 -1038934.8247129153 -3913708.4425906353 0 0 0 0 356507632.36368561 -137002504.50629681 0 -137002504.50629681 -15838514.997469664 0 0 0 0 386891496.25163269 -121241513.16848266 0 -121241513.16848266 -10747187.339309931 0 0 0 0 588132.37650004588 -175125.90349029563 0 -175125.90349029563 -1656391.033822462 0 0 0 0 256736191.82286453 32689763.045784503 0 32689763.045784503 305549.62585139275 0 0 0 0 192232813.0056076 77919912.383543372 0 77919912.383543372 -9439567.4693071842 0 0 0 0 175820891.68884277 57596685.132632971 0 57596685.132632971 -33373670.362390637 0 0 0 0 230332481.10850906 33453599.018393457 0 33453599.018393457 -60732517.090676546 0 0 0 0 168791257.89770508 -16159311.504453301 0 -16159311.504453301 -38131898.359378397 0 0 0 0 215475178.07857132 -164998472.74948615 0 -164998472.74948615 -108816902.01747322 0 0 0 0 392466680.09918213 -110857183.76776445 0 -110857183.76776445 -93443562.611800373 0 0 0 0 127316937.39028168 -137930255.2133956 0 -137930255.2133956 -92041882.620676816 0 0 0 0 120434106.54879761 -291182417.05478001 0 -291182417.05478001 -185338566.23920441 0 0 0 0 217990772.83100891 -310222210.05985975 0 -310222210.05985975 -278901360.91660476 0 0 0 0 155531182.31162262 -327713529.07697201 0 -327713529.07697201 -147636615.93854618 0 0 0 0 170809593.24986267 -127561285.59130001 0 -127561285.59130001 -382702699.2692647 0 0 0 0 167272355.62184143 -152114900.92711759 0 -152114900.92711759 -83144944.633419037 0 0 0 0 660886.42725015059 104279.66913308995 0 104279.66913308995 -187907.48301600077 0 0 0 0 37570897.401317596 -79927543.954851449 0 -79927543.954851449 189305710.88878369 0 0 0 0 60616516.246387482 64540211.295975089 0 64540211.295975089 110719620.46527052 0 0 0 0 219403914.3446579 -229203428.0740118 0 -229203428.0740118 13855965.67922163 0 0 0 0 8298292.1558303833 7946459.9049625397 0 7946459.9049625397 -55182973.394274473 0 0 0 0 392223775.86859894 -112127411.82029486 0 -112127411.82029486 -48091765.948883832 0 0 0 0 265867357.53698614 -70298444.787151948 0 -70298444.787151948 207392510.38933659 0 0 0 0 345261671.8917923 40309282.7254107 0 40309282.7254107 -20870476.729750156 0 0 0 0 -100035703.84316254 -130013172.68651187 0 -130013172.68651187 -6307320.5242724419 0 0 0 0 -828688.12877939269 33374.353870326653 0 33374.353870326653 2223868.6200386025 0 0 0 0 -115404292.05015564 -198102303.17264223 0 -198102303.17264223 -12410215.084517002 0 0 0 0 -40768097.508686066 -50675825.055572391 0 -50675825.055572391 774365.03671979904 0 0 0 0 -48101933.530151367 -61577321.524005771 0 -61577321.524005771 -29345346.593601227 0 0 0 0 133788014.4563179 -93696675.489365101 0 -93696675.489365101 -44502288.075344801 0 0 0 0 133046378.93176651 -115413247.2107687 0 -115413247.2107687 64962281.319045305 0 0 0 0 241107572.67575836 -108892688.67640686 0 -108892688.67640686 -41983829.153830528 0 0 0 0 267382600.29188156 -162410137.4943881 0 -162410137.4943881 36602784.84780407 0 0 0 0 275778596.20947266 -65819922.578930616 0 -65819922.578930616 18810725.890185565 0 0 0 0 232567687.80806541 -141198721.82650477 0 -141198721.82650477 -3658691.3000073433 0 0 0 0 201121934.18820763 -71489416.102455407 0 -71489416.102455407 1220653.1850442886 0 0 0 0 259880098.69126892 -186227366.83354026 0 -186227366.83354026 60624998.59180069 0 0 0 0 1093886.2419174332 304750.43652544171 0 304750.43652544171 76440.14200866787 0 0 0 0 62274528.238922119 -62025038.887848973 0 -62025038.887848973 64834330.169861227 0 0 0 0 -2148727.5809173584 -12171326.894442081 0 -12171326.894442081 -15205742.847866684 0 0 0 0 -32373548.210776091 -37974301.386535756 0 -37974301.386535756 -29294541.7063272 0 0 0 0 363861.74478256796 391877.96674466319 0 391877.96674466319 25817.308265968924 0 0 0 0 240066871.38394928 -105209775.48236585 0 -105209775.48236585 25505827.651191235 0 0 0 0 -34570620.355617523 -120325557.77367544 0 -120325557.77367544 19744512.98987627 0 0 0 0 -1490323.2746286392 -40588430.049393401 0 -40588430.049393401 -102777218.78402185 0 0 0 0 -10039707.098602295 -15118329.280404989 0 -15118329.280404989 -10299478.091944352 0 0 0 0 2726010.1594115831 -2023874.1106216407 0 -2023874.1106216407 -972360.19654765853 0 0 0 0 136173087.16452789 -45601939.013992786 0 -45601939.013992786 45680028.377895236 0 0 0 0 -140582190.89528656 -157107414.79046416 0 -157107414.79046416 -183571851.50210619 0 0 0 0 -180209629.13209534 -115114070.45846498 0 -115114070.45846498 -32718403.600993156 0 0 0 0 329774176.76383209 -229406867.54717067 0 -229406867.54717067 199776764.72139686 0 0 0 0 356532173.32177734 -209672276.37655514 0 -209672276.37655514 81742728.973301888 0 0 0 0 313110922.36434937 -257682779.17400885 0 -257682779.17400885 150376357.53688097 0 0 0 0 19425847.235946655 -90928299.305951595 0 -90928299.305951595 130055723.08892465 0 0 0 0 83560919.258619308 15586593.950854778 0 15586593.950854778 -46401389.039212227 0 0 0 0 2539310.2257314026 -2955114.4026142745 0 -2955114.4026142745 -1187002.1911571596 0 0 0 0 -29917407.052677155 -22193926.879850984 0 -22193926.879850984 111389258.56947756 0 0 0 0 1800525.6635464493 -1929380.137826005 0 -1929380.137826005 -1422421.6415852185 0 0 0 0 -28859897.04889679 -34774906.630271807 0 -34774906.630271807 -32167922.583444715 0 0 0 0 114065742.80596161 -121040507.09534234 0 -121040507.09534234 79975094.649686068 0 0 0 0 4995780.4435810819 -852940.91844268003 0 -852940.91844268003 -1459793.1749521494 0 0 0 0 151273146.27483368 -84273755.603639007 0 -84273755.603639007 52928440.093941748 0 0 0 0 14134126.427268982 -67001670.110684857 0 -67001670.110684857 -17111134.637477934 0 0 0 0 176830491.65496063 -46782222.071262717 0 -46782222.071262717 -39734363.160577357 0 0 0 0 -189671162.54915273 -89676221.274507642 0 -89676221.274507642 4615814.3044686913 0 0 0 0 174112868.87867355 -186026836.64508247 0 -186026836.64508247 -60741117.875002146 0 0 0 0 844818.14206696884 -2020275.6659889258 0 -2020275.6659889258 249136.55496321089 0 0 0 0 155630869.45717847 -144493331.53800607 0 -144493331.53800607 154324183.91993645 0 0 0 0 277725364.19039536 -270829374.31738406 0 -270829374.31738406 199731247.06555226 0 0 0 0 213724375.63959885 -55899839.110938787 0 -55899839.110938787 -15435500.026062783 0 0 0 0 495451414.68253708 -227157502.20045146 0 -227157502.20045146 38936506.410949677 0 0 0 0 527607630.91472626 -449210304.08676118 0 -449210304.08676118 229325219.15946645 0 0 0 0 359385278.29488754 -210976317.49854493 0 -210976317.49854493 209747529.93220371 0 0 0 0 147489054.00541687 -123743118.05899014 0 -123743118.05899014 -228879021.53318316 0 0 0 0 12769169.772697449 -20168117.894301772 0 -20168117.894301772 -176958128.14124125 0 0 0 0 303890967.78185654 67887201.592276856 0 67887201.592276856 -6382394.2363055348 0 0 0 0 166171434.68149567 49740617.132941902 0 49740617.132941902 -7681713.5683118552 0 0 0 0 -209715029.57629395 -428958139.51554978 0 -428958139.51554978 -122808799.98598985 0 0 0 0 546649947.34358597 42299182.125668176 0 42299182.125668176 -39164363.31682542 0 0 0 0 705781.70009338856 -629089.28985123709 0 -629089.28985123709 -70457.299130006111 0 0 0 0 -282969187.72663307 -184914381.1427902 0 -184914381.1427902 17900739.777912617 0 0 0 0 -57357634.772186279 -235815691.54333425 0 -235815691.54333425 -121558604.95718521 0 0 0 0 75516290.137283325 -27923202.943188727 0 -27923202.943188727 -60176256.046352863 0 0 0 0 -220812421.69894791 -73031334.916350007 0 -73031334.916350007 -19218287.974513054 0 0 0 0 85948504.32384491 -38295007.312553644 0 -38295007.312553644 -69089286.525271744 0 0 0 0 157648233.6835022 58582015.165417731 0 58582015.165417731 38769456.682904959 0 0 0 0 34319358.109833717 -136550207.94982937 0 -136550207.94982937 49935663.81998539 0 0 0 0 151135283.23155975 153279177.60445327 0 153279177.60445327 -18511247.856826171 0 0 0 0 485612769.87825775 -467116610.89643121 0 -467116610.89643121 401156655.22102195 0 0 0 0 1750012.8703697026 -237286.20760760223 0 -237286.20760760223 -414513.21397613618 0 0 0 0 1020412653.5202713 98460139.736500382 0 98460139.736500382 -329012260.71540725 0 0 0 0 177229708.34784698 -44511642.458620787 0 -44511642.458620787 -159646041.90952602 0 0 0 0 622217855.41083527 43701015.0004953 0 43701015.0004953 -143630181.3453308 0 0 0 0 167446334.15642548 -192992386.50937453 0 -192992386.50937453 -144286398.8320691 0 0 0 0 120017652.03522873 -40740483.434319042 0 -40740483.434319042 -35547838.169592261 0 0 0 0 487589279.96899414 -594742907.42140055 0 -594742907.42140055 443397760.32911158 0 0 0 0 150140.25494896993 -114035.06826150976 0 -114035.06826150976 -180089.02606096544 0 0 0 0 477266623.48001957 -142323569.33679616 0 -142323569.33679616 -207399312.22578615 0 0 0 0 43324758.880874634 -86439056.555687845 0 -86439056.555687845 -84675391.655889943 0 0 0 0 464514338.1307869 -175405635.60762033 0 -175405635.60762033 -127247553.07557273 0 0 0 0 618511624.01029015 -357278679.73828435 0 -357278679.73828435 -39613329.855868459 0 0 0 0 180692650.52536392 -102130728.66081595 0 -102130728.66081595 -81091175.689325988 0 0 0 0 691326638.28688431 99970846.12019074 0 99970846.12019074 -78667900.427961349 0 0 0 0 -177066528.9678359 -411480358.25260812 0 -411480358.25260812 73045091.456323624 0 0 0 0 684133.23574544489 -605444.07766199671 0 -605444.07766199671 11622.872761361068 0 0 0 0 -174283831.81046295 47154907.280050755 0 47154907.280050755 46476606.444211721 0 0 0 0 -103279462.22160339 -30227618.69555223 0 -30227618.69555223 61376415.942449212 0 0 0 0 180664818.30064011 -133419000.2137689 0 -133419000.2137689 64568769.340343475 0 0 0 0 27244689.557929993 112853216.76471293 0 112853216.76471293 -192177431.97897673 0 0 0 0 221261833.54985046 -52331097.323858619 0 -52331097.323858619 -84746240.642258048 0 0 0 0 1363163.055829674 -1229025.9975617696 0 -1229025.9975617696 -43320.284698287491 0 0 0 0 227610887.45783997 -29506287.474692822 0 -29506287.474692822 -230799975.15236306 0 0 0 0 69549984.643592834 -122035256.23491779 0 -122035256.23491779 -98035090.805275321 0 0 0 0 15930887.345680237 -150046313.76110861 0 -150046313.76110861 -76320686.428979829 0 0 0 0 333597260.31912231 57569936.163698792 0 57569936.163698792 -95631625.295963123 0 0 0 0 311800507.91121292 8813637.1692394316 0 8813637.1692394316 -89548037.263056755 0 0 0 0 210630948.77675629 -53869144.699683785 0 -53869144.699683785 -116847281.67207217 0 0 0 0 352756219.9407959 28024278.249259472 0 28024278.249259472 -153967557.85946691 0 0 0 0 433282329.1312561 106340648.64920139 0 106340648.64920139 -89406989.038719296 0 0 0 0 339520673.13751984 18238108.097646832 0 18238108.097646832 -84088209.487839699 0 0 0 0 415796801.84529114 97367056.26198411 0 97367056.26198411 -57171989.939970613 0 0 0 0 227435261.65073681 35421424.937810414 0 35421424.937810414 -72846758.934669018 0 0 0 0 375033101.50488281 99359803.950516701 0 99359803.950516701 -19741181.048330426 0 0 0 0 336387643.118927 -11102737.988126516 0 -11102737.988126516 -65646045.099440813 0 0 0 0 438156373.72434616 59000730.544840455 0 59000730.544840455 -9705180.1301898956 0 0 0 0 513612037.84977722 133262954.88241434 0 133262954.88241434 18972823.646971107 0 0 0 0 603036903.94736481 182587723.92877698 0 182587723.92877698 138052467.56151772 0 0 0 0 481176906.24669647 89366151.914777279 0 89366151.914777279 208132700.49177408 0 0 0 0 511144611.59651184 95914942.380694628 0 95914942.380694628 102076441.36929809 0 0 0 0 389010313.06678772 44730737.731135726 0 44730737.731135726 98884562.296742439 0 0 0 0 521755697.19359589 33504492.492965341 0 33504492.492965341 251378998.06145239 0 0 0 0 349826207.83301544 77746302.34010148 0 77746302.34010148 248104979.94375992 0 0 0 0 698231440.41043091 172894373.43683171 0 172894373.43683171 207794133.37503773 0 0 0 0 678611226.52631378 153235012.03531635 0 153235012.03531635 424711353.66579199 0 0 0 0 631425341.98173523 212028135.71723318 0 212028135.71723318 352063779.56607854 0 0 0 0 573038660.28730011 -70422012.585448563 0 -70422012.585448563 218633187.04598016 0 0 0 0 447458088.91605759 -4144797.0727588534 0 -4144797.0727588534 386324177.36536777 0 0 0 0 250496322.10774994 -54705520.17660737 0 -54705520.17660737 251029199.10239649 0 0 0 0 432156781.79942322 -43021151.576049358 0 -43021151.576049358 78285013.308038235 0 0 0 0 358215821.0979538 -292990363.03197193 0 -292990363.03197193 -16589660.166753829 0 0 0 0 211111443.98981857 2288075.6973953843 0 2288075.6973953843 126689147.24759865 0 0 0 0 444037955.71173477 -188102739.42778572 0 -188102739.42778572 104976376.79948235 0 0 0 0 479395647.38050842 -76625684.391014814 0 -76625684.391014814 10287955.671411455 0 0 0 0 482176894.09399414 96709968.388937041 0 96709968.388937041 212718879.91769317 0 0 0 0 478201744.27915955 136943049.23401955 0 136943049.23401955 130189797.72169413 0 0 0 0 298316908.32117081 1961209.828774929 0 1961209.828774929 217972408.25472921 0 0 0 0 532049517.59726715 -8666220.7202689052 0 -8666220.7202689052 117423639.98266661 0 0 0 0 707266628.70578766 251116881.26669598 0 251116881.26669598 217821329.98106855 0 0 0 0 772862128.10763931 279424783.42146838 0 279424783.42146838 94903817.069039702 0 0 0 0 789576339.35965729 312182371.3913697 0 312182371.3913697 146224588.85129666 0 0 0 0 1133208120.0786743 628114833.29760087 0 628114833.29760087 340907077.84039217 0 0 0 0 1337831312.0930099 80381352.101093769 0 80381352.101093769 428292575.88883281 0 0 0 0 608491525.88469315 224360666.42234391 0 224360666.42234391 732704844.03830016 0 0 0 0 668880224.86964035 237801871.77103898 0 237801871.77103898 312508062.22983313 0 0 0 0 644039635.37886047 -481854590.19984716 0 -481854590.19984716 177710395.40557733 0 0 0 0 519479010.20889378 -446163383.23027533 0 -446163383.23027533 169807950.51594889 0 0 0 0 459021215.10053635 -408464545.67396963 0 -408464545.67396963 233397182.57003015 0 0 0 0 611750847.41817474 -349313534.32258195 0 -349313534.32258195 128834694.2577779 0 0 0 0 209872.67381881236 -400950.01986187696 0 -400950.01986187696 471110.40857411316 0 0 0 0 626015037.65677261 -340140568.21262014 0 -340140568.21262014 132431560.51496956 0 0 0 0 451795.02184192406 -1423047.0271392409 0 -1423047.0271392409 919397.92916700616 0 0 0 0 -491687736.21414185 -66548813.38444519 0 -66548813.38444519 118318162.43005645 0 0 0 0 -685355629.26473618 -59036251.778278247 0 -59036251.778278247 185290429.9858793 0 0 0 0 137632878.37332344 -218471102.63009638 0 -218471102.63009638 -88983564.286594868 0 0 0 0 454023888.56272697 -330833740.24359751 0 -330833740.24359751 108121455.70024985 0 0 0 0 574266038.43058395 -300168044.64020258 0 -300168044.64020258 71866409.914803147 0 0 0 0 575954889.34153748 -350763275.55158412 0 -350763275.55158412 75569694.713718832 0 0 0 0 1445884924.7525022 -580643650.34283042 0 -580643650.34283042 66022734.974824794 0 0 0 0 561586163.47441483 -570115410.51740623 0 -570115410.51740623 246064873.49171954 0 0 0 0 524255097.15332794 -373580557.0814054 0 -373580557.0814054 65503259.455306292 0 0 0 0 494354435.8458252 -270659738.33421934 0 -270659738.33421934 -231034453.43777871 0 0 0 0 296603191.67867661 -424801556.53506076 0 -424801556.53506076 27427970.648232579 0 0 0 0 549943369.64663219 -344688522.37065351 0 -344688522.37065351 28780854.869197905 0 0 0 0 396978934.35645294 -496324806.96292078 0 -496324806.96292078 254552348.47299102 0 0 0 0 24886603.841096878 -11731876.563202918 0 -11731876.563202918 2077555.7390918732 0 0 0 0 2167181.0654297415 -168797.31243884191 0 -168797.31243884191 -278571.96114671277 0 0 0 0 20973375.157253265 -1054210.8637981713 0 -1054210.8637981713 8725258.8746142387 0 0 0 0 308708963.45851707 -35870116.812467754 0 -35870116.812467754 -5653934.0432863235 0 0 0 0 266258596.83565521 -169091893.85579515 0 -169091893.85579515 -18463155.310456991 0 0 0 0 537925214.41406441 -381334845.05475479 0 -381334845.05475479 -23916631.145053864 0 0 0 0 396048840.11685181 -264479595.02410126 0 -264479595.02410126 37359247.731747866 0 0 0 0 464174865.33119202 -228110367.47144628 0 -228110367.47144628 -30598551.885140941 0 0 0 0 183585652.28396988 -158584974.1342485 0 -158584974.1342485 138463531.90456486 0 0 0 0 502841440.58527946 -350237569.63002777 0 -350237569.63002777 78425684.856460571 0 0 0 0 675414202.86871338 -274995188.91931248 0 -274995188.91931248 61276439.741329908 0 0 0 0 667254525.14302826 -318993044.15285313 0 -318993044.15285313 7045228.8704408407 0 0 0 0 775587236.47779083 -256090206.51049471 0 -256090206.51049471 46049915.091703773 0 0 0 0 667257100.0111357 -297291801.17946362 0 -297291801.17946362 53807788.868733644 0 0 0 0 1061977900.4494858 -273088353.06671691 0 -273088353.06671691 26054455.430417061 0 0 0 0 696941900.04619789 -351703662.5712887 0 -351703662.5712887 107758233.04148245 0 0 0 0 1668438251.9928818 -370043206.62761343 0 -370043206.62761343 53815699.8307724 0 0 0 0 3535779.9274672717 -915225.30444218358 0 -915225.30444218358 -489605.42349991621 0 0 0 0 413030880.64911652 -620632784.05358791 0 -620632784.05358791 649219434.3400569 0 0 0 0 357911129.80521011 -396322471.8139751 0 -396322471.8139751 231689430.01304102 0 0 0 0 6052754.6750821657 444302.20911307074 0 444302.20911307074 -3004467.0229233918 0 0 0 0 4609474.6959381104 231143.94788336754 0 231143.94788336754 -1624475.0652427673 0 0 0 0 5734021.539936116 -1015545.0880115703 0 -1015545.0880115703 -2642559.8620491773 0 0 0 0 7712190.9990005493 -1245323.1270012259 0 -1245323.1270012259 -6403213.6263387203 0 0 0 0 140614157.39284515 27531063.569691658 0 27531063.569691658 153693300.85842514 0 0 0 0 6857952.3405914307 -2524392.5544548631 0 -2524392.5544548631 -5437863.1877635717 0 0 0 0 6756186.2607440948 -802805.13009747863 0 -802805.13009747863 -3332081.2789502144 0 0 0 0 8098161.0558547974 -2522499.9312799871 0 -2522499.9312799871 -2486002.4219077826 0 0 0 0 6108068.5873944424 776565.82790973037 0 776565.82790973037 -3127032.783835182 0 0 0 0 614505174.1336174 185189093.67736894 0 185189093.67736894 71829403.879071474 0 0 0 0 852822366.29348373 350173849.79769397 0 350173849.79769397 45598707.894069791 0 0 0 0 840133316.07155418 275054603.40212965 0 275054603.40212965 -18203177.015926838 0 0 0 0 837295350.36919594 259442643.8322995 0 259442643.8322995 95131543.23316443 0 0 0 0 776190229.98997736 8170399.2281496124 0 8170399.2281496124 108915218.67906439 0 0 0 0 938950134.32630157 29528500.650851727 0 29528500.650851727 37870531.02912879 0 0 0 0 1115664264.9132614 66259532.135304689 0 66259532.135304689 41755423.309595585 0 0 0 0 1069204403.6848145 190653646.94365382 0 190653646.94365382 60920266.635659605 0 0 0 0 805786727.51238632 227398849.0731343 0 227398849.0731343 62985778.31511116 0 0 0 0 969704535.45185471 81778939.898316145 0 81778939.898316145 104274342.98727512 0 0 0 0 1330241908.9426346 137905950.79910374 0 137905950.79910374 113005217.3213948 0 0 0 0 1419179759.0110073 335325802.80387491 0 335325802.80387491 489316919.54218769 0 0 0 0 1173716600.48983 -127268546.0993433 0 -127268546.0993433 1069013790.8629789 0 0 0 0 1014680986.7463531 168305095.2733928 0 168305095.2733928 126922969.16558218 0 0 0 0 1166032360.8059921 -18020340.712826729 0 -18020340.712826729 265016949.28486824 0 0 0 0 1001472666.6122322 101864642.45921636 0 101864642.45921636 512052733.89156151 0 0 0 0 933057236.79090881 38390876.619610786 0 38390876.619610786 305806688.09193206 0 0 0 0 856076678.74534225 166522358.10682631 0 166522358.10682631 183274230.60856724 0 0 0 0 842417595.92453003 196751456.85410333 0 196751456.85410333 230487597.91996932 0 0 0 0 845150668.03662014 220530919.04990748 0 220530919.04990748 8968230.577331543 0 0 0 0 1330130.8574898969 1013578.6101902574 0 1013578.6101902574 6197145.1112179691 0 0 0 0 551213238.28986359 153811598.67105985 0 153811598.67105985 183830221.34272981 0 0 0 0 997972802.71054077 286197279.32883263 0 286197279.32883263 -35922313.066804886 0 0 0 0 901872.86158752441 5214864.5223916769 0 5214864.5223916769 4540179.6721916199 0 0 0 0 5136183.8990221024 2966315.2041570842 0 2966315.2041570842 5588002.2387800217 0 0 0 0 5066325.2312088013 3502204.4073250294 0 3502204.4073250294 1822870.8093309402 0 0 0 0 7685557.2671890259 4431244.1487576962 0 4431244.1487576962 1297321.4140039682 0 0 0 0 11593975.515861511 5903556.5067794323 0 5903556.5067794323 -4497395.1692318916 0 0 0 0 8670170.6794662476 5564749.0243713856 0 5564749.0243713856 222098.18064045906 0 0 0 0 6746665.6206283569 8203641.4863805771 0 8203641.4863805771 4328189.6601939201 0 0 0 0 20140712.521219254 46332955.070766091 0 46332955.070766091 2345005.8171701431 0 0 0 0 -25546717.860038757 5537664.114386797 0 5537664.114386797 13057365.270591974 0 0 0 0 1315985.2613872737 1216256.3181696869 0 1216256.3181696869 5727505.957321723 0 0 0 0 32896918.854103088 -42792826.862449169 0 -42792826.862449169 20108775.964561939 0 0 0 0 786811.94817581959 122258.06971003674 0 122258.06971003674 45091.640574079473 0 0 0 0 55204663.509996414 -5326400.7374151945 0 -5326400.7374151945 -3817989.3740882874 0 0 0 0 54981643.924053192 54362934.949798584 0 54362934.949798584 -35418388.1000067 0 0 0 0 1793314.8279112428 2395778.2169305719 0 2395778.2169305719 5061927.7188814785 0 0 0 0 -33157550.755378723 -44402561.754798651 0 -44402561.754798651 38433749.173770845 0 0 0 0 4886890.2973705679 7093866.0196000636 0 7093866.0196000636 7314375.8421453834 0 0 0 0 8848636.7571563721 21188774.324819565 0 21188774.324819565 -46570700.11359489 0 0 0 0 -44153096.341316223 6285969.7851624489 0 6285969.7851624489 39814975.048913956 0 0 0 0 -25672238.16783905 -37929855.478395939 0 -37929855.478395939 51272199.3248353 0 0 0 0 -22770875.031894684 28236470.316221714 0 28236470.316221714 -1252279.9948596954 0 0 0 0 22390722.416717529 4772628.3942422867 0 4772628.3942422867 6286133.9505605698 0 0 0 0 -11391976.327835083 3763643.0547242165 0 3763643.0547242165 18423345.034083366 0 0 0 0 -13285257.944534302 -1323918.2220687866 0 -1323918.2220687866 8724227.6163095236 0 0 0 0 1382560.5707528144 1138419.0942092836 0 1138419.0942092836 811905.32352678291 0 0 0 0 13371139.514583588 7951722.0324333906 0 7951722.0324333906 -68660.093194961548 0 0 0 0 16445114.208435163 2634916.116841767 0 2634916.116841767 451848.41940587707 0 0 0 0 18453069.74905014 -3289022.0939669609 0 -3289022.0939669609 5464130.0067462921 0 0 0 0 153752814.97373962 -91095497.935047984 0 -91095497.935047984 9188669.161727488 0 0 0 0 -9453516.4002990723 24288549.671620846 0 24288549.671620846 4090051.5335851014 0 0 0 0 -14582048.897415161 -22533257.309802275 0 -22533257.309802275 -7492872.2677490711 0 0 0 0 11872179.695650935 1242453.4074108489 0 1242453.4074108489 1372431.2888323958 0 0 0 0 106231919.88041687 99796937.676819205 0 99796937.676819205 -37663093.031152248 0 0 0 0 -12217457.188461304 50509525.897919454 0 50509525.897919454 17545458.671947375 0 0 0 0 15919279.328567505 915149.8312805891 0 915149.8312805891 -1554937.4060935974 0 0 0 0 20612874.264686584 -5290751.5936455727 0 -5290751.5936455727 -3903824.0179715157 0 0 0 0 3164671.5995184071 824242.81359225325 0 824242.81359225325 -426855.95641937852 0 0 0 0 3562328.7937085778 1806782.0056717508 0 1806782.0056717508 2503117.8820580719 0 0 0 0 3072924.1460609436 -447656.33456242085 0 -447656.33456242085 -1358876.3971031904 0 0 0 0 7401660.0091094971 300657.81786823273 0 300657.81786823273 -695806.48268890381 0 0 0 0 6878649.2494021282 -2278845.8156549893 0 -2278845.8156549893 -4000403.1964773396 0 0 0 0 93458090.445953369 25090039.379763722 0 25090039.379763722 -23122487.270358384 0 0 0 0 100159296.7250061 43478528.014872022 0 43478528.014872022 -26736231.764915235 0 0 0 0 100976721.59842348 25318380.851194613 0 25318380.851194613 -23476229.427917458 0 0 0 0 21245319.139587402 5607471.1156914234 0 5607471.1156914234 -5049031.0682355016 0 0 0 0 14052633.196121216 -20918915.881518543 0 -20918915.881518543 -3064528.1400442123 0 0 0 0 -5990489.1751098633 2733222.126488924 0 2733222.126488924 3229269.9338414669 0 0 0 0 4864241.9164123535 -38586842.945142984 0 -38586842.945142984 6138193.7582292333 0 0 0 0 40102133.348487854 -17044785.185283214 0 -17044785.185283214 -10270254.528014779 0 0 0 0 31154920.346252441 -13874359.831692636 0 -13874359.831692636 -9527829.6301612854 0 0 0 0 109321092.03369141 -1507664.4742305279 0 -1507664.4742305279 -54631190.847988605 0 0 0 0 161188880.52313232 -9041692.9170389175 0 -9041692.9170389175 -60369057.772283852 0 0 0 0 168973668.99914551 -44149350.77981925 0 -44149350.77981925 -85584154.991469026 0 0 0 0 109047541.76782227 -65122836.065673828 0 -65122836.065673828 4987780.2951159477 0 0 0 0 192091339.14108276 13994100.864146462 0 13994100.864146462 -88473302.358790562 0 0 0 0 17359217.179824829 -52375284.055383682 0 -52375284.055383682 -72760787.683006227 0 0 0 0 195501938.75885868 61882229.9282002 0 61882229.9282002 -51309403.031991124 0 0 0 0 2282821.1209623851 1344128.6992065609 0 1344128.6992065609 349247.58761739219 0 0 0 0 232939170.47076416 -176173865.18933713 0 -176173865.18933713 -79030527.793900192 0 0 0 0 175657093.37704468 -44239741.331167817 0 -44239741.331167817 -139125942.37571979 0 0 0 0 165507284.99481201 -14272419.651806355 0 -14272419.651806355 -110420311.25028163 0 0 0 0 156019061.61735535 43724811.101946376 0 43724811.101946376 -34695532.810992934 0 0 0 0 40955206.446205139 3509333.2679607868 0 3509333.2679607868 -23892459.373012185 0 0 0 0 137508987.20825195 10190145.490746617 0 10190145.490746617 -128809652.31721729 0 0 0 0 67867822.198684692 47453053.882594705 0 47453053.882594705 10418199.385135651 0 0 0 0 24843306.685806274 15511685.527272046 0 15511685.527272046 -16052255.616319984 0 0 0 0 43421937.623878479 35703884.857367098 0 35703884.857367098 2088493.9985253811 0 0 0 0 59684384.375839233 20985254.802323461 0 20985254.802323461 -46197750.075295806 0 0 0 0 24744537.782928467 18159800.169635892 0 18159800.169635892 -12483029.228686064 0 0 0 0 33699037.97687149 13998586.049838629 0 13998586.049838629 -16189411.266434729 0 0 0 0 34803678.953872681 9819554.9795264602 0 9819554.9795264602 -14225714.240615726 0 0 0 0 34460560.365877151 9357493.5725145303 0 9357493.5725145303 -13867125.482688308 0 0 0 0 7389731.0114059448 4383842.7685421705 0 4383842.7685421705 1262136.8854822475 0 0 0 0 62623482.148399353 -5746247.0241724849 0 -5746247.0241724849 36485544.048138738 0 0 0 0 4273338.0407663286 2662891.9406480715 0 2662891.9406480715 -565455.66367846285 0 0 0 0 159801477.90435791 17966095.422872066 0 17966095.422872066 -13464441.709015727 0 0 0 0 153637654.45015717 12903708.801790252 0 12903708.801790252 15623825.40053308 0 0 0 0 151914975.60665894 62784892.815577626 0 62784892.815577626 -41181571.414473534 0 0 0 0 153610243.58258629 49849146.556563698 0 49849146.556563698 10288683.600124717 0 0 0 0 10372062.554294586 13317163.340111971 0 13317163.340111971 824131.67525368929 0 0 0 0 -2575006.6722683907 18608861.623641744 0 18608861.623641744 -6870240.5517495275 0 0 0 0 10055355.459429264 9024629.4966819286 0 9024629.4966819286 -89813.482578277588 0 0 0 0 9317967.8037235066 6534810.4019204769 0 6534810.4019204769 2012932.1490233582 0 0 0 0 -1564750.9356975555 27990506.814824704 0 27990506.814824704 10095776.166989088 0 0 0 0 14148345.408786535 6173410.4683892056 0 6173410.4683892056 260822.82355396636 0 0 0 0 9404760.855381012 11611361.422352314 0 11611361.422352314 12425231.288911819 0 0 0 0 4862169.9712753296 3530643.1274108887 0 3530643.1274108887 3224996.2007869482 0 0 0 0 -119018.85040283203 -2090608.0565886497 0 -2090608.0565886497 12172215.515493393 0 0 0 0 1938164.3709220886 -4387088.0235097408 0 -4387088.0235097408 -172722.49292564392 0 0 0 0 2883286.3193016052 -2742934.4828109741 0 -2742934.4828109741 996857.06259918213 0 0 0 0 2395210.6576123238 2364920.3759155571 0 2364920.3759155571 -4216303.996925354 0 0 0 0 2573130.3634376526 4306471.6079339981 0 4306471.6079339981 6713951.8531570435 0 0 0 0 1421726.1995010376 -6504345.1376106739 0 -6504345.1376106739 -2772318.3675327301 0 0 0 0 74063340.948631287 53111455.477978706 0 53111455.477978706 2229243.8101978302 0 0 0 0 6228737.6634892356 2868480.2431973312 0 2868480.2431973312 -1003821.0440113591 0 0 0 0 19374011.704931926 3097203.0784568843 0 3097203.0784568843 -2876645.3792940732 0 0 0 0 -412007.86250305176 -5388598.8127775192 0 -5388598.8127775192 1290957.8427648544 0 0 0 0 -5005531.9537353516 -31753003.419055223 0 -31753003.419055223 -25189164.877913475 0 0 0 0 394519.53369522095 -3826897.0158414841 0 -3826897.0158414841 2318298.2183876038 0 0 0 0 18348138.753924306 -1547651.2023871914 0 -1547651.2023871914 -4781001.0475979745 0 0 0 0 27530780.822013855 7377073.2506942749 0 7377073.2506942749 1206549.1295814514 0 0 0 0 41544184.751464844 6274095.239466548 0 6274095.239466548 25538914.770042535 0 0 0 0 21129386.35616684 15155620.256968498 0 15155620.256968498 11035533.096935272 0 0 0 0 10635988.862869263 92058040.106408864 0 92058040.106408864 26376051.879510283 0 0 0 0 15886499.817520097 5674826.3290029112 0 5674826.3290029112 -1621520.4729764769 0 0 0 0 24177337.673774719 7084610.8513452709 0 7084610.8513452709 2290560.3962744474 0 0 0 0 16670729.325628746 2973686.338609688 0 2973686.338609688 -3610440.7801990453 0 0 0 0 37012213.729553223 22393235.864422917 0 22393235.864422917 11837405.581266403 0 0 0 0 33356696.693458557 15498228.333065033 0 15498228.333065033 11297486.539825439 0 0 0 0 9387031.8575835694 9542203.0590885393 0 9542203.0590885393 5301835.9707114883 0 0 0 0 7982250.8044586182 2745106.6946325302 0 2745106.6946325302 -2324688.3397092819 0 0 0 0 15525889.825472858 8253606.7204578593 0 8253606.7204578593 2349821.1617020923 0 0 0 0 14557627.973866075 8796479.3563637454 0 8796479.3563637454 1043261.2720260313 0 0 0 0 9823740.5491626225 1910108.1156313941 0 1910108.1156313941 302208.94677163102 0 0 0 0 28800985.172164917 15537812.011253357 0 15537812.011253357 13771409.617179871 0 0 0 0 49960723.766288757 15948464.901304245 0 15948464.901304245 13440517.597812653 0 0 0 0 2061133.2889604699 166230.66472433973 0 166230.66472433973 -1630182.0508249011 0 0 0 0 33738845.985671997 17931690.61790657 0 17931690.61790657 20168176.256015778 0 0 0 0 69759514.420116425 29215420.268463135 0 29215420.268463135 4373902.3211898804 0 0 0 0 9172439.2401733398 2049175.7064752579 0 2049175.7064752579 -2750415.7967071533 0 0 0 0 11334590.620611873 7794693.9164194521 0 7794693.9164194521 5603504.1446504723 0 0 0 0 18360873.303578954 3174078.1719447169 0 3174078.1719447169 -4428453.2572628437 0 0 0 0 7245831.5289096888 3739173.4538592249 0 3739173.4538592249 -121850.17266266607 0 0 0 0 27527144.416984558 12095441.872009277 0 12095441.872009277 13120908.220072746 0 0 0 0 26923818.577003479 14528059.260507584 0 14528059.260507584 10279588.441030502 0 0 0 0 10612439.108116031 -8764242.5385525227 0 -8764242.5385525227 -40863863.601867676 0 0 0 0 38861613.804244995 35170889.968405724 0 35170889.968405724 17099494.831787109 0 0 0 0 50659898.024902344 19540069.58265686 0 19540069.58265686 3382996.1998758316 0 0 0 0 -7794891.0689697266 4583983.3859710693 0 4583983.3859710693 -4812254.5586080551 0 0 0 0 28346607.027784348 -5882274.4660096169 0 -5882274.4660096169 -45721298.594890594 0 0 0 0 69687362.137062073 12550785.345283508 0 12550785.345283508 37555854.857168198 0 0 0 0 56875648.806213379 40842125.766217232 0 40842125.766217232 9685366.2279224396 0 0 0 0 66769643.170394897 21279346.017549992 0 21279346.017549992 17510633.863832712 0 0 0 0 70125221.917444944 34621373.669468403 0 34621373.669468403 10450032.601066589 0 0 0 0 5768804.0617144331 508203.16194767132 0 508203.16194767132 -2481189.4037451046 0 0 0 0 38051678.740486145 -3103775.7310314178 0 -3103775.7310314178 -44804676.123997688 0 0 0 0 -21176506.454299927 -63794332.979250908 0 -63794332.979250908 -998532.62055587769 0 0 0 0 18145112.03477478 -18196701.989802837 0 -18196701.989802837 88011679.027923584 0 0 0 0 53114269.898366928 14221390.400758266 0 14221390.400758266 38309350.673700333 0 0 0 0 20236712.716884613 -26413643.464915276 0 -26413643.464915276 28530215.749675751 0 0 0 0 68283430.213607788 34389772.187832832 0 34389772.187832832 -4699401.7233381271 0 0 0 0 20084278.374670945 -1661969.1787856482 0 -1661969.1787856482 -2439509.7661890183 0 0 0 0 25609714.128121853 -19542108.330775023 0 -19542108.330775023 8838558.7552423477 0 0 0 0 41986564.623243332 19629538.238519192 0 19629538.238519192 12634194.448627472 0 0 0 0 79310804.618171692 17871046.10556221 0 17871046.10556221 9363973.2004952431 0 0 0 0 3481971.5919497255 -105101.28815617971 0 -105101.28815617971 -532015.16098996624 0 0 0 0 111157752.05283642 81261030.786977291 0 81261030.786977291 -227622.53310680389 0 0 0 0 74722572.966148376 21915843.493185043 0 21915843.493185043 5919172.2404432297 0 0 0 0 76804360.261314392 26486425.508194447 0 26486425.508194447 1708857.1836028099 0 0 0 0 80061224.018346071 23849228.478141785 0 23849228.478141785 2993408.7881126404 0 0 0 0 70550814.636401176 27078817.257758498 0 27078817.257758498 -10242439.351573944 0 0 0 0 76787003.696961403 50090397.56463635 0 50090397.56463635 32319751.065372467 0 0 0 0 79752706.832302094 60411631.364968777 0 60411631.364968777 20208420.557387352 0 0 0 0 81233003.762577057 56027856.263174295 0 56027856.263174295 29476552.035578728 0 0 0 0 4305212.6391573679 -624560.28581956215 0 -624560.28581956215 -2748979.5899889665 0 0 0 0 103418803.9510231 58522393.234204292 0 58522393.234204292 13659950.184277534 0 0 0 0 109231827.27879333 32720251.309919119 0 32720251.309919119 46191702.742185831 0 0 0 0 95879574.887550831 135491473.33136123 0 135491473.33136123 136246230.29778719 0 0 0 0 2103569.6527108029 -555010.13764090929 0 -555010.13764090929 -1626974.7276903824 0 0 0 0 83309669.71887207 85007512.223487854 0 85007512.223487854 17263801.262815952 0 0 0 0 22175634.513298035 29739875.873463631 0 29739875.873463631 198226943.42915532 0 0 0 0 22477152.018245697 69920989.758368015 0 69920989.758368015 93440221.068313599 0 0 0 0 -23892103.848247528 15433095.075462818 0 15433095.075462818 103209475.83349323 0 0 0 0 -10708370.131622314 62192212.636680126 0 62192212.636680126 56718033.951187134 0 0 0 0 10341713.52359581 24581063.952316642 0 24581063.952316642 115381921.15272522 0 0 0 0 33433927.934383392 104489002.45451188 0 104489002.45451188 161341794.93313456 0 0 0 0 28209255.43265152 50430533.720322609 0 50430533.720322609 66691925.023548245 0 0 0 0 42716312.404800415 169565214.13257933 0 169565214.13257933 196792156.60774851 0 0 0 0 42540570.091453388 197056284.1140438 0 197056284.1140438 295061550.0520978 0 0 0 0 6440368.8670883179 101432271.91471362 0 101432271.91471362 223957280.31567144 0 0 0 0 36335310.122108459 117601422.67013359 0 117601422.67013359 197243576.24203083 0 0 0 0 36612874.229763031 82294495.166223764 0 82294495.166223764 292726321.15305281 0 0 0 0 187596849.62716293 239410394.80312574 0 239410394.80312574 312043650.88038635 0 0 0 0 74838110.114929199 115653415.79319 0 115653415.79319 417408737.61589575 0 0 0 0 97458504.65512085 119733245.4051106 0 119733245.4051106 263341937.71657753 0 0 0 0 50239241.167770386 30728006.166550636 0 30728006.166550636 266850933.76967254 0 0 0 0 46803937.108848572 78443567.224840164 0 78443567.224840164 361287522.98752594 0 0 0 0 142646300.61752319 141084686.52889466 0 141084686.52889466 323437927.58358574 0 0 0 0 92046107.260749817 72958930.368803024 0 72958930.368803024 222217135.11124611 0 0 0 0 96887301.027008057 -8389597.453253746 0 -8389597.453253746 157618356.24538231 0 0 0 0 53191810.458095551 68153324.047794104 0 68153324.047794104 158858220.91063118 0 0 0 0 -8720118.2219543457 -51474827.715993881 0 -51474827.715993881 367106063.15143394 0 0 0 0 90142907.735198975 -62830373.968419075 0 -62830373.968419075 102941873.54528999 0 0 0 0 52138254.611610413 5853548.1710929871 0 5853548.1710929871 269421910.93262672 0 0 0 0 74122223.944046021 49333773.636070728 0 49333773.636070728 279509186.83708191 0 0 0 0 69044418.145736694 193094141.31806517 0 193094141.31806517 507920164.70486784 0 0 0 0 -4511810.0592193604 253612.51919555664 0 253612.51919555664 446506583.47652721 0 0 0 0 -159463876.72026062 -9467100.523730278 0 -9467100.523730278 636970535.51772594 0 0 0 0 32365859.029659271 56958334.900891066 0 56958334.900891066 422369959.060009 0 0 0 0 -48554884.296104431 275545956.38596606 0 275545956.38596606 916690866.84180069 0 0 0 0 28140964.374725342 527867097.04302883 0 527867097.04302883 643209222.56664181 0 0 0 0 131454312.1398201 460503553.75321519 0 460503553.75321519 608243777.58940506 0 0 0 0 617030865.8997097 576923873.44268298 0 576923873.44268298 391808757.73565006 0 0 0 0 323174993.06260681 302459610.86747408 0 302459610.86747408 403925515.234442 0 0 0 0 46629953.90587616 175733675.61781144 0 175733675.61781144 501289780.21703815 0 0 0 0 164824260.44956589 272515800.50975311 0 272515800.50975311 471624772.14877844 0 0 0 0 181903011.39340973 452038652.766415 0 452038652.766415 330848171.18753481 0 0 0 0 805342254.88750458 578896760.59008253 0 578896760.59008253 180779893.24886036 0 0 0 0 513218172.98975372 240461837.05575061 0 240461837.05575061 588251870.87861633 0 0 0 0 595767386.09153748 409570274.44512272 0 409570274.44512272 700554835.77911043 0 0 0 0 1287810808.1097717 55926956.198170662 0 55926956.198170662 325173776.85606837 0 0 0 0 272311079.48344421 947297114.404284 0 947297114.404284 1353413121.7801151 0 0 0 0 582406386.45407104 260524542.18081784 0 260524542.18081784 295996395.35152817 0 0 0 0 475199847.44334412 117850141.63697314 0 117850141.63697314 134301362.34678698 0 0 0 0 471299099.46957779 203684320.77589101 0 203684320.77589101 153933292.0499649 0 0 0 0 553838602.78611755 139879103.49337578 0 139879103.49337578 165025434.99500465 0 0 0 0 598038140.44573975 282160699.10950994 0 282160699.10950994 202162054.57383299 0 0 0 0 672687849.445755 425985804.74621058 0 425985804.74621058 542231879.14521146 0 0 0 0 606434155.82904053 339953611.82966042 0 339953611.82966042 547915551.26866817 0 0 0 0 574625814.66921234 162931519.32198346 0 162931519.32198346 289946812.33543015 0 0 0 0 568619945.41633606 298952665.58055067 0 298952665.58055067 625800905.81937695 0 0 0 0 573874338.50800323 188440275.65620786 0 188440275.65620786 418168612.76373577 0 0 0 0 626434113.87542343 316297873.15971643 0 316297873.15971643 384273701.75337076 0 0 0 0 545199202.68630219 159868531.52680945 0 159868531.52680945 264580258.18687773 0 0 0 0 780945247.02643204 733903679.19601488 0 733903679.19601488 380767064.66879082 0 0 0 0 602844258.29689789 309433297.88365293 0 309433297.88365293 403632463.07614374 0 0 0 0 1030131565.0936737 548718990.29516292 0 548718990.29516292 489789670.61256683 0 0 0 0 550891735.25177002 471494527.43122911 0 471494527.43122911 947230227.86112595 0 0 0 0 787169360.23501587 852065838.78093696 0 852065838.78093696 672549280.90082812 0 0 0 0 723717.94779435545 -760464.74895735458 0 -760464.74895735458 1804879.4623217052 0 0 0 0 819782253.12602234 1001734798.5503736 0 1001734798.5503736 1094082879.5922785 0 0 0 0 -338049656.09420013 -218479117.00166082 0 -218479117.00166082 513122820.87396145 0 0 0 0 -226605561.92036438 114349982.33207512 0 114349982.33207512 1258321046.9264164 0 0 0 0 607483319.91236877 190121741.46055508 0 190121741.46055508 1422941369.3389521 0 0 0 0 -2542759.7751617432 -115731990.94807339 0 -115731990.94807339 -33002881.935691833 0 0 0 0 1362430.500404926 -1015118.0158501007 0 -1015118.0158501007 5164292.3302305713 0 0 0 0 -13413767.189910889 118045814.57673931 0 118045814.57673931 -52371796.780622482 0 0 0 0 -164891815.20595551 43381093.308981895 0 43381093.308981895 2272820.1071720123 0 0 0 0 63740114.002738953 211547651.32885289 0 211547651.32885289 725991565.08911955 0 0 0 0 1067461671.2108078 707777662.87471282 0 707777662.87471282 344676523.15422344 0 0 0 0 472900.61075131968 939377.12185258791 0 939377.12185258791 1957069.1860775398 0 0 0 0 1305931411.7845144 6299835.8479639515 0 6299835.8479639515 -42565008.861570418 0 0 0 0 463573353.97273636 -70918328.001830444 0 -70918328.001830444 79341397.906535268 0 0 0 0 -23136390.076238632 61338204.023019791 0 61338204.023019791 -22104364.093683243 0 0 0 0 939220.11417190731 4394550.0829121955 0 4394550.0829121955 8284365.3482241891 0 0 0 0 25147405.765266418 6900610.2234334946 0 6900610.2234334946 -23765952.832505226 0 0 0 0 -11495100.594261169 78783186.58822298 0 78783186.58822298 -14300621.826719284 0 0 0 0 40570670.634414673 16810116.893121719 0 16810116.893121719 -46259367.289616108 0 0 0 0 19549298.437236786 2322351.1752858162 0 2322351.1752858162 -23343903.31728363 0 0 0 0 66420359.999320984 -789661.89171218872 0 -789661.89171218872 -23846592.901976109 0 0 0 0 45231871.069532394 33738119.526643038 0 33738119.526643038 6886638.537776947 0 0 0 0 48748517.807746887 -21582586.522470474 0 -21582586.522470474 119870044.14333439 0 0 0 0 64600380.571683884 39675667.337987542 0 39675667.337987542 125976451.36985016 0 0 0 0 87593766.471420288 -19984651.081549644 0 -19984651.081549644 34778081.878059387 0 0 0 0 56946434.560005188 54317020.416835785 0 54317020.416835785 82643074.894886732 0 0 0 0 41862358.773399353 8715659.7090973854 0 8715659.7090973854 -7197293.3473892212 0 0 0 0 1063293283.2014525 -703599552.18253517 0 -703599552.18253517 -320531955.4325434 0 0 0 0 568740028.92547989 -696192021.00639093 0 -696192021.00639093 122080487.19333796 0 0 0 0 2199153883.6456661 -1089348752.0042875 0 -1089348752.0042875 -311041699.33293676 0 0 0 0 1042017168.8507767 -599984749.45193005 0 -599984749.45193005 -515214093.76573074 0 0 0 0 1371297518.1361179 -634045543.4021461 0 -634045543.4021461 -594076036.64983153 0 0 0 0 1120348178.7719593 -370132960.97337651 0 -370132960.97337651 -870970508.52122808 0 0 0 0 2205758363.9140453 376043386.17043179 0 376043386.17043179 -1249131233.7462792 0 0 0 0 735455338.54326248 -478724946.97236896 0 -478724946.97236896 -350446399.78478372 0 0 0 0 739552878.3312149 -462652143.99630105 0 -462652143.99630105 -407287153.55746365 0 0 0 0 535991758.78950119 -421443442.69985044 0 -421443442.69985044 -125376563.1900249 0 0 0 0 733057571.98407364 -445142971.50553584 0 -445142971.50553584 -207793561.10495567 0 0 0 0 513475257.39940703 -220172259.45588368 0 -220172259.45588368 -148343781.74877 0 0 0 0 266683823.8847084 -413143909.96554589 0 -413143909.96554589 66710866.509004593 0 0 0 0 543154435.81470108 -519926405.50073391 0 -519926405.50073391 7398161.6762577891 0 0 0 0 85948599.347860336 -196903810.20676079 0 -196903810.20676079 285415185.74660659 0 0 0 0 423985283.62976837 -582135468.67315173 0 -582135468.67315173 205586423.05265832 0 0 0 0 129717565.70523834 -92052737.100122452 0 -92052737.100122452 -95361560.532053888 0 0 0 0 435761228.1001339 -302354760.90411079 0 -302354760.90411079 -71448269.680928469 0 0 0 0 137505910.24168777 -30157790.106867656 0 -30157790.106867656 -65974815.112221368 0 0 0 0 114420844.45461464 -28679500.585264444 0 -28679500.585264444 -307114579.25390434 0 0 0 0 120688309.9500885 -175149045.60939956 0 -175149045.60939956 -264866574.30967569 0 0 0 0 43126430.675170898 -133448794.69672537 0 -133448794.69672537 -191477783.52832946 0 0 0 0 288848585.41471577 -224291832.90669584 0 -224291832.90669584 -196805159.7278266 0 0 0 0 136200515.34133625 -82379202.706840754 0 -82379202.706840754 -210614050.43219137 0 0 0 0 260215273.62201309 -200040150.21693802 0 -200040150.21693802 -393975787.89481544 0 0 0 0 418466073.27030754 -622415248.84070563 0 -622415248.84070563 101548233.10970627 0 0 0 0 920595294.30875349 -1446006992.903815 0 -1446006992.903815 661875540.80401742 0 0 0 0 2202856304.7536082 1194779101.9251299 0 1194779101.9251299 466320610.18493372 0 0 0 0 -366835576.21360207 -683228865.15030718 0 -683228865.15030718 980659429.42505133 0 0 0 0 2635003.3959034644 -1489497.7646167399 0 -1489497.7646167399 1550935.2162950654 0 0 0 0 1139781171.8911366 510432265.19549561 0 510432265.19549561 34276494.85817948 0 0 0 0 -122533238.2129879 -318298784.67462063 0 -318298784.67462063 -353982020.36746359 0 0 0 0 6210616.5603053365 -4656202.4502636427 0 -4656202.4502636427 2665077.6766635692 0 0 0 0 1144020591.9822028 304097850.3335802 0 304097850.3335802 3293548.7165954858 0 0 0 0 367418676.28520918 263088486.21645066 0 263088486.21645066 93910588.381839141 0 0 0 0 2204899610.987319 465778304.99733895 0 465778304.99733895 -344056949.69714469 0 0 0 0 1530866982.3649526 127439026.87506744 0 127439026.87506744 -305121383.38054216 0 0 0 0 1537543930.6235776 88501779.34074825 0 88501779.34074825 -145830160.95058438 0 0 0 0 388260613.46536112 -228673939.76724753 0 -228673939.76724753 -11010894.439863145 0 0 0 0 1769924279.3099744 -561857939.85350037 0 -561857939.85350037 48726149.242861211 0 0 0 0 1716899.5835487319 -1327462.5258273836 0 -1327462.5258273836 -1067007.8369922531 0 0 0 0 227629340.46424484 48948781.137185335 0 48948781.137185335 -190737521.32427105 0 0 0 0 1805366109.5166345 -935863120.48029661 0 -935863120.48029661 -332447206.93785238 0 0 0 0 1903228119.4188185 123364067.10682103 0 123364067.10682103 -306549293.32922077 0 0 0 0 2204733161.7225237 205937620.72098714 0 205937620.72098714 -132278930.15680739 0 0 0 0 2976286604.1654148 -271465971.8971982 0 -271465971.8971982 -561964543.22324014 0 0 0 0 17553801.422410965 -5727516.4668154716 0 -5727516.4668154716 -58723376.79331205 0 0 0 0 25712774.989974022 -41072562.542398691 0 -41072562.542398691 -640581.75810813904 0 0 0 0 -50537729.296703339 -11962249.903118134 0 -11962249.903118134 32555215.724346638 0 0 0 0 -49966957.760540962 -31426425.214015245 0 -31426425.214015245 175031673.66545367 0 0 0 0 -2938524.1859178543 -35283037.75211978 0 -35283037.75211978 42993837.177261114 0 0 0 0 224661073.23306024 140371498.50404462 0 140371498.50404462 5718601.1566718221 0 0 0 0 4330287.3685164647 -4369433.5196463494 0 -4369433.5196463494 -3026496.4829118121 0 0 0 0 5460028.6741247177 6827251.3349131048 0 6827251.3349131048 65328943.944029808 0 0 0 0 33705279.388901711 3970513.0482478142 0 3970513.0482478142 -9234002.1504650116 0 0 0 0 1925978.7370350799 42462.973190211924 0 42462.973190211924 -1673220.4260852661 0 0 0 0 11773399.34028852 -17687470.629248798 0 -17687470.629248798 -78095516.583120346 0 0 0 0 12008455.342527751 -2954720.0770446076 0 -2954720.0770446076 -5254793.8113299655 0 0 0 0 8299600.5144958496 118186908.1264019 0 118186908.1264019 -246403845.64301109 0 0 0 0 215287022.0222621 -147493922.20476717 0 -147493922.20476717 47614203.599719852 0 0 0 0 11218566.596040964 -29025652.622594729 0 -29025652.622594729 -217010051.10458565 0 0 0 0 8836787.0645977538 -6835313.1729292739 0 -6835313.1729292739 1869104.9890502393 0 0 0 0 90362026.981746674 -64439366.644532204 0 -64439366.644532204 -221458480.25217208 0 0 0 0 112794951.54121971 14853018.920127869 0 14853018.920127869 -312924517.2744627 0 0 0 0 95200579.675945282 -15209596.168767214 0 -15209596.168767214 -339488564.81617546 0 0 0 0 173774911.76062393 -79255099.017972469 0 -79255099.017972469 -331414282.8685298 0 0 0 0 72741176.84054184 -101471005.77661657 0 -101471005.77661657 -424009493.4275443 0 0 0 0 103684244.55140686 62972053.299038887 0 62972053.299038887 -394030993.3729564 0 0 0 0 -153056253.87385941 -55415319.908536434 0 -55415319.908536434 -452200040.8222816 0 0 0 0 -181073796.95001221 313427593.90878725 0 313427593.90878725 -224432673.65095329 0 0 0 0 1679434.6846235208 -217773.35197285749 0 -217773.35197285749 -1474068.4004279585 0 0 0 0 97982344.108543396 26525528.104162693 0 26525528.104162693 -610550571.14698172 0 0 0 0 -538586363.56577682 -156821429.22645497 0 -156821429.22645497 -919230.08808636665 0 0 0 0 -168363741.8327713 186251253.31542182 0 186251253.31542182 -501556648.60425991 0 0 0 0 -61755565.309143066 -29482946.456376076 0 -29482946.456376076 -882069637.31315494 0 0 0 0 1565004.149563022 -1469462.1826905087 0 -1469462.1826905087 -1061457.4020417754 0 0 0 0 6717397.9715270996 70914729.752203465 0 70914729.752203465 -864953411.28447485 0 0 0 0 -152487920.17490387 -251291322.74650788 0 -251291322.74650788 -623318783.91167903 0 0 0 0 -244652677.02910233 -86898170.614537716 0 -86898170.614537716 -41308888.708802938 0 0 0 0 4310065.2880814075 -16057903.585305989 0 -16057903.585305989 3017401.403216362 0 0 0 0 4038729.6349529633 -6829570.9399681799 0 -6829570.9399681799 4713406.6666418994 0 0 0 0 9152442.234500885 28170750.538530827 0 28170750.538530827 -160197697.3373574 0 0 0 0 10596821.630556298 -2729324.2957654023 0 -2729324.2957654023 -4800268.7818402909 0 0 0 0 5760193.0892834663 -9144283.1434326172 0 -9144283.1434326172 -3047648.2775802612 0 0 0 0 12315833.672906876 -13305390.474685192 0 -13305390.474685192 -1679157.4047818184 0 0 0 0 32016.080682754517 -17756719.370611548 0 -17756719.370611548 35678284.416107416 0 0 0 0 24972545.092837572 -26187773.305892527 0 -26187773.305892527 10725891.749473572 0 0 0 0 -5377937.0810604095 -4544258.442861259 0 -4544258.442861259 4654155.1039030552 0 0 0 0 -7908791.1295490265 -4357139.5081214905 0 -4357139.5081214905 13532562.749297976 0 0 0 0 7974620.6747851372 -19582763.686606169 0 -19582763.686606169 5224984.8204498291 0 0 0 0 -1899158.1372938156 2312491.6078692079 0 2312491.6078692079 4322822.7930452824 0 0 0 0 8958802.7088558674 26191892.898358122 0 26191892.898358122 14320181.574174881 0 0 0 0 9199744.2655620575 1788250.3447874784 0 1788250.3447874784 -35924625.758472539 0 0 0 0 -354223683.3383522 -241019872.56618169 0 -241019872.56618169 25426676.769376367 0 0 0 0 317648341.53211975 20231818.432916135 0 20231818.432916135 -106182430.52762204 0 0 0 0 5700385.6081887968 -3023977.7630518628 0 -3023977.7630518628 -647771.10495471884 0 0 0 0 2821892.9410076141 -812121.86401665211 0 -812121.86401665211 -11968542.962320685 0 0 0 0 4089102.5413165828 -4714556.031484223 0 -4714556.031484223 3090234.6578280553 0 0 0 0 -335660638.05478668 -247334820.89877391 0 -247334820.89877391 -49965514.216624498 0 0 0 0 -274211451.4173708 -61534211.916814953 0 -61534211.916814953 54284102.157402515 0 0 0 0 329246243.62290001 -188776984.83470449 0 -188776984.83470449 -102738942.32578468 0 0 0 0 -15913237.703651428 51313663.121526122 0 51313663.121526122 -42403292.630504012 0 0 0 0 -267875938.60728836 -121631559.54214263 0 -121631559.54214263 -52944856.797696665 0 0 0 0 -91668928.568052292 -213820274.45667028 0 -213820274.45667028 -135063430.10240269 0 0 0 0 92204502.386371613 -56803534.641879499 0 -56803534.641879499 -439246686.11114192 0 0 0 0 -59604146.996364594 -32852368.507725477 0 -32852368.507725477 -110447693.54172617 0 0 0 0 134519944.83362865 93745962.662315741 0 93745962.662315741 -97535440.773572206 0 0 0 0 413728568.13426971 -41549380.53671205 0 -41549380.53671205 -206497520.74537978 0 0 0 0 348597465.76628876 208240402.2928333 0 208240402.2928333 -193398192.85328066 0 0 0 0 238012248.27247429 269194779.51137161 0 269194779.51137161 59452439.533536538 0 0 0 0 127154403.65645885 36664028.044151314 0 36664028.044151314 -249219112.24686331 0 0 0 0 130759.45356336609 -367044.56260557543 0 -367044.56260557543 86039.649092051492 0 0 0 0 27452028.027141571 163464259.91151488 0 163464259.91151488 -243755500.84047294 0 0 0 0 -82410428.75925827 22689614.404343843 0 22689614.404343843 -190319965.91947567 0 0 0 0 -496260135.7224369 -164284652.09199768 0 -164284652.09199768 -387681054.63392425 0 0 0 0 -125909803.71282578 78553732.723635912 0 78553732.723635912 -269161088.7481029 0 0 0 0 19565337.522686005 -3316367.0607199669 0 -3316367.0607199669 -165571919.09045672 0 0 0 0 55690068.506033897 -5299867.1123763621 0 -5299867.1123763621 -451854808.65519476 0 0 0 0 -197851764.91048813 -174543327.38687849 0 -174543327.38687849 -296029926.46961832 0 0 0 0 -45217694.292072296 -120043073.31088048 0 -120043073.31088048 -91001137.47855711 0 0 0 0 -123091988.6222105 -42118948.204171628 0 -42118948.204171628 -127272501.73152745 0 0 0 0 333427.85293571651 -872125.87430668471 0 -872125.87430668471 202982.3995285806 0 0 0 0 -104411235.90028381 50383137.689778417 0 50383137.689778417 -19728051.396136247 0 0 0 0 132519556.49597168 3285504.1049267054 0 3285504.1049267054 -250345723.64272892 0 0 0 0 269257498.74756241 -339731225.86994195 0 -339731225.86994195 -114590578.47832341 0 0 0 0 134850.71197310835 -683818.29089266527 0 -683818.29089266527 178866.08488738409 0 0 0 0 97959041.918002605 114681831.48047468 0 114681831.48047468 -23661068.75850749 0 0 0 0 210783844.96728134 172041803.88965106 0 172041803.88965106 -24707285.19609195 0 0 0 0 240428820.52950048 162009250.96425098 0 162009250.96425098 -54673772.950719357 0 0 0 0 243967754.11911392 177065809.95278323 0 177065809.95278323 -24024711.252201647 0 0 0 0 381574361.18141556 193220729.17618182 0 193220729.17618182 -49131669.243538976 0 0 0 0 78776472.394535065 193941120.54875845 0 193941120.54875845 37643218.262569308 0 0 0 0 309942405.40012169 92177074.242472276 0 92177074.242472276 -61079170.372478575 0 0 0 0 307605232.64258957 98307941.915930688 0 98307941.915930688 -70432712.357429326 0 0 0 0 243229900.94459915 144420257.31733537 0 144420257.31733537 -33515598.830035925 0 0 0 0 232324098.11740494 56877692.721825242 0 56877692.721825242 -77128453.020460725 0 0 0 0 16267863.86961174 -58392036.415815592 0 -58392036.415815592 -37726714.557349563 0 0 0 0 260698280.40854454 -104319673.14397532 0 -104319673.14397532 -34733291.739322782 0 0 0 0 293545850.9563694 -91301448.722701848 0 -91301448.722701848 -29797565.396079183 0 0 0 0 228112014.11434364 -82918217.634327024 0 -82918217.634327024 -7696864.1678777337 0 0 0 0 520084544.3967514 -175408089.04018974 0 -175408089.04018974 46583953.777723521 0 0 0 0 265039904.88018799 -65709217.213585027 0 -65709217.213585027 -299486.46762815118 0 0 0 0 441469774.37678909 -443491289.65673345 0 -443491289.65673345 177655836.41262066 0 0 0 0 473166680.98144054 -227855674.36948806 0 -227855674.36948806 7720838.9925100803 0 0 0 0 619874329.9406395 -310277948.37908816 0 -310277948.37908816 53885517.976623416 0 0 0 0 708500356.94314575 -69570630.69741118 0 -69570630.69741118 -107466931.03972161 0 0 0 0 386937081.47285461 7831946.5584111363 0 7831946.5584111363 -47693708.755665183 0 0 0 0 478038411.12451935 68262839.994249582 0 68262839.994249582 -86252773.020168915 0 0 0 0 537600164.19270802 119960892.35289684 0 119960892.35289684 -49311677.468781233 0 0 0 0 708931983.35186386 -147114254.76376057 0 -147114254.76376057 -18643105.172842264 0 0 0 0 791834056.23655558 -342526698.0320726 0 -342526698.0320726 437782677.5378921 0 0 0 0 916206822.31732941 -56766630.610188246 0 -56766630.610188246 -4584371.5746773481 0 0 0 0 814707691.84136963 -227284158.48618877 0 -227284158.48618877 -31502361.063631702 0 0 0 0 556945151.1776619 -329308242.37403804 0 -329308242.37403804 95256727.523891702 0 0 0 0 460874669.73536396 24242615.238640636 0 24242615.238640636 -10424405.309676766 0 0 0 0 1083964779.5510178 -339187242.6470508 0 -339187242.6470508 234293525.15953296 0 0 0 0 1250527106.8918152 -955891617.67868352 0 -955891617.67868352 520731720.18829942 0 0 0 0 1367687629.6496544 -891185160.39553583 0 -891185160.39553583 280589887.73069739 0 0 0 0 1051461017.7061133 -914408742.73342991 0 -914408742.73342991 306731782.26751512 0 0 0 0 1122725404.484798 -253140135.65143296 0 -253140135.65143296 -203493650.3695426 0 0 0 0 2176300510.9321747 -706498565.87055993 0 -706498565.87055993 -129226734.62231696 0 0 0 0 2912931.7819018736 -1679409.1471852334 0 -1679409.1471852334 -616882.84918194986 0 0 0 0 96987137.732074738 29035881.539278984 0 29035881.539278984 -50411611.487217247 0 0 0 0 11176275.634191513 -28137091.439899683 0 -28137091.439899683 -25476128.713607788 0 0 0 0 133934.03796576522 -184869.57311577909 0 -184869.57311577909 78950.02843089799 0 0 0 0 1099091044.2292814 -488563770.94976676 0 -488563770.94976676 -110605059.41809461 0 0 0 0 1690842359.7701492 -925275300.76734269 0 -925275300.76734269 100833404.47251987 0 0 0 0 1456293309.885025 -536872575.19174325 0 -536872575.19174325 429486510.22949302 0 0 0 0 2395972385.4671721 -959081951.43802249 0 -959081951.43802249 124729267.03236294 0 0 0 0 -48065.848761477566 -89798.865366514772 0 -89798.865366514772 1936430.6356158555 0 0 0 0 1296700349.2437134 -977512036.64185381 0 -977512036.64185381 1425710851.1607587 0 0 0 0 22533146.419660747 95985214.495169371 0 95985214.495169371 453090838.09864283 0 0 0 0 72963421.15594101 -579761793.7047832 0 -579761793.7047832 755251632.64751482 0 0 0 0 874655933.36023045 -764507435.45419621 0 -764507435.45419621 323846672.40709233 0 0 0 0 1211591045.0756645 -269735914.66818434 0 -269735914.66818434 218123592.18629861 0 0 0 0 955983044.94997406 -444742929.27754557 0 -444742929.27754557 101236272.16394615 0 0 0 0 694442510.99147844 -315060193.64709413 0 -315060193.64709413 36934214.600830317 0 0 0 0 658206926.07669687 -586204793.96880043 0 -586204793.96880043 182785705.53748202 0 0 0 0 319182017.67937851 -424797266.16195917 0 -424797266.16195917 196032492.3919121 0 0 0 0 314748354.86220169 -475135753.84965879 0 -475135753.84965879 246405182.66075706 0 0 0 0 443557091.50520325 -181950318.16579199 0 -181950318.16579199 188741705.53003591 0 0 0 0 116942778.4842205 -466668434.73054606 0 -466668434.73054606 216013798.82904506 0 0 0 0 -51439550.051183701 -154295036.66352671 0 -154295036.66352671 217052198.8873384 0 0 0 0 300772723.67503357 -586016101.20992565 0 -586016101.20992565 281809733.10852158 0 0 0 0 154363997.11507034 -163983630.63517356 0 -163983630.63517356 38589205.58415556 0 0 0 0 3349152.8123178929 -1181702.4465240566 0 -1181702.4465240566 -1138286.3204130074 0 0 0 0 280862332.04051208 -164310851.37689066 0 -164310851.37689066 56729371.256856441 0 0 0 0 264448443.60869503 -190190891.75256932 0 -190190891.75256932 62417984.813292742 0 0 0 0 205755311.55396748 -100186267.09883308 0 -100186267.09883308 9700695.3100714684 0 0 0 0 27943657.999811172 -43806120.896339893 0 -43806120.896339893 27673253.615354061 0 0 0 0 419653862.93339157 -136305537.00212693 0 -136305537.00212693 -95012129.286715388 0 0 0 0 383820612.52760315 -233723885.03773201 0 -233723885.03773201 -16711096.392990589 0 0 0 0 85373359.445579529 8375560.7486371398 0 8375560.7486371398 -32446980.012773037 0 0 0 0 682612824.79955292 -184584101.62648183 0 -184584101.62648183 -116770984.04299319 0 0 0 0 -152185911.60580397 -5613874.5290835798 0 -5613874.5290835798 -28669953.702845573 0 0 0 0 -413102.09623497725 50283.350992484018 0 50283.350992484018 1111640.534859871 0 0 0 0 380587222.60610199 -105019517.29150033 0 -105019517.29150033 67479855.411726952 0 0 0 0 1567868.097958941 -494493.80713910796 0 -494493.80713910796 -610146.22015905823 0 0 0 0 499569525.39896393 -560943707.91765428 0 -560943707.91765428 428949320.48587191 0 0 0 0 677067175.46405792 78724703.190927744 0 78724703.190927744 -892113693.38978553 0 0 0 0 865828016.72806549 -478498211.11574394 0 -478498211.11574394 185738396.9796927 0 0 0 0 828347514.37563324 -36083473.479801655 0 -36083473.479801655 -807019533.3375268 0 0 0 0 584782156.19139862 -646580064.61808741 0 -646580064.61808741 627087998.73913324 0 0 0 0 979521417.36732483 229152718.45622134 0 229152718.45622134 -822332995.51632273 0 0 0 0 -598341236.67950439 72640554.41916275 0 72640554.41916275 -35507731.69131279 0 0 0 0 1404677.3901252411 -855017.22741356352 0 -855017.22741356352 -445951.13804329239 0 0 0 0 308736827.91026497 -267591650.96922779 0 -267591650.96922779 130369346.7940129 0 0 0 0 702909276.36869812 -481000059.47192109 0 -481000059.47192109 235428361.26231337 0 0 0 0 175077077.18775797 -300454641.68941337 0 -300454641.68941337 379475256.52999234 0 0 0 0 559592500.08630371 -360725979.1832149 0 -360725979.1832149 138123659.37561074 0 0 0 0 669250677.0016675 -359128659.25282931 0 -359128659.25282931 151308783.37532401 0 0 0 0 508748401.59000015 -440182170.22916955 0 -440182170.22916955 123292845.02253419 0 0 0 0 427384222.07398605 -401026647.72080696 0 -401026647.72080696 216860723.01159242 0 0 0 0 400135212.61019897 -451818863.63978744 0 -451818863.63978744 243567435.70090532 0 0 0 0 392514175.44778824 -486798118.1474033 0 -486798118.1474033 150415004.17405355 0 0 0 0 108867120.86199188 -338412043.70127887 0 -338412043.70127887 225551636.85798198 0 0 0 0 421294362.1392746 -420056465.60450363 0 -420056465.60450363 157409728.20249063 0 0 0 0 767057393.35942841 -427494221.7932477 0 -427494221.7932477 96450036.474363565 0 0 0 0 381421712.4421978 -566533501.31446195 0 -566533501.31446195 190503962.7410748 0 0 0 0 -521868198.72408295 -378257902.62881231 0 -378257902.62881231 167940103.15227011 0 0 0 0 781891.79057604633 -950911.8459396679 0 -950911.8459396679 1178864.7510517549 0 0 0 0 878589995.40174866 -631124074.48815119 0 -631124074.48815119 364108283.39626127 0 0 0 0 622038829.7922554 -356576313.94463998 0 -356576313.94463998 215473527.94462955 0 0 0 0 541868315.77627182 -340294054.00452101 0 -340294054.00452101 211942519.49227521 0 0 0 0 527968071.46572495 -343209398.73227054 0 -343209398.73227054 417968461.69519186 0 0 0 0 673625664.78685188 -259769344.35539424 0 -259769344.35539424 218318063.34265071 0 0 0 0 604952116.0355072 -66600354.424830139 0 -66600354.424830139 60106103.66712153 0 0 0 0 511773210.67448425 -428751215.36931342 0 -428751215.36931342 202762956.66803485 0 0 0 0 504969656.24312401 -399725092.5341543 0 -399725092.5341543 246827030.21758908 0 0 0 0 1469978578.823101 35016704.26575096 0 35016704.26575096 69626580.282811701 0 0 0 0 115187842.36824417 -166531865.36804283 0 -166531865.36804283 -244973790.41783714 0 0 0 0 -338929037.26110268 -296269468.89224386 0 -296269468.89224386 -147987671.46545815 0 0 0 0 2341722.1706264261 -2727494.9838959929 0 -2727494.9838959929 2320995.7656381675 0 0 0 0 479650660.52606297 161221685.78017515 0 161221685.78017515 128738891.90374076 0 0 0 0 415512927.86266708 39804921.913753331 0 39804921.913753331 69695647.949119538 0 0 0 0 267640692.66799164 130073356.74046001 0 130073356.74046001 149630390.85762346 0 0 0 0 314581416.70005798 -29879618.023106478 0 -29879618.023106478 -104444911.22871399 0 0 0 0 196001571.21273804 -42641766.725048691 0 -42641766.725048691 -11250183.411535919 0 0 0 0 315265120.06170464 22982719.469339289 0 22982719.469339289 -231768170.10432151 0 0 0 0 277649575.50195885 53342189.607983932 0 53342189.607983932 -371635901.12325072 0 0 0 0 192577642.7526741 196520635.11113834 0 196520635.11113834 -414034177.80698013 0 0 0 0 237699423.34328461 -56299432.720487863 0 -56299432.720487863 -113280462.31003904 0 0 0 0 297328731.66048431 75776755.528065741 0 75776755.528065741 -183822852.18006015 0 0 0 0 200278370.04086304 30812098.56653446 0 30812098.56653446 -201499149.01620287 0 0 0 0 261659580.19981384 -802043.00015281141 0 -802043.00015281141 -338803590.4246819 0 0 0 0 186075824.08412933 -70114301.284802496 0 -70114301.284802496 -271576032.48019958 0 0 0 0 174671393.57390594 30343915.11398229 0 30343915.11398229 -194969818.19733137 0 0 0 0 -8623417.548034668 -128124387.77524102 0 -128124387.77524102 -84774956.223192096 0 0 0 0 325502716.70886993 -102161745.19841576 0 -102161745.19841576 -88858094.785308778 0 0 0 0 188703955.28504944 -79979996.913200289 0 -79979996.913200289 67272088.261575282 0 0 0 0 197034976.96327209 -354240512.599392 0 -354240512.599392 85922270.427395046 0 0 0 0 429882478.47959661 -314509295.85819918 0 -314509295.85819918 72694591.13506794 0 0 0 0 309575039.50492239 -207431686.32009405 0 -207431686.32009405 -168386282.63610685 0 0 0 0 98007974.245788574 -396971822.35863781 0 -396971822.35863781 -330653461.87177354 0 0 0 0 -114337520.44993591 -37216028.50606668 0 -37216028.50606668 -157300793.44090104 0 0 0 0 -34943684.945663452 -142311563.58106375 0 -142311563.58106375 -471766776.24959767 0 0 0 0 1387312.2074676566 217988.15144833922 0 217988.15144833922 -924893.82463033078 0 0 0 0 -236562804.4963913 -189856004.06892753 0 -189856004.06892753 -47072464.049658298 0 0 0 0 1068595.6505831033 -332763.3411117997 0 -332763.3411117997 -1000882.0524179759 0 0 0 0 41497575.631996155 -226265971.29802793 0 -226265971.29802793 -543709927.68974996 0 0 0 0 36878315.247325897 72037285.77445367 0 72037285.77445367 -407009594.40223742 0 0 0 0 126801011.00469589 -60313769.465945132 0 -60313769.465945132 -223262144.00408903 0 0 0 0 -8014209.9838321209 -107655253.57851955 0 -107655253.57851955 -194397526.45380139 0 0 0 0 11568446.208194733 -34494755.062800393 0 -34494755.062800393 -35968046.63088423 0 0 0 0 7546180.6572532654 -1142565.4022797346 0 -1142565.4022797346 -148845.39329719543 0 0 0 0 4120853.5835424326 -2944726.9796876404 0 -2944726.9796876404 -1157360.3256925689 0 0 0 0 -16975950.522796631 4470670.09430632 0 4470670.09430632 -41801632.360303581 0 0 0 0 5940419.1945482828 1597472.9551828951 0 1597472.9551828951 -2230241.5786549789 0 0 0 0 5898050.2860183716 -1024762.5878468156 0 -1024762.5878468156 -156800.99053640664 0 0 0 0 6718449.0548248291 -1301241.0287286043 0 -1301241.0287286043 -2249647.8900465965 0 0 0 0 9873546.854095459 14207023.013167322 0 14207023.013167322 -29887829.005127728 0 0 0 0 4128436.4043639079 -2708496.4006293882 0 -2708496.4006293882 -1433321.6230350444 0 0 0 0 4855168.6486587524 -2255641.7298737764 0 -2255641.7298737764 -2364666.5659240857 0 0 0 0 5622686.9191429615 -2985406.8809508402 0 -2985406.8809508402 -4875422.8400025368 0 0 0 0 7392556.2916183472 -1864122.2344333827 0 -1864122.2344333827 -6797978.9286779165 0 0 0 0 3156388.9200628726 498066.26484467834 0 498066.26484467834 -1718852.1621138959 0 0 0 0 437651933.38299561 -14942446.890917301 0 -14942446.890917301 79332798.94783926 0 0 0 0 365069998.57123566 84094356.891919374 0 84094356.891919374 23768438.876354694 0 0 0 0 11298897.118743896 -3699614.3402953148 0 -3699614.3402953148 6049915.2196117938 0 0 0 0 4494917.5080714636 -2777269.8023512997 0 -2777269.8023512997 -2200926.3484798577 0 0 0 0 5692857.0889425278 -1697477.8018733617 0 -1697477.8018733617 -3261256.1532456875 0 0 0 0 -6755805.8659133911 -6750325.7080549449 0 -6750325.7080549449 5651994.6258810721 0 0 0 0 1575967.0116697103 -63839.785291055217 0 -63839.785291055217 -1627809.3147276884 0 0 0 0 791284563.08393478 -91717122.039009213 0 -91717122.039009213 -285450594.69231939 0 0 0 0 7053903.4932098389 7264262.7344306987 0 7264262.7344306987 -54902355.850336522 0 0 0 0 20640663.511873245 10422064.600468308 0 10422064.600468308 -54739301.595292389 0 0 0 0 28538514.195674896 7610775.648900439 0 7610775.648900439 -214444598.20052421 0 0 0 0 145624034.42826843 23199774.217270151 0 23199774.217270151 -213182229.72998998 0 0 0 0 101990223.25252533 113946045.21930909 0 113946045.21930909 -317366365.00008535 0 0 0 0 124110842.09869766 -36366187.557172954 0 -36366187.557172954 -332195887.23862302 0 0 0 0 426670.12930440623 -218464.75888442621 0 -218464.75888442621 -729958.94980289694 0 0 0 0 -228056531.49620056 298746692.59865701 0 298746692.59865701 -232056866.51522481 0 0 0 0 -78531853.314781189 116469277.22746694 0 116469277.22746694 -126916516.06216751 0 0 0 0 84659836.692138672 104760744.58138423 0 104760744.58138423 -307840494.74495745 0 0 0 0 88413219.66491437 276725916.71040553 0 276725916.71040553 -415680101.36303574 0 0 0 0 295599502.30719757 -65810596.299684882 0 -65810596.299684882 -164150778.14958161 0 0 0 0 588848399.8957901 -451079142.48768485 0 -451079142.48768485 -211899892.9454366 0 0 0 0 161190119.05433655 -477522209.29886705 0 -477522209.29886705 -114541932.61081955 0 0 0 0 4209291.2652437929 -5412656.8611793369 0 -5412656.8611793369 4369824.8761724513 0 0 0 0 -15525485.96120739 -100281459.84066164 0 -100281459.84066164 -74377374.969368935 0 0 0 0 363614466.31004333 -138565302.17168021 0 -138565302.17168021 268738376.07322121 0 0 0 0 363737368.98875809 -150502891.40669286 0 -150502891.40669286 -599119211.27728963 0 0 0 0 434082061.01634216 -42452026.509713292 0 -42452026.509713292 -183940663.32752705 0 0 0 0 433045001.52454758 51699787.528064489 0 51699787.528064489 15103397.925857544 0 0 0 0 -208921599.1387558 221827427.1096518 0 221827427.1096518 -153453737.10752273 0 0 0 0 -735400238.77560329 -428806765.31870073 0 -428806765.31870073 -21334211.388659477 0 0 0 0 -614592283.09630966 -1114959576.3135881 0 -1114959576.3135881 6466289.6727991104 0 0 0 0 762761849.5539093 -301940035.15200269 0 -301940035.15200269 -124107166.93483561 0 0 0 0 333281366.40284729 -1137472040.4746256 0 -1137472040.4746256 -281333048.32424212 0 0 0 0 419574339.04489136 -53821464.018799067 0 -53821464.018799067 13263881.018416882 0 0 0 0 453838754.85101318 -194692360.34571552 0 -194692360.34571552 426943534.03950357 0 0 0 0 397351050.46118164 163893356.84849143 0 163893356.84849143 195233604.08149242 0 0 0 0 1809544.742335625 -493391.5826765172 0 -493391.5826765172 -236644.93796693953 0 0 0 0 1147479250.6123867 351956239.04064393 0 351956239.04064393 -431684205.47719765 0 0 0 0 972490692.79373169 395598190.44887042 0 395598190.44887042 -397252477.26724577 0 0 0 0 -73668353.416275024 70858171.586397409 0 70858171.586397409 -91275062.898334503 0 0 0 0 1435018701.9966965 339747902.20325875 0 339747902.20325875 -454770151.01403689 0 0 0 0 -981407605.85557175 -4580982.5388184786 0 -4580982.5388184786 517750438.19729388 0 0 0 0 1212558299.3085175 252221610.16872406 0 252221610.16872406 -288921139.87531853 0 0 0 0 287962508.75136566 -72166374.029886246 0 -72166374.029886246 32695933.658966064 0 0 0 0 509779421.71827698 658414039.42925692 0 658414039.42925692 925364343.54707384 0 0 0 0 3190499.6228407901 -4993716.3278026599 0 -4993716.3278026599 5780513.9065701719 0 0 0 0 135813133.9810791 -253219142.93266106 0 -253219142.93266106 402586545.83303261 0 0 0 0 649032075.8213501 -352263423.72169113 0 -352263423.72169113 5835633.9421949387 0 0 0 0 290358978.30969477 -276330295.63511312 0 -276330295.63511312 -111271335.89867783 0 0 0 0 293237658.50597978 -172520696.08419731 0 -172520696.08419731 -84537848.322510719 0 0 0 0 351304925.98025894 -207276818.33659816 0 -207276818.33659816 -152575814.26174784 0 0 0 0 338056417.40803146 67135691.226560593 0 67135691.226560593 -71406772.828023195 0 0 0 0 213530517.53453064 -80363416.654625654 0 -80363416.654625654 -123642896.09697533 0 0 0 0 19655808.657446861 -34374707.629729152 0 -34374707.629729152 -81468726.39617157 0 0 0 0 232753994.47689819 -184729838.62435269 0 -184729838.62435269 -144827312.89930224 0 0 0 0 222506689.54529023 -268046924.96721128 0 -268046924.96721128 -180124012.02560997 0 0 0 0 185704605.90579987 -172450018.29363823 0 -172450018.29363823 -112523622.16892624 0 0 0 0 136242912.13181663 -161204967.82108584 0 -161204967.82108584 -104632585.17217541 0 0 0 0 124710199.946064 -127283183.88859272 0 -127283183.88859272 -38000786.445751429 0 0 0 0 129355087.21291733 -46545833.338499308 0 -46545833.338499308 -68303080.317618489 0 0 0 0 119320527.13893509 -56112047.586485147 0 -56112047.586485147 -19259200.107913494 0 0 0 0 116634688.12434769 -80674527.087383032 0 -80674527.087383032 -126075896.54312992 0 0 0 0 109610305.67653751 -89186651.582566261 0 -89186651.582566261 -128131723.79113626 0 0 0 0 49644652.949195862 -116578376.77684259 0 -116578376.77684259 -108585597.11699867 0 0 0 0 -127600091.2909317 -83251528.149341583 0 -83251528.149341583 -79201280.590722084 0 0 0 0 32029673.310935974 -69192529.97990495 0 -69192529.97990495 -98351098.535618782 0 0 0 0 3615525.6837349236 -4170618.9456439614 0 -4170618.9456439614 2827412.9417715291 0 0 0 0 109240687.65699005 404040088.28424186 0 404040088.28424186 -70405073.982874751 0 0 0 0 -182609755.5102253 -218684509.93819249 0 -218684509.93819249 -118490234.06804466 0 0 0 0 46267627.068721771 -113370449.35923243 0 -113370449.35923243 -163206203.4352293 0 0 0 0 46812934.659095764 -79663976.657025337 0 -79663976.657025337 -80575666.807044983 0 0 0 0 -42383706.960214615 -88707927.897832036 0 -88707927.897832036 -96701289.226447344 0 0 0 0 72825210.746479034 -107332606.14586091 0 -107332606.14586091 -167360351.48579764 0 0 0 0 -28479440.581741333 -134467383.6629777 0 -134467383.6629777 -193646948.44729662 0 0 0 0 177652237.58935165 -11958913.323901415 0 -11958913.323901415 -156053171.00477791 0 0 0 0 155195988.5395484 55392122.152189434 0 55392122.152189434 -53880105.286761284 0 0 0 0 182388572.34558392 57629271.62853229 0 57629271.62853229 -19111877.116235733 0 0 0 0 143719649.17809296 -5575618.2611942291 0 -5575618.2611942291 -98644279.243813038 0 0 0 0 116935454.30960655 -7479066.3004499078 0 -7479066.3004499078 -73457149.637675285 0 0 0 0 206295151.362957 90192732.673604846 0 90192732.673604846 107293160.21966648 0 0 0 0 178105659.95423508 113172042.63729811 0 113172042.63729811 102386169.94952056 0 0 0 0 155249829.161129 64863547.616586328 0 64863547.616586328 18520402.356349707 0 0 0 0 224205046.70330048 152265692.87137759 0 152265692.87137759 -12335484.353304863 0 0 0 0 188658904.99414444 186560059.79665834 0 186560059.79665834 79184678.679893017 0 0 0 0 450662311.90634155 135556245.16656804 0 135556245.16656804 63886457.964661121 0 0 0 0 267565485.84151077 28148348.841700912 0 28148348.841700912 10474533.788384318 0 0 0 0 402720549.90354109 -79824215.765002906 0 -79824215.765002906 -31243539.798221111 0 0 0 0 622646550.23788881 59252951.354699224 0 59252951.354699224 144244804.77614546 0 0 0 0 594443908.55697441 209038237.40230298 0 209038237.40230298 184727987.22538424 0 0 0 0 828247428.46965408 120091116.63065124 0 120091116.63065124 54859259.378977299 0 0 0 0 379633968.21861267 58969233.324078083 0 58969233.324078083 98901382.51074791 0 0 0 0 262557568.79661179 166154516.55971599 0 166154516.55971599 203491078.74090242 0 0 0 0 279048408.54791164 142009969.05481219 0 142009969.05481219 450412787.20715427 0 0 0 0 225409314.37529755 20749583.310852289 0 20749583.310852289 237493047.55863649 0 0 0 0 764423686.67891312 -96054840.064721346 0 -96054840.064721346 467292586.08874416 0 0 0 0 495888358.8239975 130772903.05273771 0 130772903.05273771 486970654.69936085 0 0 0 0 361578118.91992188 -72517831.586510181 0 -72517831.586510181 305409411.09008336 0 0 0 0 248059739.9249897 28515496.468341827 0 28515496.468341827 232273747.39941072 0 0 0 0 58832028.693778992 -102432986.14415622 0 -102432986.14415622 238493766.55954933 0 0 0 0 101717158.02257538 -96880504.38365674 0 -96880504.38365674 129580596.08670902 0 0 0 0 182526042.29978943 65387239.054351091 0 65387239.054351091 209654782.59174252 0 0 0 0 111960682.6475029 -21667314.844432831 0 -21667314.844432831 122196176.80225646 0 0 0 0 134785851.38708115 -17380086.370736361 0 -17380086.370736361 75824415.502785206 0 0 0 0 67773770.925628662 -164603758.61016989 0 -164603758.61016989 42610944.071298242 0 0 0 0 136188705.61780971 -170603154.96544734 0 -170603154.96544734 1530444.2245836258 0 0 0 0 73357332.570580482 -243976812.68764603 0 -243976812.68764603 -34632423.30693531 0 0 0 0 64918627.01568222 -276843868.32052326 0 -276843868.32052326 -70566649.419683218 0 0 0 0 -199515300.53741837 -96907434.638058305 0 -96907434.638058305 -16376542.938869476 0 0 0 0 104573233.05527496 -109853459.35224271 0 -109853459.35224271 -17530922.865852356 0 0 0 0 -32180726.832645416 -242820337.81419277 0 -242820337.81419277 100642201.51073587 0 0 0 0 -154276508.5921402 -385037784.61963916 0 -385037784.61963916 -118033838.57028246 0 0 0 0 155077626.29236603 -214793778.81570578 0 -214793778.81570578 -121216487.35291767 0 0 0 0 138530318.12277222 -297052366.18035364 0 -297052366.18035364 -427333829.06976414 0 0 0 0 8370297.1899185181 -64474988.316114902 0 -64474988.316114902 124289506.54811239 0 0 0 0 26594786.902565002 -40796124.81741643 0 -40796124.81741643 -34438044.851706505 0 0 0 0 43316801.672668457 25062448.198239326 0 25062448.198239326 -143992476.79002476 0 0 0 0 43308825.461330414 40986781.626549959 0 40986781.626549959 -16236856.819648743 0 0 0 0 470936.28307718411 416371.28297466505 0 416371.28297466505 -1236026.0307527361 0 0 0 0 1505430.6402587891 -11203926.154196739 0 -11203926.154196739 -7480588.1387214661 0 0 0 0 3992932.7169031128 -1429549.0615376458 0 -1429549.0615376458 -800486.23710553895 0 0 0 0 3599360.7565088272 -16478145.403509855 0 -16478145.403509855 5803727.0680217743 0 0 0 0 -53028907.28629303 -253119795.28267527 0 -253119795.28267527 -351404428.15068352 0 0 0 0 -53559391.996130228 -441818565.70847857 0 -441818565.70847857 94713446.799328804 0 0 0 0 911209.00925377011 7011.7165810754523 0 7011.7165810754523 -363538.44147936138 0 0 0 0 437057362.14930725 -226223082.39022881 0 -226223082.39022881 113674865.24527311 0 0 0 0 74440992.334709167 138157292.89353064 0 138157292.89353064 -353704036.95148945 0 0 0 0 -254999.58308163285 -116485.80658037867 0 -116485.80658037867 -181491.7234675053 0 0 0 0 5197816.783241488 -1125257.7672199747 0 -1125257.7672199747 -2166182.3744507213 0 0 0 0 -24348343.877063751 -161341279.3725065 0 -161341279.3725065 -306333673.30544901 0 0 0 0 2323312.5480603259 1200117.9601065787 0 1200117.9601065787 -4475072.3455397319 0 0 0 0 23642139.738067627 -693766.81911468506 0 -693766.81911468506 -16424738.59683156 0 0 0 0 -253523976.14741135 -473843627.20330048 0 -473843627.20330048 -419676193.56413698 0 0 0 0 127602977.53637695 -82117581.992795706 0 -82117581.992795706 -284945574.95815229 0 0 0 0 569951669.4152298 137729780.49732471 0 137729780.49732471 -364725047.64432859 0 0 0 0 153550199.49847412 -110493796.03200698 0 -110493796.03200698 -277401458.21928453 0 0 0 0 596925368.90042424 111777386.82809427 0 111777386.82809427 -245616901.3915205 0 0 0 0 615599551.05433655 -43647385.917648077 0 -43647385.917648077 -343857785.32363153 0 0 0 0 170350959.78996849 -139594907.65771174 0 -139594907.65771174 -51832461.049888134 0 0 0 0 208252595.40480423 -88382181.648394585 0 -88382181.648394585 -440123174.36425352 0 0 0 0 450228368.76424026 -45325523.247164011 0 -45325523.247164011 -63571493.370172977 0 0 0 0 85016211.12651825 -180655994.14495564 0 -180655994.14495564 240374568.87095228 0 0 0 0 628716115.23239708 -298190401.56033111 0 -298190401.56033111 290566633.74216223 0 0 0 0 787700218.66101074 -28883006.838935137 0 -28883006.838935137 -146164384.24784636 0 0 0 0 991926201.35978317 110003113.61429358 0 110003113.61429358 -91814511.341417313 0 0 0 0 778426487.46078968 336754436.14802909 0 336754436.14802909 -56729399.203267097 0 0 0 0 950310024.51419067 327462068.29575968 0 327462068.29575968 -60644935.404854178 0 0 0 0 793978918.6789856 105175446.39617741 0 105175446.39617741 -337955564.25866514 0 0 0 0 1014667900.6007271 120388494.98602641 0 120388494.98602641 -344907739.15654182 0 0 0 0 777691706.5867691 17841199.981204748 0 17841199.981204748 -400318666.02687013 0 0 0 0 697815600.49501801 179544519.67251331 0 179544519.67251331 -256763724.47000843 0 0 0 0 803594602.90954208 226022115.92497909 0 226022115.92497909 -358618203.34546137 0 0 0 0 825774314.175457 163164810.2673794 0 163164810.2673794 -259430194.33866954 0 0 0 0 601624166.85644531 345943884.78937197 0 345943884.78937197 -162716800.4864254 0 0 0 0 767177620.97265244 248243137.8440969 0 248243137.8440969 -221191803.09166932 0 0 0 0 566454889.15713501 221929886.46953878 0 221929886.46953878 8006855.6954736486 0 0 0 0 593062538.86238098 140348388.32056713 0 140348388.32056713 -84462630.031801879 0 0 0 0 709999318.65378952 116248227.96460778 0 116248227.96460778 -162990021.35216987 0 0 0 0 735843030.36697769 2799183.1869639754 0 2799183.1869639754 -128546341.83315158 0 0 0 0 618323503.27716827 142678815.73264024 0 142678815.73264024 -132640140.20314571 0 0 0 0 1450672122.9459324 278324380.27412754 0 278324380.27412754 -711526547.99686611 0 0 0 0 2198925081.7943993 785741959.18916261 0 785741959.18916261 -524659526.06554997 0 0 0 0 668549282.52894211 463294404.86988997 0 463294404.86988997 10363024.905904531 0 0 0 0 747160245.0325166 -176321614.34789127 0 -176321614.34789127 -812397451.31150067 0 0 0 0 786704180.8028183 289869183.79586923 0 289869183.79586923 -282572215.17174244 0 0 0 0 2204371322.7931099 329290532.78237009 0 329290532.78237009 -240267716.76816714 0 0 0 0 3811393.7081898022 -232358.8231406901 0 -232358.8231406901 -1781246.2772521488 0 0 0 0 -84202829.817901611 -356569238.34971821 0 -356569238.34971821 -394211314.78603244 0 0 0 0 2200524040.0520897 331393919.35461032 0 331393919.35461032 -241312131.41121885 0 0 0 0 554480756.72632027 138675578.4459486 0 138675578.4459486 -208549827.07654858 0 0 0 0 547783609.69546318 56679161.690649986 0 56679161.690649986 -125115295.68376803 0 0 0 0 3693794.0796469841 581558.88269412704 0 581558.88269412704 -2926080.21882112 0 0 0 0 307129030.58638382 -441541194.74819946 0 -441541194.74819946 382869004.12198246 0 0 0 0 369925262.4093132 -60028329.953880757 0 -60028329.953880757 22479213.744958401 0 0 0 0 6390409.3200384695 -11179266.280788952 0 -11179266.280788952 332443.91640162247 0 0 0 0 -163594334.43454742 -80640078.011664152 0 -80640078.011664152 106676596.8351295 0 0 0 0 39641131.862251282 52671413.087757826 0 52671413.087757826 8843262.3373823315 0 0 0 0 -4990382.9115753174 -29087954.158440709 0 -29087954.158440709 -39758053.139148176 0 0 0 0 5284566.0238450449 -1303302.290401075 0 -1303302.290401075 1045153.4593068527 0 0 0 0 2173775894.4913292 -177860636.62135249 0 -177860636.62135249 13373082.445271796 0 0 0 0 98000014.287628174 -6931411.5502967238 0 -6931411.5502967238 -55331415.666793585 0 0 0 0 17198429.74773407 -6427340.0051864386 0 -6427340.0051864386 -17203013.74923563 0 0 0 0 27942208.40014267 -32505546.884207726 0 -32505546.884207726 48020570.634727478 0 0 0 0 3555347.5247508152 708497.74434065539 0 708497.74434065539 -3941950.4882393735 0 0 0 0 2109686956.801157 457054734.82055849 0 457054734.82055849 98774426.794485614 0 0 0 0 1254976.3410519883 -4098817.7282211483 0 -4098817.7282211483 -3329932.4335839152 0 0 0 0 8761816.62716344 -2920728.9112181244 0 -2920728.9112181244 -3698183.432828967 0 0 0 0 50242673.184741974 12905786.76171875 0 12905786.76171875 -44454848.98985672 0 0 0 0 146845844.89326096 -234529761.79089117 0 -234529761.79089117 197515163.81101322 0 0 0 0 189001454.06900406 -125972879.61041021 0 -125972879.61041021 60931214.388190746 0 0 0 0 -41364541.030143738 -96504758.033168793 0 -96504758.033168793 147597956.69893932 0 0 0 0 7697006.3918431345 -3572732.0608678404 0 -3572732.0608678404 -3320969.6629330209 0 0 0 0 182968491.65171814 -41607094.381437302 0 -41607094.381437302 -19770889.927938461 0 0 0 0 8566886.668762207 6233448.6735529602 0 6233448.6735529602 -10629931.320221186 0 0 0 0 -3456062.7513923645 13532180.193733752 0 13532180.193733752 -14941390.494789481 0 0 0 0 4421500.4938029405 1953008.0412388835 0 1953008.0412388835 -5364783.4157059155 0 0 0 0 1494893922.634861 708712564.54109144 0 708712564.54109144 18501990.096183777 0 0 0 0 179381031.11584473 151693794.48564529 0 151693794.48564529 334761076.99239874 0 0 0 0 693460653.90317154 807537458.77374029 0 807537458.77374029 705987542.22593975 0 0 0 0 2775021.5494504869 405676.81412628572 0 405676.81412628572 -864003.78023883223 0 0 0 0 1570478108.1503906 -390284632.27682114 0 -390284632.27682114 336186597.80856085 0 0 0 0 934492858.32063675 307764479.90882969 0 307764479.90882969 1291601169.8469615 0 0 0 0 1852798230.7710991 489871898.75105143 0 489871898.75105143 394867903.00193501 0 0 0 0 983843497.33878326 -40879570.346385479 0 -40879570.346385479 100441867.12716293 0 0 0 0 1038908428.5416183 401804547.42064142 0 401804547.42064142 413987900.58833456 0 0 0 0 -156923406.93216705 -42278522.640789032 0 -42278522.640789032 412316843.36657548 0 0 0 0 988368.52975435276 -487100.34044383839 0 -487100.34044383839 -830401.57377348654 0 0 0 0 501487274.71543884 -696832732.67656994 0 -696832732.67656994 971923839.62599754 0 0 0 0 2039694025.5034013 -687689163.24066305 0 -687689163.24066305 212516375.39033794 0 0 0 0 681719611.47575378 -311331536.57045269 0 -311331536.57045269 145314967.39195633 0 0 0 0 511348945.78477478 -446142761.63264179 0 -446142761.63264179 291447490.44740462 0 0 0 0 692021719.27479172 -300974870.25073767 0 -300974870.25073767 73318381.114768982 0 0 0 0 783765688.59923172 -261282876.44647455 0 -261282876.44647455 -107507347.20531273 0 0 0 0 680966189.39201355 -383638558.43889284 0 -383638558.43889284 68175577.701331556 0 0 0 0 579544136.32112312 -279670521.51237535 0 -279670521.51237535 5132055.2174701691 0 0 0 0 686053314.27349091 -365889024.83475208 0 -365889024.83475208 129313426.12986529 0 0 0 0 808800270.78999901 -249440124.70221794 0 -249440124.70221794 -241727004.88882065 0 0 0 0 1367863069.8147583 -196845763.75277472 0 -196845763.75277472 -102288793.38207722 0 0 0 0 937600236.18243265 -196283522.40624231 0 -196283522.40624231 -194339093.79012918 0 0 0 0 716529183.57781982 -193578504.98152709 0 -193578504.98152709 -147349965.97989994 0 0 0 0 676063950.34177971 -234776080.56084204 0 -234776080.56084204 -184681338.69065762 0 0 0 0 732082086.30557632 -335993735.05435228 0 -335993735.05435228 -238949776.58913422 0 0 0 0 748902815.17845249 -345945847.43330812 0 -345945847.43330812 -280470623.87777805 0 0 0 0 708105742.79677582 -276942487.776021 0 -276942487.776021 -374558693.90746671 0 0 0 0 765244661.64903641 -228915138.269333 0 -228915138.269333 -362629900.31923962 0 0 0 0 438825876.16342926 -72051412.77203083 0 -72051412.77203083 -357914130.4070121 0 0 0 0 -19383340.256303787 159722993.88977563 0 159722993.88977563 -213263927.86550283 0 0 0 0 1181945.1293787579 722354.84035487473 0 722354.84035487473 -1333605.3786526846 0 0 0 0 436498556.58188629 165159631.93231249 0 165159631.93231249 -822071815.17821229 0 0 0 0 2280074134.3276215 117708273.66510129 0 117708273.66510129 -518225377.85011399 0 0 0 0 190142510.6601181 -50521602.794308186 0 -50521602.794308186 -8191600.9557170868 0 0 0 0 2203991292.2374296 230084352.63733664 0 230084352.63733664 196021501.13196036 0 0 0 0 84431447.247356415 -19143264.089449406 0 -19143264.089449406 -1775895.9719352722 0 0 0 0 136158148.86922455 -144167392.48909378 0 -144167392.48909378 87304110.504694462 0 0 0 0 371235781.3533287 -217877434.94733715 0 -217877434.94733715 -12714246.726508856 0 0 0 0 718308708.83782387 -311025387.78723931 0 -311025387.78723931 -164373003.05545139 0 0 0 0 190950183.39222717 -40680864.356808186 0 -40680864.356808186 -106700019.4999609 0 0 0 0 375719602.24724388 -147011943.70770001 0 -147011943.70770001 -47879348.966441154 0 0 0 0 1751834188.1562805 -380386522.56581682 0 -380386522.56581682 37365752.43932648 0 0 0 0 1831065198.4733276 -176328458.65697509 0 -176328458.65697509 -215059939.07030693 0 0 0 0 2204430807.6200333 89234337.695763513 0 89234337.695763513 -403959090.10298151 0 0 0 0 1654829557.6735306 -94923075.981788516 0 -94923075.981788516 -216488775.25042188 0 0 0 0 1665627102.9125824 -175781636.97687167 0 -175781636.97687167 -146756411.74305615 0 0 0 0 57707415.925346375 -80314066.798386708 0 -80314066.798386708 2628725.5549945235 0 0 0 0 1522334904.1848221 -192744930.39415011 0 -192744930.39415011 -113986297.87831403 0 0 0 0 -12935941.223117828 -22554510.074229658 0 -22554510.074229658 4097631.973461628 0 0 0 0 780511.33621841297 -544017.62614800781 0 -544017.62614800781 -253052.65746771672 0 0 0 0 23519640.343948364 -14237578.893454701 0 -14237578.893454701 -4858554.8239252567 0 0 0 0 28301276.131286621 -20681399.484012663 0 -20681399.484012663 3782867.2096285522 0 0 0 0 2196085.0777351335 -1534239.330989331 0 -1534239.330989331 -671970.55602389388 0 0 0 0 50657230.805923462 -12009810.16755563 0 -12009810.16755563 -9943036.8889974356 0 0 0 0 47035556.377130508 2478597.4744886607 0 2478597.4744886607 -50868280.365004539 0 0 0 0 13914031.948485896 6089466.5769663062 0 6089466.5769663062 -732095.91745763784 0 0 0 0 10127857.369049072 12707381.295395553 0 12707381.295395553 -24571091.696984768 0 0 0 0 29392691.131896973 29412375.397956073 0 29412375.397956073 -18096269.760330796 0 0 0 0 19526167.286491394 -11950410.86774087 0 -11950410.86774087 -595625.52507042885 0 0 0 0 1834902809.4244843 -578946241.7024833 0 -578946241.7024833 -14104212.69529359 0 0 0 0 1579183768.6311855 -429826749.17292023 0 -429826749.17292023 31373357.666339666 0 0 0 0 2204266023.0711975 -418222271.9797492 0 -418222271.9797492 -184228540.94442186 0 0 0 0 2206222792.4664459 -696662138.93843591 0 -696662138.93843591 -74772760.985812828 0 0 0 0 1887622309.7544174 -465168696.59652507 0 -465168696.59652507 -152433381.05624184 0 0 0 0 1875743498.9370461 -665864994.95548761 0 -665864994.95548761 444793779.84901458 0 0 0 0 1787095181.411418 -1170000698.3027692 0 -1170000698.3027692 623166524.66434491 0 0 0 0 2991692689.134491 -611126631.47629023 0 -611126631.47629023 434533833.58343625 0 0 0 0 4403018.7399665415 -1714223.0190262161 0 -1714223.0190262161 -1647256.4079030701 0 0 0 0 973622014.83275223 -502404815.61120307 0 -502404815.61120307 305339259.78887486 0 0 0 0 73505173.321256638 152190265.50161046 0 152190265.50161046 393456673.8382107 0 0 0 0 -598124764.31731796 162504642.72733688 0 162504642.72733688 -541489379.14951372 0 0 0 0 -1070947121.0161896 230468906.42229789 0 230468906.42229789 357395356.08006948 0 0 0 0 1653406.0866206689 271234.36810776591 0 271234.36810776591 172011.03410262556 0 0 0 0 -582798458.5811615 899612438.01626325 0 899612438.01626325 952096115.52373469 0 0 0 0 2599562742.1786346 747657190.68967903 0 747657190.68967903 -414731162.08668864 0 0 0 0 2201994651.3817101 62446712.884403326 0 62446712.884403326 1279452825.2059703 0 0 0 0 2246657833.3888168 -1206587357.6425669 0 -1206587357.6425669 617954756.30106568 0 0 0 0 3724324.0970667824 142308.9741040729 0 142308.9741040729 -174635.59636704507 0 0 0 0 849844657.72050476 -323292756.49440098 0 -323292756.49440098 -1057400692.8689418 0 0 0 0 1191825269.4261551 1417438277.5626485 0 1417438277.5626485 675654888.82037055 0 0 0 0 129962595.09127808 831978315.14681149 0 831978315.14681149 753172544.43757057 0 0 0 0 201046.89380477741 2454527.0705170278 0 2454527.0705170278 1555651.0122959893 0 0 0 0 -643345763.34378433 27033161.748334289 0 27033161.748334289 299065307.7723701 0 0 0 0 -325342151.89069557 -477118135.76369727 0 -477118135.76369727 -470123914.20919561 0 0 0 0 138493628.12070847 -93465973.31083107 0 -93465973.31083107 -251120945.32223749 0 0 0 0 385307989.54244995 564394299.4387207 0 564394299.4387207 424549432.080881 0 0 0 0 -535273879.51257706 229732882.62612915 0 229732882.62612915 485548410.3806262 0 0 0 0 545617868.20475769 455386830.4063518 0 455386830.4063518 9931191.365996778 0 0 0 0 -44208272.069511414 182934717.65610528 0 182934717.65610528 201925998.26041138 0 0 0 0 444951870.82274628 394778152.3553943 0 394778152.3553943 247665577.73894885 0 0 0 0 2202397425.4552894 1291105895.6482279 0 1291105895.6482279 -123170561.28308511 0 0 0 0 1096083603.984684 963678859.43729246 0 963678859.43729246 252356100.74906266 0 0 0 0 1426370771.8947372 709604464.29395509 0 709604464.29395509 -461853237.41384047 0 0 0 0 233608536.96874619 747438891.14808083 0 747438891.14808083 313158668.88423294 0 0 0 0 466276379.10068893 127249954.28948432 0 127249954.28948432 27108546.455263615 0 0 0 0 525634688.4067688 -4397917.7048989087 0 -4397917.7048989087 -113172233.58553678 0 0 0 0 617103497.08190155 128472399.37603828 0 128472399.37603828 -87666459.048832893 0 0 0 0 620823749.79389191 124986320.54244256 0 124986320.54244256 -90344160.163704991 0 0 0 0 630658879.33986855 98911572.220172465 0 98911572.220172465 -69395051.652293235 0 0 0 0 310848499.7556839 183494906.57080132 0 183494906.57080132 12299303.72643888 0 0 0 0 547749583.11792755 73167785.613025218 0 73167785.613025218 20642565.147531033 0 0 0 0 606177911.32672119 108313873.17295456 0 108313873.17295456 -165827023.45462513 0 0 0 0 336674606.02041626 30377134.633177519 0 30377134.633177519 12011399.3525998 0 0 0 0 113044572.46591187 -30954803.889651299 0 -30954803.889651299 -42558173.474723339 0 0 0 0 387048059.85938263 107647995.61863756 0 107647995.61863756 16546990.800722361 0 0 0 0 454548550.5579071 -58516344.013011098 0 -58516344.013011098 -335760955.82289672 0 0 0 0 488527127.60513306 502023946.18458962 0 502023946.18458962 -300239449.51646066 0 0 0 0 960375.26816812344 -735483.85576018132 0 -735483.85576018132 -130310.74790029787 0 0 0 0 897981482.53986549 274536499.92051238 0 274536499.92051238 -4306133.8484842777 0 0 0 0 666485816.09503937 -11056649.706827819 0 -11056649.706827819 65015885.616110086 0 0 0 0 265880395.17298794 -169569617.13584459 0 -169569617.13584459 90854450.840634346 0 0 0 0 489031706.41900635 472146287.65378475 0 472146287.65378475 275691531.70110911 0 0 0 0 485794300.50954819 415753847.05832356 0 415753847.05832356 374869758.5476563 0 0 0 0 210523466.44857788 -99595605.994903803 0 -99595605.994903803 125899846.35593283 0 0 0 0 487716300.58133316 227023076.11037886 0 227023076.11037886 -884439108.15182281 0 0 0 0 -763489533.48254776 545540984.69311452 0 545540984.69311452 325169704.71298492 0 0 0 0 896795.57631561533 1720127.363923328 0 1720127.363923328 1019117.1376961573 0 0 0 0 1013970790.6099739 512415948.02801669 0 512415948.02801669 -422965837.6421237 0 0 0 0 232594689.14744568 990816583.40679312 0 990816583.40679312 258967451.53881907 0 0 0 0 199951475.87369919 868428866.17415762 0 868428866.17415762 -703831010.79894626 0 0 0 0 12391398.610794708 5818039.2243445199 0 5818039.2243445199 147451.92643652274 0 0 0 0 24294954.457229614 984409.90197938681 0 984409.90197938681 -17491669.387516499 0 0 0 0 -310764073.28888702 619375628.42391396 0 619375628.42391396 -385025423.39792669 0 0 0 0 153436252.08694458 -129804902.83682883 0 -129804902.83682883 -820018064.41696167 0 0 0 0 149402093.87902546 -232290767.85423651 0 -232290767.85423651 -249505514.47265577 0 0 0 0 196794318.34754848 141253704.56765276 0 141253704.56765276 -246039136.05505943 0 0 0 0 -237811570.46115112 -147823157.57979584 0 -147823157.57979584 -407125354.73848653 0 0 0 0 61643449.643613815 -82101058.866364151 0 -82101058.866364151 -445689988.66435337 0 0 0 0 -39265013.638454437 23983645.321035624 0 23983645.321035624 -178354266.33717871 0 0 0 0 -5164604.2505950928 32457902.002127051 0 32457902.002127051 -389098207.41828537 0 0 0 0 143774717.53881454 175651378.10375616 0 175651378.10375616 -434259406.56695437 0 0 0 0 -1970232.7450027466 -108646483.84658241 0 -108646483.84658241 -156322291.69952083 0 0 0 0 121814669.82701898 -39714717.038159192 0 -39714717.038159192 -120459737.15003347 0 0 0 0 -2453598.9655456543 -98309269.931833506 0 -98309269.931833506 -45451277.765913606 0 0 0 0 -23195835.275554657 -77480554.26896134 0 -77480554.26896134 52397669.148064137 0 0 0 0 52301614.981811523 -43587832.731303692 0 -43587832.731303692 9104297.5061914921 0 0 0 0 9157101.9680862427 -125040229.74128318 0 -125040229.74128318 -112892482.26250726 0 0 0 0 -16647124.787124634 -34229556.189737797 0 -34229556.189737797 44895973.920423746 0 0 0 0 -2585706.9527816772 -3282234.4418208599 0 -3282234.4418208599 24521509.768592596 0 0 0 0 -5980569.1996116638 6057224.8750092983 0 6057224.8750092983 159599974.67247874 0 0 0 0 9763718.4082832336 -18776813.083579421 0 -18776813.083579421 11742359.321968555 0 0 0 0 -3921190.6942901611 -22350223.360581636 0 -22350223.360581636 60369230.388527513 0 0 0 0 -4229543.6897287369 -28421852.766373158 0 -28421852.766373158 5130989.8228371143 0 0 0 0 3858578.0344696045 -4194742.796029985 0 -4194742.796029985 8449546.3927052021 0 0 0 0 5895990.3368120193 -8491581.7409431636 0 -8491581.7409431636 4162742.3808085918 0 0 0 0 2406235.1245126352 -3620827.0839528423 0 -3620827.0839528423 -1611960.8743213592 0 0 0 0 -126235764.99971771 -15024571.278764963 0 -15024571.278764963 -7068704.7718955278 0 0 0 0 275835349.89290237 35246257.920387328 0 35246257.920387328 1508663.581487745 0 0 0 0 2898666.7315950394 -6450270.996211648 0 -6450270.996211648 12363728.862823486 0 0 0 0 2904685.4983075298 -2373416.6511765542 0 -2373416.6511765542 -720089.03134201164 0 0 0 0 4480638.6074104309 -10764553.390597731 0 -10764553.390597731 17000010.803785563 0 0 0 0 285053210.06246185 4124648.9545580745 0 4124648.9545580745 -1972360.9156768322 0 0 0 0 -226967430.60473251 -86682050.253437757 0 -86682050.253437757 72362018.859714031 0 0 0 0 -207541059.11641312 -269676252.66636395 0 -269676252.66636395 491962894.80225086 0 0 0 0 -276473835.19530296 -90089588.706086874 0 -90089588.706086874 119576320.52580547 0 0 0 0 -112934153.0716095 -120857030.76848984 0 -120857030.76848984 28097969.097742558 0 0 0 0 7313291.7730541229 -5703278.5045752153 0 -5703278.5045752153 -492957.04830551147 0 0 0 0 -508656630.42652428 -50307014.534640893 0 -50307014.534640893 753463058.90255547 0 0 0 0 2541279.4471957311 -3514567.0331013585 0 -3514567.0331013585 -1392649.5558173796 0 0 0 0 -495350753.10680389 488691469.52427673 0 488691469.52427673 55148819.452800862 0 0 0 0 -38382616.157466888 93893552.611298919 0 93893552.611298919 46517240.792917967 0 0 0 0 381367.25434412062 -1447680.878824437 0 -1447680.878824437 145950.53376678773 0 0 0 0 17307457.142059326 -9100457.7380535603 0 -9100457.7380535603 -606408.20048358291 0 0 0 0 24172887.502010345 -9258064.1487852335 0 -9258064.1487852335 -15036834.675784111 0 0 0 0 118099167.61782134 47075993.514843382 0 47075993.514843382 -6582229.3873825073 0 0 0 0 -74738066.901248932 -192314069.37601343 0 -192314069.37601343 -299878565.13171184 0 0 0 0 -86407.892255462706 -455281.73281474877 0 -455281.73281474877 215182.18200333067 0 0 0 0 35858631.966957092 109106671.69144309 0 109106671.69144309 -172712704.20545101 0 0 0 0 -74458463.245479584 74993766.383138835 0 74993766.383138835 -380374627.02194893 0 0 0 0 -8717374.3376374245 -120154469.28468187 0 -120154469.28468187 -172573354.45917606 0 0 0 0 -36491853.843942642 62742966.537050128 0 62742966.537050128 110201608.56889725 0 0 0 0 77815719.135541916 37690881.183109522 0 37690881.183109522 -28854350.146718025 0 0 0 0 -31555168.553404808 -1052609.1842054129 0 -1052609.1842054129 -40471672.162384033 0 0 0 0 31019416.040048599 97464343.232643127 0 97464343.232643127 -88341662.182225227 0 0 0 0 16265650.753550049 838839.03033432737 0 838839.03033432737 -3136112.20678426 0 0 0 0 -3147356.5304946899 42030491.34760493 0 42030491.34760493 -32974211.342582941 0 0 0 0 -1744639.3865180463 609814.38060565537 0 609814.38060565537 -53077.274868093242 0 0 0 0 19443812.733329773 -28637467.045176506 0 -28637467.045176506 -33181012.006203532 0 0 0 0 118030950.46920395 -118749611.51753578 0 -118749611.51753578 -799323010.27274191 0 0 0 0 -1992246.6174733341 7312828.3849588381 0 7312828.3849588381 -1194795.3717684501 0 0 0 0 78814755.145519257 -23046532.258484483 0 -23046532.258484483 -660646678.56672108 0 0 0 0 -19188433.246099949 64760469.928754121 0 64760469.928754121 -154860.77531242371 0 0 0 0 18281807.210717924 2929839.548796854 0 2929839.548796854 -2728030.595241047 0 0 0 0 1200155.9585882872 4515780.6358890152 0 4515780.6358890152 -932808.41756534681 0 0 0 0 103915389.30165482 228844781.93677688 0 228844781.93677688 -898213503.99318016 0 0 0 0 36058129.031890869 -11973000.52164495 0 -11973000.52164495 -69087044.150110692 0 0 0 0 -123143709.12793732 161249562.97738087 0 161249562.97738087 -453146601.53916347 0 0 0 0 37967708.43813324 -7772738.0032095909 0 -7772738.0032095909 -30761973.512929738 0 0 0 0 6451780.1327323914 14196569.391762286 0 14196569.391762286 -48907085.9631567 0 0 0 0 62952139.073097229 12529214.84583199 0 12529214.84583199 -50005011.533261389 0 0 0 0 31718866.788375854 38927350.305507898 0 38927350.305507898 -66831868.985409617 0 0 0 0 11480486.646377563 8492308.2680262327 0 8492308.2680262327 -49599571.995435357 0 0 0 0 27645141.134109497 37788645.004278123 0 37788645.004278123 -11669916.331372499 0 0 0 0 24766196.276023865 17143673.353395671 0 17143673.353395671 -8743964.4193153456 0 0 0 0 5368810.9713897705 37870529.800680041 0 37870529.800680041 15992414.521310329 0 0 0 0 128170831.34748077 6232568.924187988 0 6232568.924187988 -28590290.299276695 0 0 0 0 57030566.300628662 62034353.138253674 0 62034353.138253674 53671474.249896884 0 0 0 0 3613538.8433456421 -2429494.3153722957 0 -2429494.3153722957 95282599.203950733 0 0 0 0 4299225.9170227051 -6855594.560707055 0 -6855594.560707055 22858697.280406147 0 0 0 0 -4329140.4417495728 10423419.370663434 0 10423419.370663434 4321729.0589084029 0 0 0 0 -8546822.0979385376 9285470.1085401177 0 9285470.1085401177 42030270.333598316 0 0 0 0 -8077297.6335105896 8467235.1700973809 0 8467235.1700973809 12931709.908523709 0 0 0 0 -6934268.7637701035 12219458.931454495 0 12219458.931454495 5058929.1697177887 0 0 0 0 -4529657.7846918106 17916810.631992571 0 17916810.631992571 -9286660.833507061 0 0 0 0 8814299.2577667236 20634779.050200164 0 20634779.050200164 -26134172.106319398 0 0 0 0 11114547.887717582 -3451532.0850200914 0 -3451532.0850200914 -3238804.2164415438 0 0 0 0 -34899463.883560181 101978076.22033215 0 101978076.22033215 -152884387.60856056 0 0 0 0 -55604799.371902466 91502463.622704506 0 91502463.622704506 -142661170.30995607 0 0 0 0 -36258373.766311646 99369721.785791397 0 99369721.785791397 -140601384.3607254 0 0 0 0 -23030193.295001984 52525698.413856983 0 52525698.413856983 -133684999.00992751 0 0 0 0 13681937.121032655 -1160876.2792665334 0 -1160876.2792665334 -3316324.2030877508 0 0 0 0 -1128059.5441970825 6573576.3955557495 0 6573576.3955557495 -497976.68615204096 0 0 0 0 1912110.7911186218 -13467.191677153111 0 -13467.191677153111 6030292.3402569294 0 0 0 0 530042.97247314453 -20704.228114902973 0 -20704.228114902973 7066228.5339757651 0 0 0 0 1784564.7817764282 -456789.23205092549 0 -456789.23205092549 5025260.9018087387 0 0 0 0 -62380.917652130127 -2176796.6888723746 0 -2176796.6888723746 5795477.5112857819 0 0 0 0 4595529.9739379883 -1457933.3857799172 0 -1457933.3857799172 5073316.2674171925 0 0 0 0 10469280.862426758 -4470738.5962588787 0 -4470738.5962588787 2906748.9792466164 0 0 0 0 2804348.9080505371 -2888925.4375067949 0 -2888925.4375067949 5815264.0215631127 0 0 0 0 4093865.3326416016 -5892241.2720056772 0 -5892241.2720056772 3987687.8271914721 0 0 0 0 3014979.7669057846 -5462084.4002707116 0 -5462084.4002707116 3855516.4288010597 0 0 0 0 27916861.667419434 58500224.81219101 0 58500224.81219101 -258728761.33678341 0 0 0 0 6795718.8801116943 -7280364.5165294707 0 -7280364.5165294707 2979213.2604004145 0 0 0 0 3044762.4511413574 -7754799.0926249623 0 -7754799.0926249623 2967863.4594486356 0 0 0 0 6855255.53293024 -5329834.7544428045 0 -5329834.7544428045 -3335239.9479734506 0 0 0 0 8466363.6090240479 -8670482.376691103 0 -8670482.376691103 2148586.7728322744 0 0 0 0 9040788.1058349609 -9000010.7957862616 0 -9000010.7957862616 1851070.6090812683 0 0 0 0 888804.14630880952 -973145.63434957527 0 -973145.63434957527 661251.31998153229 0 0 0 0 34523341.874633789 88882547.089122772 0 88882547.089122772 -253208940.35690308 0 0 0 0 9248488.6530761719 -4335817.3916459084 0 -4335817.3916459084 3247598.487917304 0 0 0 0 4523746.1569213867 -4893491.9738357067 0 -4893491.9738357067 3185220.3509252071 0 0 0 0 6991243.1888427734 -7222599.5829851627 0 -7222599.5829851627 2782066.933786869 0 0 0 0 7796700.5291137695 -7822262.6661190987 0 -7822262.6661190987 2903167.9620634317 0 0 0 0 5682080.289642334 -8130798.2936115265 0 -8130798.2936115265 2873115.4387496114 0 0 0 0 6543400.2647094727 -8583775.986597538 0 -8583775.986597538 2854760.6944332123 0 0 0 0 6294216.9596557617 -9243801.7030756772 0 -9243801.7030756772 2663800.6818122864 0 0 0 0 6481017.3955993652 -9401536.6724202633 0 -9401536.6724202633 2719365.4020185545 0 0 0 0 6641488.3864135742 -9209510.4251631498 0 -9209510.4251631498 2598723.851390481 0 0 0 0 6948784.7255249023 -9547725.5103855133 0 -9547725.5103855133 2708082.3007012904 0 0 0 0 8196784.3296127319 -10082447.695134431 0 -10082447.695134431 2809161.9465389252 0 0 0 0 6600866.7409057617 -9158780.9313077927 0 -9158780.9313077927 2635033.410173893 0 0 0 0 7010776.2835998535 -9084048.900252521 0 -9084048.900252521 2625118.834644556 0 0 0 0 46148246.970458984 77785732.992736816 0 77785732.992736816 -248163257.94031656 0 0 0 0 46438961.619018555 85060256.77268219 0 85060256.77268219 -239701624.23119736 0 0 0 0 41036275.239868164 73817427.126102448 0 73817427.126102448 -221298875.09525299 0 0 0 0 39618829.597290039 73691790.848587036 0 73691790.848587036 -228803994.1680603 0 0 0 0 42286321.668273926 70775624.927581787 0 70775624.927581787 -242646706.46018028 0 0 0 0 26929167.38671875 55816188.14717865 0 55816188.14717865 -248523784.76282871 0 0 0 0 20074551.950714111 60057868.037452698 0 60057868.037452698 -233757908.84322739 0 0 0 0 -7336572.901550293 38021106.714828491 0 38021106.714828491 -248963672.97585678 0 0 0 0 -24896245.333892822 33020038.357849121 0 33020038.357849121 -236985251.08560944 0 0 0 0 10948361.742530823 -6036449.0828312039 0 -6036449.0828312039 3074492.3426656723 0 0 0 0 8894408.0494995117 -7995378.4119496346 0 -7995378.4119496346 2988113.413793087 0 0 0 0 23250905.174041748 -28879940.049893498 0 -28879940.049893498 18520929.057781935 0 0 0 0 -41771227.576560974 11096466.136539459 0 11096466.136539459 -163652409.10378265 0 0 0 0 -19738851.957828522 4608766.7632192522 0 4608766.7632192522 30390678.440683603 0 0 0 0 -24243451.638366699 -11390355.157417655 0 -11390355.157417655 60667240.219564795 0 0 0 0 -52117421.130401611 90857966.313259125 0 90857966.313259125 -200372095.02224731 0 0 0 0 -73967614.861053467 54819635.765226364 0 54819635.765226364 -172620696.10926819 0 0 0 0 10697502.393432617 -9037456.1296666861 0 -9037456.1296666861 1706446.718231082 0 0 0 0 14922206.096984863 -8575653.5218883753 0 -8575653.5218883753 1756272.8786809444 0 0 0 0 8417528.172088623 -9900459.4032441378 0 -9900459.4032441378 2387285.4466176033 0 0 0 0 -11547781.701660156 102997159.07387543 0 102997159.07387543 -218921143.06690979 0 0 0 0 42137636.862592816 73845404.410637274 0 73845404.410637274 -217453545.17163849 0 0 0 0 42238375.829040527 85311207.537570953 0 85311207.537570953 -235222060.06861877 0 0 0 0 14261395.640228271 71540716.738689423 0 71540716.738689423 -209061646.42154312 0 0 0 0 43654411.813201904 76175596.553970337 0 76175596.553970337 -222291186.70961761 0 0 0 0 11714262.570861816 97149883.831859589 0 97149883.831859589 -226399930.97692108 0 0 0 0 3559743.9327545166 67711430.310611725 0 67711430.310611725 -192787140.12539673 0 0 0 0 -25009.418472290039 32529867.539829254 0 32529867.539829254 -174831050.50950623 0 0 0 0 -18491527.554443359 58345131.727554321 0 58345131.727554321 -192214243.4666214 0 0 0 0 36282008.185119629 40672663.983230591 0 40672663.983230591 -191875189.40095353 0 0 0 0 18954047.821250916 26470847.647246361 0 26470847.647246361 -190356955.54269409 0 0 0 0 50398948.207794189 2759295.7733726501 0 2759295.7733726501 -181418656.99143553 0 0 0 0 30839705.522842407 -17166753.784564972 0 -17166753.784564972 -167531526.13820648 0 0 0 0 -15452283.113769531 18237184.732933044 0 18237184.732933044 -182409100.48549652 0 0 0 0 88227757.89541626 14897316.489533424 0 14897316.489533424 -192219699.09643745 0 0 0 0 79135808.230682373 14601702.835920334 0 14601702.835920334 -186710112.38399887 0 0 0 0 70456419.055297852 10112844.033359528 0 10112844.033359528 -186732437.6611414 0 0 0 0 43352214.403381348 47644668.444128036 0 47644668.444128036 -200495334.45495605 0 0 0 0 92612978.114028931 28969014.399988174 0 28969014.399988174 -193620813.67188072 0 0 0 0 65161303.849052429 60499237.647090912 0 60499237.647090912 -186159135.80788422 0 0 0 0 44254897.067047119 74361247.908298492 0 74361247.908298492 -217381106.36722374 0 0 0 0 51018221.211639404 51797750.304443359 0 51797750.304443359 -199019509.50995445 0 0 0 0 44701986.299560547 63707412.065315247 0 63707412.065315247 -201244297.36499786 0 0 0 0 48978817.778717041 75248263.834329128 0 75248263.834329128 -221411545.72925568 0 0 0 0 55747912.970157623 76751948.428447247 0 76751948.428447247 -195493984.68882751 0 0 0 0 65003487.73789978 55443284.590042114 0 55443284.590042114 -203035336.99220133 0 0 0 0 76694877.4896698 91008610.097117424 0 91008610.097117424 -161962362.57775497 0 0 0 0 103921319.7878418 46519601.830370903 0 46519601.830370903 -183370005.23284817 0 0 0 0 145525137.62164307 11043279.687689781 0 11043279.687689781 -188892204.48562241 0 0 0 0 96922553.326423645 42984853.427476883 0 42984853.427476883 -175863093.37768555 0 0 0 0 -64526731.417999268 63142029.952569962 0 63142029.952569962 -169095073.70491791 0 0 0 0 -6235602.0590515137 72581044.995029449 0 72581044.995029449 -180678836.98261261 0 0 0 0 -27597679.602966309 66200004.797058105 0 66200004.797058105 -165178759.55661774 0 0 0 0 -36698153.12677002 89227527.104167938 0 89227527.104167938 -145111370.80106735 0 0 0 0 -45953887.403823853 35747734.73102951 0 35747734.73102951 -209295373.04795837 0 0 0 0 -31679451.215194702 53762487.322256088 0 53762487.322256088 -190057332.60395813 0 0 0 0 -5844708.0408630371 57215073.586391449 0 57215073.586391449 -209978347.16929626 0 0 0 0 943472.02390289307 47526889.739989281 0 47526889.739989281 -224842114.45347595 0 0 0 0 20136915.017292023 57014256.031681061 0 57014256.031681061 -222748918.27638245 0 0 0 0 16107866.979156494 66010629.678302765 0 66010629.678302765 -203906042.65831757 0 0 0 0 35789882.300750732 64398388.611688614 0 64398388.611688614 -203119907.69664764 0 0 0 0 37452793.562164307 71199800.013149261 0 71199800.013149261 -212122752.28007507 0 0 0 0 9054877.9240112305 67653086.529867172 0 67653086.529867172 -185755515.98686981 0 0 0 0 35215174.527038574 76263112.372116089 0 76263112.372116089 -183431446.87611294 0 0 0 0 1829827.3179702759 56853067.43781662 0 56853067.43781662 -201886767.5231781 0 0 0 0 -4818835.7360839844 83424266.439872742 0 83424266.439872742 -152675278.81639481 0 0 0 0 62717412.339172363 75732952.825746536 0 75732952.825746536 -174396294.22657013 0 0 0 0 30324971.692718506 70080397.34469223 0 70080397.34469223 -175352994.58981133 0 0 0 0 22205492.655502319 91717244.918348312 0 91717244.918348312 -151694693.61006165 0 0 0 0 25288249.279777527 96127604.745173454 0 96127604.745173454 -148600190.80768967 0 0 0 0 -8456716.3419036865 96608978.842851639 0 96608978.842851639 -132715268.48369217 0 0 0 0 -37053078.335350037 95195954.343881607 0 95195954.343881607 -125743450.49699211 0 0 0 0 -7163319.1915893555 79434237.116477966 0 79434237.116477966 -159424319.0026741 0 0 0 0 -16540437.840911865 101004578.93644333 0 101004578.93644333 -142533626.83792448 0 0 0 0 -56285413.524345398 115373267.46008301 0 115373267.46008301 -97969187.490907669 0 0 0 0 -13037846.503740311 118244217.58978415 0 118244217.58978415 -103921186.81364822 0 0 0 0 24915086.085006714 118446137.87959671 0 118446137.87959671 -125291900.38989449 0 0 0 0 66345344.760543823 94471785.324134827 0 94471785.324134827 -151533142.45713806 0 0 0 0 39789417.56930542 113862069.22163868 0 113862069.22163868 -124227303.45755816 0 0 0 0 56151508.07219696 126172846.27743626 0 126172846.27743626 -132141086.01756477 0 0 0 0 152016979.70359802 124585215.9647913 0 124585215.9647913 -137287888.43167424 0 0 0 0 -2805371.018699646 154606166.60607386 0 154606166.60607386 -89239912.889051437 0 0 0 0 -21308067.639785767 150472521.16377926 0 150472521.16377926 -88888674.494831562 0 0 0 0 151117286.2443428 -7587783.1220090389 0 -7587783.1220090389 -165814779.94150352 0 0 0 0 187190489.74452209 52420872.851675987 0 52420872.851675987 -176995641.58716965 0 0 0 0 133822973.90866089 96953477.444765091 0 96953477.444765091 -154824140.12799835 0 0 0 0 115117190.09968567 69493624.283642769 0 69493624.283642769 -145819372.3204565 0 0 0 0 59046938.919540405 82697981.498157501 0 82697981.498157501 -152042264.2432251 0 0 0 0 220102075.98849487 76216623.708528519 0 76216623.708528519 -155425632.90481281 0 0 0 0 134104341.6416626 100148170.63274622 0 100148170.63274622 -136739948.7853632 0 0 0 0 192186828.67873383 36159587.121587515 0 36159587.121587515 -126983166.81552601 0 0 0 0 416183990.01155853 11259719.530587196 0 11259719.530587196 -154009527.74137592 0 0 0 0 267551509.26566601 -14111609.282334447 0 -14111609.282334447 -115708217.16100311 0 0 0 0 285594934.85844421 45896192.837761402 0 45896192.837761402 -130968203.67441177 0 0 0 0 253048855.6212616 103237006.72551271 0 103237006.72551271 -166392534.11488152 0 0 0 0 291242149.92946625 54191575.981009007 0 54191575.981009007 -120638303.67983532 0 0 0 0 -7977203.6830291748 187124629.93542051 0 187124629.93542051 -112061573.97183132 0 0 0 0 -9239824.1945419312 191246715.66981709 0 191246715.66981709 -102350386.95803547 0 0 0 0 56279576.76084137 192675395.23108673 0 192675395.23108673 -113868226.876894 0 0 0 0 56962919.010047913 173163463.39312732 0 173163463.39312732 -168063865.22396573 0 0 0 0 218207609.88130951 225810532.26704013 0 225810532.26704013 -206458658.36706114 0 0 0 0 -178507375.4786377 269089579.11975813 0 269089579.11975813 -135919926.31787586 0 0 0 0 -137954842.77058411 183136002.5577631 0 183136002.5577631 -277012452.6515758 0 0 0 0 -119829718.01777267 88781033.505053759 0 88781033.505053759 -395730.27690505981 0 0 0 0 -234119847.45742416 206078111.51521921 0 206078111.51521921 -19744986.688692093 0 0 0 0 -74944892.94260025 200207735.29844284 0 200207735.29844284 -90291035.582380295 0 0 0 0 -66712626.720378876 66748734.561843187 0 66748734.561843187 -45860596.019716263 0 0 0 0 -147627525.44842911 138645402.77282667 0 138645402.77282667 -47909349.960014343 0 0 0 0 -63439288.276679993 94932096.658943057 0 94932096.658943057 -91303045.409263611 0 0 0 0 -58280994.27935791 118604672.29452133 0 118604672.29452133 -43991248.484931707 0 0 0 0 -19586162.694206238 66932516.318758488 0 66932516.318758488 -108164559.5814023 0 0 0 0 -116272863.94000244 73078714.780006886 0 73078714.780006886 -45297941.523585796 0 0 0 0 -67055293.873374939 -9818146.5058078766 0 -9818146.5058078766 94319175.877030373 0 0 0 0 -175519542.95103455 91899026.577815533 0 91899026.577815533 196396413.13543761 0 0 0 0 -737802.783143159 -688156.90934186801 0 -688156.90934186801 132433.03061297128 0 0 0 0 115397029.0169754 -27457837.879875273 0 -27457837.879875273 -894017314.26039243 0 0 0 0 -82335485.318961263 -172796246.51880395 0 -172796246.51880395 -505643080.60565352 0 0 0 0 23739536.44304657 -203185891.49014044 0 -203185891.49014044 -324348489.45096129 0 0 0 0 254894.7642288208 171452443.65682054 0 171452443.65682054 -186694358.95014691 0 0 0 0 -224741524.21901703 339581540.14962435 0 339581540.14962435 -377234885.78906918 0 0 0 0 -530360620.00914001 54183481.122065559 0 54183481.122065559 -264835707.58736748 0 0 0 0 -512451701.90644836 59977565.023757286 0 59977565.023757286 -371353819.01148748 0 0 0 0 366003.8726131916 -957733.46902599744 0 -957733.46902599744 -803345.15684183978 0 0 0 0 -671296929.30090332 -101366694.0880059 0 -101366694.0880059 36367916.228167772 0 0 0 0 -98742380.359016418 -76184796.26778543 0 -76184796.26778543 -588988668.22353721 0 0 0 0 -327939402.6503067 101798046.15536213 0 101798046.15536213 115794906.03068781 0 0 0 0 -626596399.05696964 342877559.40773505 0 342877559.40773505 -63556832.751001596 0 0 0 0 -288019319.15628815 98686891.598481655 0 98686891.598481655 -3310872.0292663574 0 0 0 0 -409900382.0845871 34485123.720050693 0 34485123.720050693 206056185.43360949 0 0 0 0 -112070726.05263519 -72549441.810366154 0 -72549441.810366154 125289248.7987926 0 0 0 0 -168905984.97340393 2652058.3861997128 0 2652058.3861997128 -1771956.8203759193 0 0 0 0 -49741037.128964186 -93439212.438344151 0 -93439212.438344151 76699777.687719345 0 0 0 0 783966.62850916386 -2614348.0936691854 0 -2614348.0936691854 -1307115.902812805 0 0 0 0 -314324615.80665588 -92070220.326019764 0 -92070220.326019764 8428588.6825951785 0 0 0 0 1744571.129170455 -4599054.4068766991 0 -4599054.4068766991 3540326.6177399973 0 0 0 0 1713435038.5447693 -1098880872.6443295 0 -1098880872.6443295 193658728.80241966 0 0 0 0 -314465144.44326782 -31156566.072148561 0 -31156566.072148561 137629290.07007647 0 0 0 0 -148769207.75527954 -125354943.77748287 0 -125354943.77748287 172712864.72214746 0 0 0 0 378233.30510719121 -2025948.3856311217 0 -2025948.3856311217 2186609.2667756365 0 0 0 0 20337964.179916382 -61844748.005414486 0 -61844748.005414486 -169493719.9233079 0 0 0 0 -1102972496.7826614 348860483.97364008 0 348860483.97364008 -403688933.14342785 0 0 0 0 1137168.2718783468 -1978813.5758116841 0 -1978813.5758116841 3059512.4979549851 0 0 0 0 1547972756.5722618 143659790.10070848 0 143659790.10070848 -511449945.55590391 0 0 0 0 1552654143.1406555 -521158197.75001979 0 -521158197.75001979 -59616043.864463806 0 0 0 0 1237068257.6546631 -324821104.55435085 0 -324821104.55435085 17238395.314835072 0 0 0 0 750518043.18421936 -752347030.10861516 0 -752347030.10861516 681919277.52598381 0 0 0 0 649952592.29949188 -117502802.59046936 0 -117502802.59046936 11886021.93625617 0 0 0 0 740127086.22851562 -388434875.61505675 0 -388434875.61505675 -44242751.931239367 0 0 0 0 742318815.85218096 -141740948.08393312 0 -141740948.08393312 -171789970.17744541 0 0 0 0 340684262.35141373 -428156515.80203658 0 -428156515.80203658 86667478.640771151 0 0 0 0 348257404.99290466 -439214785.71263647 0 -439214785.71263647 -195038653.91829348 0 0 0 0 330601770.31299019 -483867765.29450017 0 -483867765.29450017 227929582.07698059 0 0 0 0 582827636.77306366 -378051891.70543313 0 -378051891.70543313 -25346367.576996326 0 0 0 0 268950396.96159363 -289185189.36049891 0 -289185189.36049891 33420753.810127735 0 0 0 0 -46830720.752006531 -39808915.645900488 0 -39808915.645900488 133105024.58184242 0 0 0 0 76468815.607631683 -253668631.19108784 0 -253668631.19108784 342126795.53155279 0 0 0 0 270792698.84169769 -210889151.28965402 0 -210889151.28965402 235962848.32503223 0 0 0 0 1044834183.7874565 -785763558.50736594 0 -785763558.50736594 333142440.40269613 0 0 0 0 332887331.01750183 -449126698.57887816 0 -449126698.57887816 1019269098.6760495 0 0 0 0 1413688197.021347 -352496404.0464927 0 -352496404.0464927 -244979649.63103151 0 0 0 0 1382405198.6812401 -83563752.929581612 0 -83563752.929581612 16905599.512219429 0 0 0 0 597235588.11711121 250376249.65308619 0 250376249.65308619 636039707.11318874 0 0 0 0 -126695263.12103271 -131743027.97428513 0 -131743027.97428513 412868255.07098722 0 0 0 0 292140274.2698822 -115978134.57428521 0 -115978134.57428521 216769013.02886987 0 0 0 0 -79710407.017089844 -150055746.91966534 0 -150055746.91966534 -17597893.465328574 0 0 0 0 168667780.15486908 68201787.036507726 0 68201787.036507726 162552595.88662338 0 0 0 0 34068941.949127197 182869556.89006037 0 182869556.89006037 -109275211.7911393 0 0 0 0 240771217.96760559 -24871921.648192003 0 -24871921.648192003 -190141986.42738783 0 0 0 0 592162839.45153809 222921468.51524192 0 222921468.51524192 -22430546.076670498 0 0 0 0 355111776.47919464 204113080.97904932 0 204113080.97904932 -257495847.15933859 0 0 0 0 58774365.011497498 166367958.18737775 0 166367958.18737775 -333360122.22891557 0 0 0 0 551564748.36938477 -79254405.615702868 0 -79254405.615702868 -116698720.77320886 0 0 0 0 672048486.51437092 -225838778.19457 0 -225838778.19457 -10543964.024783492 0 0 0 0 478649172.75515556 -103568228.79837322 0 -103568228.79837322 -111762259.02125645 0 0 0 0 686313333.94115448 -360010761.93699944 0 -360010761.93699944 28197018.993202209 0 0 0 0 537853512.4960556 -407537311.40568799 0 -407537311.40568799 211863891.88422489 0 0 0 0 499996686.77811432 -323044523.36964798 0 -323044523.36964798 138737949.98552799 0 0 0 0 201076120.23474503 -226900575.65981483 0 -226900575.65981483 281445282.28498709 0 0 0 0 -264433006.19868851 -138344732.40377277 0 -138344732.40377277 -47111673.404182911 0 0 0 0 3565285.8928658292 -784910.47411502898 0 -784910.47411502898 -1275232.8955811968 0 0 0 0 547740308.76558495 -586271593.49599516 0 -586271593.49599516 625431050.04919577 0 0 0 0 733121457.64312935 312626113.77314609 0 312626113.77314609 128179491.97195387 0 0 0 0 2639080.1834960133 -2506281.6106579332 0 -2506281.6106579332 -99881.553803522722 0 0 0 0 6347765.8826578939 -3394078.9798302371 0 -3394078.9798302371 -2412444.6149049997 0 0 0 0 4072942.8747558594 -3348206.0196605623 0 -3348206.0196605623 -4646049.1554062366 0 0 0 0 -3081183.2907943726 -3651101.505459249 0 -3651101.505459249 4564400.064466387 0 0 0 0 -388979.16191192716 -24031.955754254013 0 -24031.955754254013 -582712.74246819294 0 0 0 0 642512159.78104603 73867649.740486354 0 73867649.740486354 7973872.1876940727 0 0 0 0 5972697.1904889345 -5111982.5587176345 0 -5111982.5587176345 -9918434.8510504961 0 0 0 0 8405614.8169148341 -5434002.3249979969 0 -5434002.3249979969 -2304610.49095339 0 0 0 0 5870079.3467254639 -2942316.8956295252 0 -2942316.8956295252 -5012067.7591184378 0 0 0 0 4420580.6596832275 -75502080.350268602 0 -75502080.350268602 -56720845.513687134 0 0 0 0 5222666.9656105042 -4015065.0418710113 0 -4015065.0418710113 -6061498.840772748 0 0 0 0 5014940.7525478527 -6327938.4878159156 0 -6327938.4878159156 -294794.17465675774 0 0 0 0 52262326.632904053 -16774171.761957884 0 -16774171.761957884 -134085067.69823122 0 0 0 0 12474678.505172729 -81254353.15857482 0 -81254353.15857482 -217632459.12720013 0 0 0 0 300392411.42276764 -111690679.50676528 0 -111690679.50676528 -216005963.92323321 0 0 0 0 138147171.78527069 45850359.064537324 0 45850359.064537324 -159609362.51367748 0 0 0 0 5867097.7033309937 -286092326.32680154 0 -286092326.32680154 -132230035.24973011 0 0 0 0 469615572.23141479 -310125730.44976604 0 -310125730.44976604 -132345805.96792227 0 0 0 0 602255551.01437378 154453973.08952951 0 154453973.08952951 -135130591.59456825 0 0 0 0 716102079.88339233 -610666487.19867039 0 -610666487.19867039 547206266.22682977 0 0 0 0 1826981218.9603157 249363482.78102446 0 249363482.78102446 -83409630.265298843 0 0 0 0 198538.0939858146 -887705.5261416845 0 -887705.5261416845 2633139.8170716492 0 0 0 0 1634647511.4527092 -409376262.97489291 0 -409376262.97489291 -17098510.060752869 0 0 0 0 874030429.0879364 206183545.83344007 0 206183545.83344007 88828505.082914829 0 0 0 0 725648800.10309601 -291695284.70090127 0 -291695284.70090127 97826735.991636753 0 0 0 0 1094726155.6100311 -169713269.83221364 0 -169713269.83221364 -108681804.75213861 0 0 0 0 -396998032.27245712 -132400328.66779923 0 -132400328.66779923 192206796.43915844 0 0 0 0 -247812176.70001221 -127242404.76022387 0 -127242404.76022387 -64522641.337461472 0 0 0 0 1510130.6903527193 677729.70081640407 0 677729.70081640407 -768398.79501355696 0 0 0 0 -1011198745.0967712 -390897636.59034634 0 -390897636.59034634 539831429.07113791 0 0 0 0 98637417.47492981 -439148480.51326466 0 -439148480.51326466 232916843.37752533 0 0 0 0 784394705.83815575 -566697385.46195197 0 -566697385.46195197 85165770.146508694 0 0 0 0 356730591.48648071 -174296949.10674858 0 -174296949.10674858 12027189.582756519 0 0 0 0 587556222.06857872 -234888189.72590292 0 -234888189.72590292 -71716947.864972115 0 0 0 0 224017438.7053299 -100241812.57243347 0 -100241812.57243347 -100087942.25723076 0 0 0 0 317985371.9622345 -65765456.656339645 0 -65765456.656339645 -88843973.899721622 0 0 0 0 198241693.46573639 -49457693.981415033 0 -49457693.981415033 -161651913.17565536 0 0 0 0 272665198.37649536 9390930.6086678505 0 9390930.6086678505 -171612610.25150013 0 0 0 0 -171035437.27813721 -273162074.77584839 0 -273162074.77584839 134511110.25156784 0 0 0 0 391840503.92240143 -275388062.01778615 0 -275388062.01778615 -55702144.909662247 0 0 0 0 109550488.2220459 -176590315.0709734 0 -176590315.0709734 -87175336.728621483 0 0 0 0 222181761.53084946 -101455256.36822224 0 -101455256.36822224 -191431834.50864792 0 0 0 0 132493128.05327606 -201978224.19305611 0 -201978224.19305611 -134487948.47846222 0 0 0 0 -42132776.768577576 -177919861.35252857 0 -177919861.35252857 -130854971.96019363 0 0 0 0 -116010276.15248871 -96375119.137224197 0 -96375119.137224197 -188181231.0483284 0 0 0 0 94033970.036022186 -101661083.54279304 0 -101661083.54279304 -187945380.45121765 0 0 0 0 108216819.66236877 -147574119.6178503 0 -147574119.6178503 -226651505.38611603 0 0 0 0 -6757681.9128417969 -159940809.99921989 0 -159940809.99921989 -182811723.83229256 0 0 0 0 49627854.882659912 -108210873.90605736 0 -108210873.90605736 -173609005.36931229 0 0 0 0 51093918.480834961 -132128512.51448059 0 -132128512.51448059 -171520009.37610245 0 0 0 0 468988.94644546509 -181858581.05206513 0 -181858581.05206513 -242106323.08849335 0 0 0 0 -136824683.27435303 -214722532.45937729 0 -214722532.45937729 -147815317.78779411 0 0 0 0 130355721.82839966 6704472.7551555634 0 6704472.7551555634 -173093154.30827236 0 0 0 0 182564620.44819641 -46735081.47537756 0 -46735081.47537756 -196722507.82163048 0 0 0 0 169580209.79434204 -118511246.82938576 0 -118511246.82938576 -196109057.91433668 0 0 0 0 135657552.37406921 -66341380.283412933 0 -66341380.283412933 -164674069.51221657 0 0 0 0 121046971.53384018 -62713688.746599674 0 -62713688.746599674 -192357321.03972626 0 0 0 0 104854467.66864014 -112777977.89862633 0 -112777977.89862633 -200908835.33400726 0 0 0 0 97618724.132369995 -43306913.809587479 0 -43306913.809587479 -196321928.1282692 0 0 0 0 107449290.04375076 -34898884.346512318 0 -34898884.346512318 -190837724.45698547 0 0 0 0 4058484.8267365173 -9554629.2138053384 0 -9554629.2138053384 -2126746.0146001745 0 0 0 0 20397720.197509766 -33778595.536071777 0 -33778595.536071777 -142218800.73507786 0 0 0 0 -1857242.8274230957 1845116.3547043204 0 1845116.3547043204 -5789762.8138385117 0 0 0 0 21863518.318618774 -29969693.475582123 0 -29969693.475582123 -141788997.70351315 0 0 0 0 49829124.595962524 -34993229.637229919 0 -34993229.637229919 -170828905.20761108 0 0 0 0 35647344.770019531 -17749438.369493484 0 -17749438.369493484 -180586256.69016266 0 0 0 0 47831273.45955658 -23546165.597943544 0 -23546165.597943544 -178370626.2270813 0 0 0 0 63062181.016937256 -25444604.661693573 0 -25444604.661693573 -192813877.45420456 0 0 0 0 81313106.600875854 -46760237.085678101 0 -46760237.085678101 -184264381.13945007 0 0 0 0 41333721.210784912 -35523754.831291199 0 -35523754.831291199 -170277271.1020565 0 0 0 0 48666787.74256897 -40578486.363367081 0 -40578486.363367081 -183092996.10140228 0 0 0 0 39547870.209106445 -40208882.912857056 0 -40208882.912857056 -163690724.93310928 0 0 0 0 49760032.009571075 -58964450.835967064 0 -58964450.835967064 -158156638.33469391 0 0 0 0 31714337.959899902 -55889711.217254639 0 -55889711.217254639 -158650532.84601212 0 0 0 0 52716010.609161377 -49498329.905960083 0 -49498329.905960083 -168342526.76587296 0 0 0 0 67181823.200073242 -63329868.884227753 0 -63329868.884227753 -191053106.6960783 0 0 0 0 59593275.698867798 -66346783.791509628 0 -66346783.791509628 -172690963.68445587 0 0 0 0 55065751.809419632 -92224173.997452736 0 -92224173.997452736 -160509504.61830902 0 0 0 0 25082944.981079102 -53397252.460788727 0 -53397252.460788727 -125598609.41981506 0 0 0 0 24561238.660552979 -65022986.997541428 0 -65022986.997541428 -126448249.76551056 0 0 0 0 32150725.399475098 -61191303.472797394 0 -61191303.472797394 -142644303.80155945 0 0 0 0 24789447.667877197 -47884426.343009949 0 -47884426.343009949 -138492372.15465546 0 0 0 0 30695209.842926025 -44059096.107023239 0 -44059096.107023239 -153580973.04733276 0 0 0 0 43294844.441864014 -47413328.884246826 0 -47413328.884246826 -153290442.91725159 0 0 0 0 5366026.837890625 -17018119.619682312 0 -17018119.619682312 -147191876.66991425 0 0 0 0 -10000037.193626404 -13949185.365034103 0 -13949185.365034103 -29433577.773578644 0 0 0 0 -66296279.646570206 -9450008.0129790306 0 -9450008.0129790306 8227632.5757713318 0 0 0 0 -11211749.119476318 -61603155.488059282 0 -61603155.488059282 -58238665.88948822 0 0 0 0 -51069607.319610596 -88992233.672819138 0 -88992233.672819138 -76822029.978908539 0 0 0 0 -26389157.122772217 -115228395.65995979 0 -115228395.65995979 -58191863.74540329 0 0 0 0 -17974360.192123413 -135137643.25081062 0 -135137643.25081062 -141870450.50909805 0 0 0 0 19819994.369613647 -88276496.402299881 0 -88276496.402299881 -140633707.53961945 0 0 0 0 19337831.850158691 -94704648.653657913 0 -94704648.653657913 -104889624.16077042 0 0 0 0 -6354345.37890625 -85806309.349757195 0 -85806309.349757195 -105105341.62513733 0 0 0 0 9111628.3279418945 -59702111.721866608 0 -59702111.721866608 -86024488.014076233 0 0 0 0 9320419.2914123535 -12552478.743431091 0 -12552478.743431091 -111219699.80295944 0 0 0 0 5686553.0520324707 -54211797.256782532 0 -54211797.256782532 -89806081.427883148 0 0 0 0 9730772.317199707 -60065557.644767761 0 -60065557.644767761 -128105312.93444061 0 0 0 0 8522831.2401428223 -65150253.277563095 0 -65150253.277563095 -107166826.59057617 0 0 0 0 13933468.393432617 -42930365.231834412 0 -42930365.231834412 -129557702.36816406 0 0 0 0 6323368.5573120117 -37878854.889472961 0 -37878854.889472961 -105040840.62044191 0 0 0 0 2127990.5237884521 -48681005.669264793 0 -48681005.669264793 -63204538.993652344 0 0 0 0 6151707.4619750977 -6719469.9457550049 0 -6719469.9457550049 -81355859.522151947 0 0 0 0 5363819.7736816406 1095055.9536743164 0 1095055.9536743164 -28445429.632427216 0 0 0 0 5708694.7302856445 -41009447.579839706 0 -41009447.579839706 -64773923.034729004 0 0 0 0 -12251290.490951538 -40205752.588756561 0 -40205752.588756561 -8415951.7164230347 0 0 0 0 13493363.437583923 -37706682.045118332 0 -37706682.045118332 -67316514.730453491 0 0 0 0 -251400.75371242687 -5097424.0797974244 0 -5097424.0797974244 6944914.2770359283 0 0 0 0 678182699.63680267 25891870.27960372 0 25891870.27960372 -108664399.52468514 0 0 0 0 1753875.5916994736 -3219400.5823465288 0 -3219400.5823465288 2872318.5248094723 0 0 0 0 298433323.87349701 -39812959.533620656 0 -39812959.533620656 95458354.113142848 0 0 0 0 349763838.45825958 -108389816.26274364 0 -108389816.26274364 241379.04483664036 0 0 0 0 696528768.31465435 -261780578.18137085 0 -261780578.18137085 -39870687.673012555 0 0 0 0 447794183.56912231 -89955977.68669641 0 -89955977.68669641 -81980311.730321646 0 0 0 0 393107.95357819647 -144062.44023075327 0 -144062.44023075327 180688.60901215149 0 0 0 0 643127877.00086975 -81599058.745035052 0 -81599058.745035052 -119924929.88445458 0 0 0 0 660707561.03865051 -141720752.41163778 0 -141720752.41163778 -100750064.73743248 0 0 0 0 524727547.96792603 37291007.474539518 0 37291007.474539518 19528735.4696455 0 0 0 0 778690104.69058228 -90002125.924698353 0 -90002125.924698353 -121219946.78501034 0 0 0 0 1019068.1174302325 -3550598.289792113 0 -3550598.289792113 6764746.9779722132 0 0 0 0 501677664.71556091 -37237857.618514359 0 -37237857.618514359 49098208.557990551 0 0 0 0 -185210893.32687378 -193227337.28482437 0 -193227337.28482437 -166462946.10171127 0 0 0 0 -187231241.48660278 -249353789.50921249 0 -249353789.50921249 -52140628.088118792 0 0 0 0 -256815024.60768127 -102130835.24323082 0 -102130835.24323082 26531650.681424856 0 0 0 0 19747.259134482592 -1226605.0087343901 0 -1226605.0087343901 769296.58132766373 0 0 0 0 3725802.4394836426 -3872262.0963643193 0 -3872262.0963643193 1852190.668514967 0 0 0 0 3195948.6941223145 -5771028.1604110003 0 -5771028.1604110003 13429.81231546402 0 0 0 0 3287514.8711700439 -3374354.8260798454 0 -3374354.8260798454 1796780.4139194489 0 0 0 0 3341308.9343719482 -3000785.0303781033 0 -3000785.0303781033 4181855.9230480194 0 0 0 0 3695683.4215087891 -7247530.3508348465 0 -7247530.3508348465 7264144.6567988396 0 0 0 0 4108443.7417602539 -5253110.0618162155 0 -5253110.0618162155 -1161765.8185667992 0 0 0 0 4391021.504486084 -3279700.834654808 0 -3279700.834654808 3547394.8853616714 0 0 0 0 681728746.36408043 -147024668.75991285 0 -147024668.75991285 108459641.16613674 0 0 0 0 3288220.4054856412 -2858824.9595014937 0 -2858824.9595014937 2575683.923685703 0 0 0 0 544311907.65866852 -308189066.33964491 0 -308189066.33964491 51244919.32883954 0 0 0 0 471788444.15756989 43472013.570335858 0 43472013.570335858 9471838.1995859742 0 0 0 0 1098756.7235887218 17628.698844820261 0 17628.698844820261 343961.83137261675 0 0 0 0 676017674.74357295 -353733593.15630615 0 -353733593.15630615 165722350.02901894 0 0 0 0 734548.92920041829 -868789.38919464964 0 -868789.38919464964 138323.53215664579 0 0 0 0 421448681.51039124 -177149955.91373008 0 -177149955.91373008 37799606.983436465 0 0 0 0 330138304.01611328 -351225727.6813935 0 -351225727.6813935 195329353.70963669 0 0 0 0 1907270.2074165344 -2985623.55943501 0 -2985623.55943501 235221.36433506012 0 0 0 0 5060340.6214752197 -2210487.790797472 0 -2210487.790797472 -651683.33119416237 0 0 0 0 3117153.7833633572 -3511521.387454614 0 -3511521.387454614 1347431.3714011835 0 0 0 0 5217899.0922088623 -1417397.9774670601 0 -1417397.9774670601 1124709.6096010208 0 0 0 0 15270631.77722168 5124226.391705513 0 5124226.391705513 -2155157.2099500299 0 0 0 0 6480257.5292933863 -3353806.3039676212 0 -3353806.3039676212 -2697633.1406550491 0 0 0 0 8437834.4050277397 -6786640.9576438917 0 -6786640.9576438917 -4407715.4382790187 0 0 0 0 -23388666.216094971 -17330631.828954697 0 -17330631.828954697 87718461.581298828 0 0 0 0 1955212.0071411133 -11674644.689919941 0 -11674644.689919941 -6688404.2173543572 0 0 0 0 460935.07730102539 -13187686.563178793 0 -13187686.563178793 -4207121.0893563628 0 0 0 0 2451432.688293457 -10149287.056494243 0 -10149287.056494243 -3598619.2475819737 0 0 0 0 469476.19459915161 -13025162.239604358 0 -13025162.239604358 -2505465.4239841849 0 0 0 0 6432219.733505249 -10957997.570696071 0 -10957997.570696071 -7641124.0245115794 0 0 0 0 1508651.5609424785 -395179.06319660321 0 -395179.06319660321 -488409.53905232903 0 0 0 0 5035053.2296962738 -1899081.118771255 0 -1899081.118771255 4493859.7466320992 0 0 0 0 18760094.149391174 -15358544.067025185 0 -15358544.067025185 54860.803544044495 0 0 0 0 30060709.917144775 17196870.501395702 0 17196870.501395702 -955158.98891688883 0 0 0 0 22226533.779190063 -15765400.413283348 0 -15765400.413283348 6681402.9238564372 0 0 0 0 4790097.5838012695 -5192003.648786068 0 -5192003.648786068 9144350.3154630661 0 0 0 0 9858940.6252593994 -5716606.6710009575 0 -5716606.6710009575 -1460982.1269569397 0 0 0 0 12451905.845428467 -120912.4085098505 0 -120912.4085098505 -10710846.522172213 0 0 0 0 1336627.1460952759 -3629430.2398014069 0 -3629430.2398014069 -1915753.0181856155 0 0 0 0 -2058743.5657119751 1277587.6702511907 0 1277587.6702511907 -3444650.1607311964 0 0 0 0 14331177.418209076 -8548814.0698930621 0 -8548814.0698930621 -11520657.09893012 0 0 0 0 9249728.2298554238 -2663566.7280447744 0 -2663566.7280447744 -2696357.0852695252 0 0 0 0 6847256.2592613548 -3000662.5941233616 0 -3000662.5941233616 127463.47922677173 0 0 0 0 8796344.878036499 -3639690.3971425686 0 -3639690.3971425686 190513.90429997421 0 0 0 0 8022180.2529220581 -1928202.36946519 0 -1928202.36946519 545525.78097314667 0 0 0 0 9996528.5431518555 -2240697.8504383173 0 -2240697.8504383173 -599304.19749007933 0 0 0 0 9642235.1181793213 -1529160.8269536044 0 -1529160.8269536044 665988.63812281378 0 0 0 0 6443166.1567840576 -6537100.0426728725 0 -6537100.0426728725 -7025408.94617939 0 0 0 0 7664561.3777659461 -1704491.4357470269 0 -1704491.4357470269 -535192.15548412642 0 0 0 0 4992310.2714233398 -9332787.9479131699 0 -9332787.9479131699 -1144736.5374469757 0 0 0 0 423701217.15639496 -96866733.000006899 0 -96866733.000006899 87289629.23698169 0 0 0 0 4016100.7299172841 -2122005.4959823899 0 -2122005.4959823899 1719118.8746096126 0 0 0 0 5093349.7910308838 -1510498.5646793842 0 -1510498.5646793842 -1324862.3138662577 0 0 0 0 8610588.700012207 -164877.08103664708 0 -164877.08103664708 1011463.5981316492 0 0 0 0 7911110.7692565918 -719290.14289765642 0 -719290.14289765642 683537.99383258633 0 0 0 0 8954824.4362182617 -2818505.5616222955 0 -2818505.5616222955 1106809.1145202611 0 0 0 0 4438152.6442636102 -144281.29152927548 0 -144281.29152927548 1026104.6528573699 0 0 0 0 11749950.731796265 -1349816.6714909589 0 -1349816.6714909589 -125613.04307616688 0 0 0 0 10944099.718261719 -988735.78357897699 0 -988735.78357897699 276300.06045910902 0 0 0 0 6949.1612291540951 -633.03950624167919 0 -633.03950624167919 3020.9945952294684 0 0 0 0 12176343.670970917 -2417901.1969264168 0 -2417901.1969264168 -39944.443751892075 0 0 0 0 10859104.055587769 -2085553.1726144911 0 -2085553.1726144911 409167.33160112798 0 0 0 0 10190170.329467773 -1669100.8181915064 0 -1669100.8181915064 481992.40681599022 0 0 0 0 10686083.486877441 -2444355.565064128 0 -2444355.565064128 776929.88535401458 0 0 0 0 9861978.0260620117 -1739478.1411177898 0 -1739478.1411177898 322379.02936798241 0 0 0 0 9651813.9682484865 -2180303.6409083349 0 -2180303.6409083349 195473.41860979237 0 0 0 0 10046383.348670959 -1887844.1229183252 0 -1887844.1229183252 156882.19972160924 0 0 0 0 10086632.107524872 -1602024.9553614468 0 -1602024.9553614468 -422664.02519788872 0 0 0 0 10079230.301193237 -1495557.2342197869 0 -1495557.2342197869 180170.5612315489 0 0 0 0 9695208.4283027649 -1683119.1481304308 0 -1683119.1481304308 248085.85767499078 0 0 0 0 9775424.6898651123 -1830891.4808532936 0 -1830891.4808532936 516730.75956341671 0 0 0 0 10176658.030975342 -1540031.68385998 0 -1540031.68385998 73883.14917320665 0 0 0 0 9573705.8505935669 -1369011.8465816258 0 -1369011.8465816258 70652.858942547027 0 0 0 0 9642922.5033788681 -1717405.4261515872 0 -1717405.4261515872 225738.26049651625 0 0 0 0 9992545.1377029419 -1136829.0180386135 0 -1136829.0180386135 -166765.02132402523 0 0 0 0 10267684.992530823 -1303791.2792673926 0 -1303791.2792673926 -269937.50880835764 0 0 0 0 10099902.440544128 -821985.59931018157 0 -821985.59931018157 -1620.0972500632076 0 0 0 0 9489700.6364936829 -1285194.3127717492 0 -1285194.3127717492 -190462.95914692176 0 0 0 0 9178950.7917613983 -938432.82031043584 0 -938432.82031043584 615.77068177433648 0 0 0 0 11550515.224479675 -470835.78937623638 0 -470835.78937623638 5436.6406811956567 0 0 0 0 10922059.697071075 -1213687.7979166084 0 -1213687.7979166084 -582222.22283944592 0 0 0 0 10191898.905151367 -1480897.7833628054 0 -1480897.7833628054 -665241.41307857377 0 0 0 0 10799148.003446579 -1911125.7883895237 0 -1911125.7883895237 -2430607.7584068105 0 0 0 0 10684307.67855835 -1680835.2215996752 0 -1680835.2215996752 -630088.02894168952 0 0 0 0 9777686.5294752121 -2543329.8548722048 0 -2543329.8548722048 -1356883.8691320647 0 0 0 0 9732880.8935394287 -1921993.3111568091 0 -1921993.3111568091 72232.945831272751 0 0 0 0 10196738.791610718 -3577597.4660005849 0 -3577597.4660005849 -154041.39038134459 0 0 0 0 22210777.691574097 3520223.2691950873 0 3520223.2691950873 -10842271.849580258 0 0 0 0 10255907.174526215 -3816930.8774844147 0 -3816930.8774844147 -2023100.4335569432 0 0 0 0 5339922.9447850473 -100131.06708871201 0 -100131.06708871201 -937371.93346280034 0 0 0 0 13997625.811515808 2691062.900311932 0 2691062.900311932 2037053.4573211391 0 0 0 0 1217652.1180982515 182329.1974266395 0 182329.1974266395 -31480.596123477964 0 0 0 0 43061941.21421814 9592460.9486348461 0 9592460.9486348461 -2764432.4425397441 0 0 0 0 5108858.0815200806 -5147454.2382978313 0 -5147454.2382978313 -978383.26873711857 0 0 0 0 27307209.408435822 139104.73805551618 0 139104.73805551618 -6879.1814877848356 0 0 0 0 18932099.1092453 -6461341.173952017 0 -6461341.173952017 -966488.21618038695 0 0 0 0 20737442.09890461 -1577781.7743436717 0 -1577781.7743436717 3376.236792196823 0 0 0 0 21967937.953201294 2285888.2832744094 0 2285888.2832744094 3719811.7075850014 0 0 0 0 22307527.408569336 -1906489.1325310608 0 -1906489.1325310608 -2828082.9989195503 0 0 0 0 23259784.460365295 -4894039.4647209914 0 -4894039.4647209914 5272950.5783046288 0 0 0 0 14832590.496887207 -1878532.853541519 0 -1878532.853541519 3437885.5738533121 0 0 0 0 13095487.735058069 -7646004.9339577565 0 -7646004.9339577565 -5848089.0325308628 0 0 0 0 12962700.208724976 -2257321.2533762958 0 -2257321.2533762958 27484.510191829875 0 0 0 0 20714621.400650024 -5753872.1252611913 0 -5753872.1252611913 -17883221.918922529 0 0 0 0 -2955231.4458751678 -19518406.086417466 0 -19518406.086417466 -21594215.619294763 0 0 0 0 -239350.86670678109 84147.677962364629 0 84147.677962364629 225825.52928254163 0 0 0 0 -22959074.329013467 -1691286.4476820391 0 -1691286.4476820391 8859076.3214885592 0 0 0 0 -22124237.826919556 -25900040.812844917 0 -25900040.812844917 -9380112.2859918326 0 0 0 0 9246771.4020385742 -14109045.70989649 0 -14109045.70989649 -23071104.284054995 0 0 0 0 -143401.14879226685 -22993030.124268979 0 -22993030.124268979 -31234831.207478821 0 0 0 0 14611525.906144574 -1267952.9178098273 0 -1267952.9178098273 -1023320.6035904457 0 0 0 0 14475531.963719875 -2476831.1038450762 0 -2476831.1038450762 -1369964.8210684548 0 0 0 0 10796540.396408081 -10696654.6339522 0 -10696654.6339522 -10936091.25642699 0 0 0 0 9161443.3733634949 -9384406.3680809736 0 -9384406.3680809736 -11737146.254262745 0 0 0 0 1885059.5005722046 -11394514.798113555 0 -11394514.798113555 -3175293.9190850779 0 0 0 0 3549952.4297027588 -14953468.731598664 0 -14953468.731598664 -6659212.4315713942 0 0 0 0 9435408.8117980957 -11724610.872057006 0 -11724610.872057006 -5834886.4335047863 0 0 0 0 3666025.9879302979 -10346913.543652231 0 -10346913.543652231 -2935934.567941919 0 0 0 0 10486590.920509338 -13067152.112818271 0 -13067152.112818271 -14102622.124212865 0 0 0 0 10410946.668502808 -10934852.096487448 0 -10934852.096487448 -8078352.5416128561 0 0 0 0 11425353.68951416 -14400104.33467602 0 -14400104.33467602 -5377579.6055540442 0 0 0 0 12299647.768234253 -11203041.860238701 0 -11203041.860238701 -3264727.0489723086 0 0 0 0 10042317.832269669 -10295991.480397398 0 -10295991.480397398 -2677583.0634668171 0 0 0 0 15599466.198818207 -9424348.0734881237 0 -9424348.0734881237 -2542860.0847545564 0 0 0 0 9070216.5587158203 -10329984.525940686 0 -10329984.525940686 3087524.3219922483 0 0 0 0 16045549.246704102 -9790026.5546963215 0 -9790026.5546963215 1953392.0535376966 0 0 0 0 18897792.53213501 -7805137.2481892109 0 -7805137.2481892109 1141927.7166340947 0 0 0 0 4292819.8426094055 -16997696.328626018 0 -16997696.328626018 6961440.4414542913 0 0 0 0 12745574.824684143 -13546841.111265063 0 -13546841.111265063 2603812.7854511738 0 0 0 0 33941064.227432251 -17608945.94220823 0 -17608945.94220823 952695.54525876045 0 0 0 0 13177402.461273193 -36380687.701827705 0 -36380687.701827705 33861655.156184852 0 0 0 0 6150523.4478759766 -17779569.459698498 0 -17779569.459698498 7288848.9633072615 0 0 0 0 3325263.2972335815 -8481880.4839941934 0 -8481880.4839941934 1661134.3118237257 0 0 0 0 4153626.8331108093 -9251833.5076280832 0 -9251833.5076280832 -478031.7548905015 0 0 0 0 5023689.8993377686 -10560105.64032948 0 -10560105.64032948 197790.73883298039 0 0 0 0 8436060.8545227051 -8397819.3487628698 0 -8397819.3487628698 1602255.1133871078 0 0 0 0 8026810.799331665 -8966203.8493013978 0 -8966203.8493013978 1039556.7661823034 0 0 0 0 7306646.9800720215 -8872055.1638160348 0 -8872055.1638160348 3051086.944816947 0 0 0 0 6624108.8453979492 -9982370.8576159626 0 -9982370.8576159626 1468360.505059123 0 0 0 0 5238798.1596221924 -8347442.5928100348 0 -8347442.5928100348 2306162.9785494804 0 0 0 0 2553557.9588623047 -9110887.3380135447 0 -9110887.3380135447 2255870.2487238646 0 0 0 0 4633130.6226501465 -9160791.8758869767 0 -9160791.8758869767 2808996.073531121 0 0 0 0 -3311689.3157653809 -4616474.5694429837 0 -4616474.5694429837 6041318.2859155014 0 0 0 0 -34057.29817199707 -6837936.0395383835 0 -6837936.0395383835 3836183.08427158 0 0 0 0 932328.85889434814 -5045748.9651828781 0 -5045748.9651828781 4298092.6787816882 0 0 0 0 -4966800.0582580566 -6620413.7146785632 0 -6620413.7146785632 3925709.0794471242 0 0 0 0 -1053959.4089508057 -11228074.828833602 0 -11228074.828833602 -59000.339689522982 0 0 0 0 -2016384.0823974609 -4534779.5869377255 0 -4534779.5869377255 5253697.6889987737 0 0 0 0 -8710787.476234436 -2714562.1369641777 0 -2714562.1369641777 7022874.794949688 0 0 0 0 -5715923.2526283264 4285032.2563827448 0 4285032.2563827448 6779115.590475142 0 0 0 0 -2180557.9098205566 -821622.58242118359 0 -821622.58242118359 7321370.9363106564 0 0 0 0 -10160250.202087402 3225544.2057690844 0 3225544.2057690844 9153653.9460585415 0 0 0 0 -22439281.308071136 -9278035.4175364766 0 -9278035.4175364766 5367563.7864245251 0 0 0 0 -402783.18125915527 -13537612.715436343 0 -13537612.715436343 -3557541.5809203796 0 0 0 0 -351384.33375275135 192810.49920024537 0 192810.49920024537 427337.88222287525 0 0 0 0 -38178047.719944 -27443728.471441805 0 -27443728.471441805 62937337.806711525 0 0 0 0 -420673.38561630249 -1835231.8871600106 0 -1835231.8871600106 12515785.197951926 0 0 0 0 -2580745.7716331482 -3798904.3503509238 0 -3798904.3503509238 21919621.126378372 0 0 0 0 -158358.59531669319 131289.76866080053 0 131289.76866080053 249834.80818176144 0 0 0 0 100179467.96276093 68437971.932691574 0 68437971.932691574 7701330.1802933216 0 0 0 0 69363509.380714417 26468591.059636023 0 26468591.059636023 129416799.08262336 0 0 0 0 74194673.158058167 -54681970.434135199 0 -54681970.434135199 85623463.872653887 0 0 0 0 13875491.809104919 -44921874.624397628 0 -44921874.624397628 49846882.900170028 0 0 0 0 -36034414.340179443 -20137657.874412566 0 -20137657.874412566 85569957.58049643 0 0 0 0 -2964984.6129567772 -58266400.62487781 0 -58266400.62487781 27240649.999964297 0 0 0 0 -3065890.5670471191 -21175941.461784422 0 -21175941.461784422 87632077.791388929 0 0 0 0 74792793.022506714 -32711119.497352719 0 -32711119.497352719 -13063830.468536496 0 0 0 0 34921762.88584137 -85590196.632672608 0 -85590196.632672608 -6760415.8819483519 0 0 0 0 20137618.194091797 -31941746.731065631 0 -31941746.731065631 -115462281.49082804 0 0 0 0 -36898509.251220703 -33815501.246460706 0 -33815501.246460706 13761298.917219698 0 0 0 0 -7465388.8756561279 -99098221.526959777 0 -99098221.526959777 -53076501.407815337 0 0 0 0 -1413859.7037124634 -31000152.618565798 0 -31000152.618565798 -167097822.28043747 0 0 0 0 4304287.3425598145 -28554071.878956437 0 -28554071.878956437 -54377621.118160903 0 0 0 0 -15930891.612588882 -63505721.68389143 0 -63505721.68389143 -24149673.750756025 0 0 0 0 -28034465.602020264 -52610912.939053416 0 -52610912.939053416 -55659969.687977642 0 0 0 0 -4168934.5274353027 -51314861.098591864 0 -51314861.098591864 -55734443.765957206 0 0 0 0 12051840.937667847 -62410506.647239804 0 -62410506.647239804 2218890.4366559386 0 0 0 0 22688825.409111023 -14407794.994566292 0 -14407794.994566292 8106099.5129559636 0 0 0 0 26027329.254627228 -42365256.958245039 0 -42365256.958245039 -84001661.611081123 0 0 0 0 14267814.908214241 -1146476.5235533612 0 -1146476.5235533612 -835251.43229506386 0 0 0 0 15110074.475090027 -5654094.6243855078 0 -5654094.6243855078 -13593972.249853503 0 0 0 0 15186913.029972076 -5420655.400099921 0 -5420655.400099921 -7988082.7156020282 0 0 0 0 13385636.3711432 -2185500.8983119214 0 -2185500.8983119214 -594533.56889960309 0 0 0 0 3387411.3112716675 -46350562.138450503 0 -46350562.138450503 -127635228.12561607 0 0 0 0 12543165.032730103 -4691496.671539058 0 -4691496.671539058 -4826328.6407810207 0 0 0 0 13809378.318367004 -4880858.5510163987 0 -4880858.5510163987 -4822171.1542779049 0 0 0 0 11599649.883132935 -3374663.0516881822 0 -3374663.0516881822 678149.17233468359 0 0 0 0 15303019.965438843 -1869482.5281077437 0 -1869482.5281077437 -602795.99670727132 0 0 0 0 14534042.057998657 -3417304.7678139368 0 -3417304.7678139368 -1659900.1149924845 0 0 0 0 13477185.87424469 -4043757.5899176574 0 -4043757.5899176574 -1833850.2114886697 0 0 0 0 13571972.493244171 -3110380.5749379531 0 -3110380.5749379531 623.28616651791504 0 0 0 0 24195972.074771881 -10183677.363912329 0 -10183677.363912329 675036.61277241725 0 0 0 0 4780803.5701932609 -1816000.4735697731 0 -1816000.4735697731 274033.34875760088 0 0 0 0 14109350.489028931 -3525303.486501114 0 -3525303.486501114 447531.86523213796 0 0 0 0 18012103.557922363 -2532922.4090552507 0 -2532922.4090552507 7359.2154181590113 0 0 0 0 12945714.319824219 -6367112.2512885807 0 -6367112.2512885807 892213.11694699619 0 0 0 0 13387360.486526489 -3201268.8412610441 0 -3201268.8412610441 -3713287.6045602909 0 0 0 0 18712109.324028015 -4323566.1843028814 0 -4323566.1843028814 -3583166.4590286501 0 0 0 0 14413176.529720187 -735875.54410430975 0 -735875.54410430975 -1021492.7850082406 0 0 0 0 15419383.350341797 -4588860.3853809666 0 -4588860.3853809666 -6488447.6037304737 0 0 0 0 17930757.518554688 -45266887.501465797 0 -45266887.501465797 -4937826.2853565216 0 0 0 0 15695669.039001465 -3841670.7754230141 0 -3841670.7754230141 -6166401.5517190723 0 0 0 0 23848083.684661865 18092859.142243624 0 18092859.142243624 -94163041.651274443 0 0 0 0 -33637137.660055161 -125625500.33305743 0 -125625500.33305743 -207151811.76790023 0 0 0 0 2093333.1427592635 1238813.3714476153 0 1238813.3714476153 -1266617.9804365188 0 0 0 0 47366236.681976318 -97189972.939415932 0 -97189972.939415932 -256178925.76768792 0 0 0 0 -892203.58827532083 -2137436.142330288 0 -2137436.142330288 289048.14216652984 0 0 0 0 1996838.9620513916 -104783514.08891678 0 -104783514.08891678 -175309025.55535221 0 0 0 0 -23185056.402018547 -35686780.361037508 0 -35686780.361037508 -182695856.90838671 0 0 0 0 1821821.6546478271 -88939829.827558517 0 -88939829.827558517 -113404200.81826536 0 0 0 0 75409793.093078613 -70364450.603170395 0 -70364450.603170395 -188109724.67076731 0 0 0 0 49781614.973129272 -38952978.021018386 0 -38952978.021018386 -151451573.15227175 0 0 0 0 85882344.998703003 -74422072.240113139 0 -74422072.240113139 -120927869.46464717 0 0 0 0 122063343.29118347 -18932188.267848492 0 -18932188.267848492 -175338057.3550545 0 0 0 0 77006614.983306885 -26005943.486468792 0 -26005943.486468792 -169545589.96817493 0 0 0 0 61702080.235397339 -15421994.112856388 0 -15421994.112856388 -169739093.81238174 0 0 0 0 59447573.004043579 -57313572.49627161 0 -57313572.49627161 -159192706.28368711 0 0 0 0 29391828.433692932 -47624968.734083891 0 -47624968.734083891 -135292362.53633118 0 0 0 0 100544185.79016113 34265995.551878691 0 34265995.551878691 -262372069.60249233 0 0 0 0 102640580.44281769 -59380528.902603388 0 -59380528.902603388 -204173944.82560444 0 0 0 0 3707767.2078927606 173137.15105347149 0 173137.15105347149 -634078.00923358987 0 0 0 0 -11089283.443862915 96390060.176702976 0 96390060.176702976 -185023417.20749664 0 0 0 0 6763798.2824401855 -2782144.2146158218 0 -2782144.2146158218 3818631.5408495665 0 0 0 0 34372045.406806946 2196583.9551012516 0 2196583.9551012516 4032683.015390873 0 0 0 0 6574915.2368517444 1909861.9302969724 0 1909861.9302969724 2075461.3429962364 0 0 0 0 13202659.465550274 -585144.19000359438 0 -585144.19000359438 -552178.76187958615 0 0 0 0 -13869802.464920044 28725079.688807011 0 28725079.688807011 -58784558.449892849 0 0 0 0 12362504.597723007 -7645355.7551534632 0 -7645355.7551534632 -3856680.6738790474 0 0 0 0 -12702165.662414551 35435149.765786171 0 35435149.765786171 -87866546.399012089 0 0 0 0 20839008.318603516 -23631516.131577969 0 -23631516.131577969 -58421136.821738243 0 0 0 0 16532881.233805656 -65232743.282995552 0 -65232743.282995552 -132452246.19914341 0 0 0 0 11020919.721878052 11356776.192041874 0 11356776.192041874 -172295200.35441843 0 0 0 0 13469371.223709106 -5352401.9069305118 0 -5352401.9069305118 -2757648.8308327654 0 0 0 0 17486206.960067749 3311730.7979600932 0 3311730.7979600932 -2033502.6920423768 0 0 0 0 7360205.8685648553 -1795512.1337002888 0 -1795512.1337002888 -931105.33064773655 0 0 0 0 11413422.921051025 2606514.2606949592 0 2606514.2606949592 1762366.6478686072 0 0 0 0 2491161.1091384888 743866.31947517395 0 743866.31947517395 -962524.42184239626 0 0 0 0 9545588.4523778185 -165874.69743208773 0 -165874.69743208773 1165618.7321757902 0 0 0 0 20092911.292602539 -10204213.052313199 0 -10204213.052313199 -5676872.1019517332 0 0 0 0 11757910.094238281 7247565.6624761019 0 7247565.6624761019 844706.17267069593 0 0 0 0 510110.16943318397 -317160.28861482814 0 -317160.28861482814 -374064.77350604872 0 0 0 0 6772978.9769999087 1701926.5183233656 0 1701926.5183233656 -125391.52905786903 0 0 0 0 12683522.047912598 145287.1783593744 0 145287.1783593744 -883313.28733865172 0 0 0 0 17275614.874847412 3290973.8793052435 0 3290973.8793052435 -1942758.8320769053 0 0 0 0 16052927.323287964 698268.36271294765 0 698268.36271294765 -1010331.519456098 0 0 0 0 17610000.637374878 3553823.6939321356 0 3553823.6939321356 -1777398.2713226601 0 0 0 0 19601528.925933838 -214847.58533984126 0 -214847.58533984126 -3180708.3667304427 0 0 0 0 6569389.6070456207 -431218.83870435506 0 -431218.83870435506 -371807.82097224973 0 0 0 0 13995941.327346802 3622248.126524474 0 3622248.126524474 -4618.1264334078542 0 0 0 0 6397885.9379577637 1012575.3973164447 0 1012575.3973164447 -634366.35853803437 0 0 0 0 17443377.106132507 3202132.8388544903 0 3202132.8388544903 -2102769.4610653445 0 0 0 0 1433359793.9223022 44312358.459473319 0 44312358.459473319 438447.74935129925 0 0 0 0 2201279637.2678528 -235342256.35889021 0 -235342256.35889021 -341939145.33431435 0 0 0 0 2075909798.6014862 -234608318.39335623 0 -234608318.39335623 117474862.33300269 0 0 0 0 1500484678.1985703 831279884.97403347 0 831279884.97403347 149202297.83483148 0 0 0 0 1219409.6300826892 21260.319589886814 0 21260.319589886814 -17653.229022554027 0 0 0 0 7585420.5260009766 124828.71807688847 0 124828.71807688847 980144.61119069159 0 0 0 0 5025280.1275634766 612374.97845992446 0 612374.97845992446 2463957.3990121037 0 0 0 0 3009841.0461093038 201726.97630157508 0 201726.97630157508 -81546.547439632355 0 0 0 0 5539146.4810990319 -262759.59038342535 0 -262759.59038342535 282385.11474199384 0 0 0 0 556312407.98051071 -174662956.18618909 0 -174662956.18618909 82353088.594358265 0 0 0 0 163877131.77435303 152360395.54063845 0 152360395.54063845 97853691.802145332 0 0 0 0 461014373.47364807 13996240.265016228 0 13996240.265016228 -54075486.821275979 0 0 0 0 248527205.40124512 2583371.4201810695 0 2583371.4201810695 159081233.2506611 0 0 0 0 1146387730.4622426 -1159470799.8666642 0 -1159470799.8666642 586771262.15911591 0 0 0 0 1086642807.0869174 -189709497.72869536 0 -189709497.72869536 -109364528.74392986 0 0 0 0 6005543.1803073287 1313030.2355873361 0 1313030.2355873361 1033299.6783127844 0 0 0 0 1933051.4249160495 -503250.01158636808 0 -503250.01158636808 -1948714.2944884486 0 0 0 0 107682369.00959969 -185981187.53616863 0 -185981187.53616863 221677960.70963275 0 0 0 0 364993922.76065826 98511991.207996115 0 98511991.207996115 22109347.890717015 0 0 0 0 10246035.406005859 519564188.93419844 0 519564188.93419844 1062913797.8165419 0 0 0 0 2659121.1422225833 96989.663356121629 0 96989.663356121629 1016080.3752464233 0 0 0 0 1762574530.0239029 1047666963.1050894 0 1047666963.1050894 326422096.6207692 0 0 0 0 2201502468.7815857 1013928740.8281026 0 1013928740.8281026 -150961655.73418951 0 0 0 0 1661149532.361908 575453772.06752694 0 575453772.06752694 142461329.09348148 0 0 0 0 1662135280.2977066 548981442.77808857 0 548981442.77808857 -127128914.26663798 0 0 0 0 1162720677.1878357 685306487.93156469 0 685306487.93156469 166531332.27849576 0 0 0 0 -250547793.56958771 328163903.01612949 0 328163903.01612949 140428964.15916252 0 0 0 0 1095784076.9111176 -120893210.91183311 0 -120893210.91183311 -242672092.71400952 0 0 0 0 1700323.9678644948 665283.09050385281 0 665283.09050385281 1212900.7268597099 0 0 0 0 344570475.28140259 548332358.00334716 0 548332358.00334716 216568818.92147785 0 0 0 0 65984786.663169861 -36827413.431375742 0 -36827413.431375742 -70684294.540054798 0 0 0 0 168086513.12516785 12821492.79334712 0 12821492.79334712 -55733425.743097097 0 0 0 0 18981349.968353271 4230244.288343057 0 4230244.288343057 126878131.79641914 0 0 0 0 85300796.577171326 -15760758.112887979 0 -15760758.112887979 -91720244.280163288 0 0 0 0 89053749.712905884 -75803725.742600054 0 -75803725.742600054 32820558.637030482 0 0 0 0 65225753.360298157 -52376260.060651854 0 -52376260.060651854 85044762.522747099 0 0 0 0 138013836.41358566 21927051.753269643 0 21927051.753269643 68286918.857937217 0 0 0 0 210338576.68041992 -35694780.916783214 0 -35694780.916783214 113148836.94730841 0 0 0 0 147893623.61811066 29318513.574620917 0 29318513.574620917 89754635.377916083 0 0 0 0 312118773.45354462 284477288.98595941 0 284477288.98595941 159675968.90689003 0 0 0 0 376196049.06101227 225483050.68334335 0 225483050.68334335 199261612.53147608 0 0 0 0 970911688.723526 351017440.07186663 0 351017440.07186663 94831177.286686063 0 0 0 0 386635334.21179199 72763133.055151582 0 72763133.055151582 141296650.98656201 0 0 0 0 357317891.47390747 106702122.05459699 0 106702122.05459699 119548916.66582464 0 0 0 0 143985829.4493866 -21218979.911320329 0 -21218979.911320329 112484179.85143518 0 0 0 0 126298915.38987732 31913815.812927544 0 31913815.812927544 191683259.54616356 0 0 0 0 373624674.13728333 -60596630.784123361 0 -60596630.784123361 2257796.3376437309 0 0 0 0 100619525.76231384 84208678.554535463 0 84208678.554535463 130095860.79579759 0 0 0 0 684214276.04652786 184598929.21666759 0 184598929.21666759 27078129.622992158 0 0 0 0 912190343.67951202 -121951850.86931926 0 -121951850.86931926 -65638200.436448544 0 0 0 0 1630671049.6481857 210626772.15787309 0 210626772.15787309 -376910329.47244829 0 0 0 0 2205357714.8334489 496434010.12320799 0 496434010.12320799 -329612731.01444703 0 0 0 0 1037723608.4825363 307375901.7856437 0 307375901.7856437 -61464454.774387121 0 0 0 0 1578512811.986927 324515457.73549902 0 324515457.73549902 -173302834.03948808 0 0 0 0 16512844.811243057 12649663.93271488 0 12649663.93271488 52180794.533973932 0 0 0 0 5038236.7394375354 -4943810.4407042414 0 -4943810.4407042414 3160730.7781418301 0 0 0 0 78798502.780258179 57482033.346004725 0 57482033.346004725 1111935.07609272 0 0 0 0 36632464.821746826 -42414785.302406788 0 -42414785.302406788 17321664.719162941 0 0 0 0 149689254.35385132 14441542.806512237 0 14441542.806512237 44669591.990099728 0 0 0 0 176792972.91079712 37080871.435021102 0 37080871.435021102 14313218.119071901 0 0 0 0 167740082.93628693 81526575.538714617 0 81526575.538714617 72466698.389624238 0 0 0 0 -147064189.4479332 -169379842.17882681 0 -169379842.17882681 -80609495.492703676 0 0 0 0 -121152334.17367554 15380113.855027676 0 15380113.855027676 20468771.797267914 0 0 0 0 1055676.1156775169 -891063.26409912482 0 -891063.26409912482 -305067.01358099433 0 0 0 0 -190375459.19087219 -106610943.55810595 0 -106610943.55810595 94423720.100205421 0 0 0 0 5665666.1042327881 12359598.35295105 0 12359598.35295105 -2231083.4331657887 0 0 0 0 6365606.1407470703 -1203529.5771970749 0 -1203529.5771970749 135530604.06534958 0 0 0 0 229520445.56841373 48488136.375352591 0 48488136.375352591 131793930.51675987 0 0 0 0 220972816.78676605 3241956.7532329559 0 3241956.7532329559 30449904.629793644 0 0 0 0 196045841.07551575 -78728930.293219566 0 -78728930.293219566 -154345884.78856587 0 0 0 0 144385539.69357872 59936751.617739201 0 59936751.617739201 -93428257.314265728 0 0 0 0 140569176.34304619 40855425.753306985 0 40855425.753306985 121847817.43152618 0 0 0 0 189157671.77791595 -109236159.53087497 0 -109236159.53087497 40061843.127701759 0 0 0 0 -126209466.81236267 29119410.85957408 0 29119410.85957408 99421141.730312824 0 0 0 0 33392463.732239723 -29317146.625890926 0 -29317146.625890926 -82675113.38252449 0 0 0 0 6773899.3193487637 -5371519.2727991659 0 -5371519.2727991659 2428521.8941500941 0 0 0 0 39616646.856323242 9066393.5091485083 0 9066393.5091485083 -47844370.979179859 0 0 0 0 -166194886.4311142 -279872988.79635406 0 -279872988.79635406 20135510.331375837 0 0 0 0 -102399013.53811646 196100459.30582356 0 196100459.30582356 64074044.831474304 0 0 0 0 72904624.534088135 -13207398.241947174 0 -13207398.241947174 -94886429.567003965 0 0 0 0 80247260.789915085 17392842.602007568 0 17392842.602007568 -88562549.354166985 0 0 0 0 74817774.56942749 187628110.98540211 0 187628110.98540211 -74854344.197879821 0 0 0 0 77459548.064201355 23596811.173518896 0 23596811.173518896 -99471021.940840244 0 0 0 0 -59742192.128204346 -115036622.05381155 0 -115036622.05381155 -57873362.974384308 0 0 0 0 2645591.9902644455 14347.870214682072 0 14347.870214682072 -452611.69131967635 0 0 0 0 81737674.251953125 28346854.761215687 0 28346854.761215687 -83920004.128728986 0 0 0 0 57176962.965194702 37347160.328891277 0 37347160.328891277 -97545285.658815861 0 0 0 0 99006377.521617889 3736147.0497719646 0 3736147.0497719646 -44279194.090241432 0 0 0 0 83912629.29196167 20881777.479021549 0 20881777.479021549 -87420538.244915009 0 0 0 0 41643934.61366272 23138090.092792749 0 23138090.092792749 -49331609.255975246 0 0 0 0 -29450480.052947998 -2281186.1942341328 0 -2281186.1942341328 -7044481.3887321949 0 0 0 0 541696295.01018524 331853412.79367959 0 331853412.79367959 81312438.613833427 0 0 0 0 17697696.521835327 48000474.034981012 0 48000474.034981012 -72653418.316752911 0 0 0 0 -553464955.17442322 289890997.3686924 0 289890997.3686924 1034987889.7751207 0 0 0 0 31660340.806777954 153986565.51236057 0 153986565.51236057 76468591.61050415 0 0 0 0 619327888.6980896 433102871.28549957 0 433102871.28549957 189258440.78120232 0 0 0 0 308866981.47763062 342638450.43144894 0 342638450.43144894 169969648.45671391 0 0 0 0 655712225.81680679 98037626.233470917 0 98037626.233470917 34641881.520032883 0 0 0 0 455611436.89990234 14101272.443731308 0 14101272.443731308 2881232.5377912521 0 0 0 0 346918624.09712982 -83449394.262440205 0 -83449394.262440205 30552455.668037891 0 0 0 0 379086027.69223022 445585765.29232895 0 445585765.29232895 2460262.7453913093 0 0 0 0 1767092.9402464852 1010620.8474918921 0 1010620.8474918921 236495.11173163902 0 0 0 0 16649979.052955627 -150291020.54304957 0 -150291020.54304957 -162313087.84846783 0 0 0 0 -52040154.353813171 -151938157.25430977 0 -151938157.25430977 125984835.21281528 0 0 0 0 -31322853.175918579 175651743.74885923 0 175651743.74885923 322239844.54374093 0 0 0 0 1787788.9041006863 220415.24245030805 0 220415.24245030805 -432137.59714229754 0 0 0 0 65775764.55033493 -125203936.21178848 0 -125203936.21178848 -46145804.717674732 0 0 0 0 -29366696.131263733 7123876.8021905422 0 7123876.8021905422 -107997269.41384935 0 0 0 0 -18964257.628795624 -18520071.56283319 0 -18520071.56283319 -139316292.89716721 0 0 0 0 -23045204.159469604 31178168.64620471 0 31178168.64620471 -71684004.713402748 0 0 0 0 56440186.967185974 755172.10440015793 0 755172.10440015793 -314667768.6617012 0 0 0 0 4710373.6298363209 1759660.6870302884 0 1759660.6870302884 92008.457453641808 0 0 0 0 13799375.788406372 91797283.433131933 0 91797283.433131933 38953296.968924165 0 0 0 0 -53334793.666862488 7190530.1521019936 0 7190530.1521019936 115755826.71666718 0 0 0 0 -29798904.039009094 -12186744.244279861 0 -12186744.244279861 -97460830.716899395 0 0 0 0 -19592389.472606659 43803397.296685696 0 43803397.296685696 -80234666.332366943 0 0 0 0 -33078724.546722412 60843854.909912109 0 60843854.909912109 24220891.462838411 0 0 0 0 -4308884.1672515869 120409434.54937623 0 120409434.54937623 59291718.794378094 0 0 0 0 -21530479.684143066 50863840.013878107 0 50863840.013878107 32845599.614404321 0 0 0 0 61167465.828765869 84605376.342662573 0 84605376.342662573 -25261462.445304275 0 0 0 0 118056765.55648613 -58249149.799172521 0 -58249149.799172521 -53542863.222421408 0 0 0 0 184207840.48806763 -100681328.68422049 0 -100681328.68422049 -52326808.0562841 0 0 0 0 257989206.91324615 188014207.65899393 0 188014207.65899393 23181386.405775547 0 0 0 0 207783181.39702606 52805665.347636655 0 52805665.347636655 -94834378.444409728 0 0 0 0 228183542.9026947 110570843.75932813 0 110570843.75932813 -29701047.656319365 0 0 0 0 50667064.477643967 -74243078.390575364 0 -74243078.390575364 23822096.605766408 0 0 0 0 667609.06570800394 287988.96688582003 0 287988.96688582003 -572183.19655941206 0 0 0 0 -55512391.470561981 -33287574.903402105 0 -33287574.903402105 33042614.869055837 0 0 0 0 57950416.090530396 82416694.130956113 0 82416694.130956113 47096767.469084486 0 0 0 0 221311329.61022949 42109914.785362512 0 42109914.785362512 3168926.1602549553 0 0 0 0 56418532.180581093 83632474.785638362 0 83632474.785638362 60867859.582413793 0 0 0 0 1608114.5776768327 1336478.3614893705 0 1336478.3614893705 -1194961.8381865493 0 0 0 0 3139028.4203338623 36572104.22669363 0 36572104.22669363 53220892.405577093 0 0 0 0 -32729.490741729736 27400217.638628185 0 27400217.638628185 31075190.496843576 0 0 0 0 3838002.2215703316 3029313.5599361062 0 3029313.5599361062 -2099867.4101546383 0 0 0 0 18768215.21673584 -39985312.581083775 0 -39985312.581083775 34689878.65612936 0 0 0 0 -23745627.142746687 20517996.733113017 0 20517996.733113017 20297529.344142854 0 0 0 0 28201555.787261963 37848539.237523675 0 37848539.237523675 8696865.9136535227 0 0 0 0 -25257215.183338881 -1912968.0322760809 0 -1912968.0322760809 9581579.659919858 0 0 0 0 4620874.0072784424 -4184623.3815693855 0 -4184623.3815693855 -14548600.297208786 0 0 0 0 1324254.070798941 197307.53704644367 0 197307.53704644367 -1185952.0665023555 0 0 0 0 238826356.09098816 -5991936.4723207951 0 -5991936.4723207951 -20225133.033285081 0 0 0 0 155458935.49559021 71801835.413818598 0 71801835.413818598 3550280.168260524 0 0 0 0 44482939.007278442 27786669.270710111 0 27786669.270710111 -1188834.8916379362 0 0 0 0 49974650.452468872 14658829.736793727 0 14658829.736793727 25192858.980348885 0 0 0 0 47830404.371696472 34865427.211617351 0 34865427.211617351 32628695.112691402 0 0 0 0 41095309.593334198 21304694.85025838 0 21304694.85025838 5336699.5933493376 0 0 0 0 101526616.44271851 26402248.015616596 0 26402248.015616596 6773724.2865023762 0 0 0 0 129896914.74279785 25744526.406872451 0 25744526.406872451 9657811.9130032659 0 0 0 0 143459014.59947586 -6783200.26721856 0 -6783200.26721856 3406397.2974785566 0 0 0 0 164319273.37937164 7117973.4746246636 0 7117973.4746246636 -4457103.3361500502 0 0 0 0 228441355.77493286 -48133599.884991288 0 -48133599.884991288 14712778.52219969 0 0 0 0 88890579.961799622 -14617713.879520759 0 -14617713.879520759 134470505.55442715 0 0 0 0 175863562.5824585 159223965.16004455 0 159223965.16004455 24693782.256240845 0 0 0 0 91365664.085083008 -157560186.53807294 0 -157560186.53807294 166331831.71477461 0 0 0 0 292190.97389746457 -903152.67202424933 0 -903152.67202424933 -49226.775918425963 0 0 0 0 194173866.10126495 81766982.493111536 0 81766982.493111536 11035571.139570236 0 0 0 0 -2692574.4650274813 -3966216.0186292939 0 -3966216.0186292939 148917.92170605058 0 0 0 0 28612907.24041748 -11349656.903934807 0 -11349656.903934807 -19200167.186778069 0 0 0 0 2263575.1666870117 -381747.86571633304 0 -381747.86571633304 -593322.8042474176 0 0 0 0 2958301.7030525208 934546.24558925629 0 934546.24558925629 -7821203.361084938 0 0 0 0 4351592.6308445744 -728235.80350939184 0 -728235.80350939184 1043028.5218251811 0 0 0 0 59603231.846313477 11898623.517402619 0 11898623.517402619 24950017.558743596 0 0 0 0 1238467.3000627775 -660220.61477841809 0 -660220.61477841809 1008596.8178312711 0 0 0 0 -11280160.073558807 10797262.937868118 0 10797262.937868118 -10250666.595903397 0 0 0 0 2155123.9798903391 -1532610.4960288387 0 -1532610.4960288387 -565089.11228529771 0 0 0 0 -13000676.497406006 46545918.810549498 0 46545918.810549498 -40570458.944905281 0 0 0 0 -19045443.785495758 42892810.51556778 0 42892810.51556778 -3744244.673283577 0 0 0 0 -37605119.92817688 13264157.225510597 0 13264157.225510597 -6091113.6641997695 0 0 0 0 -49328839.385238647 38941944.614076138 0 38941944.614076138 -4225330.1700357199 0 0 0 0 15978899.891025543 4976347.0445052534 0 4976347.0445052534 15587983.786408931 0 0 0 0 -70092606.417694092 21340137.917435884 0 21340137.917435884 10222885.7183671 0 0 0 0 1421395.9272747897 -164780.81751780957 0 -164780.81751780957 5086.3413300290122 0 0 0 0 2800107.4775020462 -2788848.7872614451 0 -2788848.7872614451 3248835.2763604284 0 0 0 0 230367260.95527458 -17295929.412651755 0 -17295929.412651755 -46821129.574889302 0 0 0 0 -56612277.70091629 40332073.211752176 0 40332073.211752176 14700923.631020546 0 0 0 0 -30505339.109687805 73099685.270585775 0 73099685.270585775 29824059.106700897 0 0 0 0 -77609700.881278992 16831497.48280859 0 16831497.48280859 57136253.119319916 0 0 0 0 -68325292.220916748 -6555477.6673288345 0 -6555477.6673288345 -23813785.780311584 0 0 0 0 -178290647.6218338 -32489688.356114149 0 -32489688.356114149 62348767.560598373 0 0 0 0 3636751.7847444657 -3968544.5697060861 0 -3968544.5697060861 3279760.5265143998 0 0 0 0 -10797657.494842529 -4199293.3077247143 0 -4199293.3077247143 21675695.44712469 0 0 0 0 -959386.23705533892 -288827.9413507469 0 -288827.9413507469 1195090.732069239 0 0 0 0 214117128.75579071 150285698.91844374 0 150285698.91844374 25979409.800465219 0 0 0 0 238413434.37366486 -26366537.772435427 0 -26366537.772435427 74174835.171977043 0 0 0 0 263833775.63050461 23134883.215981126 0 23134883.215981126 129741642.02066135 0 0 0 0 129524346.0608902 78455999.275805712 0 78455999.275805712 72669236.940794945 0 0 0 0 -23511915.774337769 48540160.111187935 0 48540160.111187935 47320853.296793938 0 0 0 0 -17177915.949516296 26305842.722993135 0 26305842.722993135 115974468.14048529 0 0 0 0 -112952174.1430397 -10085009.342085004 0 -10085009.342085004 94429440.046523094 0 0 0 0 87353346.016403198 43807288.419537067 0 43807288.419537067 40107997.63788414 0 0 0 0 7961516.1323852539 82238183.635753632 0 82238183.635753632 58294434.976465225 0 0 0 0 79340202.236999512 32606435.124204993 0 32606435.124204993 129799843.3786068 0 0 0 0 178569616.27462769 60888409.184250832 0 60888409.184250832 40347308.649365425 0 0 0 0 76989605.123697281 70115456.034078181 0 70115456.034078181 -20282488.310450554 0 0 0 0 86229114.49508667 11695209.700391293 0 11695209.700391293 17303467.569115639 0 0 0 0 -17800049.889434814 6200917.7834186554 0 6200917.7834186554 -60254922.46577692 0 0 0 0 -3579078.8568267822 66210255.831267834 0 66210255.831267834 -5452671.2436737344 0 0 0 0 -1420841.6581306458 55757956.683141708 0 55757956.683141708 -5265964.7286872864 0 0 0 0 26460335.168128967 80644712.429062843 0 80644712.429062843 -78049241.435139179 0 0 0 0 5659648.2867515981 1525968.3455820086 0 1525968.3455820086 752853.09128843504 0 0 0 0 -14540155.355117798 16703531.887722731 0 16703531.887722731 -803168.5407743454 0 0 0 0 13085711.702583313 10995624.903342724 0 10995624.903342724 -31461194.117854476 0 0 0 0 13097892.870400913 -121357.16096404125 0 -121357.16096404125 -119989222.87003326 0 0 0 0 178719.27300256491 614253.1874078624 0 614253.1874078624 749767.22395608854 0 0 0 0 5395697.7559165359 1423228.2022012332 0 1423228.2022012332 964166.04452777817 0 0 0 0 23914408.41934967 -1004261.3995172977 0 -1004261.3995172977 -31016762.449260712 0 0 0 0 93910639.034626007 7154068.1415717602 0 7154068.1415717602 -128803427.80026913 0 0 0 0 20351467.341140747 34752287.634590626 0 34752287.634590626 -114721142.22361481 0 0 0 0 53765978.199028015 -42364231.919383883 0 -42364231.919383883 -106671903.08832979 0 0 0 0 -27433595.439994812 -52174905.811317682 0 -52174905.811317682 -81995437.070371628 0 0 0 0 1579466.4339116346 1279376.1585770994 0 1279376.1585770994 2102362.365148928 0 0 0 0 827373636.99400711 -78902070.752448082 0 -78902070.752448082 82858531.272834778 0 0 0 0 1080048076.1748962 -32458409.086537361 0 -32458409.086537361 -71081818.535630465 0 0 0 0 93791.953279078007 148715.71373381093 0 148715.71373381093 425936.00058497943 0 0 0 0 645545.59058823436 249401.02522492781 0 249401.02522492781 704244.97506453702 0 0 0 0 -125677207.32263947 -384463083.52916241 0 -384463083.52916241 95738775.057408333 0 0 0 0 122862043.46609116 -36256058.275875151 0 -36256058.275875151 -106430783.17964935 0 0 0 0 107025141.79166412 13191652.577950954 0 13191652.577950954 -8467211.1540441513 0 0 0 0 1214518750.1062241 22086931.589103699 0 22086931.589103699 11277588.291547298 0 0 0 0 1800492385.6244049 -108429921.05785227 0 -108429921.05785227 5264529.357884407 0 0 0 0 944481789.12864685 47217702.078395844 0 47217702.078395844 91810144.883546829 0 0 0 0 965900752.2194519 45439693.242488861 0 45439693.242488861 173908689.39816922 0 0 0 0 1120053571.401413 -104372675.33265829 0 -104372675.33265829 218267606.01168275 0 0 0 0 1069413071.0673409 39169096.306260705 0 39169096.306260705 79044893.536182404 0 0 0 0 1207563152.8831787 -288647601.03568172 0 -288647601.03568172 501706087.66530013 0 0 0 0 1144647019.742672 -127238827.44793248 0 -127238827.44793248 109184469.04316568 0 0 0 0 1616244876.5511551 -546457685.05611491 0 -546457685.05611491 489696762.39111996 0 0 0 0 1416722602.211937 -244537296.47211838 0 -244537296.47211838 33766699.341452599 0 0 0 0 1246552532.5494537 -105917321.16176748 0 -105917321.16176748 -65017925.970289707 0 0 0 0 1301225287.855114 -186406833.01228702 0 -186406833.01228702 34106989.57781601 0 0 0 0 1272747849.2350979 -211814503.85377991 0 -211814503.85377991 155497686.16539478 0 0 0 0 1276492659.7277527 -245030984.23414207 0 -245030984.23414207 117378575.68456602 0 0 0 0 1217697723.9639053 -88638894.685084343 0 -88638894.685084343 -44914505.819713116 0 0 0 0 1281688056.2863636 -125604353.13172531 0 -125604353.13172531 -104079331.0954237 0 0 0 0 1362484063.3601685 -22263807.040846825 0 -22263807.040846825 -148150847.64850187 0 0 0 0 1058648588.4834747 -3853615.5292272568 0 -3853615.5292272568 -133403867.21791267 0 0 0 0 1343570729.7751999 -104366565.14702415 0 -104366565.14702415 -103614662.15163708 0 0 0 0 1271089161.950964 -162127815.1688242 0 -162127815.1688242 -210556190.71797848 0 0 0 0 1130232926.9713745 13367710.03693676 0 13367710.03693676 -188503570.05276012 0 0 0 0 1009216597.6072159 -26742076.698747873 0 -26742076.698747873 -172751507.90972614 0 0 0 0 834022373.50049591 -331886744.33868456 0 -331886744.33868456 -369512031.81530952 0 0 0 0 985616242.51436615 5409725.2510749102 0 5409725.2510749102 -214553115.81391525 0 0 0 0 1958391443.2771149 -154648470.02988017 0 -154648470.02988017 -391253721.75686538 0 0 0 0 1166011479.2930527 75528432.105462551 0 75528432.105462551 -77594269.927159309 0 0 0 0 1331582701.2137909 -87760499.933731079 0 -87760499.933731079 -286339775.4731741 0 0 0 0 1077420670.2074776 -133201401.83875954 0 -133201401.83875954 -67540298.758710861 0 0 0 0 1010632405.6755829 -130950037.98037863 0 -130950037.98037863 -31325520.320503235 0 0 0 0 1278704547.3446426 -185189939.07755232 0 -185189939.07755232 -101625620.53518105 0 0 0 0 633398514.82398987 -70508348.413507462 0 -70508348.413507462 64452184.732901096 0 0 0 0 625222882.91903687 31711413.666364193 0 31711413.666364193 38273767.693882942 0 0 0 0 1019374021.3568497 -86608031.703771114 0 -86608031.703771114 -34007316.752770424 0 0 0 0 567597439.60970306 -44482667.197385788 0 -44482667.197385788 7314120.6416883469 0 0 0 0 569812097.70844567 -157530714.67578968 0 -157530714.67578968 45806288.544501305 0 0 0 0 194996374.48900795 -119656581.71313217 0 -119656581.71313217 115455242.82192802 0 0 0 0 1101579312.2425232 -342797520.95129728 0 -342797520.95129728 -8277736.9516234398 0 0 0 0 1273545480.2123756 -241560782.43917453 0 -241560782.43917453 118388824.57809162 0 0 0 0 1056375047.4956741 -62119011.664911747 0 -62119011.664911747 -10423931.412744522 0 0 0 0 -27393549.629533768 119635790.91309077 0 119635790.91309077 -206434599.59462833 0 0 0 0 19481606.635017395 -3313215.9189386368 0 -3313215.9189386368 -9534640.1655397415 0 0 0 0 6508313.6017635241 -723359.36048338935 0 -723359.36048338935 -5672041.254793413 0 0 0 0 7882674.5858078003 -2897132.6908437014 0 -2897132.6908437014 -8456604.9600532055 0 0 0 0 10732833.602035522 1646590.6477694511 0 1646590.6477694511 -3273627.6522088051 0 0 0 0 7608826.4284379296 2257130.976158917 0 2257130.976158917 -3706528.4962529428 0 0 0 0 4772138.1309316903 1395135.578898177 0 1395135.578898177 -2250578.7026034244 0 0 0 0 3397006.5285459198 633957.63786253706 0 633957.63786253706 -621769.60772597929 0 0 0 0 329337.17443466187 10514885.371147513 0 10514885.371147513 -7255266.9540462494 0 0 0 0 18939243.568191528 7967697.8117861748 0 7967697.8117861748 -17290373.242238998 0 0 0 0 178668819.89034271 154461320.88811934 0 154461320.88811934 129800929.40080738 0 0 0 0 697981738.12947083 -22335504.407285213 0 -22335504.407285213 -88927534.646807194 0 0 0 0 935496001.53041077 583491121.02814341 0 583491121.02814341 365019352.96199894 0 0 0 0 8554670.4344940186 -2391807.3272781372 0 -2391807.3272781372 8702499.4948711395 0 0 0 0 1466738.2721610405 -186141.14221832529 0 -186141.14221832529 -1120583.8111143904 0 0 0 0 1900567230.7372856 -14669872.972710609 0 -14669872.972710609 -156152775.62314939 0 0 0 0 1086067241.1971436 231352987.76931763 0 231352987.76931763 -159048692.03818583 0 0 0 0 1104946261.4774399 108420117.18724155 0 108420117.18724155 -167714995.38014221 0 0 0 0 1516707968.1356201 18176170.348898649 0 18176170.348898649 -167751413.93326759 0 0 0 0 1021452852.2130508 83465780.802130699 0 83465780.802130699 -120401755.10300922 0 0 0 0 1064002152.6991425 69170580.293223381 0 69170580.293223381 -117090706.56249189 0 0 0 0 1062960490.5491714 -12378287.594202042 0 -12378287.594202042 -230710659.52720356 0 0 0 0 1048306510.3134727 -21880753.232120514 0 -21880753.232120514 -69615170.46225071 0 0 0 0 1053357865.0595169 62316365.748901129 0 62316365.748901129 -115914629.63629055 0 0 0 0 990170.59586739354 131873.81270619482 0 131873.81270619482 61783.032488581259 0 0 0 0 4722995.3008384705 59516066.626748323 0 59516066.626748323 -19242356.949780464 0 0 0 0 1043312117.9203644 48033107.099624634 0 48033107.099624634 -108877458.08222747 0 0 0 0 1068411153.959198 48013944.971414089 0 48013944.971414089 -119118902.31479502 0 0 0 0 4842855.3345985115 1079179.2535276152 0 1079179.2535276152 -3459290.5985269058 0 0 0 0 30576623.681322098 -17967219.496029317 0 -17967219.496029317 -3951803.4049334526 0 0 0 0 -256923435.44776917 423252307.56760776 0 423252307.56760776 -164649236.21967813 0 0 0 0 25049083.180343628 103022553.3407526 0 103022553.3407526 -261890047.28908128 0 0 0 0 149210991.13273621 40217914.352397859 0 40217914.352397859 -237079369.27206564 0 0 0 0 717985085.140625 -259190049.92513323 0 -259190049.92513323 -37737092.533394158 0 0 0 0 333676928.04194641 -365064313.70587409 0 -365064313.70587409 177051324.96957445 0 0 0 0 476737272.62147522 -48250786.935252666 0 -48250786.935252666 67930112.224068284 0 0 0 0 231721725.6338501 21604689.630217552 0 21604689.630217552 518216822.38079381 0 0 0 0 210563028.20064402 321865438.09961498 0 321865438.09961498 -3746783.9013719559 0 0 0 0 108776935.90088654 -180090286.60237551 0 -180090286.60237551 212119157.90659475 0 0 0 0 34660562.101396561 126836719.83186099 0 126836719.83186099 -184556279.22905922 0 0 0 0 -476067586.18062592 74016425.572829366 0 74016425.572829366 74914422.200608015 0 0 0 0 -91224065.329582214 -122159527.01387548 0 -122159527.01387548 74937377.167852521 0 0 0 0 245109348.73579788 -98133426.915281057 0 -98133426.915281057 -118305615.02395391 0 0 0 0 -74795639.050759554 156065264.59023333 0 156065264.59023333 -456446273.16398525 0 0 0 0 -163542215.11118317 -110714231.77996516 0 -110714231.77996516 -113759652.63295388 0 0 0 0 -542424578.79311371 756548011.52584326 0 756548011.52584326 -305928079.33086872 0 0 0 0 -636448704.96533203 537265741.49445772 0 537265741.49445772 -174353276.13117075 0 0 0 0 865756794.38474274 -77737913.644243956 0 -77737913.644243956 -47764419.040657043 0 0 0 0 864952569.2121582 -97957940.729521036 0 -97957940.729521036 8427554.0987002254 0 0 0 0 3269937.9794994071 1457820.7034825385 0 1457820.7034825385 -1382564.8559859523 0 0 0 0 1277245404.1866837 -423998794.28527546 0 -423998794.28527546 149999413.82292819 0 0 0 0 970228652.95323944 -173625564.20660782 0 -173625564.20660782 -31572517.581892967 0 0 0 0 1187440616.5011902 -113725780.3074131 0 -113725780.3074131 -194807330.7442143 0 0 0 0 2145005071.4049072 -653383037.67714274 0 -653383037.67714274 -33216774.63370961 0 0 0 0 1123008.112484172 549104.82284580916 0 549104.82284580916 -146799.37262073718 0 0 0 0 1587337301.5738754 380246481.49769884 0 380246481.49769884 88277141.512290239 0 0 0 0 852818839.18934631 344630137.66100287 0 344630137.66100287 -309486804.94537878 0 0 0 0 1318119847.5301456 133422775.54068828 0 133422775.54068828 -268013488.29031277 0 0 0 0 1288502475.0672178 270000763.73938876 0 270000763.73938876 48544870.422115088 0 0 0 0 1692829443.0948868 393651494.27264953 0 393651494.27264953 -188870437.21568424 0 0 0 0 1431510518.9447403 22692047.591702849 0 22692047.591702849 -31982613.109170496 0 0 0 0 616865774.82745361 146818938.08008623 0 146818938.08008623 -16126913.061843038 0 0 0 0 705706111.17549896 50214518.68518579 0 50214518.68518579 42447637.773753405 0 0 0 0 298016144.81963348 -81350196.88335076 0 -81350196.88335076 145646076.09645551 0 0 0 0 -12456846.106109619 119068061.44603682 0 119068061.44603682 39322269.699320436 0 0 0 0 261533203.17654419 -313880530.99204946 0 -313880530.99204946 -9739505.8678910136 0 0 0 0 362906854.60306549 -198730918.32151169 0 -198730918.32151169 -43566955.401929617 0 0 0 0 82147337.163894653 14475819.769508719 0 14475819.769508719 -137635991.04563284 0 0 0 0 416991926.44246674 -116506004.27339131 0 -116506004.27339131 33470676.229713112 0 0 0 0 389846413.6734314 -261486400.4050827 0 -261486400.4050827 28470537.103163004 0 0 0 0 426965702.574646 -199639013.53649461 0 -199639013.53649461 91988801.032494068 0 0 0 0 437741044.14805603 -212126622.27528089 0 -212126622.27528089 -786112.1700091362 0 0 0 0 468486877.85719299 -203549617.47497141 0 -203549617.47497141 -16558197.813196182 0 0 0 0 480636798.15467834 -244714023.02149832 0 -244714023.02149832 -46637830.8386935 0 0 0 0 498548296.56257629 -240954618.91583788 0 -240954618.91583788 -84230677.256741047 0 0 0 0 463765876.49790955 -269399189.07534981 0 -269399189.07534981 -46997636.737015963 0 0 0 0 390342092.65387726 -225138338.692644 0 -225138338.692644 -34964808.739952564 0 0 0 0 483763854.78102112 -344044933.66618979 0 -344044933.66618979 -14194806.179748863 0 0 0 0 719077333.1870575 -220813755.38512909 0 -220813755.38512909 -83457511.347770452 0 0 0 0 1144779078.4462147 301293520.76064944 0 301293520.76064944 150926376.69473553 0 0 0 0 1157901313.7524872 -38448124.891308069 0 -38448124.891308069 144199619.08300716 0 0 0 0 1025922703.0834846 185357222.14195204 0 185357222.14195204 -6825374.8026561737 0 0 0 0 716424227.10203552 -41529545.011946678 0 -41529545.011946678 69977283.923460662 0 0 0 0 505506613.60085297 203544504.40697694 0 203544504.40697694 32271896.183860779 0 0 0 0 650680073.73161316 202732245.42731428 0 202732245.42731428 92218469.355801702 0 0 0 0 591642896.4274292 -6155870.4887247086 0 -6155870.4887247086 40322987.198138714 0 0 0 0 1044408506.3714142 133498257.11280203 0 133498257.11280203 -443439.45495033264 0 0 0 0 1632571389.1012383 135535870.15986133 0 135535870.15986133 -170855600.16744614 0 0 0 0 1011524766.1102448 -13717876.55819416 0 -13717876.55819416 11125601.01621151 0 0 0 0 1187006.6049760999 -643633.43027957156 0 -643633.43027957156 -749986.93809922179 0 0 0 0 1082702982.2278442 227531210.42428744 0 227531210.42428744 154392799.45574522 0 0 0 0 1209939.0801498592 -918747.78528829291 0 -918747.78528829291 -168045.86111811455 0 0 0 0 309392222.01836395 -275185746.35382915 0 -275185746.35382915 -22708711.602867603 0 0 0 0 433560904.50123596 126270518.76278019 0 126270518.76278019 33025139.093366623 0 0 0 0 973127587.66600037 313782845.41724539 0 313782845.41724539 -109425294.76734352 0 0 0 0 845290760.25498962 -117407921.0679245 0 -117407921.0679245 -234464126.6267035 0 0 0 0 1008532934.6007614 92601366.350231647 0 92601366.350231647 -227981963.9150362 0 0 0 0 1370213805.0012093 -32003870.558742464 0 -32003870.558742464 -231181860.69462395 0 0 0 0 1046264899.1951046 29037478.674052417 0 29037478.674052417 -20316516.368304729 0 0 0 0 1273370388.9865952 -41703737.941024601 0 -41703737.941024601 86051257.322681963 0 0 0 0 2336606.617965376 -1862383.7797767371 0 -1862383.7797767371 -314492.06331183482 0 0 0 0 1044006397.1733017 29948119.166511059 0 29948119.166511059 21752674.365573168 0 0 0 0 1058440187.9418716 44753440.983339846 0 44753440.983339846 -26523394.141346812 0 0 0 0 1062262446.6570053 41901326.577251315 0 41901326.577251315 -60223803.734289467 0 0 0 0 2530566.7386828773 -1625866.0618330203 0 -1625866.0618330203 -1602634.5868140273 0 0 0 0 443569484.69996262 -95133594.910976112 0 -95133594.910976112 142822326.7757172 0 0 0 0 1295790.7205702551 -1004958.8418680541 0 -1004958.8418680541 -192380.19499456591 0 0 0 0 681721500.47622681 216512885.46836725 0 216512885.46836725 89651664.434651017 0 0 0 0 1128051903.4638672 -47852720.771023095 0 -47852720.771023095 15869754.867621869 0 0 0 0 1083004731.1148911 281762376.45517623 0 281762376.45517623 88977511.930240154 0 0 0 0 731367145.41721344 -19147839.782873392 0 -19147839.782873392 66020417.945084572 0 0 0 0 1510241173.6557713 125109309.39353442 0 125109309.39353442 -145792745.44443798 0 0 0 0 732139781.92029572 -16207023.810987592 0 -16207023.810987592 -114143388.40676898 0 0 0 0 245946231.80396461 255103381.47893471 0 255103381.47893471 -125761756.02223134 0 0 0 0 517849530.0040741 -154454919.68252119 0 -154454919.68252119 -40737409.585457966 0 0 0 0 6235776.2195273824 -4498979.9266296905 0 -4498979.9266296905 1776774.4559424431 0 0 0 0 134652538.90341187 -472819781.21256137 0 -472819781.21256137 -80938740.859200478 0 0 0 0 168017163.46651459 84611025.641825676 0 84611025.641825676 -419031401.04810429 0 0 0 0 -224251630.18973541 155313410.54995871 0 155313410.54995871 -67223194.086805105 0 0 0 0 69246946.312026978 -27522952.831262112 0 -27522952.831262112 29710217.853430271 0 0 0 0 2724866.1870871857 -1767328.4638392366 0 -1767328.4638392366 689564.62423885113 0 0 0 0 -240238317.38550675 -456572040.42909348 0 -456572040.42909348 66535405.339716434 0 0 0 0 2108437323.6388931 697285783.88836217 0 697285783.88836217 -296128133.03796113 0 0 0 0 537735459.08361101 157668425.01795366 0 157668425.01795366 111653401.65918589 0 0 0 0 1176569974.806778 254213558.31121647 0 254213558.31121647 5043017.8166810274 0 0 0 0 2822936.2717843456 -1934819.3701901399 0 -1934819.3701901399 -482289.43694394664 0 0 0 0 1498483763.5341873 144502787.32116514 0 144502787.32116514 -174832587.02624047 0 0 0 0 1219562437.96492 128197064.57142293 0 128197064.57142293 -124194264.51388866 0 0 0 0 902926110.58293152 -142150810.80598181 0 -142150810.80598181 -72665764.673812002 0 0 0 0 1186020512.8411522 75306783.569021657 0 75306783.569021657 32531386.632842183 0 0 0 0 801861492.48197937 -134245091.56409574 0 -134245091.56409574 1067630793.7497144 0 0 0 0 1278371322.232872 64028049.790881783 0 64028049.790881783 -19320744.393075943 0 0 0 0 1747103777.2753601 -252119492.67008686 0 -252119492.67008686 -314618324.89045095 0 0 0 0 2214511.6206302643 -1155770.3568916321 0 -1155770.3568916321 1026321.9797633038 0 0 0 0 1249368628.7159424 80027048.074290097 0 80027048.074290097 58161954.472855926 0 0 0 0 1250199448.6485205 -7549213.3155527692 0 -7549213.3155527692 -7079361.2158852816 0 0 0 0 1557838366.3102417 101759332.09907398 0 101759332.09907398 -42720999.782327354 0 0 0 0 1178230229.935051 39491990.070062876 0 39491990.070062876 74897259.884733319 0 0 0 0 954149.92493902706 -193983.14877578989 0 -193983.14877578989 655521.31725744263 0 0 0 0 801613101.51940155 43130891.257399559 0 43130891.257399559 -228333335.19163918 0 0 0 0 794392163.94474792 72026503.184741378 0 72026503.184741378 -111114455.01502526 0 0 0 0 700392288.59715271 -42152910.209966063 0 -42152910.209966063 -70437421.511264563 0 0 0 0 387481412.67298889 -109269500.75051975 0 -109269500.75051975 -18554785.862964511 0 0 0 0 679759068.48651123 -85436239.514974475 0 -85436239.514974475 -22678031.153467834 0 0 0 0 385929055.06308746 -89156631.174111128 0 -89156631.174111128 58854591.158949375 0 0 0 0 182321733.88156128 -23184596.194688559 0 -23184596.194688559 61347768.27214022 0 0 0 0 223848186.38568115 -30674183.779843926 0 -30674183.779843926 23653119.965657711 0 0 0 0 100990213.72714996 -285981198.79647005 0 -285981198.79647005 101904376.73031378 0 0 0 0 923697205.50382996 -94214175.483170271 0 -94214175.483170271 -333540504.35205996 0 0 0 0 640980331.85417175 -571020863.1142118 0 -571020863.1142118 81385512.48525393 0 0 0 0 854380868.53518677 -338912079.32149005 0 -338912079.32149005 31939501.805319786 0 0 0 0 397392504.91343689 -199349792.96965861 0 -199349792.96965861 76371055.407984555 0 0 0 0 364426640.86929321 -125064207.93432313 0 -125064207.93432313 103417778.06174636 0 0 0 0 419302661.04022217 -145018587.75654629 0 -145018587.75654629 36372092.311331034 0 0 0 0 427850412.60396576 -170618452.80556631 0 -170618452.80556631 36332313.538756728 0 0 0 0 453947869.07975769 -150816627.39415139 0 -150816627.39415139 69975285.570425391 0 0 0 0 444189486.25881958 -183488943.95202333 0 -183488943.95202333 45647584.342909545 0 0 0 0 414262993.7518158 -146789763.68427747 0 -146789763.68427747 93326453.933736026 0 0 0 0 423224513.97624969 -158160386.15389392 0 -158160386.15389392 103164066.7948297 0 0 0 0 516052868.62789917 -182132423.77465114 0 -182132423.77465114 72126790.858514786 0 0 0 0 494866829.32693481 -93093541.361944079 0 -93093541.361944079 134039266.65999134 0 0 0 0 700379256.77874756 -53934228.765023708 0 -53934228.765023708 90812088.439640969 0 0 0 0 535431808.03037262 -114801615.73204763 0 -114801615.73204763 117706130.81125122 0 0 0 0 539615016.37699127 -130362168.66811568 0 -130362168.66811568 81690618.220232457 0 0 0 0 741832464.72049713 -109316967.86801979 0 -109316967.86801979 37499403.201033652 0 0 0 0 860485902.72373962 -50481461.311485678 0 -50481461.311485678 51234536.595394909 0 0 0 0 787395798.81532288 -7958562.1579518318 0 -7958562.1579518318 88022252.181382209 0 0 0 0 739842849.25 -96382578.363847584 0 -96382578.363847584 99223977.414014578 0 0 0 0 757615502.70304871 -14015733.249174058 0 -14015733.249174058 96711640.632282212 0 0 0 0 789631168.09873772 -83713187.180347174 0 -83713187.180347174 151875059.68015426 0 0 0 0 863707666.56596375 33920104.360047087 0 33920104.360047087 160757706.47323316 0 0 0 0 1099403218.7545395 47001942.535027564 0 47001942.535027564 53010816.387559533 0 0 0 0 1132869792.3781166 3387618.1481393427 0 3387618.1481393427 15143622.90353179 0 0 0 0 1069403947.154356 -75989050.9826646 0 -75989050.9826646 30008320.64452374 0 0 0 0 1123320470.0025635 57577950.927835941 0 57577950.927835941 20759397.094860539 0 0 0 0 1167170179.428772 -14480851.494642317 0 -14480851.494642317 -9310737.9539394081 0 0 0 0 1018841311.6019659 -33799682.820432067 0 -33799682.820432067 53700820.89288044 0 0 0 0 1021568094.2673721 -64165844.018843681 0 -64165844.018843681 -15195103.889946759 0 0 0 0 805175459.59069824 -113695234.41240257 0 -113695234.41240257 64793011.295579195 0 0 0 0 978817358.94077301 1165906.3851383328 0 1165906.3851383328 16073097.481891036 0 0 0 0 796037554.8415451 -88384068.428563535 0 -88384068.428563535 15054370.520410657 0 0 0 0 601682009.04594421 -103026388.66639614 0 -103026388.66639614 81819957.126197696 0 0 0 0 855356607.32040405 -168719769.15293059 0 -168719769.15293059 -14174681.431280583 0 0 0 0 570585987.16161346 -222228618.44247204 0 -222228618.44247204 65355347.955966115 0 0 0 0 606013498.62735748 -221327167.16456163 0 -221327167.16456163 63916250.277045555 0 0 0 0 1675550.8811321072 492311.76135922968 0 492311.76135922968 457461.52127550368 0 0 0 0 468867961.75406265 -81792883.343495771 0 -81792883.343495771 91840154.948802471 0 0 0 0 588928742.2640686 -148921030.7694228 0 -148921030.7694228 32584947.817490041 0 0 0 0 600520415.32007408 -124538742.29786301 0 -124538742.29786301 1850892.5702803135 0 0 0 0 10206627.134811401 -352613.22534796206 0 -352613.22534796206 1423088.9201341942 0 0 0 0 16340.798297457397 167.00678014010191 0 167.00678014010191 4295.7825991070258 0 0 0 0 2590331.2779304236 261095.45388741791 0 261095.45388741791 -97467.72426637882 0 0 0 0 9498913.9767036438 -4004810.7476408123 0 -4004810.7476408123 57534.357502151746 0 0 0 0 611654452.15209198 -213862313.26032677 0 -213862313.26032677 69220990.260336429 0 0 0 0 3479688.3559756167 347233.10766272247 0 347233.10766272247 265532.08942441159 0 0 0 0 1830989.5823893845 698168.28683332726 0 698168.28683332726 447639.32745558611 0 0 0 0 802558532.12831116 -110851881.77804787 0 -110851881.77804787 77435450.872429669 0 0 0 0 609869802.71408463 -214368431.80669299 0 -214368431.80669299 123951738.13989991 0 0 0 0 865871052.8131485 -201373772.75114256 0 -201373772.75114256 77049303.685338318 0 0 0 0 702320068.22727966 -271325236.66164613 0 -271325236.66164613 -7446829.4077474475 0 0 0 0 1265552844.6394577 -254034264.86536512 0 -254034264.86536512 62856260.848961093 0 0 0 0 1243424806.0484009 24289498.98873499 0 24289498.98873499 37102451.125294775 0 0 0 0 1106942830.2953491 -92136024.529779553 0 -92136024.529779553 20107912.805183172 0 0 0 0 857952401.15837979 -100950599.06671745 0 -100950599.06671745 50518675.35646975 0 0 0 0 1082555688.2095852 -11491898.125798754 0 -11491898.125798754 45330358.824802279 0 0 0 0 1197572961.3315125 16559075.699390292 0 16559075.699390292 23534210.203289777 0 0 0 0 1210845638.8896027 -2477042.8264713883 0 -2477042.8264713883 15464328.834835619 0 0 0 0 1205285131.7715778 11174286.939697631 0 11174286.939697631 59192293.720808446 0 0 0 0 1266103288.0230122 29637741.017607488 0 29637741.017607488 12801071.310875379 0 0 0 0 1290441070.0541477 -52715583.84819603 0 -52715583.84819603 85703695.822974026 0 0 0 0 1255035609.9560413 -71033869.066845074 0 -71033869.066845074 57661575.066760093 0 0 0 0 1283888220.2060661 -16885000.137770515 0 -16885000.137770515 136884066.35520092 0 0 0 0 1482004122.7525024 -140609600.03434148 0 -140609600.03434148 113772.24316692135 0 0 0 0 1449518150.9915619 23346649.144640081 0 23346649.144640081 72702056.411555707 0 0 0 0 1618175687.6752052 -206055029.19994301 0 -206055029.19994301 -10698169.071462631 0 0 0 0 991354.22155057266 336318.59315606579 0 336318.59315606579 159148.7959784111 0 0 0 0 661217216.45178986 -237694593.93251729 0 -237694593.93251729 219149144.74860501 0 0 0 0 9797053.3937187195 362441.1052447306 0 362441.1052447306 5944.8955097597445 0 0 0 0 1349039512.4557648 -9767551.0131190028 0 -9767551.0131190028 -10883183.459062135 0 0 0 0 2093048.3227416612 -46764.433032296598 0 -46764.433032296598 -151147.45174087465 0 0 0 0 19804.240417240188 -535.00930038094521 0 -535.00930038094521 1304.0249873784394 0 0 0 0 7808011.5862579346 -1307190.2298436235 0 -1307190.2298436235 283901.38400712516 0 0 0 0 11914640.376373291 -2474351.5150180352 0 -2474351.5150180352 62371.359619016526 0 0 0 0 11391093.274105072 -2542456.2716838052 0 -2542456.2716838052 55113.882636704715 0 0 0 0 908971919.84228516 -137207508.82994521 0 -137207508.82994521 6793897.2489808388 0 0 0 0 452033996.7793045 -28024458.682130396 0 -28024458.682130396 66042452.727637589 0 0 0 0 668300643.08243704 -4521351.6455535069 0 -4521351.6455535069 -13881247.934722185 0 0 0 0 417165470.85811615 -27104040.016194582 0 -27104040.016194582 6937509.867490828 0 0 0 0 657476512.57957697 -72236983.84352155 0 -72236983.84352155 85424970.305605352 0 0 0 0 717508026.09545898 59933092.237801194 0 59933092.237801194 13793849.391177803 0 0 0 0 1419133470.9948616 -47192107.649637341 0 -47192107.649637341 -6543797.4540566206 0 0 0 0 1239253294.1500244 -44370077.488589033 0 -44370077.488589033 63798184.588374436 0 0 0 0 1120345164.6095505 37795128.557979703 0 37795128.557979703 61098000.26525528 0 0 0 0 1126908408.4561462 37053524.127292305 0 37053524.127292305 -13728323.626041986 0 0 0 0 1129777219.2226067 32514901.123259962 0 32514901.123259962 37082.544120714825 0 0 0 0 997308866.76747131 -95988729.890152439 0 -95988729.890152439 740351.65383598953 0 0 0 0 837222426.35766602 32806705.364338942 0 32806705.364338942 -42696.438582044342 0 0 0 0 656412153.92652893 33487197.057172779 0 33487197.057172779 12737150.428675324 0 0 0 0 479633233.19216156 50179646.512108915 0 50179646.512108915 69205.060101171388 0 0 0 0 673013768.85896301 -99236606.498453662 0 -99236606.498453662 27208283.98804713 0 0 0 0 391690292.33140564 -50283170.958378054 0 -50283170.958378054 1051505.5853060633 0 0 0 0 225554324.71862793 50881958.721706063 0 50881958.721706063 3830.5635565053235 0 0 0 0 236053325.75611877 14033401.482787728 0 14033401.482787728 -40096409.3402116 0 0 0 0 240906840.96081543 35845371.118092537 0 35845371.118092537 44649958.026916727 0 0 0 0 42754714.884666443 47815609.129205853 0 47815609.129205853 17610.06108676521 0 0 0 0 147794905.25626755 -11473020.71447425 0 -11473020.71447425 -4116590.4146271273 0 0 0 0 116385989.30773926 54667442.89729619 0 54667442.89729619 3532999.1584333554 0 0 0 0 38070366.637260437 -7198591.6878602281 0 -7198591.6878602281 -23924825.336638808 0 0 0 0 223030.08489758521 196197.45145887509 0 196197.45145887509 51908.674965581682 0 0 0 0 115294315.99002075 51134341.390991926 0 51134341.390991926 -43390503.94382596 0 0 0 0 125278121.93659782 28621074.604243025 0 28621074.604243025 -23259187.562558234 0 0 0 0 -52120206.147293091 -5944623.682141602 0 -5944623.682141602 74564349.62613368 0 0 0 0 138352417.55254364 23188699.180186927 0 23188699.180186927 -50386175.868366838 0 0 0 0 13317521.987350464 76696326.555869609 0 76696326.555869609 87269005.127826929 0 0 0 0 -85630532.779495239 118647877.36620027 0 118647877.36620027 82248421.067081809 0 0 0 0 448332037.02342987 4927710.6942485273 0 4927710.6942485273 -43021071.393025756 0 0 0 0 4274.8897792324424 231523.30159045383 0 231523.30159045383 127255.73778869654 0 0 0 0 292788723.31749725 20558010.874144495 0 20558010.874144495 42186460.664190054 0 0 0 0 267705838.81641769 80981550.966999292 0 80981550.966999292 20626910.1086092 0 0 0 0 427640646.20014381 733631.94071623683 0 733631.94071623683 15398748.913993359 0 0 0 0 303423909.5022583 46200402.729956627 0 46200402.729956627 54634543.836167097 0 0 0 0 293977744.46401978 8750041.7194259167 0 8750041.7194259167 39733375.175002813 0 0 0 0 301046295.18096924 36440082.973659992 0 36440082.973659992 10951449.327132463 0 0 0 0 248073205.82131958 41612239.688312531 0 41612239.688312531 40515261.2502563 0 0 0 0 233768294.4586792 75694079.259257555 0 75694079.259257555 2438134.1963908672 0 0 0 0 259572942.44302368 90697856.16663909 0 90697856.16663909 -11066583.72303772 0 0 0 0 257222824.99547577 19476742.932984591 0 19476742.932984591 -36587884.401282072 0 0 0 0 245471918.62045145 78644516.298643857 0 78644516.298643857 -20046379.642590523 0 0 0 0 202172668.81074905 48836318.259454906 0 48836318.259454906 -176749.06547021866 0 0 0 0 200628329.79855347 59530806.474414229 0 59530806.474414229 19261738.279364586 0 0 0 0 295548975.94259 72655577.066340417 0 72655577.066340417 -10336236.616977215 0 0 0 0 50640384.476350784 -10227588.396364957 0 -10227588.396364957 25024480.385873556 0 0 0 0 138108.73423832655 871370.18081084266 0 871370.18081084266 -80655.557026336202 0 0 0 0 58704546.321166992 96171318.509235382 0 96171318.509235382 49462117.501134992 0 0 0 0 2338563.471436739 28293121.87357039 0 28293121.87357039 11801379.660438061 0 0 0 0 4093200.7332687378 -23360889.322868824 0 -23360889.322868824 -25418092.294060424 0 0 0 0 104355962.64762878 7303184.2269687653 0 7303184.2269687653 -9234632.0320215225 0 0 0 0 60770895.399017334 40997193.204129934 0 40997193.204129934 -5532398.3683327734 0 0 0 0 102018874.27012634 34416356.644616365 0 34416356.644616365 5201569.9012360573 0 0 0 0 128669206.81927109 -31205358.351438642 0 -31205358.351438642 -25723290.194862366 0 0 0 0 425203637.25154114 -58026162.204964876 0 -58026162.204964876 -23638421.48400116 0 0 0 0 570092.5952616334 382203.21211068332 0 382203.21211068332 -65419.334877320565 0 0 0 0 -530800.98296928406 -70324795.3021487 0 -70324795.3021487 -243427170.59776115 0 0 0 0 -1363.7031741738319 480134.78798294067 0 480134.78798294067 -76629.769866175484 0 0 0 0 1453207.3510906249 1029711.1277573332 0 1029711.1277573332 -247959.52468533535 0 0 0 0 11775031.768508911 36580606.122452021 0 36580606.122452021 -144520118.74876833 0 0 0 0 60933606.851043701 93020033.510318279 0 93020033.510318279 -174959656.52440333 0 0 0 0 196777969.70899963 124035024.47852993 0 124035024.47852993 -251248940.71558094 0 0 0 0 57612901.497753143 124974810.98368359 0 124974810.98368359 9516990.8852791786 0 0 0 0 49402402.210586548 237287526.69552755 0 237287526.69552755 63862021.720315933 0 0 0 0 264160251.69921875 57943268.539762497 0 57943268.539762497 -5253348.3589994907 0 0 0 0 245288659.6513443 70779450.24805522 0 70779450.24805522 23832376.365889549 0 0 0 0 -48496283.835479736 238492469.58335495 0 238492469.58335495 90364983.864747047 0 0 0 0 -78213528.433174133 169177570.84961653 0 169177570.84961653 48860515.184724808 0 0 0 0 122546738.94119263 298848507.46584439 0 298848507.46584439 18274752.331180573 0 0 0 0 34542467.704849243 226180366.7441268 0 226180366.7441268 63934324.560497522 0 0 0 0 59300722.136245728 239372793.41607404 0 239372793.41607404 -29560402.219594002 0 0 0 0 1013934.6769535616 -32228.543363966048 0 -32228.543363966048 -154953.48929901887 0 0 0 0 40395152.538830757 -147243916.2557191 0 -147243916.2557191 129013948.66353321 0 0 0 0 175599548.47209167 -161331292.78034914 0 -161331292.78034914 -168432373.81769037 0 0 0 0 225974672.41690063 -65808187.291670322 0 -65808187.291670322 -61781179.631712675 0 0 0 0 226266582.3604126 62536416.061564922 0 62536416.061564922 -137704253.77098846 0 0 0 0 126503604.79431343 125640779.6511355 0 125640779.6511355 -63263791.411571503 0 0 0 0 199782868.87034607 58044934.190714359 0 58044934.190714359 -6038588.1076273918 0 0 0 0 229769044.67290497 109946008.07476467 0 109946008.07476467 -22332654.123771191 0 0 0 0 326291056.65899658 159138127.92714477 0 159138127.92714477 64814706.39396143 0 0 0 0 219813691.63887405 49011383.299735308 0 49011383.299735308 -42020528.409664154 0 0 0 0 48521647.688768387 16788000.112731636 0 16788000.112731636 -61981262.795491219 0 0 0 0 41920642.829368591 -9136392.0635032654 0 -9136392.0635032654 -62557023.642066002 0 0 0 0 62844190.957321167 8034182.2746696472 0 8034182.2746696472 -49327863.564971447 0 0 0 0 26971365.062286377 11489005.808875799 0 11489005.808875799 -42065653.403989792 0 0 0 0 27202569.269592285 33324366.215058565 0 33324366.215058565 -33336449.308265686 0 0 0 0 8053129.0046434402 33478925.311999321 0 33478925.311999321 -9760415.7873888016 0 0 0 0 7032416.0155982971 23870058.064676896 0 23870058.064676896 -10377135.787690163 0 0 0 0 9075293.3020496368 29983303.499555469 0 29983303.499555469 -46471721.970510483 0 0 0 0 11293552.643417358 11810300.826725483 0 11810300.826725483 -52164557.985648155 0 0 0 0 9244753.7606773227 1109876.3772835974 0 1109876.3772835974 -470523.72799437935 0 0 0 0 17741936.763015747 27155207.35308218 0 27155207.35308218 -99915449.716497898 0 0 0 0 2327494.4068155289 29327180.815700233 0 29327180.815700233 -67518661.405422211 0 0 0 0 39508327.278869629 -469667.17505741119 0 -469667.17505741119 -111622056.2704587 0 0 0 0 1794296.5392791033 2468134.1152781313 0 2468134.1152781313 -243668.03317881422 0 0 0 0 7453568.814743042 22744203.481403351 0 22744203.481403351 -12676456.117067337 0 0 0 0 7176740.9730987549 -5295565.0690412521 0 -5295565.0690412521 -72230912.647008896 0 0 0 0 -31805286.545387268 -17802759.01253742 0 -17802759.01253742 10750612.12612772 0 0 0 0 9928580.9478149414 6761097.2586164474 0 6761097.2586164474 -68130500.551670074 0 0 0 0 5317619.3400421143 -32414817.770289898 0 -32414817.770289898 -23831379.531915665 0 0 0 0 47276884.854797363 -188555912.02257919 0 -188555912.02257919 28305103.905518055 0 0 0 0 245213868.26042175 -119326137.1823473 0 -119326137.1823473 36792013.197461069 0 0 0 0 4227678.0707931519 -95250220.340348482 0 -95250220.340348482 92080459.616273403 0 0 0 0 497429.21329788864 239257.1861303458 0 239257.1861303458 19303.732863587327 0 0 0 0 111083142.81344986 -220013495.3978526 0 -220013495.3978526 -72082339.537957191 0 0 0 0 28042850.727752686 37271855.134408355 0 37271855.134408355 -22075358.080679893 0 0 0 0 133496211.15330505 -144051699.32609558 0 -144051699.32609558 -206125654.98839474 0 0 0 0 93892826.320007324 26478848.248668194 0 26478848.248668194 -208030819.81202692 0 0 0 0 46277399.647148132 -38415366.210497379 0 -38415366.210497379 -87819435.422597885 0 0 0 0 62969840.872741699 -15776791.682398796 0 -15776791.682398796 -69970676.510123551 0 0 0 0 74199843.19871521 -68936142.129502296 0 -68936142.129502296 -57063903.926404953 0 0 0 0 71854003.392868042 -79514933.391002655 0 -79514933.391002655 -70330489.940676689 0 0 0 0 90621469.11844635 -9444641.9026995897 0 -9444641.9026995897 -68011762.691352844 0 0 0 0 84746895.075698853 -19435489.913521767 0 -19435489.913521767 -83767214.211110592 0 0 0 0 77025915.149669647 15852488.340053439 0 15852488.340053439 -31589111.447665215 0 0 0 0 168731908.30929565 22743162.710980535 0 22743162.710980535 -33656246.539985418 0 0 0 0 109676750.96379852 -7403791.0264532566 0 -7403791.0264532566 -69541303.008935452 0 0 0 0 59132107.812042236 -22281092.901683927 0 -22281092.901683927 -5706711.8973848522 0 0 0 0 46412015.694816589 6567705.0306894779 0 6567705.0306894779 -8234498.8126358986 0 0 0 0 1237349.2705563307 1133530.8006641641 0 1133530.8006641641 134822.17040016688 0 0 0 0 -33942574.63243103 20775111.662760437 0 20775111.662760437 21685198.873294473 0 0 0 0 71723822.06438446 -20296774.113787532 0 -20296774.113787532 17828319.242976189 0 0 0 0 273543579.19078064 -20977411.061260462 0 -20977411.061260462 17807380.621952515 0 0 0 0 509347.1114994958 372066.05644781888 0 372066.05644781888 12977.146544263174 0 0 0 0 135580492.20226288 122290691.74050415 0 122290691.74050415 122045110.69177115 0 0 0 0 62787888.563346863 68829649.17502892 0 68829649.17502892 38087040.977606297 0 0 0 0 10225274.386390686 32616215.065960407 0 32616215.065960407 129676925.10645795 0 0 0 0 71513440.23690033 48945215.481051803 0 48945215.481051803 40238891.422378302 0 0 0 0 38194249.870544434 41589164.208464622 0 41589164.208464622 8026835.4652200341 0 0 0 0 26615545.171310425 38199400.798907518 0 38199400.798907518 7575359.1015825272 0 0 0 0 72515823.156559467 40672157.056613661 0 40672157.056613661 -26668079.182574749 0 0 0 0 70635136.987030029 3337231.0627944469 0 3337231.0627944469 -47238260.411724806 0 0 0 0 29296120.793655396 43163514.625284672 0 43163514.625284672 647075.71065926552 0 0 0 0 22676873.430496216 61517613.980304718 0 61517613.980304718 40076228.844177961 0 0 0 0 -3195456.1103363037 39588392.138543367 0 39588392.138543367 23070655.299923182 0 0 0 0 -18731097.765800476 36428362.613805294 0 36428362.613805294 59804564.62579453 0 0 0 0 10575849.266367912 34763406.206121512 0 34763406.206121512 41858172.506021738 0 0 0 0 -33809924.961105347 14773191.268916726 0 14773191.268916726 65221430.759922981 0 0 0 0 25345509.680099487 -13574149.702461243 0 -13574149.702461243 25597115.09079659 0 0 0 0 45036081.23714447 23907880.527719468 0 23907880.527719468 54511141.211277008 0 0 0 0 45090995.423103333 -1593869.2418271601 0 -1593869.2418271601 252430994.46316385 0 0 0 0 22950580.171905518 -14417272.9132514 0 -14417272.9132514 98562562.698589921 0 0 0 0 112894519.7930603 -46014162.116477251 0 -46014162.116477251 8441235.6781688929 0 0 0 0 46032291.685577393 8591815.8307252526 0 8591815.8307252526 -35903825.802979052 0 0 0 0 31877830.336090088 -33817588.037875414 0 -33817588.037875414 6729263.4911068678 0 0 0 0 -38579126.12655735 -49607548.698914081 0 -49607548.698914081 3850494.0048183203 0 0 0 0 -32881927.133413315 9692087.3766453154 0 9692087.3766453154 -13649970.73766911 0 0 0 0 -7557097.0309486389 -22318446.579018921 0 -22318446.579018921 -23896861.561006546 0 0 0 0 -21864372.534255981 -9036717.1551671028 0 -9036717.1551671028 32729406.980961442 0 0 0 0 -21600080.02448082 -18641952.361232042 0 -18641952.361232042 147557646.60718834 0 0 0 0 111050596.12264252 140424679.30596757 0 140424679.30596757 118950611.68161935 0 0 0 0 215037198.89923859 -72858710.353098512 0 -72858710.353098512 22315841.475170493 0 0 0 0 120217081.1221323 14242640.662621189 0 14242640.662621189 -50034466.260593176 0 0 0 0 94186699.471603394 14863230.152381063 0 14863230.152381063 -47584579.246827126 0 0 0 0 -43358459.844036102 -5764652.0272073895 0 -5764652.0272073895 -18756215.908621073 0 0 0 0 -30403908.854595184 68887711.680403143 0 68887711.680403143 -18135812.953057073 0 0 0 0 15120805.492622375 126254278.86510915 0 126254278.86510915 -56156576.294959687 0 0 0 0 462111.70854946226 369316.9098732993 0 369316.9098732993 30730.739527084981 0 0 0 0 69202896.85338974 -12950640.388287961 0 -12950640.388287961 -62208885.898179531 0 0 0 0 393810.1581409052 209468.11768098176 0 209468.11768098176 -195489.97542488971 0 0 0 0 -57222301.822410583 39441978.309252575 0 39441978.309252575 -27163.59257290465 0 0 0 0 162140283.65603638 -35696029.24504628 0 -35696029.24504628 -60355929.357844271 0 0 0 0 -10568737.960128784 6827018.1625115508 0 6827018.1625115508 -12343200.80053089 0 0 0 0 -66928172.578212738 -32711380.29057619 0 -32711380.29057619 130087.98687589169 0 0 0 0 -49160074.09828186 22917995.621183336 0 22917995.621183336 -44820368.071232796 0 0 0 0 -97914095.728652954 5166472.5351706296 0 5166472.5351706296 -16010553.617401153 0 0 0 0 -41026991.180786133 -11509822.193033561 0 -11509822.193033561 -46211444.966354325 0 0 0 0 -65921934.929702759 -46329054.645397067 0 -46329054.645397067 -53131827.571454644 0 0 0 0 -28027.759666115046 12188.131988101639 0 12188.131988101639 -3394.9535557299969 0 0 0 0 -11827758.122299194 -11184740.881458163 0 -11184740.881458163 -18692320.703603625 0 0 0 0 79953883.940155029 7823050.0424846709 0 7823050.0424846709 -45940657.284335941 0 0 0 0 91160606.555297852 26470858.894491866 0 26470858.894491866 -73874359.747876167 0 0 0 0 19807603.218711853 50960191.911596835 0 50960191.911596835 -39998979.502396703 0 0 0 0 -41995418.81993103 30101250.279996037 0 30101250.279996037 -38748857.375140272 0 0 0 0 -45939648.909088135 104361450.01522119 0 104361450.01522119 110358.29782122055 0 0 0 0 180711536.20766449 26223703.542089831 0 26223703.542089831 -87132893.093626678 0 0 0 0 110666599.2926178 97079856.311980665 0 97079856.311980665 -49249572.180549741 0 0 0 0 -153220118.64741516 -4845044.1646190882 0 -4845044.1646190882 19024373.039673626 0 0 0 0 -232262.03914643824 186540.24377667904 0 186540.24377667904 23813.340698282278 0 0 0 0 -208833.32153320312 141973.63360268396 0 141973.63360268396 126.08413225564661 0 0 0 0 -170015.56087493896 120462.75549095948 0 120462.75549095948 -83610.650206382939 0 0 0 0 -39762.605661727488 55291.820159566589 0 55291.820159566589 -115691.61726075005 0 0 0 0 987622.46796417236 1066239.1140972963 0 1066239.1140972963 -1820900.0242294706 0 0 0 0 1510104.6749649048 -946024.17071438348 0 -946024.17071438348 78587.969104970805 0 0 0 0 2001580.3707199097 237423.48058169556 0 237423.48058169556 -4419560.1917607868 0 0 0 0 -143200.55187606812 71907.902752480135 0 71907.902752480135 -489.42922399514191 0 0 0 0 -2469284.2286987305 -1600363.2306824857 0 -1600363.2306824857 918511.42072862759 0 0 0 0 -30696.07675434649 16776.514357732609 0 16776.514357732609 -50241.345711483482 0 0 0 0 151838.04425811768 113014.52260581515 0 113014.52260581515 -123936.48874434119 0 0 0 0 526450.76498413086 -105035.66453218933 0 -105035.66453218933 1430.8064427591808 0 0 0 0 -663185.67977905273 4480959.0661442298 0 4480959.0661442298 -5107742.4832317838 0 0 0 0 1349218.9513473511 1795207.9344052821 0 1795207.9344052821 -8432027.3272145167 0 0 0 0 -81899.342451170087 -239257.66781565221 0 -239257.66781565221 117887.76764449434 0 0 0 0 -2725947.9665985107 2540266.659309769 0 2540266.659309769 -6064377.761087941 0 0 0 0 -8356933.4890594482 3374212.2973526111 0 3374212.2973526111 -1344151.7219223659 0 0 0 0 -2596315.4910049438 3889318.0829079384 0 3889318.0829079384 -2745170.0690919966 0 0 0 0 -2863688.8294906616 -1096052.0312990546 0 -1096052.0312990546 612642.6147575397 0 0 0 0 -1297195.7298295721 42733.836854156107 0 42733.836854156107 288424.91892173217 0 0 0 0 -5731217.3667736053 -1465958.380540669 0 -1465958.380540669 4918278.3119995594 0 0 0 0 -4234353.004524231 3044435.3540892601 0 3044435.3540892601 -1368653.4875001907 0 0 0 0 -28469.884742736816 1338452.9229221707 0 1338452.9229221707 -259173.9591908399 0 0 0 0 -596425.34312659502 219133.90625072643 0 219133.90625072643 447306.00540254568 0 0 0 0 -508821.11408996582 1831108.3455022946 0 1831108.3455022946 -421642.05337898154 0 0 0 0 -480653.17348098755 919543.48958631977 0 919543.48958631977 -685544.79369254992 0 0 0 0 -32697022.50176239 26049288.897667885 0 26049288.897667885 13189166.550801158 0 0 0 0 -55438800.834266663 -529333.26841729879 0 -529333.26841729879 32171181.857517481 0 0 0 0 -392925.35515672714 510554.30353082716 0 510554.30353082716 -191419.82388736564 0 0 0 0 32992851.605178833 -18310409.536185075 0 -18310409.536185075 -20703829.543865856 0 0 0 0 75740588.403144836 15904596.227795083 0 15904596.227795083 -8075128.1710066088 0 0 0 0 30613480.040512085 5617728.7191815227 0 5617728.7191815227 -10243787.027227473 0 0 0 0 28310606.958507538 3632275.4252483682 0 3632275.4252483682 -15640.148333291178 0 0 0 0 31803403.300479889 1774842.4029586054 0 1774842.4029586054 -3163044.3225002317 0 0 0 0 26940670.897968292 7764519.9016345087 0 7764519.9016345087 -3749981.5337816104 0 0 0 0 33883409.525665283 10323949.449352294 0 10323949.449352294 -3470649.0797986425 0 0 0 0 17587349.512023926 6272093.2312914999 0 6272093.2312914999 -7619.3899539383347 0 0 0 0 3686542.8616294861 3751890.34449036 0 3751890.34449036 1710839.5432286481 0 0 0 0 17030023.622070312 15751000.618165631 0 15751000.618165631 5285790.5370370038 0 0 0 0 14753187.421867371 22761362.952972874 0 22761362.952972874 23169501.543465383 0 0 0 0 6441557.3320617676 2175219.8808552194 0 2175219.8808552194 2090480.7026660771 0 0 0 0 3512007.0838775635 1259147.4716971219 0 1259147.4716971219 -697582.27385425195 0 0 0 0 -658905.01721191406 1170004.7404151149 0 1170004.7404151149 632582.07664168347 0 0 0 0 77050.488343179226 115544.77537105978 0 115544.77537105978 -147146.22249869883 0 0 0 0 -8781540.6181030273 5301959.1689563198 0 5301959.1689563198 4313.2145145304185 0 0 0 0 16047653.903003693 7367162.5290752379 0 7367162.5290752379 770796.62641119491 0 0 0 0 -274800.21778794378 236224.65967160463 0 236224.65967160463 -177755.76440785851 0 0 0 0 -7361127.0775146484 -1115816.1565942941 0 -1115816.1565942941 -1946349.5385463829 0 0 0 0 -13844.116471245885 6443.1041138758883 0 6443.1041138758883 -13428.041862208775 0 0 0 0 -3324565.4798278809 6586720.2569387946 0 6586720.2569387946 -3022943.3197320239 0 0 0 0 -2094565.5724716187 5490092.4541497268 0 5490092.4541497268 -5783043.7424154589 0 0 0 0 -1358484.3956298828 501595.09090785688 0 501595.09090785688 1152168.3630040681 0 0 0 0 -465130.73413445055 334098.3097470589 0 334098.3097470589 -148888.9760922096 0 0 0 0 -370952.27082061768 1170999.9268516446 0 1170999.9268516446 -188340.52839094866 0 0 0 0 -2619074.0664672852 3116422.9752005488 0 3116422.9752005488 -3713030.0955092944 0 0 0 0 -2064096.0133027434 955454.97210350074 0 955454.97210350074 474717.86267018004 0 0 0 0 -6321757.8738212585 3791220.1124406755 0 3791220.1124406755 873617.95268046856 0 0 0 0 -4215836.3076076508 2399224.6811338216 0 2399224.6811338216 -2368423.0643203259 0 0 0 0 -7023765.0918617249 12738194.217265666 0 12738194.217265666 17275236.974187195 0 0 0 0 4985500.8843078613 -8330162.7774146795 0 -8330162.7774146795 2188978.200483501 0 0 0 0 2284847.2834376283 1307138.7853642367 0 1307138.7853642367 -920894.80581489729 0 0 0 0 9143327.2509155273 2703222.3138178289 0 2703222.3138178289 -26560969.766448475 0 0 0 0 908527.32999938726 240565.6881116014 0 240565.6881116014 -428108.35822733282 0 0 0 0 19741637.179229736 26871152.670674235 0 26871152.670674235 24274397.527737558 0 0 0 0 10456504.334030151 -26387311.141402602 0 -26387311.141402602 58878424.019847125 0 0 0 0 12094293.357421875 -12088629.340172946 0 -12088629.340172946 26757426.374475241 0 0 0 0 14198256.862968445 32675473.457567096 0 32675473.457567096 41924109.947734714 0 0 0 0 3873559.2916412354 140840.09045100212 0 140840.09045100212 43494362.909133077 0 0 0 0 166597573.97950745 39732158.820173182 0 39732158.820173182 5946360.6868948042 0 0 0 0 311260.26271279156 -5478.9700955832377 0 -5478.9700955832377 -109822.63161055633 0 0 0 0 77077951.827335358 -50317197.350984424 0 -50317197.350984424 -17461017.317087993 0 0 0 0 253183.42650479078 138475.08920313045 0 138475.08920313045 -19737.430587014329 0 0 0 0 87258119.519592285 64618067.51922933 0 64618067.51922933 47273127.451119401 0 0 0 0 93882243.263381958 -196747357.3745786 0 -196747357.3745786 -20890387.509561956 0 0 0 0 181526566.32861328 6210790.2221340984 0 6210790.2221340984 -22066555.191827454 0 0 0 0 86459090.343849182 -1146526.908593297 0 -1146526.908593297 -14716447.816665769 0 0 0 0 11662843.563847542 -6608747.8927079253 0 -6608747.8927079253 -15027585.668043375 0 0 0 0 12330415.088876575 1464306.2881404478 0 1464306.2881404478 -910011.46083417628 0 0 0 0 24488560.536437988 9629890.6278598905 0 9629890.6278598905 -51367726.697378874 0 0 0 0 15487388.590621948 -17201024.689169049 0 -17201024.689169049 -6778770.3154357672 0 0 0 0 11378759.13923645 -1705387.6267163455 0 -1705387.6267163455 -30626457.951864958 0 0 0 0 2374340.4790115356 -9559323.4511557817 0 -9559323.4511557817 4390190.3067362309 0 0 0 0 3450377.2903339267 1165382.2590346225 0 1165382.2590346225 -1081614.6971989281 0 0 0 0 -16299698.699409485 10011873.004839778 0 10011873.004839778 244124.35531237721 0 0 0 0 2605400.3361854553 -9268121.7342083156 0 -9268121.7342083156 -730267.68670785427 0 0 0 0 6675727.1247825623 -604774.70668831468 0 -604774.70668831468 -103652.85792446136 0 0 0 0 -65689355.415100098 173191816.45420313 0 173191816.45420313 -224147533.63776278 0 0 0 0 -88224076.564353943 107931136.36031067 0 107931136.36031067 -63117799.56443882 0 0 0 0 -88681515.095561981 249851230.9011265 0 249851230.9011265 -427283896.63492298 0 0 0 0 11243425.091379732 2558240.3452347536 0 2558240.3452347536 -333742.61834769137 0 0 0 0 108884897.08496857 39668301.342526436 0 39668301.342526436 -489886702.90763044 0 0 0 0 -195874699.51028252 70869412.678250432 0 70869412.678250432 -6098060.8236517906 0 0 0 0 -20688443.217041016 134384293.39035749 0 134384293.39035749 3141244.5862669945 0 0 0 0 -56533489.654026985 16413461.501902729 0 16413461.501902729 260059872.00855064 0 0 0 0 606681740.46017456 -302090453.18715739 0 -302090453.18715739 348394411.33723116 0 0 0 0 -183804701.36917877 385292871.44648743 0 385292871.44648743 324405112.78052521 0 0 0 0 -123219920.18564987 -205934843.20632458 0 -205934843.20632458 -506327371.4800756 0 0 0 0 108777703.96826172 661374884.23263431 0 661374884.23263431 -907445305.57542694 0 0 0 0 51170656.566696167 20619934.447628975 0 20619934.447628975 14607398.306002617 0 0 0 0 12167399.800079346 -1753715.7664215565 0 -1753715.7664215565 81955570.39344883 0 0 0 0 -3711801.1522827148 41772177.79936409 0 41772177.79936409 93864952.764384747 0 0 0 0 -2251100.2374572754 11881983.836260557 0 11881983.836260557 74057432.293034792 0 0 0 0 8274605.0466003418 16438400.194252968 0 16438400.194252968 -11484974.805977821 0 0 0 0 12493092.309585571 31946142.901168823 0 31946142.901168823 16036060.135412574 0 0 0 0 21190753.188568115 10748709.62114048 0 10748709.62114048 -1400474.2251353264 0 0 0 0 952702.63604736328 13664519.159172535 0 13664519.159172535 26265913.090703011 0 0 0 0 119225.00473022461 18364400.24327755 0 18364400.24327755 30452251.87138176 0 0 0 0 -3668456.7641143799 21269328.963311195 0 21269328.963311195 13116848.260193348 0 0 0 0 -2959930.4381103516 29423415.707231998 0 29423415.707231998 4338414.308921814 0 0 0 0 -3973904.9126777649 37364199.426475346 0 37364199.426475346 22655268.437584877 0 0 0 0 -13383857.265045166 33799187.864455938 0 33799187.864455938 46765622.85943079 0 0 0 0 7655706.8613586426 15248615.95072031 0 15248615.95072031 31516066.58082056 0 0 0 0 -13940106.91116333 30812382.977901936 0 30812382.977901936 34719965.140823603 0 0 0 0 -8816476.6153411865 18167020.833505869 0 18167020.833505869 62942575.36288929 0 0 0 0 -123176.94778442383 63773330.617034912 0 63773330.617034912 3759717.4980921745 0 0 0 0 -5995678.849571228 18576639.950479507 0 18576639.950479507 -3692079.246899128 0 0 0 0 -1908492.3493347168 40157990.337252617 0 40157990.337252617 50749690.324471951 0 0 0 0 -23170828.292030334 22005574.117835999 0 22005574.117835999 29485203.78919363 0 0 0 0 -16723553.389099121 25760187.975883961 0 25760187.975883961 37948746.416382313 0 0 0 0 -18696062.475006104 36888718.507217407 0 36888718.507217407 46053893.134786487 0 0 0 0 3171850.2687988281 -1080020.7411227226 0 -1080020.7411227226 5283134.8041453362 0 0 0 0 12884429.55266571 -18261116.629313469 0 -18261116.629313469 9879941.8435473442 0 0 0 0 33586845.423797607 48690878.742072105 0 48690878.742072105 63764804.906169415 0 0 0 0 -279847.25195903331 204406.37670319155 0 204406.37670319155 285430.23839171417 0 0 0 0 -30620.245577357709 43848.796930085868 0 43848.796930085868 -50178.590531671885 0 0 0 0 -2290246.4968223572 -5558941.661907196 0 -5558941.661907196 15244322.986683369 0 0 0 0 -2081331.2765102386 8594856.0217711627 0 8594856.0217711627 7969873.6756682396 0 0 0 0 -11523083.798835754 964505.43206369877 0 964505.43206369877 4369197.9584789276 0 0 0 0 -13690437.043556213 22242435.748816252 0 22242435.748816252 -4019217.9593675137 0 0 0 0 -9601988.787689209 19563481.408510685 0 19563481.408510685 -7838563.9039165974 0 0 0 0 -10147607.137161255 17861274.328285694 0 17861274.328285694 25406440.156264782 0 0 0 0 -7930567.4774093628 16648373.290914655 0 16648373.290914655 -4138315.2649950981 0 0 0 0 6381419.5479431152 36207708.233820915 0 36207708.233820915 -5083623.2176837921 0 0 0 0 -13419033.2576828 20191479.151150465 0 20191479.151150465 -1614992.3902802467 0 0 0 0 2145345.3349761963 21046132.187865257 0 21046132.187865257 -29191952.541668892 0 0 0 0 12252449.092070773 1679149.6265716269 0 1679149.6265716269 -888408.75732340454 0 0 0 0 3866706.6984863281 32432101.591641426 0 32432101.591641426 -37081896.22285521 0 0 0 0 -28075947.461212158 145735379.92171097 0 145735379.92171097 -299850564.79366088 0 0 0 0 6153040.3700726032 1093888.7332601994 0 1093888.7332601994 -1776244.8594915248 0 0 0 0 9093268.1592491567 4006882.6201339327 0 4006882.6201339327 448826.13010793494 0 0 0 0 10925603.835426331 -1647681.977440238 0 -1647681.977440238 -8750463.708407402 0 0 0 0 1227351.9638028704 258915.58984418586 0 258915.58984418586 -627925.14574332628 0 0 0 0 -82557155.053630829 145850226.24837482 0 145850226.24837482 -124732113.68010759 0 0 0 0 -47189330.199768066 125635981.39464474 0 125635981.39464474 -229195001.82121086 0 0 0 0 -74695494.73348999 120862414.45852566 0 120862414.45852566 -226078481.62896919 0 0 0 0 18289694.87184906 6164763.6582742929 0 6164763.6582742929 -117025478.90588999 0 0 0 0 -22662881.411727905 96962770.801776409 0 96962770.801776409 -114169929.17005634 0 0 0 0 -40414932.908370972 93348871.187432289 0 93348871.187432289 -111855595.27470636 0 0 0 0 -64541236.567062378 145697893.23966742 0 145697893.23966742 -148460704.96533966 0 0 0 0 10717232.813362405 1635047.355073126 0 1635047.355073126 -474738.05295126431 0 0 0 0 -57889355.947250366 99544986.111003399 0 99544986.111003399 63947314.240380526 0 0 0 0 -11695897.564247131 -950779.08487582207 0 -950779.08487582207 -5088671.9824867249 0 0 0 0 65655106.886016846 4325918.8710250854 0 4325918.8710250854 -56990909.756251812 0 0 0 0 15472214.131370544 35400177.854082108 0 35400177.854082108 -79717385.472177744 0 0 0 0 839612.87260913849 9113946.4515889287 0 9113946.4515889287 -44989644.519804478 0 0 0 0 19420659.313201904 34212691.878084898 0 34212691.878084898 -33022612.725192547 0 0 0 0 1652389.5158538818 27135820.207192421 0 27135820.207192421 -11117155.50200057 0 0 0 0 3653412.5616760254 14632857.903849125 0 14632857.903849125 -25319899.72771883 0 0 0 0 6555677.5916595459 12635052.485820055 0 12635052.485820055 -12962881.745649576 0 0 0 0 6379386.6395721436 29560964.148193836 0 29560964.148193836 -41950949.044253349 0 0 0 0 -7694942.4622497559 21693001.765666008 0 21693001.765666008 -43684214.24090445 0 0 0 0 3484694.3468933105 7856859.1383354664 0 7856859.1383354664 -72564573.510140419 0 0 0 0 179293.3270983696 4215415.0972037185 0 4215415.0972037185 -367268.99244402058 0 0 0 0 -18944397.253738403 27867234.131649971 0 27867234.131649971 10299507.985230684 0 0 0 0 -18105050.002746582 23790826.2172153 0 23790826.2172153 -143112321.52819228 0 0 0 0 5760782.0527801514 2462747.9556064606 0 2462747.9556064606 -189801199.94658029 0 0 0 0 -18449793.667329788 17519243.192221761 0 17519243.192221761 -134485717.01066399 0 0 0 0 -10251.450708568096 1172823.068287414 0 1172823.068287414 -137687.93392849775 0 0 0 0 -18437149.935493469 1583429.7164502144 0 1583429.7164502144 -208914858.90763474 0 0 0 0 7314703.7229995728 65591124.15743804 0 65591124.15743804 -353330654.78257513 0 0 0 0 -39128852.294174194 35949454.310519218 0 35949454.310519218 -56552019.292203665 0 0 0 0 -54033838.649423122 86052708.592433557 0 86052708.592433557 -128755673.01414824 0 0 0 0 -50173697.586731911 38820612.029889673 0 38820612.029889673 -132157305.46289062 0 0 0 0 -32032797.939571381 39875544.115246475 0 39875544.115246475 -20413276.149153709 0 0 0 0 -27988544.187240601 66604587.017121553 0 66604587.017121553 -104085255.31092548 0 0 0 0 -39465183.947219849 88953837.454093218 0 88953837.454093218 24200459.336938679 0 0 0 0 -4287074.9703574143 68090357.8816562 0 68090357.8816562 36382970.656460881 0 0 0 0 -12140250.07963562 70309290.249878526 0 70309290.249878526 -41673920.778603762 0 0 0 0 -54745055.285144806 17555678.929635882 0 17555678.929635882 12410645.99916935 0 0 0 0 -150593824.2729187 28993062.060257673 0 28993062.060257673 125196536.20522952 0 0 0 0 -288445.70370064676 1279371.742459191 0 1279371.742459191 2286582.1028626519 0 0 0 0 -31027483.129057527 -12239394.668444857 0 -12239394.668444857 39723589.538537025 0 0 0 0 -30239228.751197815 30387119.079208016 0 30387119.079208016 18782894.052754819 0 0 0 0 -67490339.2396698 3398046.8155653477 0 3398046.8155653477 18844409.385409594 0 0 0 0 -8789027.6147155762 19837672.978155851 0 19837672.978155851 20690727.2710253 0 0 0 0 -66412101.752479553 37843817.259542942 0 37843817.259542942 -18199335.042560577 0 0 0 0 -4778343.2583312988 29396311.911902905 0 29396311.911902905 -31093571.869054794 0 0 0 0 -40546982.841209412 61047236.719582796 0 61047236.719582796 -114318495.05552053 0 0 0 0 -38428646.541809082 43904567.089727283 0 43904567.089727283 -38509731.055371761 0 0 0 0 -104063918.72233582 57290988.750151157 0 57290988.750151157 -33830967.160593152 0 0 0 0 -97685606.550369263 147398847.27941084 0 147398847.27941084 -194646095.5604496 0 0 0 0 -114588394.50772095 69339251.518330008 0 69339251.518330008 -98647625.527678013 0 0 0 0 -53457252.14931488 80602967.599273503 0 80602967.599273503 -83967858.402394295 0 0 0 0 -63971720.432662964 114645976.12234592 0 114645976.12234592 -179068428.68103266 0 0 0 0 -37340638.322517395 78711436.716939688 0 78711436.716939688 -89605752.188436031 0 0 0 0 -51894661.08530426 25800165.63675952 0 25800165.63675952 8623890.993432045 0 0 0 0 -3639472.192817688 75064151.4211936 0 75064151.4211936 -85635882.584059119 0 0 0 0 -86443046.722942352 28111870.109495342 0 28111870.109495342 87170304.355540276 0 0 0 0 913222.65917110443 862272.53652325273 0 862272.53652325273 988533.26527105481 0 0 0 0 30715368.280776024 -95126156.773952842 0 -95126156.773952842 102726266.55987644 0 0 0 0 -42901804.907577515 -741906.16116189957 0 -741906.16116189957 65134051.823709846 0 0 0 0 12485639.394752979 30122139.700992078 0 30122139.700992078 1890200.259431839 0 0 0 0 687048975.95845795 -314646290.09558237 0 -314646290.09558237 38130258.260442734 0 0 0 0 37425495.536567688 -159182655.22368932 0 -159182655.22368932 244367991.1392332 0 0 0 0 434552.58860864863 194473.04180138931 0 194473.04180138931 246152.31711307447 0 0 0 0 80361444.209793091 -48066574.798331976 0 -48066574.798331976 32661387.742120802 0 0 0 0 188401917.35319519 -35948431.815191507 0 -35948431.815191507 -149352608.14852142 0 0 0 0 173645972.06814957 -86984926.226571798 0 -86984926.226571798 53729815.728688717 0 0 0 0 533644.02236941177 330487.51372780278 0 330487.51372780278 3760586.9058088693 0 0 0 0 323308587.31913376 -118766445.78663969 0 -118766445.78663969 4697712.7455635071 0 0 0 0 245421840.49262238 -134756589.34117126 0 -134756589.34117126 61550481.563298166 0 0 0 0 265523733.79207993 -77909953.297174215 0 -77909953.297174215 4638315.7366662025 0 0 0 0 121890650.36101532 -105146697.25394011 0 -105146697.25394011 16956400.693637252 0 0 0 0 119351707.3015554 -74367587.990034223 0 -74367587.990034223 350942163.44570684 0 0 0 0 114507233.49341583 -46891414.248376846 0 -46891414.248376846 112928810.21533751 0 0 0 0 422018.69181294926 65116.399253509939 0 65116.399253509939 2520242.859835254 0 0 0 0 283488658.49474335 482281127.71476626 0 482281127.71476626 -70972262.39563179 0 0 0 0 609498.85589877144 1450291.7829864733 0 1450291.7829864733 1953767.1189190766 0 0 0 0 18445451.669647217 -61409616.54963398 0 -61409616.54963398 53120811.566467211 0 0 0 0 97787322.272758484 -293879232.29701543 0 -293879232.29701543 37980511.672573328 0 0 0 0 221597035.97779846 153179985.86478281 0 153179985.86478281 225302414.30169559 0 0 0 0 44440.19596430473 133979.31352267787 0 133979.31352267787 1656727.7639351678 0 0 0 0 314021997.17322159 108334528.99671102 0 108334528.99671102 75470914.121458054 0 0 0 0 -229699196.33291626 -218445920.88744736 0 -218445920.88744736 325669030.82739174 0 0 0 0 182843279.62034225 -203718688.48574302 0 -203718688.48574302 132962209.33774519 0 0 0 0 -77617974.865722656 -58135856.606682122 0 -58135856.606682122 51743360.117936254 0 0 0 0 222694094.05906487 101874125.14661124 0 101874125.14661124 68743107.192008018 0 0 0 0 238667585.49519348 10970247.032068253 0 10970247.032068253 -27122952.777101994 0 0 0 0 119345352.85512543 -56131897.113108635 0 -56131897.113108635 26969839.713909149 0 0 0 0 71625117.488739014 -38011059.336294651 0 -38011059.336294651 76797266.848697186 0 0 0 0 -63795951.392244339 -23648235.772577256 0 -23648235.772577256 90978811.915860057 0 0 0 0 350822.51664467901 1107434.7057523765 0 1107434.7057523765 4339500.0624959143 0 0 0 0 52284239.043130875 14056968.915649652 0 14056968.915649652 9877314.0266237259 0 0 0 0 144024786.56082153 -74303920.455145836 0 -74303920.455145836 33014787.451982498 0 0 0 0 -446521.09643258899 -50673.027106588706 0 -50673.027106588706 688677.07150228927 0 0 0 0 -51160248.495498657 11046399.893609166 0 11046399.893609166 -21739648.817268543 0 0 0 0 191703273.42595673 26160108.908124924 0 26160108.908124924 8226020.8920059204 0 0 0 0 221902687.00509644 86334605.518677235 0 86334605.518677235 44334242.0907619 0 0 0 0 193535048.53521729 66209586.590676785 0 66209586.590676785 126406278.55416012 0 0 0 0 85380520.348587036 -45625985.639665127 0 -45625985.639665127 419489250.33818293 0 0 0 0 119490929.71162415 -8707110.9873747826 0 -8707110.9873747826 181557094.21528101 0 0 0 0 213389321.83505249 103776649.72770166 0 103776649.72770166 77155567.872722149 0 0 0 0 182703.41278860206 32069.657954312861 0 32069.657954312861 1009696.3102606218 0 0 0 0 285480075.29367065 175897032.85317302 0 175897032.85317302 169528769.48995304 0 0 0 0 189619893.96667004 122255649.77371198 0 122255649.77371198 408030754.73453808 0 0 0 0 -149946755.18171692 144129530.5164361 0 144129530.5164361 466796158.96447659 0 0 0 0 206338293.54005814 -296593547.60076571 0 -296593547.60076571 -57252119.393414497 0 0 0 0 103661655.83808899 38105437.903676033 0 38105437.903676033 -238124697.30860615 0 0 0 0 92445560.724617481 -93805918.062362969 0 -93805918.062362969 61846811.669389725 0 0 0 0 193386135.61579895 -85751618.103328705 0 -85751618.103328705 47328819.638844013 0 0 0 0 -28633171.574630737 28171130.869277 0 28171130.869277 -32592294.981758356 0 0 0 0 170854875.69071198 -120383093.49817467 0 -120383093.49817467 5429506.7007312775 0 0 0 0 76067103.041755676 -24710016.980638981 0 -24710016.980638981 15695683.893145561 0 0 0 0 187672298.53092957 -74171582.425988197 0 -74171582.425988197 -67238782.397530556 0 0 0 0 202607845.74407578 -95257427.675218344 0 -95257427.675218344 -107247133.19318771 0 0 0 0 -34325852.426364899 -90307909.176903844 0 -90307909.176903844 -208256187.62448883 0 0 0 0 1066774.4337579086 266138.99522262812 0 266138.99522262812 -1553219.9869367289 0 0 0 0 -78010954.554267883 107592892.89138269 0 107592892.89138269 -75856914.388718605 0 0 0 0 5938160.4882488251 8317915.7226997614 0 8317915.7226997614 -6798297.1662855148 0 0 0 0 1358885.5740953572 1558950.6018269807 0 1558950.6018269807 -300426.30780019052 0 0 0 0 124082847.30405426 -43495085.034130573 0 -43495085.034130573 12215213.962557793 0 0 0 0 122060452.26763916 -45699248.353306293 0 -45699248.353306293 25338226.393505096 0 0 0 0 131457823.1608696 -28666112.451384306 0 -28666112.451384306 -2540622.7485227585 0 0 0 0 104716891.12285614 -25817338.181271553 0 -25817338.181271553 13318426.116415501 0 0 0 0 143907455.65632826 -52880786.851607978 0 -52880786.851607978 855433.44322013855 0 0 0 0 215249552.84611511 -136413976.48965192 0 -136413976.48965192 4474903.0179157257 0 0 0 0 345438.27497426793 155034.59906616062 0 155034.59906616062 -300454.78657497 0 0 0 0 163737228.43522835 -120334464.85952318 0 -120334464.85952318 56275788.7921772 0 0 0 0 139985263.11233521 -40900948.807390213 0 -40900948.807390213 69641819.46274662 0 0 0 0 108034929.48378277 -46976719.780656815 0 -46976719.780656815 20814090.631509781 0 0 0 0 -1830389.1898193359 -795268.97953605652 0 -795268.97953605652 1924771.1349310875 0 0 0 0 -175892.40295934677 22022209.223235533 0 22022209.223235533 -11570595.012895584 0 0 0 0 -65671191.16230011 101879451.47318268 0 101879451.47318268 -14510121.565636635 0 0 0 0 1172803.4515630454 3132753.7718115784 0 3132753.7718115784 5584476.4015788054 0 0 0 0 -85639662.811237335 42863334.332404852 0 42863334.332404852 21867232.5567379 0 0 0 0 -9540550.3879547119 40167266.655845165 0 40167266.655845165 4136923.0139269829 0 0 0 0 23200091.134132385 31665416.246377468 0 31665416.246377468 -79995544.668715954 0 0 0 0 95158902.260879517 38520077.844849586 0 38520077.844849586 -2800319.6083904207 0 0 0 0 1898839.9093475342 44839705.915403366 0 44839705.915403366 -1354225.0089693069 0 0 0 0 -24202271.189697266 57771305.109722912 0 57771305.109722912 127939228.95125318 0 0 0 0 -9419132.2951583862 34465708.462683201 0 34465708.462683201 -48792651.962674379 0 0 0 0 3054475.5925475881 4807411.946715299 0 4807411.946715299 5549347.281247858 0 0 0 0 -4062782.5055618286 89930098.22800684 0 89930098.22800684 -78722165.311388969 0 0 0 0 25707025.311126709 20283328.658304691 0 20283328.658304691 -51233916.139066696 0 0 0 0 23981227.354537964 3274028.619726181 0 3274028.619726181 -74160887.877235413 0 0 0 0 64336638.622406006 37639075.174678087 0 37639075.174678087 -52020432.669496298 0 0 0 0 33374874.540283203 70330294.782472134 0 70330294.782472134 -67836010.476634383 0 0 0 0 77360950.549316406 -36184704.817657471 0 -36184704.817657471 -99661567.245580196 0 0 0 0 88314906.308898926 -70457662.018125534 0 -70457662.018125534 1794174.6844379902 0 0 0 0 -8437166.3703155518 28040923.660629749 0 28040923.660629749 -52500699.863535166 0 0 0 0 54649410.676727295 4266016.5044541359 0 4266016.5044541359 -43806569.661826611 0 0 0 0 -10983960.64548564 -51254648.01312831 0 -51254648.01312831 -40629749.286382675 0 0 0 0 20181222.015197754 -20114550.100879431 0 -20114550.100879431 -16762802.920625448 0 0 0 0 3233596.8730697632 -19463484.074052453 0 -19463484.074052453 24682854.089507103 0 0 0 0 68211914.126319885 -50450711.634247303 0 -50450711.634247303 39443321.389162302 0 0 0 0 38986050.930282593 8747151.5612335205 0 8747151.5612335205 88007005.549914837 0 0 0 0 28507029.446968079 8719100.5955234766 0 8719100.5955234766 3861360.7413640022 0 0 0 0 82417364.717803955 27841645.764938474 0 27841645.764938474 5217134.4886496514 0 0 0 0 199505619.28131104 55998019.901782572 0 55998019.901782572 89226323.744470358 0 0 0 0 20808073.282821655 -34983558.603168488 0 -34983558.603168488 213054912.48181742 0 0 0 0 385702.95232009888 13463777.873845786 0 13463777.873845786 138184447.01907039 0 0 0 0 1475491.668888092 128513077.44123399 0 128513077.44123399 140691123.62145352 0 0 0 0 32722053.886825562 42357472.101716459 0 42357472.101716459 -6566549.8747709394 0 0 0 0 22521787.092140198 -160761458.5132252 0 -160761458.5132252 338314928.84578729 0 0 0 0 -490750.37607766688 496607.91479093395 0 496607.91479093395 1185902.1429109941 0 0 0 0 -3495376.4939041138 -48006593.828056455 0 -48006593.828056455 148545379.55482602 0 0 0 0 -77555450.937316895 -61279807.991450608 0 -61279807.991450608 183869035.12032413 0 0 0 0 -32802530.503936768 35030249.40813899 0 35030249.40813899 119947937.92231059 0 0 0 0 -62365244.067260742 21931399.128259599 0 21931399.128259599 115336493.9062767 0 0 0 0 6585336.2420959473 -19599415.440108538 0 -19599415.440108538 124846363.395715 0 0 0 0 -5755526.3574066162 71288977.340224028 0 71288977.340224028 330322841.74092972 0 0 0 0 16720363.539066315 6260917.33228302 0 6260917.33228302 -18386911.019328833 0 0 0 0 -7798407.6023101807 315561.38027477264 0 315561.38027477264 5791104.6247014999 0 0 0 0 -5335572.0356798172 -5925974.6988086104 0 -5925974.6988086104 -86464950.816021919 0 0 0 0 -10001912.48311615 -11006116.741099834 0 -11006116.741099834 44981174.307325363 0 0 0 0 4132466.5273208693 1292760.5615152861 0 1292760.5615152861 301561.83270561532 0 0 0 0 7460009.9562759399 -9859073.9604711533 0 -9859073.9604711533 26774384.251592159 0 0 0 0 7385382.70470047 -1871751.3510246277 0 -1871751.3510246277 23111573.3462677 0 0 0 0 -12788200.094833374 60384884.355029583 0 60384884.355029583 -24193719.79453373 0 0 0 0 15176552.032142639 -3057808.3887796402 0 -3057808.3887796402 -14774239.236205101 0 0 0 0 4328137.1915544868 849583.89501657709 0 849583.89501657709 -90661.192116270773 0 0 0 0 3444771.3676653765 -43472.590366477147 0 -43472.590366477147 -265815.1240098821 0 0 0 0 65216645.26890564 50379702 0 50379702 -32458878.060504913 0 0 0 0 -33025248.653508186 -836233.38829612732 0 -836233.38829612732 60835822.796767235 0 0 0 0 7830867.1752624512 -16383394.648530722 0 -16383394.648530722 10472178.391645432 0 0 0 0 -46577467.536765099 41674263.109420896 0 41674263.109420896 15405511.604550362 0 0 0 0 927864.40037803352 117192.35343072936 0 117192.35343072936 1148016.0449478514 0 0 0 0 -10231307.987171173 -3991909.7680037022 0 -3991909.7680037022 12421761.438448906 0 0 0 0 -24494596.925731659 -6124608.521794796 0 -6124608.521794796 22713048.855792999 0 0 0 0 54944799.390396118 -30626856.605490685 0 -30626856.605490685 28791412.324383259 0 0 0 0 -8727131.5868530273 72165.736831665039 0 72165.736831665039 21657712.357561111 0 0 0 0 -5056753.786693573 -3289072.0263369083 0 -3289072.0263369083 21482937.674735069 0 0 0 0 -29507828.24961853 8978818.5334434509 0 8978818.5334434509 25529793.851154804 0 0 0 0 -11879370.149604797 2211269.551482439 0 2211269.551482439 28056906.019804955 0 0 0 0 -21778909.691310883 -14129913.793061614 0 -14129913.793061614 39311792.521644592 0 0 0 0 -36949972.049057007 -4083697.9394631386 0 -4083697.9394631386 37624672.906651855 0 0 0 0 155757.39916689321 192156.76075873338 0 192156.76075873338 1276067.1876654746 0 0 0 0 -31657441.793540955 -53001638.952208042 0 -53001638.952208042 -422805.09773588181 0 0 0 0 -52002968.335849762 -24606640.295913577 0 -24606640.295913577 92755594.289247513 0 0 0 0 -36682918.633861542 64865622.650343418 0 64865622.650343418 29140496.499126434 0 0 0 0 -38781346.25774765 67405704.324414968 0 67405704.324414968 115859887.73814178 0 0 0 0 201661754.86686707 164858417.55019474 0 164858417.55019474 144670971.82208729 0 0 0 0 219429218.63335562 294572192.43107933 0 294572192.43107933 87546692.802030563 0 0 0 0 -494561624.74214172 -298266456.47271585 0 -298266456.47271585 15971978.845244408 0 0 0 0 -250575114.82781219 825291054.06335831 0 825291054.06335831 494951684.4078064 0 0 0 0 -150917602.26016998 25191406.021028042 0 25191406.021028042 261697977.15062761 0 0 0 0 -154829156.22468567 -146138740.28283882 0 -146138740.28283882 -28309367.795955658 0 0 0 0 197033782.80519104 -11499672.048764229 0 -11499672.048764229 5460821.8282527924 0 0 0 0 2586341.7652578689 2900083.431459792 0 2900083.431459792 1462383.3206512129 0 0 0 0 918126492.3105545 146291664.89242792 0 146291664.89242792 -84182469.652230263 0 0 0 0 466133448.33700562 -214763214.22484303 0 -214763214.22484303 96856114.625244617 0 0 0 0 1433290779.1288528 565474574.34048653 0 565474574.34048653 20062839.089254856 0 0 0 0 1783362.7366990298 1091993.0861395914 0 1091993.0861395914 524416.54916087072 0 0 0 0 262918035.49554443 650883531.94188118 0 650883531.94188118 -38344235.71622467 0 0 0 0 1559597168.4898071 377571210.82522583 0 377571210.82522583 -272598932.81890488 0 0 0 0 1392281177.7515717 -390721097.82187748 0 -390721097.82187748 48803832.13961482 0 0 0 0 830905.49072349444 1046602.5306661949 0 1046602.5306661949 888777.67645408958 0 0 0 0 205675525.47042084 592409356.53713369 0 592409356.53713369 562174492.78878403 0 0 0 0 -150203188.14656067 -158580515.73034191 0 -158580515.73034191 -105194931.85517693 0 0 0 0 986696546.47309113 134943106.3299706 0 134943106.3299706 106246695.26406765 0 0 0 0 393433965.04129028 -11557418.963075638 0 -11557418.963075638 81683106.491580486 0 0 0 0 593592495.55688095 -117341854.20658541 0 -117341854.20658541 3149246.2980880737 0 0 0 0 518445195.0701828 -217765227.63543129 0 -217765227.63543129 161481561.20866489 0 0 0 0 292485105.85204315 -98039659.165837765 0 -98039659.165837765 1912232.2744188309 0 0 0 0 186725559.58089447 -46599953.576591015 0 -46599953.576591015 28042251.307749748 0 0 0 0 457548810.32429504 -35003985.941811562 0 -35003985.941811562 -50160252.661777496 0 0 0 0 424789761.08621979 -22196494.726061821 0 -22196494.726061821 -15247771.629219055 0 0 0 0 431810799.07898712 25364467.592658997 0 25364467.592658997 -67897442.478030205 0 0 0 0 -18487178.953090668 -81318190.738055706 0 -81318190.738055706 -254882320.51771355 0 0 0 0 4025736.4781396687 1564893.145285002 0 1564893.145285002 512252.12044746289 0 0 0 0 -2834391.9739227295 32329520.214212418 0 32329520.214212418 11086580.708417892 0 0 0 0 117017509.01109314 -179410471.79708576 0 -179410471.79708576 159579546.02315331 0 0 0 0 -72260262.617858887 -7180130.6177306175 0 -7180130.6177306175 110850273.38298607 0 0 0 0 180872786.3167572 -63813489.674898624 0 -63813489.674898624 34912269.344025612 0 0 0 0 -14478800.081451416 -63456569.865141869 0 -63456569.865141869 111286501.78451729 0 0 0 0 -173659.72246871889 50335.93091138266 0 50335.93091138266 214889.82230235822 0 0 0 0 37070926.135543823 -17736866.994643688 0 -17736866.994643688 20117964.86994648 0 0 0 0 31840131.492334366 -4744496.503408432 0 -4744496.503408432 44517087.047637939 0 0 0 0 -398658.37274501473 97539.355267941952 0 97539.355267941952 422722.79862440703 0 0 0 0 155091014.18741989 3589232.904258728 0 3589232.904258728 2224282.1601696014 0 0 0 0 103303175.59307098 -72503266.909413338 0 -72503266.909413338 40496977.548446178 0 0 0 0 103632034.55245209 51502585.98657465 0 51502585.98657465 2283012.9360527992 0 0 0 0 28313608.480554581 -50190908.359613657 0 -50190908.359613657 10684390.119491577 0 0 0 0 444987275.28618908 24034086.016497433 0 24034086.016497433 -77151269.117446899 0 0 0 0 304642501.06187439 -491673.86444234848 0 -491673.86444234848 -25894733.08067131 0 0 0 0 272254435.07963562 -60765353.407531738 0 -60765353.407531738 12931997.902474403 0 0 0 0 273572637.01463318 13265446.704660892 0 13265446.704660892 -22615131.418336391 0 0 0 0 281674732.48827362 -14562531.104905128 0 -14562531.104905128 -30162199.385316849 0 0 0 0 366972042.57855225 55848621.075101137 0 55848621.075101137 -17978233.993962765 0 0 0 0 310323460.120368 -314506867.18938601 0 -314506867.18938601 -375230414.8466568 0 0 0 0 571628073.8821106 -22117099.184568405 0 -22117099.184568405 -75493982.665493965 0 0 0 0 170724448.61526108 169905896.30791235 0 169905896.30791235 -77180229.63270998 0 0 0 0 680237021.05966187 514375328.83149767 0 514375328.83149767 153487316.43486881 0 0 0 0 4144613.6860022396 -590295.5847220798 0 -590295.5847220798 -289893.33235954243 0 0 0 0 291061727.28135681 -429988022.01764345 0 -429988022.01764345 215961795.19320667 0 0 0 0 798509080.77009773 -185372892.2466166 0 -185372892.2466166 228210657.36765194 0 0 0 0 1126051355.7045135 1187067126.7757435 0 1187067126.7757435 1550788002.0752163 0 0 0 0 1916919876.1134644 -98156229.471258163 0 -98156229.471258163 -1277391910.2600727 0 0 0 0 -15124803.46529007 -26310406.976922035 0 -26310406.976922035 -56870138.276436806 0 0 0 0 30585958.346298218 -11254189.26002121 0 -11254189.26002121 -52892807.313483 0 0 0 0 32355455.847312927 -37520065.393954754 0 -37520065.393954754 -48849195.770441532 0 0 0 0 10837196.412285216 -384156.78242085618 0 -384156.78242085618 -828480.39527016808 0 0 0 0 71962366.178840637 12547564.821964264 0 12547564.821964264 -189629138.29656601 0 0 0 0 312621315.33227539 -262703806.13010406 0 -262703806.13010406 -609051986.47564673 0 0 0 0 113025395.09153748 46958380.495968819 0 46958380.495968819 -672643419.62375295 0 0 0 0 14780767.946770564 661608.51514161518 0 661608.51514161518 -1218129.679270037 0 0 0 0 34753788.36819458 -21345802.286445618 0 -21345802.286445618 -132477756.32330942 0 0 0 0 3726408.4837913513 -4567018.7942185402 0 -4567018.7942185402 -54569875.769266129 0 0 0 0 26226446.623184204 -12640792.009241104 0 -12640792.009241104 -54713214.282840535 0 0 0 0 -4688179.1414756775 -24404830.701245546 0 -24404830.701245546 15037926.418731689 0 0 0 0 21779262.203422546 -33964155.680144787 0 -33964155.680144787 17212303.778134108 0 0 0 0 -446062.07935963571 83723.716504232958 0 83723.716504232958 403423.32231661025 0 0 0 0 8807620.1230859756 -18410809.824931562 0 -18410809.824931562 33391750.642064095 0 0 0 0 1386497.7250213623 -10276844.241313457 0 -10276844.241313457 30751026.777878761 0 0 0 0 12208170.951229095 -29192276.366715908 0 -29192276.366715908 44813203.914206505 0 0 0 0 13689302.866783142 -26458460.317347527 0 -26458460.317347527 45118079.813310802 0 0 0 0 8939073.8643875122 -10283724.022238731 0 -10283724.022238731 20958555.552084923 0 0 0 0 3085379.5555744171 -10565012.991593838 0 -10565012.991593838 22664996.869189262 0 0 0 0 5401968.6074409485 -7563790.1821033955 0 -7563790.1821033955 24726371.963977814 0 0 0 0 9954480.5582475662 -13378433.88381958 0 -13378433.88381958 20879543.621673584 0 0 0 0 -1611725.5547332764 -13628985.9355793 0 -13628985.9355793 25962388.050178528 0 0 0 0 -236259.11106197163 45491.005187407136 0 45491.005187407136 202497.33760865359 0 0 0 0 -4390797.3622207642 -27208673.416585445 0 -27208673.416585445 5277956.7239480019 0 0 0 0 15694871.604751587 -20901279.449023724 0 -20901279.449023724 -27876396.932774544 0 0 0 0 10837095.170505524 -8963072.7345638275 0 -8963072.7345638275 -23890495.05506134 0 0 0 0 1888566.6688194275 -19669195.405575991 0 -19669195.405575991 -36190286.441371918 0 0 0 0 4109109.8441238403 -20817843.477630615 0 -20817843.477630615 -47225630.784033775 0 0 0 0 22540967.39485836 -34477445.044285536 0 -34477445.044285536 -38856132.575689316 0 0 0 0 11289903.3379879 -21424354.879541159 0 -21424354.879541159 -50241937.512685776 0 0 0 0 264577128.2298584 191401121.66249084 0 191401121.66249084 -165471492.90725088 0 0 0 0 16714354.466740809 1467033.8740249283 0 1467033.8740249283 -1876817.4315047208 0 0 0 0 14177198.384239197 -11655518.395215988 0 -11655518.395215988 -63336691.124886513 0 0 0 0 15247026.251664162 1142907.6813226938 0 1142907.6813226938 -23628720.277339935 0 0 0 0 15879460.254608154 -417748.16491127014 0 -417748.16491127014 -42665729.979091644 0 0 0 0 -53129335.944446564 38974001.632092714 0 38974001.632092714 -942785.87972545624 0 0 0 0 -189195413.08970642 202310301.49659991 0 202310301.49659991 -47680593.168682098 0 0 0 0 235632.28997612745 1245744.9292896651 0 1245744.9292896651 21076.008930158801 0 0 0 0 -24109922.330810547 7139719.1116580963 0 7139719.1116580963 19078483.566201687 0 0 0 0 -9016451.9384078979 -3252785.7127451897 0 -3252785.7127451897 14109125.442767143 0 0 0 0 -61689910.819566727 147107940.57995394 0 147107940.57995394 35671591.107132912 0 0 0 0 -57802212.677913666 166837670.33268526 0 166837670.33268526 -28167191.189477921 0 0 0 0 -158059731.57983398 73947736.616429567 0 73947736.616429567 -109000777.98579431 0 0 0 0 1330236.173620224 -47708045.708203077 0 -47708045.708203077 -144433426.6722765 0 0 0 0 60499727.847785473 261198783.83965445 0 261198783.83965445 -165591159.4015789 0 0 0 0 301256.48368437588 475906.52944934368 0 475906.52944934368 -165628.5453957757 0 0 0 0 57968001.581878662 161278215.10539627 0 161278215.10539627 -124018037.62665433 0 0 0 0 -158624683.17800903 314332053.82331133 0 314332053.82331133 -58396295.891052246 0 0 0 0 -275315147.06028748 24963739.980490208 0 24963739.980490208 -210549032.56545353 0 0 0 0 -119459647.17988586 181957680.60186744 0 181957680.60186744 -4420826.9040203094 0 0 0 0 -15353401.700683594 177672276.28718662 0 177672276.28718662 -170159860.36274409 0 0 0 0 -55562335.839828491 219834896.76009226 0 219834896.76009226 -44959243.470974922 0 0 0 0 136102193.40916443 230973244.30567694 0 230973244.30567694 -476588573.63717794 0 0 0 0 247287414.28785706 -140604981.87088728 0 -140604981.87088728 88767700.928661346 0 0 0 0 109638301.25337982 113673171.79062963 0 113673171.79062963 1500.2035398483276 0 0 0 0 67628913.393135071 70410486.460681677 0 70410486.460681677 136321842.01933861 0 0 0 0 55101155.249908447 88247146.517180443 0 88247146.517180443 -8528729.1578601301 0 0 0 0 -50015415.185562134 107692814.50936151 0 107692814.50936151 62700123.544850349 0 0 0 0 -25049999.930465698 170510116.46992946 0 170510116.46992946 -77064180.288182497 0 0 0 0 14537466.792572021 142788005.58935761 0 142788005.58935761 77973248.135015965 0 0 0 0 -2229501.6703720093 111529028.12319791 0 111529028.12319791 76364762.811201096 0 0 0 0 78511153.140228271 23446375.237652302 0 23446375.237652302 76619182.303833276 0 0 0 0 33020959.64414978 -1052699.5877463818 0 -1052699.5877463818 91463245.409533024 0 0 0 0 328696530.49626923 10639214.913614035 0 10639214.913614035 166660903.62442589 0 0 0 0 120435780.68096924 81629349.569648504 0 81629349.569648504 155041986.42795753 0 0 0 0 207053580.46089172 -80594560.013907194 0 -80594560.013907194 150634326.89670971 0 0 0 0 240765773.69335938 -24402354.28577733 0 -24402354.28577733 105332262.17644441 0 0 0 0 244183144.86442566 -55291862.576809645 0 -55291862.576809645 203728232.66309023 0 0 0 0 507996946.75187683 -43896097.354409695 0 -43896097.354409695 114345537.80146694 0 0 0 0 372656674.1880188 -95353736.259313107 0 -95353736.259313107 162486273.95686722 0 0 0 0 300078048.51451874 -16658299.961263895 0 -16658299.961263895 98499096.963508248 0 0 0 0 364994842.79078674 -401306.65541315079 0 -401306.65541315079 150842878.3835578 0 0 0 0 466951692.09332275 -115748132.22571826 0 -115748132.22571826 118554458.21160623 0 0 0 0 232936787.24554443 -88753410.238157332 0 -88753410.238157332 104014209.38694444 0 0 0 0 111409587.76124573 8703367.6122024059 0 8703367.6122024059 63516395.380483866 0 0 0 0 35134118.936203003 47925452.297184229 0 47925452.297184229 81032472.317293406 0 0 0 0 106464387.72502136 7023042.4535056353 0 7023042.4535056353 150570290.35911012 0 0 0 0 67352318.815414429 -33261952.362961888 0 -33261952.362961888 83329910.187821805 0 0 0 0 -41618158.125839233 31822148.941364765 0 31822148.941364765 111298217.25615644 0 0 0 0 -129510982.50434875 51517712.824787855 0 51517712.824787855 73918765.012501121 0 0 0 0 -36177302.284088135 60782703.925299883 0 60782703.925299883 11642021.978470325 0 0 0 0 -32388502.735214233 9505684.3745299578 0 9505684.3745299578 37252216.958462179 0 0 0 0 -169829954.0227356 58089643.220604658 0 58089643.220604658 43765607.086896181 0 0 0 0 -120964429.90145874 58935616.404999018 0 58935616.404999018 -220157.52520942688 0 0 0 0 -181303907.56700134 62951527.174660444 0 62951527.174660444 13653487.895032167 0 0 0 0 -122846899.98432922 105858266.44180417 0 105858266.44180417 -95825348.474508286 0 0 0 0 -24771156.451522827 98452016.079571009 0 98452016.079571009 -53917079.358644366 0 0 0 0 -23683072.410415649 74605165.49824214 0 74605165.49824214 16331562.828620017 0 0 0 0 -132226077.83204269 80506631.427239835 0 80506631.427239835 46919876.766982079 0 0 0 0 1116737175.8316956 170645020.8514986 0 170645020.8514986 -393745506.98002195 0 0 0 0 252374217.4291687 -534274867.4321146 0 -534274867.4321146 326708653.83963394 0 0 0 0 619215052.42664719 -15948274.573182821 0 -15948274.573182821 408333949.65780449 0 0 0 0 663350739.57608032 -231808224.82028782 0 -231808224.82028782 298986369.13663864 0 0 0 0 484889469.58734894 171101551.16838145 0 171101551.16838145 556465401.01090622 0 0 0 0 399735.29348673252 671341.17967131734 0 671341.17967131734 2178281.4860591087 0 0 0 0 229952175.23043823 -360183282.00757027 0 -360183282.00757027 208814414.1685524 0 0 0 0 -102463508.67521667 -385179326.94653225 0 -385179326.94653225 341882619.8731122 0 0 0 0 219926853.29768372 -347544465.44475102 0 -347544465.44475102 257046634.98963165 0 0 0 0 -108534266.92386627 -134884581.63464135 0 -134884581.63464135 -273699866.50689888 0 0 0 0 271281990.28915787 -452236227.95876098 0 -452236227.95876098 -130232004.73035765 0 0 0 0 -132968322.43753052 -329666436.83436012 0 -329666436.83436012 290968156.37536669 0 0 0 0 -489589366.23912811 -227016920.51100016 0 -227016920.51100016 75918841.306424469 0 0 0 0 308347.67290432891 467099.51707131043 0 467099.51707131043 980311.82563993614 0 0 0 0 -76372697.998329163 -457729994.90004939 0 -457729994.90004939 192840932.37673521 0 0 0 0 1548773832.0186234 -182410325.66029787 0 -182410325.66029787 -54329747.288314342 0 0 0 0 -114968310.51747894 -353008171.74742562 0 -353008171.74742562 273869615.52795935 0 0 0 0 399374169.31375885 34538557.764295101 0 34538557.764295101 -249378774.42446709 0 0 0 0 20954853.06439209 -293870873.21235514 0 -293870873.21235514 381748371.60379648 0 0 0 0 387353689.70080566 99363068.973240376 0 99363068.973240376 -89180497.189811707 0 0 0 0 -152604252.13043976 123649353.29751134 0 123649353.29751134 29032313.114289284 0 0 0 0 866061482.3835144 -521156940.37785006 0 -521156940.37785006 205618001.60474443 0 0 0 0 368643042.08188629 -31269780.51732707 0 -31269780.51732707 161767846.23119259 0 0 0 0 510402694.12454224 -206962323.1241858 0 -206962323.1241858 157473099.83927518 0 0 0 0 767778721.74626541 -85988661.351207376 0 -85988661.351207376 51107747.264876366 0 0 0 0 836415122.79060364 -202106933.32878971 0 -202106933.32878971 -11623716.911133289 0 0 0 0 1113336955.113472 -352571015.50581312 0 -352571015.50581312 80535805.665221691 0 0 0 0 985487488.34674072 80774411.387581587 0 80774411.387581587 77975541.527719498 0 0 0 0 763343352.54858398 -77228526.789343119 0 -77228526.789343119 50697527.119674683 0 0 0 0 508070190.84104919 -47049808.532915354 0 -47049808.532915354 250045485.23850822 0 0 0 0 799496492.94147491 -67816960.001599699 0 -67816960.001599699 14968035.158996582 0 0 0 0 647710470.68974304 -87585664.477535129 0 -87585664.477535129 103636646.0726068 0 0 0 0 468870243.27867126 -47212216.440150142 0 -47212216.440150142 192121903.63013434 0 0 0 0 640227078.49613857 -5718585.1793017387 0 -5718585.1793017387 375950974.0466876 0 0 0 0 536311615.50295258 225377753.35906726 0 225377753.35906726 96865246.107942566 0 0 0 0 -6814267.1627197266 8434111.3750886917 0 8434111.3750886917 -3379962.8266983032 0 0 0 0 2955981.8624604251 891743.30120469257 0 891743.30120469257 224895.16938474507 0 0 0 0 514736.85721249878 -136392.4924352346 0 -136392.4924352346 69790.770874675829 0 0 0 0 -42343430.658098221 -118561722.35249275 0 -118561722.35249275 -272332446.08586729 0 0 0 0 786278871.86035156 -192919172.04284096 0 -192919172.04284096 44422797.389194012 0 0 0 0 977049.61987242801 366648.73434471712 0 366648.73434471712 2792490.7554302178 0 0 0 0 8231236.8617701232 -1454792.9717190834 0 -1454792.9717190834 -1055274.7149990564 0 0 0 0 -3721673.0589294434 -300456793.79954636 0 -300456793.79954636 -128263774.26435119 0 0 0 0 -4378846.4344406128 16773231.899441719 0 16773231.899441719 -1071689.218149662 0 0 0 0 -2906444.534362793 14803457.676100791 0 14803457.676100791 -13754087.062060803 0 0 0 0 1703292.8825759888 9502743.4874570966 0 9502743.4874570966 -9886811.1074208021 0 0 0 0 11501040.427852631 21697476.178553224 0 21697476.178553224 609771.29775619507 0 0 0 0 17571742.943994999 36096574.24106732 0 36096574.24106732 -42596899.293618798 0 0 0 0 494382204.64474487 109981393.69671428 0 109981393.69671428 -1116561256.9954016 0 0 0 0 11438384.29729528 -151614.36744054779 0 -151614.36744054779 -1331434.8628771417 0 0 0 0 9658853.4647216797 -4723927.7352445126 0 -4723927.7352445126 1692009.9110197723 0 0 0 0 4386299.9083099365 -4274491.3318149447 0 -4274491.3318149447 7321079.6832870245 0 0 0 0 6146772.609828949 433768.12107598037 0 433768.12107598037 -3694775.4893753529 0 0 0 0 11998485.491760254 -8170372.5084793568 0 -8170372.5084793568 5455335.4399387836 0 0 0 0 6384696.92918396 -7831907.5259118676 0 -7831907.5259118676 13541616.363582253 0 0 0 0 3886215.700355351 2998533.9928903487 0 2998533.9928903487 14378295.328427553 0 0 0 0 -2310770.1637878418 4713356.5751329064 0 4713356.5751329064 24077154.563563406 0 0 0 0 -2992653.0940093994 9680244.4234022275 0 9680244.4234022275 4266753.7559815645 0 0 0 0 -7994338.1286811829 9986695.0673932582 0 9986695.0673932582 1806116.2377912998 0 0 0 0 -7872164.1223115921 3980300.3592424477 0 3980300.3592424477 458250.2016326189 0 0 0 0 -6818546.6631011963 7915153.3560578227 0 7915153.3560578227 4015096.5694184303 0 0 0 0 -7842373.3799285889 5164226.1332713366 0 5164226.1332713366 9914663.9192402661 0 0 0 0 -25531258.350082397 7064160.4958881736 0 7064160.4958881736 4906154.4663289934 0 0 0 0 638680711.19761658 64430212.562966377 0 64430212.562966377 -28011502.797665149 0 0 0 0 1814865.173875676 966434.25280607864 0 966434.25280607864 94726.687047693471 0 0 0 0 731326843.76013184 -17995375.29401803 0 -17995375.29401803 -12590635.007745743 0 0 0 0 533959381.05271149 27562476.320583642 0 27562476.320583642 -12147540.094277531 0 0 0 0 531793657.32215881 -8051001.226023823 0 -8051001.226023823 -28762290.061463714 0 0 0 0 488479269.8485074 20187335.48942693 0 20187335.48942693 26171555.131718755 0 0 0 0 488895671.44022989 17014885.663450792 0 17014885.663450792 -34809841.590553358 0 0 0 0 495149068.13158417 51095291.710348338 0 51095291.710348338 17029.463236899501 0 0 0 0 -60348881.908613205 82998282.264803499 0 82998282.264803499 523513.11062990123 0 0 0 0 621561764.86034393 12778642.892899066 0 12778642.892899066 -36786651.047577709 0 0 0 0 1408831.0717366254 668009.02629024535 0 668009.02629024535 35352.583707876474 0 0 0 0 2868146.3413543701 8264516.5635232553 0 8264516.5635232553 -11655749.044990286 0 0 0 0 11265809.244865417 -5785301.8918774575 0 -5785301.8918774575 -1091360.6326315254 0 0 0 0 192233.12311814725 75091.947745703161 0 75091.947745703161 -68090.192053821505 0 0 0 0 5342013.8571395874 563765.95928854309 0 563765.95928854309 13324.106243238875 0 0 0 0 1862364.9030857086 -14185794.696508519 0 -14185794.696508519 1904991.1547083855 0 0 0 0 14461872.875038147 -12054866.28797872 0 -12054866.28797872 -2497526.5129079977 0 0 0 0 320744.06807389855 192752.45297067612 0 192752.45297067612 22218.863528219481 0 0 0 0 10234134.527069092 -8015083.5378483683 0 -8015083.5378483683 944533.76206126064 0 0 0 0 31434771.70163393 -7511419.3374632224 0 -7511419.3374632224 -2301039.5710802409 0 0 0 0 -39327677.213367462 -7319091.9813567903 0 -7319091.9813567903 20487722.112049453 0 0 0 0 80734187.260162354 20206157.959979087 0 20206157.959979087 40159666.882710099 0 0 0 0 -1052448.8147277832 -43815997.133534469 0 -43815997.133534469 46417317.609993234 0 0 0 0 -193658649.85800934 34451646.055295788 0 34451646.055295788 56355866.751123995 0 0 0 0 -42833078.749397278 -14597993.027570486 0 -14597993.027570486 16660351.788329124 0 0 0 0 -145030775.27744675 17659250.990201116 0 17659250.990201116 24865548.877021551 0 0 0 0 -132038918.97806931 44836874.589294434 0 44836874.589294434 62451636.264161587 0 0 0 0 -41187103.17798233 -2778682.4592302591 0 -2778682.4592302591 81623798.248946905 0 0 0 0 81835132.973403931 -10611077.932728648 0 -10611077.932728648 40949773.035277247 0 0 0 0 -22814719.230773926 30891815.934911311 0 30891815.934911311 80392614.622772455 0 0 0 0 201045943.70808411 -52215227.775539905 0 -52215227.775539905 37249029.989354968 0 0 0 0 132461775.35040283 19522188.629783571 0 19522188.629783571 71601897.393475056 0 0 0 0 76131525.364665985 -22311260.213761315 0 -22311260.213761315 98904867.218939543 0 0 0 0 461684345.09205627 -98374601.951317787 0 -98374601.951317787 39812147.095751464 0 0 0 0 398412645.13570404 43032169.786240526 0 43032169.786240526 16894052.588335678 0 0 0 0 235491308.62438965 -428225.49749481678 0 -428225.49749481678 35406715.955215931 0 0 0 0 344923635.26361847 -52953608.705181837 0 -52953608.705181837 -8841498.8247370049 0 0 0 0 175876120.009552 49443503.295635477 0 49443503.295635477 16413251.767768532 0 0 0 0 362795159.48010254 -32338820.612967622 0 -32338820.612967622 6609490.4805809027 0 0 0 0 303271983.55057907 54811937.246855974 0 54811937.246855974 -3169.1558901470089 0 0 0 0 81348071.572769165 -51922006.80835963 0 -51922006.80835963 8342778.5662855506 0 0 0 0 15039227.077526093 60001538.613093227 0 60001538.613093227 -110464.84935460167 0 0 0 0 -32535018.924505234 21254760.546594482 0 21254760.546594482 -11910788.487085372 0 0 0 0 -284427965.6156311 -58163137.164664082 0 -58163137.164664082 27391000.353908211 0 0 0 0 7800610.1620101929 9848445.531447256 0 9848445.531447256 20507.263498301156 0 0 0 0 12084541.45867157 11920906.649176445 0 11920906.649176445 -11316234.508302398 0 0 0 0 153034.30459864996 459800.37720962986 0 459800.37720962986 55923.130038796378 0 0 0 0 15227834.04258728 3816938.446736116 0 3816938.446736116 -3139775.4711486269 0 0 0 0 13992674.581970215 6321489.1771164117 0 6321489.1771164117 -5624657.4415418655 0 0 0 0 13906055.667654276 4572340.4867393682 0 4572340.4867393682 -1775174.855031983 0 0 0 0 14359014.220748901 4102236.6788625498 0 4102236.6788625498 -2365237.4814498508 0 0 0 0 13979071.889160156 4273440.6007958241 0 4273440.6007958241 -2587149.2109659836 0 0 0 0 13955382.613525391 4756199.895560558 0 4756199.895560558 -904449.81779327989 0 0 0 0 11897494.574249268 4760243.2352824509 0 4760243.2352824509 -516524.06217775494 0 0 0 0 14527563.840354919 3806567.5927564078 0 3806567.5927564078 -2094955.8579033129 0 0 0 0 98451.874208956957 137141.64275056496 0 137141.64275056496 11961.774071042888 0 0 0 0 9984890.281703949 -3222630.6956441374 0 -3222630.6956441374 14727235.95203045 0 0 0 0 15504092.683204651 3441577.5357582467 0 3441577.5357582467 -2672668.1923852935 0 0 0 0 14827525.301109314 3085598.9917971017 0 3085598.9917971017 -1015335.8288199045 0 0 0 0 12631947.101867676 2943306.635753151 0 2943306.635753151 -423445.77525895648 0 0 0 0 5549324.1632385254 3382173.3225420807 0 3382173.3225420807 2026995.208572682 0 0 0 0 -264113961.68402863 -51781633.46737963 0 -51781633.46737963 30594384.729225755 0 0 0 0 435823.08099940605 887290.85745958611 0 887290.85745958611 -251440.79934723186 0 0 0 0 291685.21435556374 638344.90287641808 0 638344.90287641808 74798.666695442109 0 0 0 0 11163141.539390564 5297190.7146814764 0 5297190.7146814764 -7683304.2583405972 0 0 0 0 19366422.847549438 4168993.5903667724 0 4168993.5903667724 -2460972.3287783805 0 0 0 0 16362131.908470154 7206989.4559526872 0 7206989.4559526872 -1054030.5511421226 0 0 0 0 9858153.2801437378 7628753.7361941254 0 7628753.7361941254 1424481.3915345445 0 0 0 0 812428.41898203269 315265.69080457836 0 315265.69080457836 -890309.52973957185 0 0 0 0 22775184.742408752 -4124309.2745946869 0 -4124309.2745946869 -2240888.2006715164 0 0 0 0 1408327.9375991821 3591080.4869223298 0 3591080.4869223298 -208903.19590053894 0 0 0 0 539367.46690709703 1879529.084193714 0 1879529.084193714 212384.47525956656 0 0 0 0 -176529740.48052979 41895547.971833229 0 41895547.971833229 21355423.213953942 0 0 0 0 -201551883.65123367 27255803.288369551 0 27255803.288369551 21044499.485199928 0 0 0 0 987169.93499230407 735752.35055278614 0 735752.35055278614 -740339.68742562167 0 0 0 0 11300300.409957886 5941971.2937717363 0 5941971.2937717363 870266.9922179468 0 0 0 0 12571530.604988098 2323658.7980819941 0 2323658.7980819941 442916.20356857032 0 0 0 0 22683641.331947327 2334851.519473128 0 2334851.519473128 -1645084.4090461358 0 0 0 0 16786166.056518555 5066472.2962196395 0 5066472.2962196395 1780157.9501393382 0 0 0 0 17639020.241989136 208892.77524952963 0 208892.77524952963 -136932.37664890289 0 0 0 0 15548579.416030884 1978363.7522192858 0 1978363.7522192858 3577957.6901629795 0 0 0 0 16591.23023045063 8479.2269067615271 0 8479.2269067615271 -9265.8010273552354 0 0 0 0 13384480.985725403 7822732.7731109299 0 7822732.7731109299 4860509.8579818718 0 0 0 0 8112771.607963562 -5262064.9148244429 0 -5262064.9148244429 -9624142.6176464185 0 0 0 0 13900912.424423218 2791596.6811963236 0 2791596.6811963236 -1898545.158090191 0 0 0 0 14809207.812576294 2085026.1910795011 0 2085026.1910795011 -2669728.5648028343 0 0 0 0 10778713.14781189 1192284.468861372 0 1192284.468861372 -1955433.267976013 0 0 0 0 13596112.424377441 3617536.8077087295 0 3617536.8077087295 -14096.826089577336 0 0 0 0 8318460.9441680908 1935623.2676105278 0 1935623.2676105278 10112.231893657436 0 0 0 0 7326874.7011489868 1136134.0725898445 0 1136134.0725898445 189655.08293690719 0 0 0 0 7724.4259152933955 5641.9938420597464 0 5641.9938420597464 -1342.6421360141412 0 0 0 0 1853661.7398529053 3501599.5706036719 0 3501599.5706036719 4922040.5423925789 0 0 0 0 -419074.50903320312 -601355.72407465044 0 -601355.72407465044 -2457.2442834760541 0 0 0 0 434110.08355712891 756560.22227424476 0 756560.22227424476 3136818.0714816782 0 0 0 0 2234179.1596984863 2582610.5110745886 0 2582610.5110745886 33320.378256671596 0 0 0 0 1445585.953453064 190772.99130490422 0 190772.99130490422 -1926507.7480495418 0 0 0 0 2500704.0753173828 -931438.75720274402 0 -931438.75720274402 -327382.79366128659 0 0 0 0 -58498.294143676758 274556.35058827093 0 274556.35058827093 -886877.7453048802 0 0 0 0 10507067.181850433 6995851.2113735415 0 6995851.2113735415 830234.78294354584 0 0 0 0 62019.523700714111 -601260.69960499858 0 -601260.69960499858 -1474382.2012858605 0 0 0 0 1107910.0077762604 1902499.9316839275 0 1902499.9316839275 369581.14415430743 0 0 0 0 831313.99568939209 -1703258.2935374205 0 -1703258.2935374205 4658.261281926797 0 0 0 0 15269.335074543953 5124.4477286934853 0 5124.4477286934853 -3765.4151854125198 0 0 0 0 -79958.285026550293 1953417.0236761596 0 1953417.0236761596 386374.42357859062 0 0 0 0 481656.14654541016 321455.2846053401 0 321455.2846053401 -1998899.6416387737 0 0 0 0 11418.851221270859 3928.2562190759927 0 3928.2562190759927 -3725.8699139236696 0 0 0 0 2089258.5240707397 1104895.7500964003 0 1104895.7500964003 -4421366.1618705029 0 0 0 0 17102679.216278076 7304641.5975454561 0 7304641.5975454561 722535.7551855729 0 0 0 0 634783.14723205566 1057027.5112384746 0 1057027.5112384746 -2384141.8731648708 0 0 0 0 375486.96691894531 828229.35739936586 0 828229.35739936586 -2989103.3392626029 0 0 0 0 -1098733.3988051414 490254.5589465322 0 490254.5589465322 -2567519.8803658793 0 0 0 0 854058.58843994141 1178411.3317147531 0 1178411.3317147531 -2732638.2210172797 0 0 0 0 11748.191436767578 631916.9072040692 0 631916.9072040692 -625929.30528069288 0 0 0 0 144381.96436966211 185049.51572162844 0 185049.51572162844 -156979.69066692019 0 0 0 0 519056.01595115662 514249.05188341183 0 514249.05188341183 -3402815.2524467977 0 0 0 0 12550202.805419922 -29439754.833944611 0 -29439754.833944611 -5022392.6103096306 0 0 0 0 15456799.55783844 -1430177.4165672325 0 -1430177.4165672325 -301463.55513183773 0 0 0 0 -16734.4922529459 -66135.870421124622 0 -66135.870421124622 89093.276395416353 0 0 0 0 42758654.972869873 1180789.4666172937 0 1180789.4666172937 -448396.1715041846 0 0 0 0 214912.94046275318 -11579.799070935696 0 -11579.799070935696 61379.778500311193 0 0 0 0 1159308.8729324341 -1267662.1852193528 0 -1267662.1852193528 -7677520.2629272044 0 0 0 0 51031.588996291161 48697.333596458659 0 48697.333596458659 -44775.504150908455 0 0 0 0 1920537.5049362183 2345318.4265638441 0 2345318.4265638441 -4290612.807873385 0 0 0 0 73648.365859985352 399704.96604597196 0 399704.96604597196 8134.041982345283 0 0 0 0 867207.07926940918 1787038.6049260385 0 1787038.6049260385 1583459.5760796517 0 0 0 0 2375564.5830841064 1160259.8430575393 0 1160259.8430575393 743260.96839264035 0 0 0 0 2366288.051322937 1029491.1890900843 0 1029491.1890900843 1425205.0756502151 0 0 0 0 4743769.8172912598 3998720.9212890603 0 3998720.9212890603 2538451.1976216547 0 0 0 0 4021275.1968994141 4106869.4860560931 0 4106869.4860560931 3883189.873462189 0 0 0 0 6694861.8028717041 2628474.4836579636 0 2628474.4836579636 -195562.27021531761 0 0 0 0 5772697.5837097168 2302176.7531712055 0 2302176.7531712055 -1237645.6599336267 0 0 0 0 7564209.1310958862 4016483.0256203339 0 4016483.0256203339 -276841.03100080043 0 0 0 0 5743316.0865478516 2526731.9237185419 0 2526731.9237185419 -1958098.3475373834 0 0 0 0 3439531.5623283386 1572948.1955302842 0 1572948.1955302842 -601040.21379768103 0 0 0 0 2435959.8154335022 1108462.4392573088 0 1108462.4392573088 -2289009.7381682321 0 0 0 0 -303070.6067199707 1169258.6457675621 0 1169258.6457675621 546270.18355980888 0 0 0 0 3398506.4468536377 2890081.3950382248 0 2890081.3950382248 363371.57085205987 0 0 0 0 -25067403.984863281 13872419.403562799 0 13872419.403562799 7535745.5302747786 0 0 0 0 3198458.7690987587 2831404.640564146 0 2831404.640564146 -1363060.6728255153 0 0 0 0 1887473.5560082346 -644512.41989969835 0 -644512.41989969835 10551.674171302351 0 0 0 0 3044673.9261789322 390073.63570969552 0 390073.63570969552 -3828699.163481921 0 0 0 0 240470.44820282608 278679.9155009985 0 278679.9155009985 -199187.89944468919 0 0 0 0 3930049.1305847168 4429729.0941043496 0 4429729.0941043496 -2180958.2154653519 0 0 0 0 5287179.4254455566 1805942.2836021781 0 1805942.2836021781 -2653079.5004041642 0 0 0 0 7222929.5747070312 2586258.3296152949 0 2586258.3296152949 -4313917.129652977 0 0 0 0 8246774.1333465576 2441102.0740987509 0 2441102.0740987509 -3052707.5251627266 0 0 0 0 7142733.7898979187 2732097.974000426 0 2732097.974000426 -2636340.2014991641 0 0 0 0 6819442.7882537842 3240955.0013367608 0 3240955.0013367608 -1704513.7670211792 0 0 0 0 4631544.30078125 2838526.1695006229 0 2838526.1695006229 -1509208.08263731 0 0 0 0 -6180566.655670166 -15835697.868800864 0 -15835697.868800864 9631537.4042761028 0 0 0 0 33651750.433128357 -24338497.426517632 0 -24338497.426517632 -4420287.7263338566 0 0 0 0 15521942.384666443 -5110264.8477229401 0 -5110264.8477229401 11959184.899799496 0 0 0 0 930004.28338713199 -336321.13800487667 0 -336321.13800487667 248865.13007880561 0 0 0 0 -281974.294921875 1182703.8079489581 0 1182703.8079489581 -270891.06034720689 0 0 0 0 5558405.0165348053 29059493.967376873 0 29059493.967376873 -10781071.443658203 0 0 0 0 67121116.328979492 -8718157.1032659411 0 -8718157.1032659411 -24027347.604800478 0 0 0 0 -23465160.914876938 24127949.055897012 0 24127949.055897012 49878665.748067796 0 0 0 0 -25857356.435119629 -23623291.936469562 0 -23623291.936469562 48805601.166411631 0 0 0 0 48536218.688972473 -48415908.121443123 0 -48415908.121443123 29109868.296473712 0 0 0 0 -4622572.2967987061 1707982.6037036926 0 1707982.6037036926 21872573.147043094 0 0 0 0 53932.881483033299 121154.82877248898 0 121154.82877248898 138416.93193319079 0 0 0 0 7257612.3392333984 -8683578.3616485298 0 -8683578.3616485298 -7092323.6248857081 0 0 0 0 8701962.0561981201 30766849.089350626 0 30766849.089350626 6964210.8505474962 0 0 0 0 10287045.870623589 10707036.537444651 0 10707036.537444651 -49778478.168231636 0 0 0 0 296966.71444281191 -871762.45896719489 0 -871762.45896719489 -90877.16114044284 0 0 0 0 2325902.9058532715 -291098.0404509306 0 -291098.0404509306 -5002809.9545758665 0 0 0 0 3841813.5792018399 -1894497.9280698393 0 -1894497.9280698393 -564083.86733209202 0 0 0 0 3228518.726745978 200385.62405811809 0 200385.62405811809 -721899.83278734935 0 0 0 0 57836850.568077087 -38210079.627082556 0 -38210079.627082556 -56941020.461679257 0 0 0 0 196955.47926330566 -21535489.66217649 0 -21535489.66217649 46835946.681363761 0 0 0 0 5067108.097613357 -1815411.1283238037 0 -1815411.1283238037 7431.0132364728488 0 0 0 0 -8305905.0039520264 -15035869.683227301 0 -15035869.683227301 97792041.813197255 0 0 0 0 7530626.5717506409 -18474151.370742559 0 -18474151.370742559 37111433.603952169 0 0 0 0 6406415.1221923828 2929227.02347444 0 2929227.02347444 -2360216.4896707293 0 0 0 0 2655092.7478618622 -404693.09951503575 0 -404693.09951503575 -3158394.8751984239 0 0 0 0 5145920.6496260241 -258849.95095624402 0 -258849.95095624402 -514552.67849832069 0 0 0 0 7167954.3397979736 3055402.4976904541 0 3055402.4976904541 -2410954.3736523986 0 0 0 0 7817062.9218902588 3253130.3099446967 0 3253130.3099446967 -3237402.6040084809 0 0 0 0 1636368.0058288574 562483.73294353485 0 562483.73294353485 -2116680.9500160813 0 0 0 0 2931686.4292128459 -595891.00972235948 0 -595891.00972235948 -178505.20658511191 0 0 0 0 -23924232.415863037 -27692234.207998224 0 -27692234.207998224 -16400407.791303284 0 0 0 0 12745023.001033783 -17120261.557862163 0 -17120261.557862163 15874487.288902998 0 0 0 0 13482194.492385864 -16863331.097809076 0 -16863331.097809076 13153790.505201995 0 0 0 0 3673588.6375687942 -349056.36176541448 0 -349056.36176541448 -1081416.0158424103 0 0 0 0 5227700.8891906738 -1901079.9822411537 0 -1901079.9822411537 -5127432.7040416598 0 0 0 0 5621560.4136714935 791772.16070329025 0 791772.16070329025 -2175861.115725236 0 0 0 0 5590389.3815344386 -1821326.1474235691 0 -1821326.1474235691 -2214535.1823602505 0 0 0 0 9327325.4282226562 1440171.3342290968 0 1440171.3342290968 -2935736.2698109746 0 0 0 0 9923383.120262146 1557807.6069496199 0 1557807.6069496199 -2703882.9709141403 0 0 0 0 6997624.3509907722 1797802.6196459741 0 1797802.6196459741 -2589303.3350519389 0 0 0 0 7897049.9505767822 2353775.9154126421 0 2353775.9154126421 -2798922.3853953183 0 0 0 0 11561269.014541626 -179726.12834213674 0 -179726.12834213674 -3088182.1621630862 0 0 0 0 10666089.119506836 1750278.878812924 0 1750278.878812924 -3275014.1218765527 0 0 0 0 6897489.5876363367 -711597.90198165318 0 -711597.90198165318 -2952410.9494159296 0 0 0 0 9455251.1122128963 -626329.28241421259 0 -626329.28241421259 -2064863.9423728138 0 0 0 0 7031083.4783325195 -579644.66496551037 0 -579644.66496551037 -9819696.374399662 0 0 0 0 2445237.9702453613 637292.24724644423 0 637292.24724644423 -2337359.243563652 0 0 0 0 4476792.6308441162 2319090.200317353 0 2319090.200317353 -6514159.3943328857 0 0 0 0 -546489.28979492188 167460.92030382156 0 167460.92030382156 -9834504.2136777639 0 0 0 0 2581492.2667236328 -2193667.5789499283 0 -2193667.5789499283 -1772002.171544075 0 0 0 0 2652281.4229736328 -2283077.010951519 0 -2283077.010951519 -538404.14127191901 0 0 0 0 31221102.690612793 11991016.615289211 0 11991016.615289211 -20350140.014119148 0 0 0 0 5179273.2907412834 1831238.2623619437 0 1831238.2623619437 -3285048.056363692 0 0 0 0 -22809.343133769929 170502.80032720929 0 170502.80032720929 -143223.6799832402 0 0 0 0 12050070.698840719 655303.64164832607 0 655303.64164832607 -2365461.1773164338 0 0 0 0 19292701.374004364 -7799253.4728915691 0 -7799253.4728915691 -4866462.2460384369 0 0 0 0 16403838.331502378 3841629.736915987 0 3841629.736915987 -4787875.5167582529 0 0 0 0 14225699.183990479 -4990403.6112422943 0 -4990403.6112422943 -3713824.928290844 0 0 0 0 15047160.413879395 -8044046.5389595032 0 -8044046.5389595032 -4467335.2427482605 0 0 0 0 8620264.3738853112 -4896415.3967195703 0 -4896415.3967195703 -2885299.0842900802 0 0 0 0 689344.4425894022 -291.2739654071629 0 -291.2739654071629 -494782.18000689568 0 0 0 0 18786736.356994629 15623733.978814125 0 15623733.978814125 -16905891.395727158 0 0 0 0 13319752.3644104 21557036.15867424 0 21557036.15867424 -69325937.257310867 0 0 0 0 17783301.747452378 1239152.2795336987 0 1239152.2795336987 -3801818.8709274032 0 0 0 0 -9068058.243637085 41418323.913959503 0 41418323.913959503 -53083436.654724598 0 0 0 0 17061184.981201172 5534967.2784786224 0 5534967.2784786224 -49746080.794348717 0 0 0 0 7860679.3249206543 -15490218.231923103 0 -15490218.231923103 -35090088.552185059 0 0 0 0 6888938.6256866455 19389686.213777542 0 19389686.213777542 -40036124.906105042 0 0 0 0 13728373.710083008 7447839.140417099 0 7447839.140417099 -21452467.220320702 0 0 0 0 3767904.452331543 13543743.88261795 0 13543743.88261795 -13416616.264266968 0 0 0 0 2548222.1659545898 15746372.495592117 0 15746372.495592117 -15308453.589378357 0 0 0 0 1049576.3877410889 14005877.582117558 0 14005877.582117558 -11227738.024188995 0 0 0 0 -1676277.2347717285 19412491.257791519 0 19412491.257791519 -21563776.194513798 0 0 0 0 785844.03514099121 18101936.701240063 0 18101936.701240063 -21344017.917218208 0 0 0 0 9588395.1371765137 13380366.86488533 0 13380366.86488533 -3137982.1831359863 0 0 0 0 -647756.80854567606 565650.88173571602 0 565650.88173571602 101875.0625246088 0 0 0 0 -25451097.846345901 27745996.195855975 0 27745996.195855975 -5035927.3167762756 0 0 0 0 -10990357.365356445 14657652.946322441 0 14657652.946322441 6217351.1040630341 0 0 0 0 -7848758.7200393677 21501776.825836897 0 21501776.825836897 -2740003.1810283661 0 0 0 0 1868818.5631713867 12066306.129590988 0 12066306.129590988 -9791367.6251649857 0 0 0 0 -5344649.0126647949 18321741.297956467 0 18321741.297956467 1031490.7451725006 0 0 0 0 209487.36029815674 18839836.203275442 0 18839836.203275442 1040613.2488861084 0 0 0 0 -1439125.6240234375 11920808.22304821 0 11920808.22304821 2098939.2597048283 0 0 0 0 -4723349.8046264648 10803135.242845535 0 10803135.242845535 1885984.7116889954 0 0 0 0 -6648733.6504211426 11449544.71103096 0 11449544.71103096 5738486.8828964233 0 0 0 0 -12045914.237697601 8076464.0866687298 0 8076464.0866687298 4971045.8041496277 0 0 0 0 32184155.189232826 1701377.5789687634 0 1701377.5789687634 1067802.3033704758 0 0 0 0 33036990.182418823 11638432.458621502 0 11638432.458621502 -37886.269109725952 0 0 0 0 -10609917.112442017 23466594.973221779 0 23466594.973221779 6368266.1725594997 0 0 0 0 5419759.3973470367 -215073.11907789856 0 -215073.11907789856 -1478177.8387199445 0 0 0 0 3321548.4835273474 2251991.9573398978 0 2251991.9573398978 -2026604.824214349 0 0 0 0 12210105.983032227 -2414.817102547735 0 -2414.817102547735 -3346494.1664316058 0 0 0 0 16847951.537765503 -4204501.8169555664 0 -4204501.8169555664 -2975411.4246578217 0 0 0 0 -24791963.918075562 -2442829.5066180229 0 -2442829.5066180229 16261912.211788177 0 0 0 0 23486445.441474915 8304185.5496766567 0 8304185.5496766567 -50158.629662513733 0 0 0 0 4024975.6520161685 -583991.38801357523 0 -583991.38801357523 -2064049.5616578385 0 0 0 0 13344796.859848022 -337736.58288218826 0 -337736.58288218826 -3398605.6954456866 0 0 0 0 10154261.527153015 -2640893.5367167387 0 -2640893.5367167387 -1900552.3917175755 0 0 0 0 -4286779.6710662842 6637613.9484248161 0 6637613.9484248161 -5577942.9728193283 0 0 0 0 -450132.54371471703 1934413.7519619055 0 1934413.7519619055 295351.21874562092 0 0 0 0 -4515568.0058746338 6042366.3878068924 0 6042366.3878068924 336095.76852416992 0 0 0 0 -5547497.1363067627 9924380.7026968002 0 9924380.7026968002 -382947.89087378979 0 0 0 0 5375594.6678924561 4627218.3408036232 0 4627218.3408036232 -848659.35223579407 0 0 0 0 -4063180.0868377686 8787977.1746411324 0 8787977.1746411324 -6290502.045753479 0 0 0 0 -10582706.645233154 3125713.7525320053 0 3125713.7525320053 3936419.0335454941 0 0 0 0 1329364.0282275816 3819255.3020666912 0 3819255.3020666912 -1022424.2931870036 0 0 0 0 373241.81170874089 -223456.65434855968 0 -223456.65434855968 -183466.81803322071 0 0 0 0 -186329758.47123814 97322855.959670261 0 97322855.959670261 -12758330.946007967 0 0 0 0 2486269.178276062 1265832.1583635807 0 1265832.1583635807 130252.99230194092 0 0 0 0 23418532.098258972 3699889.5931143761 0 3699889.5931143761 571241.16380310059 0 0 0 0 649916.29678174853 3349168.1220078021 0 3349168.1220078021 -2139024.584497496 0 0 0 0 -170399143.55662537 45956873.357463598 0 45956873.357463598 -27048224.732843876 0 0 0 0 15358386.132995605 -4308554.6967927702 0 -4308554.6967927702 -1767758.9792685881 0 0 0 0 17025891.085710526 871227.06960535701 0 871227.06960535701 -3264731.4311527163 0 0 0 0 14740331.632629395 1162030.6580234319 0 1162030.6580234319 -1689629.1066192798 0 0 0 0 14750497.326921314 3516074.3103587241 0 3516074.3103587241 -1870348.9457354993 0 0 0 0 10673293.256103516 2528941.048656255 0 2528941.048656255 -2466766.6383160353 0 0 0 0 10606063.782852173 2440615.9393425435 0 2440615.9393425435 -1975947.101074785 0 0 0 0 8367383.8435516357 2784641.810330838 0 2784641.810330838 -2272120.4284939654 0 0 0 0 10694742.355558395 2301981.6397931613 0 2301981.6397931613 -3193894.8519988954 0 0 0 0 10566308.68026638 1538045.1745125423 0 1538045.1745125423 -3043938.4161505699 0 0 0 0 12537682.508865356 79624.29764392972 0 79624.29764392972 -3376171.7421643361 0 0 0 0 13542790.901901245 1904859.8044462427 0 1904859.8044462427 -3234593.3523406908 0 0 0 0 1773886198.1262779 142218628.49684268 0 142218628.49684268 -333972835.02965766 0 0 0 0 2201951370.5235968 1012240276.5059131 0 1012240276.5059131 -67147838.424482048 0 0 0 0 1470921033.675848 766041196.80074561 0 766041196.80074561 -237500566.66978696 0 0 0 0 3760941.242865622 549678.69401231781 0 549678.69401231781 -1398266.3076625988 0 0 0 0 1378846318.6107292 150917807.94815984 0 150917807.94815984 1388885.7975355219 0 0 0 0 1356497385.4590607 251335886.08027977 0 251335886.08027977 -212391805.98599035 0 0 0 0 1757557711.1860428 57017765.456716776 0 57017765.456716776 -158461137.42554355 0 0 0 0 2677602.9769761488 622545.4966163747 0 622545.4966163747 -539283.1682418565 0 0 0 0 1928119341.3982391 -513639159.94626635 0 -513639159.94626635 -5333228.1290787458 0 0 0 0 1256599792.3394747 -345229431.71004194 0 -345229431.71004194 8774659.2878577709 0 0 0 0 1242846702.0291138 -201557665.08433449 0 -201557665.08433449 -157321600.08499813 0 0 0 0 1698529.0608613417 216711.87993502989 0 216711.87993502989 -635994.89815959625 0 0 0 0 922156946.04089355 -365520382.1386891 0 -365520382.1386891 -728037100.1183424 0 0 0 0 790654270.86042023 366796443.58689845 0 366796443.58689845 185524714.04215959 0 0 0 0 1584038807.7916946 1142595065.5441461 0 1142595065.5441461 427868201.8312428 0 0 0 0 762598610.79672241 28944044.439534545 0 28944044.439534545 -147108182.30361402 0 0 0 0 238965495.96690369 -529883921.67721093 0 -529883921.67721093 -200281501.19727731 0 0 0 0 326939882.64361572 -211881991.12881291 0 -211881991.12881291 -75437805.53223753 0 0 0 0 2143558.5658643506 2241109.660110414 0 2241109.660110414 1350405.0610816623 0 0 0 0 -36147317.413578033 172410239.75096291 0 172410239.75096291 177865318.7352519 0 0 0 0 -10345236.41386795 9432975.422981672 0 9432975.422981672 11224638.386320829 0 0 0 0 18263124.220146179 -7925137.5060839094 0 -7925137.5060839094 -8935625.8300504312 0 0 0 0 665274293.73506165 -79453509.101945639 0 -79453509.101945639 12853083.012804687 0 0 0 0 653291871.7327652 -442898.44987633824 0 -442898.44987633824 -68585857.571528167 0 0 0 0 2933490.4238633774 1767756.839483574 0 1767756.839483574 514659.96353305544 0 0 0 0 -3799468.4465065002 4887794.5535225468 0 4887794.5535225468 -3444.1370776322319 0 0 0 0 8095178.4397087097 5520288.2455087593 0 5520288.2455087593 2143.0092428610269 0 0 0 0 1121611.6861381531 -533357.40202593151 0 -533357.40202593151 -1232532.0862645395 0 0 0 0 7716252.7529220581 4337362.1274689138 0 4337362.1274689138 -4552600.1526427064 0 0 0 0 7691106.9483623505 4128298.3347353637 0 4128298.3347353637 548110.5196737498 0 0 0 0 25236495.602050781 310810.83512776811 0 310810.83512776811 -7374864.9050691323 0 0 0 0 15879111.33068943 -4462961.0529820053 0 -4462961.0529820053 -2257231.2826489359 0 0 0 0 16469091.190429688 2625019.8709292482 0 2625019.8709292482 -3626508.744808414 0 0 0 0 559502.43974767393 73813.481752216816 0 73813.481752216816 18447.218359251929 0 0 0 0 17651863.189468384 -2453837.290650845 0 -2453837.290650845 -7970.528909011281 0 0 0 0 13763521.193489075 230558.90273134329 0 230558.90273134329 -1859258.3477453194 0 0 0 0 27496020.282775879 1585198.2066229414 0 1585198.2066229414 -4141810.1867894363 0 0 0 0 23470246.035125732 319663.25347283948 0 319663.25347283948 -2329920.8789262208 0 0 0 0 20401553.493026733 -5841367.2519337088 0 -5841367.2519337088 -4157860.5347784664 0 0 0 0 23815440.746902466 597934.9572285139 0 597934.9572285139 4845824.3493030639 0 0 0 0 51543398.023239136 -17736772.283952303 0 -17736772.283952303 16909821.126239665 0 0 0 0 29524468.940765381 12096250.389525991 0 12096250.389525991 -2572148.8199210884 0 0 0 0 -430014.40991973877 6642628.2090661917 0 6642628.2090661917 -3556674.2468813248 0 0 0 0 74992.521300621331 -1413.0009341463447 0 -1413.0009341463447 16914.565197142394 0 0 0 0 27630048.813995361 -9250430.7734111845 0 -9250430.7734111845 1318746.3240393586 0 0 0 0 44615311.875610352 -20093970.261777036 0 -20093970.261777036 2046224.5630720779 0 0 0 0 32851547.003639221 12449903.043944517 0 12449903.043944517 5949939.6866117138 0 0 0 0 5581692.8889389038 3731850.4696928151 0 3731850.4696928151 3177217.3916404024 0 0 0 0 800616.88442265987 175800.37806688622 0 175800.37806688622 32380.989570425721 0 0 0 0 -113259.69213104248 672139.55791395903 0 672139.55791395903 14600981.436156245 0 0 0 0 338000.13077020645 -40418.24438200891 0 -40418.24438200891 -218258.90724401741 0 0 0 0 21781874.738258362 -9629507.1147535965 0 -9629507.1147535965 26470.485582195222 0 0 0 0 2397758.3243942261 4473838.0161744505 0 4473838.0161744505 -2576343.9890102148 0 0 0 0 1879156.4305569977 270258.61658692732 0 270258.61658692732 -533282.51287158392 0 0 0 0 957851.55567169189 2040061.9244555831 0 2040061.9244555831 -1013277.4671126604 0 0 0 0 444419.01874503493 671108.34488065168 0 671108.34488065168 427565.17892457487 0 0 0 0 12167661.181192398 -18806681.427136719 0 -18806681.427136719 4680298.459949404 0 0 0 0 14455197.401290894 3745086.8852863014 0 3745086.8852863014 -5101942.5399890244 0 0 0 0 25494229.47303772 -30441973.411997266 0 -30441973.411997266 5085844.5309259612 0 0 0 0 4149985.6645355225 -1165950.0601896346 0 -1165950.0601896346 -508505.55958011746 0 0 0 0 -562069.94874572754 4744580.6325162053 0 4744580.6325162053 -695505.04620397091 0 0 0 0 43716701.72088623 -10897689.256596208 0 -10897689.256596208 9950827.9583492279 0 0 0 0 235557.07860228419 387513.93170521781 0 387513.93170521781 330275.02377945546 0 0 0 0 -655250.87045073509 -1181896.3589681135 0 -1181896.3589681135 624991.47633898258 0 0 0 0 -345757.7694859989 -74638.273569844663 0 -74638.273569844663 316248.96605650207 0 0 0 0 1648821.5359651428 1175930.2320364825 0 1175930.2320364825 649247.59249084629 0 0 0 0 -802118.57212686539 582374.53825009242 0 582374.53825009242 3211930.4217738807 0 0 0 0 4945730.1010437012 4125112.399539277 0 4125112.399539277 -1174208.4454627261 0 0 0 0 -4714075.105537653 3843254.7416684614 0 3843254.7416684614 8758080.8804789186 0 0 0 0 9811872.1214809418 11751732.767752197 0 11751732.767752197 -7296772.570171684 0 0 0 0 4419252.9367675781 5416035.3994582593 0 5416035.3994582593 27943.363002751023 0 0 0 0 4821323.3586425781 2117461.4591348618 0 2117461.4591348618 6112478.9829203822 0 0 0 0 4935224.6521453857 -3728005.2505999506 0 -3728005.2505999506 -14372563.212667629 0 0 0 0 6315610.7605314255 984758.30973991379 0 984758.30973991379 -5362591.5893083215 0 0 0 0 4106542.5137951523 -1660305.5077873422 0 -1660305.5077873422 143824.547634674 0 0 0 0 -15526515.281082153 -29437957.76025486 0 -29437957.76025486 270464785.72517848 0 0 0 0 450318.58062593639 195440.97338634077 0 195440.97338634077 -154069.63962972071 0 0 0 0 94352355.670183182 -282379369.72959876 0 -282379369.72959876 898889117.98372173 0 0 0 0 129633.09507369064 -51189.505980495363 0 -51189.505980495363 52063.507630246459 0 0 0 0 4147808.4465789795 1376646.7930361629 0 1376646.7930361629 -3566687.7819879502 0 0 0 0 1092282.6400612323 634462.16738995537 0 634462.16738995537 -310069.08167362411 0 0 0 0 210658602.3965416 -86127646.50632906 0 -86127646.50632906 -7803845.6332139373 0 0 0 0 193447316.96923018 -97063722.677056506 0 -97063722.677056506 49267206.306332588 0 0 0 0 119713408.99160767 -121025920.66080379 0 -121025920.66080379 90751758.412249088 0 0 0 0 121312424.18835449 -100569017.92180765 0 -100569017.92180765 352363491.12640452 0 0 0 0 627356201.26049805 -149184552.07040787 0 -149184552.07040787 -115077297.78646946 0 0 0 0 -20330368.378250122 -17187620.750554323 0 -17187620.750554323 101146813.01435643 0 0 0 0 222976332.77209854 -50380431.547706217 0 -50380431.547706217 89178519.629777491 0 0 0 0 237511449.38216782 101336708.60634333 0 101336708.60634333 160314067.15979695 0 0 0 0 -41552386.25280714 -74983586.52792424 0 -74983586.52792424 118905903.95291495 0 0 0 0 337013375.258255 44521790.833116055 0 44521790.833116055 -18388806.317280501 0 0 0 0 507505344.72810364 -88634846.69665134 0 -88634846.69665134 -93355991.153735161 0 0 0 0 1360335.1850319728 80814.460605040193 0 80814.460605040193 -580653.33888819721 0 0 0 0 637411013.08992386 425418827.07727712 0 425418827.07727712 236024713.815799 0 0 0 0 610738848.1678524 575441235.61382926 0 575441235.61382926 -39284739.742732286 0 0 0 0 908905769.74186707 422538289.58854008 0 422538289.58854008 -116232058.15569967 0 0 0 0 2591148.138539359 534456.69600947388 0 534456.69600947388 -1455215.7261765962 0 0 0 0 207215151.15935516 244876509.41534096 0 244876509.41534096 289328202.49109757 0 0 0 0 258727784.48146439 107463274.75491622 0 107463274.75491622 136618035.83293545 0 0 0 0 84555835.538375854 38322744.708034277 0 38322744.708034277 153488540.61937779 0 0 0 0 165929338.50178909 107057020.88193493 0 107057020.88193493 104821553.40413332 0 0 0 0 94842453.414291382 56796514.209810793 0 56796514.209810793 -50598202.538393021 0 0 0 0 -47863945.326011658 89220076.994189858 0 89220076.994189858 104826815.99273917 0 0 0 0 130401412.60809708 142998944.31652939 0 142998944.31652939 -129414042.76595521 0 0 0 0 96445831.151107788 104982504.66549653 0 104982504.66549653 203586854.20198479 0 0 0 0 1372460.6213484332 512499.47386503592 0 512499.47386503592 -954067.14117442968 0 0 0 0 155218075.20137691 263295653.38145036 0 263295653.38145036 166471325.74940506 0 0 0 0 54038340.258369446 123934417.37127972 0 123934417.37127972 114771316.87211829 0 0 0 0 834923001.83691788 1291467753.4491596 0 1291467753.4491596 1111967409.8255711 0 0 0 0 2201375364.4792566 1061268952.4833772 0 1061268952.4833772 -198639461.04644811 0 0 0 0 2198970390.8095627 1063485576.9401785 0 1063485576.9401785 -197389919.6541642 0 0 0 0 398027913.78433228 -13068528.15881747 0 -13068528.15881747 -126574896.10591224 0 0 0 0 1774296872.131134 820911089.70134473 0 820911089.70134473 166546156.55229434 0 0 0 0 924453111.94141817 336289637.3369692 0 336289637.3369692 -57648409.200222492 0 0 0 0 797668684.36505127 361330973.02713066 0 361330973.02713066 -51353124.640268683 0 0 0 0 3867703.0324487165 978904.82586582005 0 978904.82586582005 -1622060.2481219587 0 0 0 0 1410141065.759037 -499839570.71965623 0 -499839570.71965623 -286773105.97800136 0 0 0 0 1306374683.2103729 -304718500.19038945 0 -304718500.19038945 -186111778.66982782 0 0 0 0 2205537227.7950821 -867217884.7624948 0 -867217884.7624948 -131905737.79610392 0 0 0 0 2200423966.1666222 -1611124873.6654778 0 -1611124873.6654778 991060417.42697883 0 0 0 0 4849796.3796023875 373412.6978291655 0 373412.6978291655 1184472.7755897683 0 0 0 0 846483946.67046738 -658114849.0274291 0 -658114849.0274291 323373917.50978369 0 0 0 0 848780739.04757154 -432431864.10716081 0 -432431864.10716081 128020295.92585647 0 0 0 0 11406166.374086574 2496926.1081265779 0 2496926.1081265779 930168.62291243393 0 0 0 0 -44123437.774581909 283049812.61143923 0 283049812.61143923 -199379228.61659324 0 0 0 0 -92987261.507734299 18040568.780515127 0 18040568.780515127 -58594931.139643192 0 0 0 0 265893232.01648456 47533818.043959983 0 47533818.043959983 -127007024.77286029 0 0 0 0 277768440.90987396 -252416564.33421922 0 -252416564.33421922 162090013.87679037 0 0 0 0 901066722.24551392 -490270116.17626011 0 -490270116.17626011 115622929.75184506 0 0 0 0 374151547.02969742 -92814615.232403159 0 -92814615.232403159 8031929.3186385036 0 0 0 0 601107511.46381378 -210955073.52112871 0 -210955073.52112871 26711636.778590053 0 0 0 0 138807244.79301071 -59807904.366981804 0 -59807904.366981804 35426882.717425436 0 0 0 0 27935590.247943878 76856949.67947571 0 76856949.67947571 -88815631.988982707 0 0 0 0 16601064.744293232 3983420.3404240711 0 3983420.3404240711 121833.04224863672 0 0 0 0 212428107.15259171 -153356915.65022054 0 -153356915.65022054 40550321.816947713 0 0 0 0 -7457622.0458259583 80055510.123385578 0 80055510.123385578 58192785.369369447 0 0 0 0 19977301.11151886 244106431.73484898 0 244106431.73484898 -417402900.51500309 0 0 0 0 14972283.729624297 3646523.0586794745 0 3646523.0586794745 475443.63114713971 0 0 0 0 200517283.67218018 116863852.38341761 0 116863852.38341761 -51229448.82491529 0 0 0 0 82777249.750778198 108888022.74316621 0 108888022.74316621 210899343.48676586 0 0 0 0 433912179.9056778 66414656.269340977 0 66414656.269340977 160338231.24993086 0 0 0 0 500501778.1696167 -423345755.43515778 0 -423345755.43515778 770979080.09609532 0 0 0 0 270159366.53166199 -198681789.90583205 0 -198681789.90583205 148883373.64553356 0 0 0 0 235097228.40157318 -54286259.331686854 0 -54286259.331686854 -333385101.37058735 0 0 0 0 -103584635.61396217 61023526.295214802 0 61023526.295214802 -49334878.431155205 0 0 0 0 60285178.02848053 189596897.27359152 0 189596897.27359152 -456004849.27425009 0 0 0 0 -20258582.196281433 -14171117.737764597 0 -14171117.737764597 -137598726.9024981 0 0 0 0 103308686.99038696 -101746031.71811128 0 -101746031.71811128 -118980794.53334332 0 0 0 0 314884779.01196289 -187968798.08673811 0 -187968798.08673811 69867761.815760612 0 0 0 0 33198880.259307861 6628870.0784556866 0 6628870.0784556866 -42101829.926861525 0 0 0 0 314494882.4703064 -90185866.902897358 0 -90185866.902897358 82882344.215516567 0 0 0 0 -93952185.053901672 80765331.476824358 0 80765331.476824358 654839661.13021183 0 0 0 0 306373260.53735352 -69301699.61833477 0 -69301699.61833477 223313303.4114809 0 0 0 0 16381232.038005829 8964492.4006174803 0 8964492.4006174803 104917485.56781626 0 0 0 0 17856880.566806793 -124780479.26767713 0 -124780479.26767713 113771081.43294001 0 0 0 0 55499167.975666046 -84879932.856275618 0 -84879932.856275618 -143615073.18831944 0 0 0 0 9079436.3619155884 -31735396.841288805 0 -31735396.841288805 -67120647.042209148 0 0 0 0 17042144.992504798 3775338.0361969322 0 3775338.0361969322 -219936.42214750394 0 0 0 0 21985444.485549927 47082872.528856456 0 47082872.528856456 -235503721.67873091 0 0 0 0 -49976530.621477127 86419130.924610108 0 86419130.924610108 26618956.106163204 0 0 0 0 -96221384.04608345 -940909.73225500435 0 -940909.73225500435 29746246.821906 0 0 0 0 24503825.094974518 -28611693.954977453 0 -28611693.954977453 -64213957.571251869 0 0 0 0 8768722.9522895813 25813101.943295121 0 25813101.943295121 -63629133.448303938 0 0 0 0 39973508.783561707 69344554.196289212 0 69344554.196289212 -40516996.147557974 0 0 0 0 -70013218.593179703 -77120269.789769873 0 -77120269.789769873 24819588.595926523 0 0 0 0 -63442586.562892914 -76568516.184572592 0 -76568516.184572592 51676049.781661749 0 0 0 0 -61207513.505081177 -14636704.46458292 0 -14636704.46458292 6449832.055941388 0 0 0 0 -186472818.65642738 57445154.282664239 0 57445154.282664239 17033225.653288364 0 0 0 0 2640489.7680947259 -535288.71242311783 0 -535288.71242311783 -1271073.5495852493 0 0 0 0 -68341779.910661697 -16340253.683066398 0 -16340253.683066398 13593127.244046211 0 0 0 0 -57506727.558807373 -22520370.098857701 0 -22520370.098857701 4126235.9881075025 0 0 0 0 -50328375.123855591 -34946520.864156306 0 -34946520.864156306 15105054.065062046 0 0 0 0 -35721039.62563324 -43682774.708811432 0 -43682774.708811432 -1383284.5699352622 0 0 0 0 -39417579.089241028 -36906397.703911006 0 -36906397.703911006 -9272664.9677870274 0 0 0 0 -2568321.154176712 -75332224.051684335 0 -75332224.051684335 9708672.1866336465 0 0 0 0 5643700.1718673706 -62320319.304938495 0 -62320319.304938495 -35606769.463849366 0 0 0 0 -2168813.4121170044 -78123995.581209004 0 -78123995.581209004 -16762771.090992868 0 0 0 0 -32166924.073676109 -60340490.120733805 0 -60340490.120733805 21626963.071971893 0 0 0 0 -29473081.60260582 -76262589.240691751 0 -76262589.240691751 51000928.370629311 0 0 0 0 -33605289.666473389 -56769446.744528949 0 -56769446.744528949 18493992.274577916 0 0 0 0 -77037599.602638245 -15368403.029917657 0 -15368403.029917657 24007495.241873741 0 0 0 0 -56567476.9229002 -41341922.614142142 0 -41341922.614142142 41107303.133028626 0 0 0 0 34975036.427215576 -59041183.977182746 0 -59041183.977182746 31168305.120626986 0 0 0 0 35107538.088712692 -93957583.273215473 0 -93957583.273215473 72990932.792792916 0 0 0 0 35126412.684280396 -25052537.689501107 0 -25052537.689501107 103898324.74740735 0 0 0 0 36003720.781608582 -86223716.287054777 0 -86223716.287054777 10753014.880032212 0 0 0 0 -10311518.548950195 -127623935.67134067 0 -127623935.67134067 -25921676.945232376 0 0 0 0 -11569259.990577698 -75080786.083351195 0 -75080786.083351195 38312332.57241334 0 0 0 0 166291040.70016098 1102441.0374407768 0 1102441.0374407768 29500145.034674309 0 0 0 0 140919535.26937675 17787533.346910268 0 17787533.346910268 113566046.82960111 0 0 0 0 165156696.90553665 -19611817.311242208 0 -19611817.311242208 69909526.955549359 0 0 0 0 532253134.96615601 -77490320.205012381 0 -77490320.205012381 15846213.643786132 0 0 0 0 85675010.672908783 -59067900.889247835 0 -59067900.889247835 7856809.6841331124 0 0 0 0 151299388.48591614 10796547.204545856 0 10796547.204545856 23871286.694444954 0 0 0 0 240727508.38262177 19944563.115932345 0 19944563.115932345 64120634.265677214 0 0 0 0 1056274102.7491722 -68243691.210223973 0 -68243691.210223973 -117715683.15009624 0 0 0 0 588520229.60048676 57848758.936659098 0 57848758.936659098 -8480904.8564862013 0 0 0 0 570399205.61660767 85067466.610456824 0 85067466.610456824 32815213.662046969 0 0 0 0 629179579.23436356 -3242723.7850463986 0 -3242723.7850463986 -26777618.458098978 0 0 0 0 475090240.66068649 78992038.279986978 0 78992038.279986978 -13863828.597265027 0 0 0 0 436077339.26340485 224112293.76821357 0 224112293.76821357 97459213.287413061 0 0 0 0 1128636027.4061737 267899771.78347826 0 267899771.78347826 -85269556.791282058 0 0 0 0 1134581763.2995634 191854049.85589066 0 191854049.85589066 -152997011.46974146 0 0 0 0 1778698930.3055725 472398558.91067606 0 472398558.91067606 -219423614.27228361 0 0 0 0 1529739817.5166016 369225523.5211885 0 369225523.5211885 -117362994.08067484 0 0 0 0 2205220929.3010254 343383758.39335805 0 343383758.39335805 -283761422.99278975 0 0 0 0 1927260459.8127737 116575996.41442309 0 116575996.41442309 -458322343.13217121 0 0 0 0 2204405923.9559174 174352805.74653682 0 174352805.74653682 -494426688.69963896 0 0 0 0 1770293659.5238647 -46942698.002402298 0 -46942698.002402298 -404860680.42769563 0 0 0 0 1521996637.7541046 -124368566.10686871 0 -124368566.10686871 -425167549.26137817 0 0 0 0 1129624591.2508984 -301361821.57622409 0 -301361821.57622409 -153799496.21034712 0 0 0 0 2204661891.5331717 -375007643.17937315 0 -375007643.17937315 -451581777.03891742 0 0 0 0 3985187.4671707153 -15257640.985628843 0 -15257640.985628843 -29494456.592062794 0 0 0 0 22274606.362724304 -12096564.929739177 0 -12096564.929739177 -45978601.761106014 0 0 0 0 10096607.878180545 -243128.27655803412 0 -243128.27655803412 -4011088.3779739076 0 0 0 0 1663300.0671604127 -1918875.2200988382 0 -1918875.2200988382 -1812837.6518162773 0 0 0 0 -36896113.017311096 -68031108.204540849 0 -68031108.204540849 11577024.561083317 0 0 0 0 15274915.992095947 -23201954.444577694 0 -23201954.444577694 4321234.8969559669 0 0 0 0 27825746.867099762 -4536330.3996239901 0 -4536330.3996239901 -3962102.9976480007 0 0 0 0 -56495432.300506592 18551403.655558228 0 18551403.655558228 3653273.1322602034 0 0 0 0 89742473.245239258 -9757613.5191802979 0 -9757613.5191802979 -29347038.231315762 0 0 0 0 -35328909.322891235 -15762339.622359872 0 -15762339.622359872 -2810107.6762551665 0 0 0 0 -29475358.660119057 -38871360.839164302 0 -38871360.839164302 -4856391.0991916656 0 0 0 0 -50166994.967531681 -40486036.958925605 0 -40486036.958925605 5319713.7492729425 0 0 0 0 15290221.004180819 -15629297.709268549 0 -15629297.709268549 -4245276.0691585541 0 0 0 0 -4590027.6347808838 -20950918.92808634 0 -20950918.92808634 -9354781.0460839868 0 0 0 0 13548509.644500732 -24265133.011607826 0 -24265133.011607826 -13629353.365997374 0 0 0 0 18291034.573577881 155473.2281255722 0 155473.2281255722 -13232546.777770996 0 0 0 0 25512252.807388306 -13213379.219126314 0 -13213379.219126314 -10914163.396709025 0 0 0 0 10543248.914073359 -3292699.955299288 0 -3292699.955299288 -6553231.041331674 0 0 0 0 10974217.722596101 -73415.935414225794 0 -73415.935414225794 -4736720.88618703 0 0 0 0 18116297.292392731 -2346871.8217067719 0 -2346871.8217067719 -21777809.443729401 0 0 0 0 15935526.561683655 -7777362.899977684 0 -7777362.899977684 -14866837.25284481 0 0 0 0 10906172.631980896 3022052.5428638458 0 3022052.5428638458 -29299054.062768936 0 0 0 0 7151628.2650757097 1219269.1737126773 0 1219269.1737126773 -2314832.3817869872 0 0 0 0 23309302.893280029 8879131.1421823502 0 8879131.1421823502 -53944391.26600647 0 0 0 0 9689295.0005111694 -4493487.0455131531 0 -4493487.0455131531 -5517478.4853000641 0 0 0 0 4552922.5669011809 -2408385.4758507274 0 -2408385.4758507274 -2563114.6515204702 0 0 0 0 15105210.29801178 -15313711.630588531 0 -15313711.630588531 2825376.1331873536 0 0 0 0 14165958.733557701 -23664507.730758071 0 -23664507.730758071 3893825.0286426544 0 0 0 0 7121684.4423751831 1262567.6479959488 0 1262567.6479959488 -5176030.0131919384 0 0 0 0 6043194.3290009908 -3799730.0495048109 0 -3799730.0495048109 -6651739.5233917618 0 0 0 0 9912521.8263778687 -3400718.7034128904 0 -3400718.7034128904 -3076919.30069381 0 0 0 0 21380077.995407104 -17574588.918040633 0 -17574588.918040633 -8591391.6063785553 0 0 0 0 14293779.508621216 -9763597.2210793495 0 -9763597.2210793495 -8147412.876531601 0 0 0 0 9235188.9806618933 -2199603.7174771465 0 -2199603.7174771465 -5264762.9983577235 0 0 0 0 22441540.115250587 -14495540.48596108 0 -14495540.48596108 -15560462.45142746 0 0 0 0 19335252.337371826 -7729448.0197582245 0 -7729448.0197582245 -15797684.679243088 0 0 0 0 18019004.48046875 -1531420.4974756241 0 -1531420.4974756241 -21292686.616824746 0 0 0 0 20672661.894119263 -7623111.2490091324 0 -7623111.2490091324 -31645630.127662659 0 0 0 0 20607570.049172401 -8781629.9923268855 0 -8781629.9923268855 -19278596.608215332 0 0 0 0 19927068.548126221 -616845.62382602692 0 -616845.62382602692 -21037317.652812958 0 0 0 0 10371842.438827515 1762377.0327715278 0 1762377.0327715278 7622.4485229849815 0 0 0 0 6897993.6421203613 810736.69146871567 0 810736.69146871567 -183418.83058166504 0 0 0 0 1628420.1171595678 -1410428.3594101965 0 -1410428.3594101965 -2773681.9740193505 0 0 0 0 19494081.371406555 -8397598.1397385597 0 -8397598.1397385597 -13116079.271596909 0 0 0 0 19523068.751472473 -951104.45827102661 0 -951104.45827102661 -12834622.775758743 0 0 0 0 6548076.9055505432 457328.99014055356 0 457328.99014055356 -708097.34874168248 0 0 0 0 1814964.8024291992 -1700827.3465776443 0 -1700827.3465776443 -2068018.0455646515 0 0 0 0 8564678.6572184265 -2205228.5077814851 0 -2205228.5077814851 -4615851.4581654975 0 0 0 0 5649117.1639100742 31054.220545120537 0 31054.220545120537 -753032.50584211107 0 0 0 0 7240416.3843231201 -1659377.3907279968 0 -1659377.3907279968 -2461148.984303236 0 0 0 0 8979881.7763061523 4454345.2258472443 0 4454345.2258472443 -3927314.776122041 0 0 0 0 5625963.8810958862 -1485722.2468407154 0 -1485722.2468407154 -2360045.1596314907 0 0 0 0 6721223.7532043457 -405065.20117199421 0 -405065.20117199421 -4629570.5610541105 0 0 0 0 3352219.4022750854 -1227049.0511443615 0 -1227049.0511443615 -629403.59693527222 0 0 0 0 6368713.5662589073 -2354445.7899358552 0 -2354445.7899358552 -986808.72116136551 0 0 0 0 5443484.5927260891 -1638320.2890277617 0 -1638320.2890277617 -2995866.020969667 0 0 0 0 6445985.2647399902 -476986.65321826935 0 -476986.65321826935 -1136592.0688257217 0 0 0 0 2903464.1414069831 -2054426.0558312908 0 -2054426.0558312908 -2099714.4640256525 0 0 0 0 5203637.5631208122 126536.73028757796 0 126536.73028757796 -734560.37929267541 0 0 0 0 321042.40403062478 -1148201.2478467934 0 -1148201.2478467934 -866383.28262935649 0 0 0 0 2853135.9162902832 -1138916.37327528 0 -1138916.37327528 5783481.6820068359 0 0 0 0 10444628.933624268 1535807.3896878809 0 1535807.3896878809 -565397.8003474474 0 0 0 0 209970.04314560071 -1289626.965972526 0 -1289626.965972526 -773749.1020728997 0 0 0 0 4707559.9546508789 230765.60541766882 0 230765.60541766882 -1509444.5007483959 0 0 0 0 -1351236.5442657471 -703369.01581168175 0 -703369.01581168175 -6125752.7700309753 0 0 0 0 7419602.5187179223 -2281820.0604789462 0 -2281820.0604789462 -5064425.7383626439 0 0 0 0 14224690.347652514 -2049032.566260349 0 -2049032.566260349 -10423328.004082223 0 0 0 0 32060258.182846069 -6643916.2345136404 0 -6643916.2345136404 -6755245.6024448872 0 0 0 0 24430800.777160645 247205.03205275536 0 247205.03205275536 -3758948.8246269226 0 0 0 0 26540547.547943115 12476.149259090424 0 12476.149259090424 -4058384.2953910828 0 0 0 0 23081766.450773239 -4319813.6541358978 0 -4319813.6541358978 -3834342.5291540623 0 0 0 0 15723245.561401367 -6005758.2696537971 0 -6005758.2696537971 -5910060.8724696636 0 0 0 0 18652357.064949036 -9479894.1243050098 0 -9479894.1243050098 -3262523.2581176758 0 0 0 0 17372168.910959244 -13372374.511592299 0 -13372374.511592299 2589508.8152422905 0 0 0 0 26840428.801895142 -20655112.546246052 0 -20655112.546246052 -5014693.1362169981 0 0 0 0 24830843.099845886 -27901163.122620583 0 -27901163.122620583 -12991916.43787694 0 0 0 0 13070092.108459473 -33524655.445603728 0 -33524655.445603728 9431978.1903102398 0 0 0 0 24710447.345184326 -40230525.16928333 0 -40230525.16928333 -37814341.443815231 0 0 0 0 33764851.290252686 -25150136.433991313 0 -25150136.433991313 -12719230.246341795 0 0 0 0 32207595.823890686 -22441892.360530972 0 -22441892.360530972 -17041990.661855936 0 0 0 0 35191605.93598938 -18665342.489620984 0 -18665342.489620984 -12365876.754991055 0 0 0 0 -6636488.2699813843 -38139167.731053114 0 -38139167.731053114 45542920.652027786 0 0 0 0 11559750.82780838 -39880405.919464946 0 -39880405.919464946 -11009008.56897378 0 0 0 0 12001770.949554443 -35990263.491417527 0 -35990263.491417527 -10457739.089223623 0 0 0 0 23552279.886993408 -32830253.236062944 0 -32830253.236062944 -80622905.218452096 0 0 0 0 8101733.4513168335 -68085474.904103637 0 -68085474.904103637 -8680188.6204388142 0 0 0 0 15853929.035675049 -12904689.39339149 0 -12904689.39339149 -67901205.697893381 0 0 0 0 53579048.361305237 -29957520.921338201 0 -29957520.921338201 -72025280.136891723 0 0 0 0 17165182.606683735 3584373.9466061145 0 3584373.9466061145 -602566.52361681429 0 0 0 0 9527057.1918945312 23746256.665570781 0 23746256.665570781 -109708293.83613861 0 0 0 0 24510111.297068819 -30537414.629095361 0 -30537414.629095361 -26177638.58595562 0 0 0 0 65675844.519508362 -9241225.0237281919 0 -9241225.0237281919 -27822911.014071465 0 0 0 0 41668144.971916199 10958090.396693766 0 10958090.396693766 12754899.421607137 0 0 0 0 35479033.90625 -10228928.721803069 0 -10228928.721803069 -46070392.087845385 0 0 0 0 38469494.248435974 -19931925.66568923 0 -19931925.66568923 -23943935.277376533 0 0 0 0 56577450.563713074 -27058648.204397649 0 -27058648.204397649 -63630215.690207362 0 0 0 0 -9369615.1854457855 -12186380.170185193 0 -12186380.170185193 -27013495.082006216 0 0 0 0 106676540.19654083 7398171.4068516195 0 7398171.4068516195 -51517142.213033915 0 0 0 0 -311694.43718963861 -322115.70073325932 0 -322115.70073325932 258817.58846013062 0 0 0 0 -34908399.332275391 -43807895.542848468 0 -43807895.542848468 -2218855.8951513171 0 0 0 0 101540611.27557373 53498183.853737324 0 53498183.853737324 -7091110.0959643275 0 0 0 0 -45431018.456298828 -68238262.302005649 0 -68238262.302005649 -12914515.663691282 0 0 0 0 -17831755.472244263 -59924765.069143265 0 -59924765.069143265 -46255872.37335512 0 0 0 0 41053247.989715576 119254136.48617887 0 119254136.48617887 -37379295.440556765 0 0 0 0 -6730080.2829041481 -26324362.625332993 0 -26324362.625332993 -12617531.092471778 0 0 0 0 76182600.340560913 110829025.0765914 0 110829025.0765914 -36407180.447564356 0 0 0 0 1122321.2857645899 430565.49735170836 0 430565.49735170836 -903644.82550089923 0 0 0 0 17066490.678755343 3207680.5167784933 0 3207680.5167784933 -1453016.8560653273 0 0 0 0 26152194.770996094 -73539342.064613461 0 -73539342.064613461 55109340.570055246 0 0 0 0 96857769.817932129 -142281041.66782939 0 -142281041.66782939 -75762554.83356142 0 0 0 0 42494371.586761475 17470656.010204315 0 17470656.010204315 -26149206.765030742 0 0 0 0 36071370.181112289 47740472.506927699 0 47740472.506927699 -99472488.330143452 0 0 0 0 32052438.141891479 16265144.765495539 0 16265144.765495539 -20095352.741849899 0 0 0 0 38442386.599945068 -1234972.1668584347 0 -1234972.1668584347 -2072568.2518959045 0 0 0 0 14108422.900733948 5291658.6422548294 0 5291658.6422548294 552584.44501614571 0 0 0 0 10956233.111404419 11631846.122238874 0 11631846.122238874 3845839.2961959839 0 0 0 0 21200155.369522095 -608706.10153579712 0 -608706.10153579712 8815491.5817933083 0 0 0 0 16362320.602630615 4827660.8474903107 0 4827660.8474903107 10937430.234921694 0 0 0 0 19192865.003265381 5797453.5765972137 0 5797453.5765972137 -300402.08229827881 0 0 0 0 20066744.725692749 -6424333.8113861084 0 -6424333.8113861084 -39738069.313356996 0 0 0 0 26228640.516662598 19965506.275790215 0 19965506.275790215 -16916951.179492474 0 0 0 0 -27207716.949691772 43778344.196909547 0 43778344.196909547 235385597.13924026 0 0 0 0 108045226.77735901 52167713.557302952 0 52167713.557302952 -194568076.51808918 0 0 0 0 7850473.1586303711 10304148.977526188 0 10304148.977526188 21583856.112783998 0 0 0 0 59890854.579605103 74681025.285176516 0 74681025.285176516 12314579.406776994 0 0 0 0 61343407.267349243 -140873067.34889305 0 -140873067.34889305 38125197.096130252 0 0 0 0 146599294.19361877 353327555.36015058 0 353327555.36015058 22507442.453064203 0 0 0 0 166548079.51504517 -180161921.08292699 0 -180161921.08292699 -401609519.75797749 0 0 0 0 20444056.56918335 -39117345.088076115 0 -39117345.088076115 -92298677.415759206 0 0 0 0 12216386.91437149 32833085.101446867 0 32833085.101446867 -13494832.928507805 0 0 0 0 17558059.561706543 14242268.73350811 0 14242268.73350811 3728313.562078476 0 0 0 0 4123054.6638193615 1114688.5249832384 0 1114688.5249832384 -1128777.9908242119 0 0 0 0 18335682.027870178 14759085.96231389 0 14759085.96231389 2395255.9687132835 0 0 0 0 2741069.9856166467 188258.34800226614 0 188258.34800226614 -1774625.3061812553 0 0 0 0 15826973.524555206 6726207.183793664 0 6726207.183793664 -18068844.2790308 0 0 0 0 31119972.851623535 7911103.0948274136 0 7911103.0948274136 -10435801.010890484 0 0 0 0 55469575.816565514 -1800231.507683903 0 -1800231.507683903 -44714269.218668938 0 0 0 0 40975577.001390457 23860685.364283592 0 23860685.364283592 -33358793.316779137 0 0 0 0 39090961.814407349 35334968.895959377 0 35334968.895959377 -60784669.152188301 0 0 0 0 56612588.419433594 6548433.8974397182 0 6548433.8974397182 -62211180.408882469 0 0 0 0 31895459.64414978 -3420394.9496183395 0 -3420394.9496183395 -12018161.322174639 0 0 0 0 11424030.058596469 -1047732.0088701602 0 -1047732.0088701602 -6572261.5015810262 0 0 0 0 -72422317.059711456 165535.85949845612 0 165535.85949845612 -3061709.2251543999 0 0 0 0 36326119.558116913 -9218390.5624746084 0 -9218390.5624746084 -5286274.8944578171 0 0 0 0 -52660759.610034466 -16732770.709330883 0 -16732770.709330883 -14204009.704535484 0 0 0 0 12936622.05164852 -5336230.7506259931 0 -5336230.7506259931 -4747450.7271566782 0 0 0 0 14260794.957954884 11460699.310099594 0 11460699.310099594 1920081.8947940473 0 0 0 0 19340542.557202816 19110790.686358452 0 19110790.686358452 -10332868.606225967 0 0 0 0 20678254.200580597 8343420.7777833939 0 8343420.7777833939 2734968.3529269099 0 0 0 0 12772088.33238964 1772406.0222914133 0 1772406.0222914133 -4525094.5415218323 0 0 0 0 111120807.79042053 -9047000.9957284927 0 -9047000.9957284927 -52052552.235258102 0 0 0 0 35375451.378819466 17006768.221138954 0 17006768.221138954 -26155092.047660828 0 0 0 0 -36299458.855567932 -28629104.058507025 0 -28629104.058507025 -7329692.2123246193 0 0 0 0 34925016.00843364 11390812.775120258 0 11390812.775120258 -34858420.841588974 0 0 0 0 14373985.013177082 -7591126.0756072933 0 -7591126.0756072933 -9356341.8870205712 0 0 0 0 23284603.86710453 5750855.5295368433 0 5750855.5295368433 -4676932.5329799652 0 0 0 0 22176496.663551331 2610456.4714574814 0 2610456.4714574814 -3938884.6324076653 0 0 0 0 21347007.065402985 7481359.2712254524 0 7481359.2712254524 -209207.89893388748 0 0 0 0 12645071.159600215 9725130.5042268112 0 9725130.5042268112 2227774.6040597651 0 0 0 0 20043528.730472565 2780312.7316427231 0 2780312.7316427231 2229473.3654384613 0 0 0 0 -60237245.084391594 71292336.716623783 0 71292336.716623783 21473350.77240181 0 0 0 0 19476303.463212967 4118328.7436506748 0 4118328.7436506748 2294326.7173223495 0 0 0 0 6631750.2982470514 4108130.9542586803 0 4108130.9542586803 -432850.68623236939 0 0 0 0 20775095.12046051 14277810.105021954 0 14277810.105021954 3434894.3303289413 0 0 0 0 20283441.561397552 3551883.9066205025 0 3551883.9066205025 -992923.67222440243 0 0 0 0 21312612.665697098 14877308.056466818 0 14877308.056466818 4068323.2258911133 0 0 0 0 21524211.332397461 14910697.589595795 0 14910697.589595795 3064990.1258554459 0 0 0 0 12200948.677243233 5803164.7005848885 0 5803164.7005848885 781318.17794322968 0 0 0 0 9038664.1817932129 4773721.5093874931 0 4773721.5093874931 3479804.3849577904 0 0 0 0 16379039.243413925 17931208.070164442 0 17931208.070164442 14853076.102367401 0 0 0 0 16119427.536308289 6578990.8144316673 0 6578990.8144316673 -1663299.7511255145 0 0 0 0 11609385.497966766 3057907.5860019326 0 3057907.5860019326 -3798097.2755906582 0 0 0 0 7388106.6255020536 4515358.9928163327 0 4515358.9928163327 -3374748.0812168466 0 0 0 0 2403009.6124208309 3845661.5824372815 0 3845661.5824372815 -2277768.2558301939 0 0 0 0 16508385.669828415 5035742.6598847508 0 5035742.6598847508 -9205472.5370559692 0 0 0 0 16102308.370189667 11657529.829787195 0 11657529.829787195 -10772491.690122843 0 0 0 0 -4886460.3443908691 10053951.901467323 0 10053951.901467323 -36477274.665879369 0 0 0 0 9895158.1105384827 2275741.3691205978 0 2275741.3691205978 -6529200.6681938171 0 0 0 0 6269621.366891861 9877723.2412424088 0 9877723.2412424088 384733.67461585999 0 0 0 0 86555.131043802947 -3075331.082409834 0 -3075331.082409834 -1960144.3027960095 0 0 0 0 4422995.5514068604 -6641783.1390523911 0 -6641783.1390523911 -3598827.8597993851 0 0 0 0 1710138.515625 -967027.63529586792 0 -967027.63529586792 -2521116.8948554993 0 0 0 0 3054087.3282719925 719161.95849084295 0 719161.95849084295 -1993218.6703318153 0 0 0 0 17474444.778166678 2681315.2433489263 0 2681315.2433489263 -5016528.9279207066 0 0 0 0 11768031.326500092 -3668427.5822267905 0 -3668427.5822267905 -5737044.7187943766 0 0 0 0 8273858.8642730713 -7395604.2858028412 0 -7395604.2858028412 -4416875.818652153 0 0 0 0 37912861.437839508 10059302.485876869 0 10059302.485876869 -28716926.881738454 0 0 0 0 11497323.051433563 -6722946.4475231171 0 -6722946.4475231171 -7143661.9804992676 0 0 0 0 16251954.373886108 -17687215.293675512 0 -17687215.293675512 -64241136.624914721 0 0 0 0 -17162135.401851177 48331449.908627763 0 48331449.908627763 -28501597.919714391 0 0 0 0 17956300.287994325 833733.73145735171 0 833733.73145735171 -4759472.2920057811 0 0 0 0 -7364905.6458740234 -36262138.871630713 0 -36262138.871630713 -32459790.299928069 0 0 0 0 22850384.595588684 3036598.8840293884 0 3036598.8840293884 -25519242.763867378 0 0 0 0 12849588.215555191 -6574072.6791245937 0 -6574072.6791245937 -34752220.83241272 0 0 0 0 33844423.838447571 -20447413.010733366 0 -20447413.010733366 -18921918.916320801 0 0 0 0 12865778.053035736 -8977855.7511825562 0 -8977855.7511825562 -12479118.755382538 0 0 0 0 4475743.5617709756 -11719911.432605982 0 -11719911.432605982 2973325.1937980652 0 0 0 0 11773703.951416016 -15275754.772949219 0 -15275754.772949219 -7316545.4530572891 0 0 0 0 13696336.440917969 -20545319.148997307 0 -20545319.148997307 5637541.9831905365 0 0 0 0 8966562.2594451904 -12404788.827388763 0 -12404788.827388763 4780271.684830904 0 0 0 0 1182148.2888867334 -1208310.1944187693 0 -1208310.1944187693 -1786554.0444458593 0 0 0 0 8642936.3102493286 -14129718.857873917 0 -14129718.857873917 3571926.8145751953 0 0 0 0 421010.11312840134 -325587.86519080587 0 -325587.86519080587 -638422.10914175049 0 0 0 0 27374122.482410431 -42820977.603766918 0 -42820977.603766918 46360944.35825634 0 0 0 0 80223819.229507446 -29605656.105278492 0 -29605656.105278492 -12580417.163994551 0 0 0 0 36207322.224838257 44624819.194581032 0 44624819.194581032 48685028.044120789 0 0 0 0 76109132.273517609 26280942.021305084 0 26280942.021305084 728522.77223396301 0 0 0 0 53659942.65965271 21260049.110567093 0 21260049.110567093 2047493.8411626816 0 0 0 0 17257338.610496521 21387229.430959225 0 21387229.430959225 6964465.9348602295 0 0 0 0 8542157.4965896606 15892367.807853222 0 15892367.807853222 20903541.86781311 0 0 0 0 8322226.7525253296 5965287.7830042839 0 5965287.7830042839 6118500.3226928711 0 0 0 0 31208807.143112183 37507388.246796608 0 37507388.246796608 24853952.367393732 0 0 0 0 30733544.082054138 26507755.721739292 0 26507755.721739292 8075763.3082561493 0 0 0 0 35205752.742195129 27714887.396887541 0 27714887.396887541 -2134631.2320928574 0 0 0 0 30241533.164543152 18609162.209669352 0 18609162.209669352 4986585.5413131714 0 0 0 0 28346369.876853943 21242642.101933002 0 21242642.101933002 3264313.5276353359 0 0 0 0 11950878.269996643 15800358.073982716 0 15800358.073982716 6875267.978399992 0 0 0 0 18990231.319537163 8142673.1605063677 0 8142673.1605063677 -20805484.956241608 0 0 0 0 13131338.7423172 22036887.150477886 0 22036887.150477886 32565741.273039341 0 0 0 0 49170953.965705872 33144662.632317543 0 33144662.632317543 -325051.16585183144 0 0 0 0 43404614.380122185 12083589.459975123 0 12083589.459975123 -13148246.373703003 0 0 0 0 58282238.497329712 19883497.472153664 0 19883497.472153664 -79442855.337972641 0 0 0 0 57642215.396583557 5446601.6954100132 0 5446601.6954100132 -20074726.901315689 0 0 0 0 -19722062.402824402 24609748.692712307 0 24609748.692712307 -24486252.842647791 0 0 0 0 33545270.456817627 -3240200.3925733566 0 -3240200.3925733566 -13170344.46356535 0 0 0 0 -4574285.4256286621 -28345084.75728178 0 -28345084.75728178 -26513767.521242619 0 0 0 0 19501221.175033569 -23290923.58528614 0 -23290923.58528614 75779735.528669596 0 0 0 0 1505308.803164456 1505421.4139154118 0 1505421.4139154118 181134.35074796228 0 0 0 0 50878514.919487 -26018309.43248558 0 -26018309.43248558 -52348802.365477562 0 0 0 0 1340808.5799713135 3003126.587665081 0 3003126.587665081 123421224.00170994 0 0 0 0 -299219868.73962402 173190532.45081329 0 173190532.45081329 169232514.17564201 0 0 0 0 37047665.9815979 -11391411.579226494 0 -11391411.579226494 21644012.221365929 0 0 0 0 6577069.0702672973 7589603.6106326133 0 7589603.6106326133 -3757780.2221849007 0 0 0 0 4550878.8445037939 3859512.0799124343 0 3859512.0799124343 484412.08864850283 0 0 0 0 13202788.134674072 27365966.42634964 0 27365966.42634964 26840355.472791672 0 0 0 0 18665369.598731995 33840850.938614368 0 33840850.938614368 20193673.719295502 0 0 0 0 28686026.587257385 31849509.517526031 0 31849509.517526031 11918655.143636227 0 0 0 0 7772880.2472528294 11619432.756100457 0 11619432.756100457 -7096361.3955918914 0 0 0 0 5363932.508895874 12188403.952243805 0 12188403.952243805 -16439873.556142807 0 0 0 0 18290941.323326111 16091253.6776921 0 16091253.6776921 6004535.7243636101 0 0 0 0 150549.84066009521 15070764.358421326 0 15070764.358421326 -3509040.0797786713 0 0 0 0 5627020.9336471558 11129510.848993301 0 11129510.848993301 -12338109.983512878 0 0 0 0 4168108.9617233276 11037452.70893383 0 11037452.70893383 -7527064.6711807251 0 0 0 0 3022476.9405059814 14329959.593975067 0 14329959.593975067 -11522058.227523804 0 0 0 0 24070193.64050293 -9343092.9103221893 0 -9343092.9103221893 -5189681.3646440506 0 0 0 0 15888385.231916428 -236254.36968135834 0 -236254.36968135834 -4946386.3389205933 0 0 0 0 20934800.405605316 -9448663.8857297897 0 -9448663.8857297897 -4323279.8435139656 0 0 0 0 21121629.962023735 -4999536.0851867646 0 -4999536.0851867646 2276552.0477895737 0 0 0 0 17557571.61118269 -16928886.034639359 0 -16928886.034639359 -7480325.2631053925 0 0 0 0 20791047.808749199 -8604543.0773460865 0 -8604543.0773460865 -3731116.9564228058 0 0 0 0 33243531.707176208 -15717517.422775269 0 -15717517.422775269 -1436588.1487693787 0 0 0 0 43044221.097351074 1492919.9075107574 0 1492919.9075107574 -4919712.0227737427 0 0 0 0 39133114.293571472 289630.03028106689 0 289630.03028106689 -3986707.3035469055 0 0 0 0 40458056.047039032 495290.95743942261 0 495290.95743942261 -5108803.4545860291 0 0 0 0 10353752.033427265 6771872.1648686994 0 6771872.1648686994 620477.8050539908 0 0 0 0 26592229.891536713 19087395.728610516 0 19087395.728610516 -4671939.0219154358 0 0 0 0 34859181.91844511 22149848.477722049 0 22149848.477722049 -4608895.3806629181 0 0 0 0 54585164.641609192 24902340.523826599 0 24902340.523826599 -5425625.4123668671 0 0 0 0 3111608.8539877608 687453.335313702 0 687453.335313702 -2725359.298844723 0 0 0 0 10145843.800211191 18073213.721077234 0 18073213.721077234 46850098.316028595 0 0 0 0 -6333459.1267852783 -9213879.332850039 0 -9213879.332850039 -13584876.87508899 0 0 0 0 22367679.604845371 4074077.1231693355 0 4074077.1231693355 -10751755.689505372 0 0 0 0 10076438.449798584 15990616.507905722 0 15990616.507905722 33165144.158982277 0 0 0 0 35976890.38671875 48335541.12084198 0 48335541.12084198 25496268.523488998 0 0 0 0 16235581.171463013 33951083.543557167 0 33951083.543557167 49379114.411974907 0 0 0 0 15582218.233612061 28867251.492314339 0 28867251.492314339 17788306.482732773 0 0 0 0 29872112.182769775 40544754.603084221 0 40544754.603084221 32088386.906892329 0 0 0 0 57904686.773719788 7552020.4634261131 0 7552020.4634261131 -30107292.478971481 0 0 0 0 -4904323.2783508301 -8336875.2618169785 0 -8336875.2618169785 -5002252.9401168823 0 0 0 0 17368071.637260437 -5316140.0394115448 0 -5316140.0394115448 -11785299.915338516 0 0 0 0 -13216946.418159485 -2631488.4242982864 0 -2631488.4242982864 -1837161.5765895844 0 0 0 0 4699630.4031600952 16195048.127101898 0 16195048.127101898 12173162.209748268 0 0 0 0 26436311.974395752 31219266.336141109 0 31219266.336141109 1779404.476808548 0 0 0 0 18087830.515346527 32783345.281340837 0 32783345.281340837 18377878.438699722 0 0 0 0 5687900.4989624023 -52703.706040382385 0 -52703.706040382385 -9532759.4767189026 0 0 0 0 7283709.5262386054 8004723.5534407701 0 8004723.5534407701 1025035.5126380373 0 0 0 0 -3575631.4894561768 2060758.3678483963 0 2060758.3678483963 -9816669.9920544624 0 0 0 0 -13011962.056118488 4331620.1788226962 0 4331620.1788226962 -5647739.13920784 0 0 0 0 9601386.6257781461 2932749.1816971786 0 2932749.1816971786 -774061.81657187501 0 0 0 0 24399563.673135757 -4211944.6388473511 0 -4211944.6388473511 -603461.48714733124 0 0 0 0 23447066.217357635 -5819172.7441270351 0 -5819172.7441270351 -1179033.0586674213 0 0 0 0 23882696.451129913 -3508761.194002986 0 -3508761.194002986 7065950.1210136414 0 0 0 0 8625285.2134915739 7526474.4352458026 0 7526474.4352458026 -996723.50217243808 0 0 0 0 -475032.88729858398 2310579.7811164856 0 2310579.7811164856 -94754.969777584076 0 0 0 0 10758609.492967654 2893673.1461561192 0 2893673.1461561192 1908679.2295521619 0 0 0 0 -2956998.3714141846 20836855.631497622 0 20836855.631497622 16910697.641835213 0 0 0 0 7540983.450880982 7303966.0954346433 0 7303966.0954346433 -2694861.1890957868 0 0 0 0 28678836.847396851 13645628.082828045 0 13645628.082828045 -3879693.806014061 0 0 0 0 19973372.51977038 1867390.3040640987 0 1867390.3040640987 -3533782.2544023618 0 0 0 0 6052590.1638720091 3142047.9146237709 0 3142047.9146237709 4627185.8809918817 0 0 0 0 1882448.9215784073 1855020.6252917554 0 1855020.6252917554 -426015.82514457474 0 0 0 0 -28527402.6561203 -9254379.4775767326 0 -9254379.4775767326 19772663.764785767 0 0 0 0 34757760.92954731 78181633.365651071 0 78181633.365651071 53224200.217856407 0 0 0 0 32132373.132019043 38956788.424268723 0 38956788.424268723 -21769049.16883558 0 0 0 0 27098644.231300354 -876401.59707450867 0 -876401.59707450867 -20075433.283036232 0 0 0 0 21788639.772335052 14417550.990480483 0 14417550.990480483 3005390.6913890839 0 0 0 0 15219692.96263504 6769563.7096099854 0 6769563.7096099854 170255.00091648102 0 0 0 0 21935621.355903625 14880600.496470451 0 14880600.496470451 3039005.00659132 0 0 0 0 20541236.222141266 -819175.40527999401 0 -819175.40527999401 4092094.5862598419 0 0 0 0 2528809.1885485901 190056.07072139322 0 190056.07072139322 -20926.938781935722 0 0 0 0 322741317.31297874 -20801450.953549385 0 -20801450.953549385 -145048674.52942562 0 0 0 0 -219663572.40523529 -6919066.2970333099 0 -6919066.2970333099 372975784.55501938 0 0 0 0 50714550.35717392 138244874.449049 0 138244874.449049 124433074.39068985 0 0 0 0 216989085.10342789 98730962.122239113 0 98730962.122239113 -22498860.855560303 0 0 0 0 27956290.204956055 4438215.64569664 0 4438215.64569664 -53611493.867045879 0 0 0 0 -68323193.604045868 541195.23132324219 0 541195.23132324219 -60032721.085802078 0 0 0 0 242975965.35651863 -131329359.03860354 0 -131329359.03860354 -4566199.9646587372 0 0 0 0 -198741221.51346588 85707205.714211464 0 85707205.714211464 49524204.860958099 0 0 0 0 9874012.6284651887 7467075.8888943512 0 7467075.8888943512 2735516.331691565 0 0 0 0 -68644461.368236542 -90250100.627492905 0 -90250100.627492905 -123090719.56975174 0 0 0 0 -43504566.18875885 -36678894.085170746 0 -36678894.085170746 -54649495.597045898 0 0 0 0 1488570.4274363816 10434458.677486375 0 10434458.677486375 -67177.861694076099 0 0 0 0 24466770.497326851 46395755.152056694 0 46395755.152056694 -10364402.661952972 0 0 0 0 13349240.831507683 28802934.880908966 0 28802934.880908966 34245538.392553329 0 0 0 0 2377230.0046043396 13365319.416017532 0 13365319.416017532 109361325.87776184 0 0 0 0 17995084.502809525 42469179.3577528 0 42469179.3577528 61258371.322565079 0 0 0 0 8422839.5699615479 -7169186.241394043 0 -7169186.241394043 -433325.59773254395 0 0 0 0 40834.117790222168 75705555.995597839 0 75705555.995597839 156774501.99098778 0 0 0 0 -27893786.315315247 97935784.146593094 0 97935784.146593094 24461916.752298355 0 0 0 0 22646053.084329605 83863644.735225677 0 83863644.735225677 27367506.630868912 0 0 0 0 53299513.803543091 55974554.21487236 0 55974554.21487236 25903286.538413048 0 0 0 0 18845415.004285812 76513986.432781219 0 76513986.432781219 38155448.04372406 0 0 0 0 5570199.7526063919 80718861.931110382 0 80718861.931110382 82922367.577018738 0 0 0 0 -9050341.6732206345 47318591.096146107 0 47318591.096146107 68492213.561138153 0 0 0 0 42662864.548340797 49718864.295967102 0 49718864.295967102 48049011.940093994 0 0 0 0 103775412.96844864 43402410.79745388 0 43402410.79745388 28762531.679600716 0 0 0 0 104008897.01488429 41079828.233340442 0 41079828.233340442 21836811.973773956 0 0 0 0 43396787.637163401 11023892.490596771 0 11023892.490596771 53431466.947822571 0 0 0 0 45900685.391016006 50297850.763282776 0 50297850.763282776 47154736.0284729 0 0 0 0 104844169.77390671 65279928.298039436 0 65279928.298039436 28371953.751823425 0 0 0 0 56837602.74007225 61923365.80286026 0 61923365.80286026 30418571.664808273 0 0 0 0 63009849.48654747 54216660.957638741 0 54216660.957638741 8523.0902709960938 0 0 0 0 72151383.859178543 38133245.863238335 0 38133245.863238335 27923941.307994604 0 0 0 0 9066230.024065176 -6265.6165970717557 0 -6265.6165970717557 439684.35180438706 0 0 0 0 15887689.902846813 6085036.484587431 0 6085036.484587431 -1022120.5414600372 0 0 0 0 6250095.9410820007 16152859.260777473 0 16152859.260777473 31207898.763445854 0 0 0 0 35327193.776123047 62583669.426746368 0 62583669.426746368 24213691.487016678 0 0 0 0 7052593.331905365 -11607972.27412796 0 -11607972.27412796 -8037316.3232021332 0 0 0 0 35755745.911066055 61809639.114626646 0 61809639.114626646 -79074862.98052597 0 0 0 0 4190470.5230122483 44341423.47029686 0 44341423.47029686 -59845300.719971895 0 0 0 0 32043446.183658734 37409052.052588463 0 37409052.052588463 -147518653.7699585 0 0 0 0 47168828.277070761 1369126.2077474594 0 1369126.2077474594 -77545491.374658585 0 0 0 0 94850297.68183136 35656550.764164448 0 35656550.764164448 34623717.094089627 0 0 0 0 27484559.419757247 -45394382.548055887 0 -45394382.548055887 -188403081.73563766 0 0 0 0 5109447.6691687005 -545381.95030289702 0 -545381.95030289702 556435.36451223539 0 0 0 0 71499595.644064903 51422061.050180912 0 51422061.050180912 43851919.226377487 0 0 0 0 5274275.3594211163 7536034.8011903903 0 7536034.8011903903 1681955.4365555611 0 0 0 0 10976957.341773987 5035601.6509814262 0 5035601.6509814262 -1158077.7462830544 0 0 0 0 -48194505.461326599 -41311609.180754662 0 -41311609.180754662 -63714726.867320538 0 0 0 0 17163130.074475542 -67557.141188633628 0 -67557.141188633628 1477305.5834814794 0 0 0 0 11027834.354000092 5391006.0356864929 0 5391006.0356864929 -2334642.8091796637 0 0 0 0 6914539.8906976562 7898762.0731357243 0 7898762.0731357243 1478936.1340446956 0 0 0 0 5824327.274810791 7096906.4106245041 0 7096906.4106245041 -4673522.0887527466 0 0 0 0 -291616.03105386905 2495906.5286696237 0 2495906.5286696237 668826.63091576565 0 0 0 0 77012941.955358505 -68744861.14465332 0 -68744861.14465332 -96816775.262505531 0 0 0 0 23564095.695476532 70386658.521269798 0 70386658.521269798 -137093450.34672165 0 0 0 0 -295795.64660182595 -242481.74746314646 0 -242481.74746314646 587593.17790766619 0 0 0 0 4928576.8766657785 51352263.640693665 0 51352263.640693665 -84118910.279584885 0 0 0 0 7824320.4248530371 5296319.8127517384 0 5296319.8127517384 1022987.7852484323 0 0 0 0 -952522.07530726492 2374219.5458807051 0 2374219.5458807051 -19571789.079894066 0 0 0 0 6963987.8159828186 5208768.5301160812 0 5208768.5301160812 -902542.26082634926 0 0 0 0 15117365.440794274 1942741.1138743609 0 1942741.1138743609 1602057.7186763696 0 0 0 0 2380675.3949337006 -13689287.516979218 0 -13689287.516979218 -425738.5276632309 0 0 0 0 -199891847.53741896 181520376.25527287 0 181520376.25527287 -113785762.77244663 0 0 0 0 30468104.346385181 -29944192.233204842 0 -29944192.233204842 -360820620.33083725 0 0 0 0 3411622.9847423257 927008.32595649268 0 927008.32595649268 -734055.44284255244 0 0 0 0 -129927659.51611042 89688315.935112953 0 89688315.935112953 -13739116.305757403 0 0 0 0 -39170040.417220712 239424574.63338184 0 239424574.63338184 -337697776.35198307 0 0 0 0 87302345.217819706 60409389.847680569 0 60409389.847680569 -150100266.24605668 0 0 0 0 61214458.466586173 126916616.99034619 0 126916616.99034619 -235079299.80386353 0 0 0 0 156046607.64188018 30596226.037411451 0 30596226.037411451 -244302932.93826103 0 0 0 0 139441271.25054479 -79201164.13962841 0 -79201164.13962841 -490388992.85707426 0 0 0 0 -207588544.19931602 283136140.34600925 0 283136140.34600925 -237680580.69921684 0 0 0 0 39904148.729179144 173180158.70743561 0 173180158.70743561 -515804799.49522877 0 0 0 0 81591089.305427313 846206.21281862259 0 846206.21281862259 -176985923.10305309 0 0 0 0 31319697.092163563 -14588043.560349464 0 -14588043.560349464 -168328311.55369282 0 0 0 0 -21644714.898876905 -84779771.811082363 0 -84779771.811082363 -96889128.629133224 0 0 0 0 67468333.331976652 23976524.580365181 0 23976524.580365181 -214365363.5705719 0 0 0 0 138832620.04695988 -28615799.654456139 0 -28615799.654456139 -248211741.22926521 0 0 0 0 202569248.95338255 -121662428.89168453 0 -121662428.89168453 -153382192.2526083 0 0 0 0 112965977.78738272 -82863560.174223185 0 -82863560.174223185 -116599289.98264503 0 0 0 0 82874480.941308975 -79612319.117222786 0 -79612319.117222786 -103138553.79534435 0 0 0 0 80533275.087929338 -113664925.86242372 0 -113664925.86242372 -63212576.662008286 0 0 0 0 28357213.838689327 -111077217.84254837 0 -111077217.84254837 86526083.236692429 0 0 0 0 130234118.85445619 -150265417.71358013 0 -150265417.71358013 -50493088.918990135 0 0 0 0 14233762.982832432 -86779091.960453033 0 -86779091.960453033 46044632.459980011 0 0 0 0 54340993.915738806 -129966084.31865081 0 -129966084.31865081 11980165.015865326 0 0 0 0 53718177.777689353 -147671216.20072788 0 -147671216.20072788 68111953.665307999 0 0 0 0 204004354.10359186 -222538679.32239628 0 -222538679.32239628 40533650.478572845 0 0 0 0 125457091.5508486 -110791001.43234444 0 -110791001.43234444 -100358436.31812668 0 0 0 0 -8540043.9837793112 -32226382.255153656 0 -32226382.255153656 138795250.92808151 0 0 0 0 229811788.12541258 -193556950.42869949 0 -193556950.42869949 41232652.558618546 0 0 0 0 28557502.660506487 -168787587.51750088 0 -168787587.51750088 248169737.22218418 0 0 0 0 76713050.14757216 -209124373.16627407 0 -209124373.16627407 469223427.07981014 0 0 0 0 -15648597.442448378 -78608557.418630123 0 -78608557.418630123 66297137.450147629 0 0 0 0 14216531.928685188 -69001628.886883736 0 -69001628.886883736 64201417.361474991 0 0 0 0 53744899.496997595 132819473.03731346 0 132819473.03731346 -173857378.42298317 0 0 0 0 85397604.118517876 128065243.00185204 0 128065243.00185204 -29428682.13894558 0 0 0 0 228953297.62011147 214384187.22638798 0 214384187.22638798 -136740417.47899818 0 0 0 0 402926275.68011844 -89033211.049407959 0 -89033211.049407959 -228777391.26678026 0 0 0 0 69983166.517875731 45172277.999388695 0 45172277.999388695 14322324.268585205 0 0 0 0 385496657.04670739 -82551519.704609871 0 -82551519.704609871 44521420.249637365 0 0 0 0 592472513.15809882 173888874.87353098 0 173888874.87353098 322729730.2426815 0 0 0 0 512800514.08470941 -429858533.62690926 0 -429858533.62690926 238487140.93559837 0 0 0 0 774974910.91964006 -439678909.065382 0 -439678909.065382 491190070.45351458 0 0 0 0 302596678.18758309 235827393.87491369 0 235827393.87491369 22665276.046844482 0 0 0 0 391471008.82123828 -49010063.568241119 0 -49010063.568241119 97655796.928624153 0 0 0 0 106667120.93812418 72752437.247489929 0 72752437.247489929 265955507.00532341 0 0 0 0 -15258098.657807827 67090965.842216492 0 67090965.842216492 91053653.710056305 0 0 0 0 -23791696.687392116 171107645.36095619 0 171107645.36095619 -146658176.4973793 0 0 0 0 121285352.15252855 161055131.10727817 0 161055131.10727817 -55598819.129728317 0 0 0 0 -46267284.764074802 221818189.25222969 0 221818189.25222969 24805810.002851486 0 0 0 0 109182634.54279262 230012699.4287653 0 230012699.4287653 -133543895.36174583 0 0 0 0 -119474045.03425157 295815077.51756477 0 295815077.51756477 -86725580.036775589 0 0 0 0 -40670493.574467987 202548602.38717985 0 202548602.38717985 -171592501.52793503 0 0 0 0 -9198553.2612252235 285495119.43660593 0 285495119.43660593 -218284432.09781456 0 0 0 0 -22610851.501790524 304570677.59679985 0 304570677.59679985 -111756266.03034377 0 0 0 0 -154200481.62375271 221367365.41016483 0 221367365.41016483 -238318381.04785013 0 0 0 0 -357126744.90561777 199575775.25832176 0 199575775.25832176 -117078287.72474098 0 0 0 0 -147780969.3133013 276494766.41943789 0 276494766.41943789 -123614774.56866264 0 0 0 0 -167217205.18193069 140488522.18688488 0 140488522.18688488 -64011637.00905323 0 0 0 0 -281742065.29204655 285813618.29001617 0 285813618.29001617 -171200999.51804924 0 0 0 0 -412808108.97609466 311592562.45908356 0 311592562.45908356 -121461780.06908417 0 0 0 0 70246686.420894861 15355316.128071785 0 15355316.128071785 -53200108.484424591 0 0 0 0 -333896800.28963864 201638008.7706852 0 201638008.7706852 -216668478.94077873 0 0 0 0 -60886700.617626905 48477628.816174507 0 48477628.816174507 16494695.140751839 0 0 0 0 52302560.69452095 -182725714.06393623 0 -182725714.06393623 77213704.698015213 0 0 0 0 2422472.5531916237 2407069.1637522373 0 2407069.1637522373 1960308.986418901 0 0 0 0 72851010.046785355 -76967804.327617645 0 -76967804.327617645 153160073.77347565 0 0 0 0 100220526.47003841 -94629222.207062721 0 -94629222.207062721 -55221631.221111298 0 0 0 0 12838572.241646519 6757119.2400504975 0 6757119.2400504975 -3447072.0346802752 0 0 0 0 40112498.286828995 42433722.380205154 0 42433722.380205154 -7946049.5205774307 0 0 0 0 12614796.075820923 8522679.1048116684 0 8522679.1048116684 -13077454.955043793 0 0 0 0 117156457.21368599 27608166.744616508 0 27608166.744616508 -60652443.155883074 0 0 0 0 87415053.694644928 2005130.8547487259 0 2005130.8547487259 -6825309.2638454437 0 0 0 0 115707361.65831375 -65774609.146976471 0 -65774609.146976471 25752316.25429821 0 0 0 0 21049897.456558228 -29023751.001028061 0 -29023751.001028061 27689448.027076542 0 0 0 0 3521343.6572135328 -322856.35925698187 0 -322856.35925698187 -4094356.2605701061 0 0 0 0 5320168.8064360423 4375882.8300080542 0 4375882.8300080542 2354769.0196999535 0 0 0 0 93566200.060256958 -20121651.323324203 0 -20121651.323324203 -12540798.852743149 0 0 0 0 90872317.036058426 -24521643.441311836 0 -24521643.441311836 5928241.8093471527 0 0 0 0 -1220630.8323307037 -79520450.752435684 0 -79520450.752435684 -19977050.918655396 0 0 0 0 -20797998.464187622 -48882793.210801125 0 -48882793.210801125 28807180.71006012 0 0 0 0 144505148.40455246 -59995911.404578209 0 -59995911.404578209 -78976460.116510391 0 0 0 0 116284327.52066565 13035314.796034098 0 13035314.796034098 13307627.076152802 0 0 0 0 70163143.033256531 5523893.9190807343 0 5523893.9190807343 23793025.433111191 0 0 0 0 5985633.3039398193 10802835.847089767 0 10802835.847089767 -10613797.535531998 0 0 0 0 3385267.2994689941 13190040.934530258 0 13190040.934530258 -12321851.182386398 0 0 0 0 9229130.1533737183 11455176.606071472 0 11455176.606071472 -14412071.653778076 0 0 0 0 4346183.2610626221 15401512.015151978 0 15401512.015151978 -14828924.363602638 0 0 0 0 7074430.2161178589 13966853.526325226 0 13966853.526325226 -14974235.307113647 0 0 0 0 6066641.2723083496 13692226.42440033 0 13692226.42440033 -14355775.170931697 0 0 0 0 6215497.7221908569 13333867.627096653 0 13333867.627096653 -13952699.176139832 0 0 0 0 4690357.1806640625 13455401.812953949 0 13455401.812953949 -13960877.31372261 0 0 0 0 5799609.2244112492 13933318.560359061 0 13933318.560359061 -13955420.011817932 0 0 0 0 5778843.1921305656 13544789.668570101 0 13544789.668570101 -12576223.779582977 0 0 0 0 4581203.2758712769 14538395.500577927 0 14538395.500577927 -15376808.986736298 0 0 0 0 13415697.541680165 5328733.2459040722 0 5328733.2459040722 -7716864.4593459461 0 0 0 0 3177580.1575317383 14992318.187950134 0 14992318.187950134 -14092651.892372131 0 0 0 0 23702738.333862305 8858046.0233917236 0 8858046.0233917236 39334821.7029953 0 0 0 0 94744008.934806824 13796158.542835236 0 13796158.542835236 26124055.384681702 0 0 0 0 5323489.6763003618 -692728.39058392192 0 -692728.39058392192 -1721297.2765332107 0 0 0 0 58515883.180267334 12241359.546352386 0 12241359.546352386 27476578.518673897 0 0 0 0 1151771.1765260696 -24869577.059404373 0 -24869577.059404373 45068482.319877625 0 0 0 0 39224476.559066772 -35999083.808279991 0 -35999083.808279991 17158208.750701904 0 0 0 0 13621288.350070953 -51227182.583264351 0 -51227182.583264351 8365881.9728317261 0 0 0 0 58470432.143577576 -36876582.926767349 0 -36876582.926767349 50373579.423442841 0 0 0 0 21360253.605628967 -12883834.261795044 0 -12883834.261795044 50158445.047111511 0 0 0 0 55297695.518180847 -22448790.886928558 0 -22448790.886928558 46964545.53072834 0 0 0 0 39099470.523750305 -9893350.8260059357 0 -9893350.8260059357 41307761.742225647 0 0 0 0 30228336.906936646 -32883389.247424126 0 -32883389.247424126 66044893.3568573 0 0 0 0 32062806.254356384 -20929082.209194183 0 -20929082.209194183 72899320.788822174 0 0 0 0 22143593.67393446 -32494206.372825086 0 -32494206.372825086 59857706.74369812 0 0 0 0 53639142.374420166 -1050086.3123016357 0 -1050086.3123016357 68338265.20208168 0 0 0 0 60193691.242889404 22271214.296709061 0 22271214.296709061 -5345769.5844804645 0 0 0 0 66311205.04359436 -59132609.060014725 0 -59132609.060014725 -33668943.754278183 0 0 0 0 97032089.49269104 -41025245.736944199 0 -41025245.736944199 -35304287.727622986 0 0 0 0 148651128.38989258 430669.5926656723 0 430669.5926656723 -13627014.255226135 0 0 0 0 2742111.7780744061 2455075.6590451249 0 2455075.6590451249 -2213565.6114159529 0 0 0 0 48200882.082336426 -19150135.297088623 0 -19150135.297088623 37755562.092660904 0 0 0 0 41197197.117073059 -20644016.820966721 0 -20644016.820966721 37502354.977481842 0 0 0 0 1743839.3888702393 26619253.897397995 0 26619253.897397995 19151880.52345562 0 0 0 0 79128253.455184937 168795.00853347778 0 168795.00853347778 -4808379.7160491943 0 0 0 0 23082699.15001297 -2198415.4174394608 0 -2198415.4174394608 8535443.894320488 0 0 0 0 18728806.527321756 -32276613.690073252 0 -32276613.690073252 -251906552.06458282 0 0 0 0 40374769.995517731 -22379610.853713036 0 -22379610.853713036 31579690.545148849 0 0 0 0 11851406.846421966 4086216.2271790593 0 4086216.2271790593 -231906.0142644709 0 0 0 0 60697214.910610199 -53780190.670743942 0 -53780190.670743942 95510802.253387451 0 0 0 0 27599311.184005737 -2708781.1937179565 0 -2708781.1937179565 28786124.734426975 0 0 0 0 22701387.310600281 -5367279.807343483 0 -5367279.807343483 -11657245.665799379 0 0 0 0 -13476980.256778717 17111781.220610619 0 17111781.220610619 77313622.17660141 0 0 0 0 -9834316.8300514221 -2208712.3769283295 0 -2208712.3769283295 89152274.897292852 0 0 0 0 36030903.383420944 175700078.65536785 0 175700078.65536785 -201215152.31726599 0 0 0 0 -111664114.5124242 251990341.87531698 0 251990341.87531698 -227939688.61920357 0 0 0 0 32336524.06438446 -6432593.8469033241 0 -6432593.8469033241 -23621939.239931107 0 0 0 0 8026810.0690073632 3625002.6137184137 0 3625002.6137184137 16545.13169584889 0 0 0 0 -102555436.59612417 299095813.86070061 0 299095813.86070061 -215775565.57302523 0 0 0 0 3032140.5628632903 1165397.7093760287 0 1165397.7093760287 -1510232.1680917358 0 0 0 0 91041704.244415283 -33605834.573385239 0 -33605834.573385239 21377255.353031158 0 0 0 0 80971433.085208893 -12807297.895545959 0 -12807297.895545959 31091275.048377037 0 0 0 0 2205513788.1334629 87540751.725381523 0 87540751.725381523 -205075725.88150409 0 0 0 0 1577186777.0071676 539591365.31372333 0 539591365.31372333 -418648804.00313431 0 0 0 0 1207837954.6102448 -320181662.84585333 0 -320181662.84585333 -497473751.8675943 0 0 0 0 1566789793.7631493 -734254732.63060641 0 -734254732.63060641 -42814656.750432074 0 0 0 0 2563409207.9217377 -1023532821.6620342 0 -1023532821.6620342 -83884370.253206372 0 0 0 0 930927480.67423725 -292882965.54276067 0 -292882965.54276067 39921636.070839822 0 0 0 0 2418746191.0244331 768368368.97758031 0 768368368.97758031 559875238.50219154 0 0 0 0 2204711286.3981743 290589871.64712644 0 290589871.64712644 448598173.11534321 0 0 0 0 2344047057.0178795 -154458438.26530451 0 -154458438.26530451 1560989936.6007643 0 0 0 0 2298390639.4875164 -16048426.158354426 0 -16048426.158354426 196674756.68028814 0 0 0 0 2090367263.6061707 690463163.67384696 0 690463163.67384696 -212427527.60862398 0 0 0 0 1516074931.3566132 1204093721.6872828 0 1204093721.6872828 534660325.63811862 0 0 0 0 818295628.77344131 -600290772.02127624 0 -600290772.02127624 578141876.99754143 0 0 0 0 2687003408.5866623 391114994.15300953 0 391114994.15300953 -101277763.30477107 0 0 0 0 4619624.9574969038 -673357.1907088689 0 -673357.1907088689 -256156.85933475071 0 0 0 0 -314282742.11783981 129247500.66904628 0 129247500.66904628 110573748.02507699 0 0 0 0 1104719174.2833328 869227977.33707321 0 869227977.33707321 235691319.55309722 0 0 0 0 68886783.51210022 8632561.5145595502 0 8632561.5145595502 252360273.27843213 0 0 0 0 855457795.29216385 327718796.5392012 0 327718796.5392012 -37299645.343298547 0 0 0 0 200736836.48699188 454251137.41776574 0 454251137.41776574 355573719.29703021 0 0 0 0 -63232103.461494446 -36820243.598292947 0 -36820243.598292947 3387084.2508960664 0 0 0 0 101041868.63339996 128315120.11154297 0 128315120.11154297 53839879.758002743 0 0 0 0 11754910.996061236 -1855757.0010385523 0 -1855757.0010385523 -1287841.420129918 0 0 0 0 -16041773.749843597 -4395371.5977509022 0 -4395371.5977509022 -52575329.656855106 0 0 0 0 94598667.997436523 989105.52258992195 0 989105.52258992195 -142009405.75017977 0 0 0 0 248428349.55514717 -17916002.473204136 0 -17916002.473204136 -386036063.77118206 0 0 0 0 16905429.398966312 63956437.176857889 0 63956437.176857889 -4146986.7469809353 0 0 0 0 335925.90660793334 -1135817.3866547816 0 -1135817.3866547816 -1245350.6063472645 0 0 0 0 -35475983.99307251 -93968594.130881667 0 -93968594.130881667 128751799.99928033 0 0 0 0 932998638.66559255 -273318612.50692475 0 -273318612.50692475 1729140.5366954207 0 0 0 0 946495642.5242157 -296304311.59782696 0 -296304311.59782696 3097681.6082926914 0 0 0 0 -16948113.08972168 155220863.03667969 0 155220863.03667969 92955501.391568422 0 0 0 0 -87934473.295244217 22870460.887341648 0 22870460.887341648 313025915.68606353 0 0 0 0 131114461.97859955 -280411786.34439838 0 -280411786.34439838 265701709.10351658 0 0 0 0 -17351065.917251587 115761.58899664879 0 115761.58899664879 56585499.498054028 0 0 0 0 -2629808.480519766 -1625179.7105706059 0 -1625179.7105706059 -1353437.1272000824 0 0 0 0 -13751293.269943237 86409811.916695118 0 86409811.916695118 -92080168.641616583 0 0 0 0 200532.59555721283 2729909.3827337921 0 2729909.3827337921 23988714.527502298 0 0 0 0 15274145.880405441 -10351604.267701019 0 -10351604.267701019 -7861575.8717583064 0 0 0 0 4050026.2332415218 9298416.3917010706 0 9298416.3917010706 2418448.2364321193 0 0 0 0 47305883.779506683 12712685.60783726 0 12712685.60783726 697285.74714419246 0 0 0 0 45252398.250520229 1619409.2050889693 0 1619409.2050889693 -7710209.1882482767 0 0 0 0 15797970.450130973 3067961.4996382324 0 3067961.4996382324 -8880947.8738751598 0 0 0 0 55917417.174598694 25553295.51777941 0 25553295.51777941 -1649482.3197363615 0 0 0 0 -5599019.595664978 25943900.994160526 0 25943900.994160526 1795015.1238134205 0 0 0 0 3360081.6051712036 18614035.092431307 0 18614035.092431307 229432.70379203558 0 0 0 0 -19602465.630653381 23903379.441746116 0 23903379.441746116 55720069.844554052 0 0 0 0 4129650.7045516968 31947120.561331272 0 31947120.561331272 -25487516.4440732 0 0 0 0 69359906.822463989 -136272517.41200355 0 -136272517.41200355 -346674872.45031106 0 0 0 0 16481275.501836237 -1702152.1827729242 0 -1702152.1827729242 -3216465.5913461559 0 0 0 0 19173212.006439209 21055917.044298172 0 21055917.044298172 -47043608.682740688 0 0 0 0 21959377.026874542 -188681172.65851599 0 -188681172.65851599 -255263198.60892212 0 0 0 0 4877789.1913146973 -64606023.541062891 0 -64606023.541062891 -87379279.922409654 0 0 0 0 114899116.57066321 -87624281.457124546 0 -87624281.457124546 -83580992.438970149 0 0 0 0 45664016.077613831 -74898724.413824797 0 -74898724.413824797 -81537041.608328074 0 0 0 0 -73868551.326904297 -47239863.39024201 0 -47239863.39024201 -85115107.789155304 0 0 0 0 -127717545.8757782 -98249984.497771978 0 -98249984.497771978 -265059871.67560825 0 0 0 0 37977198.649532318 -100932028.86195873 0 -100932028.86195873 -265088656.28433844 0 0 0 0 -36413629.091907501 -152574655.70857599 0 -152574655.70857599 -106720190.92800926 0 0 0 0 3614252.4142119372 8173574.5418711333 0 8173574.5418711333 -1300755.7428505381 0 0 0 0 6101865.8023166656 25117848.967700273 0 25117848.967700273 -30226699.1823131 0 0 0 0 75268084.87714386 58562009.638707362 0 58562009.638707362 38777291.262488663 0 0 0 0 645679.97154792771 2360623.8416611822 0 2360623.8416611822 -36024.511230596334 0 0 0 0 49529380.120775223 27394745.040547162 0 27394745.040547162 1043131.4040479064 0 0 0 0 15491513.082593918 12547139.562337875 0 12547139.562337875 -26828748.342306137 0 0 0 0 848903.15131841786 340987.63516543061 0 340987.63516543061 -34124.8557100404 0 0 0 0 23620757.086616516 -25285096.114156544 0 -25285096.114156544 -3907373.3464134336 0 0 0 0 99017568.786153793 -24206991.037574865 0 -24206991.037574865 -21866313.29325594 0 0 0 0 15172669.708749849 -9742226.8721614145 0 -9742226.8721614145 -8471609.9840954412 0 0 0 0 122823458.44593048 -5372511.6304604262 0 -5372511.6304604262 -92493154.951517135 0 0 0 0 144940108.64250183 -98740392.317336038 0 -98740392.317336038 -242083587.08335948 0 0 0 0 16003463.309143066 9743514.2005339265 0 9743514.2005339265 -10644970.588703662 0 0 0 0 50462579.356399536 -95088546.571330369 0 -95088546.571330369 -69923595.431398213 0 0 0 0 34481710.829597473 -67538047.635248989 0 -67538047.635248989 -81368872.073212326 0 0 0 0 14997835.813128589 -8939596.2891148645 0 -8939596.2891148645 -9141345.6349260528 0 0 0 0 -11720057.659103394 -40542947.90779943 0 -40542947.90779943 -31170499.52625601 0 0 0 0 83668913.068898201 -152873613.51312542 0 -152873613.51312542 -29182223.544372559 0 0 0 0 -3994459.4835681915 -45171070.576131225 0 -45171070.576131225 -28677432.029074728 0 0 0 0 -22768907.914760113 -9954493.9345965385 0 -9954493.9345965385 33947059.112247467 0 0 0 0 212679079.88561535 -16870554.32135582 0 -16870554.32135582 -281177.26040840149 0 0 0 0 222921308.99297333 62300245.857580543 0 62300245.857580543 -9513561.1622619629 0 0 0 0 -160731630.85218334 -36939871.925661087 0 -36939871.925661087 -68729549.476956367 0 0 0 0 117434861.74337769 -36178562.923843384 0 -36178562.923843384 38806939.859229088 0 0 0 0 -1042652.5940205134 -1501620.789202319 0 -1501620.789202319 -947562.03552007582 0 0 0 0 161362815.45538712 23640403.628005981 0 23640403.628005981 24046956.504310608 0 0 0 0 177449762.74501038 53232580.036904335 0 53232580.036904335 11101540.644734383 0 0 0 0 113606542.81048203 54516601.115139008 0 54516601.115139008 28419887.083112717 0 0 0 0 169576607.13599873 84939273.858294487 0 84939273.858294487 34950534.03560257 0 0 0 0 197752119.40358353 61923973.004636765 0 61923973.004636765 18375691.276259422 0 0 0 0 173869087.31431901 71578452.513248682 0 71578452.513248682 16257249.637180328 0 0 0 0 -131099905.79852486 -102817060.14085007 0 -102817060.14085007 -18019588.978149414 0 0 0 0 -5967766.73647465 -3900965.9330003466 0 -3900965.9330003466 -1521871.8481925447 0 0 0 0 76258258.496850967 4690572.1243395805 0 4690572.1243395805 23005457.08782959 0 0 0 0 -48016086.748896599 -30725122.870755196 0 -30725122.870755196 -18279239.961042404 0 0 0 0 223977493.65413475 -22860314.952225685 0 -22860314.952225685 -11362327.742248178 0 0 0 0 87418346.627794266 -1727483.0978555679 0 -1727483.0978555679 -23857446.045509338 0 0 0 0 -51878628.11143589 -21948388.13409996 0 -21948388.13409996 -32401066.821361542 0 0 0 0 492002992.43960953 104082875.12214851 0 104082875.12214851 -23120100.401821136 0 0 0 0 -132481884.73663235 47851789.327350616 0 47851789.327350616 64452445.61485672 0 0 0 0 498290184.3716526 202067477.83479691 0 202067477.83479691 -140657280.64659309 0 0 0 0 249624978.11075306 296083094.40221214 0 296083094.40221214 212045716.86949515 0 0 0 0 96679187.917615771 64151228.22168085 0 64151228.22168085 57412704.312345505 0 0 0 0 164975753.02312088 150510407.41575241 0 150510407.41575241 163546844.72025061 0 0 0 0 21802117.688334465 -160717874.16352749 0 -160717874.16352749 -146198588.89790344 0 0 0 0 1729208.5181748234 -243954.85584018147 0 -243954.85584018147 207966.42497457471 0 0 0 0 127975734.86097336 -211286753.74150276 0 -211286753.74150276 -168085677.15754128 0 0 0 0 153853800.89694405 -57888382.044975281 0 -57888382.044975281 -237546010.62036669 0 0 0 0 163341714.59993935 -95616738.688736916 0 -95616738.688736916 -122653430.60327148 0 0 0 0 658509427.87654495 -121475973.14753914 0 -121475973.14753914 -256106879.38364029 0 0 0 0 121790375.62305593 43685742.646081924 0 43685742.646081924 13254151.441984177 0 0 0 0 558605939.45365191 -281512453.53849 0 -281512453.53849 61989075.671413422 0 0 0 0 60600520.27205658 781540543.47330284 0 781540543.47330284 -69819183.703268051 0 0 0 0 1436311.8885148973 -1339039.2031034199 0 -1339039.2031034199 -1550518.2179146875 0 0 0 0 -1378949.6619200031 -811611.83341807849 0 -811611.83341807849 -346432.03911844082 0 0 0 0 14889102.771221161 26999548.697767258 0 26999548.697767258 32460450.165290833 0 0 0 0 -6445294.0190088153 -13820263.512765609 0 -13820263.512765609 -2279146.0186196077 0 0 0 0 176154303.7639823 3293422.2243413925 0 3293422.2243413925 -72902988.657985687 0 0 0 0 4196871.6242642626 -6536736.129083775 0 -6536736.129083775 -5998862.4318364216 0 0 0 0 58096718.801054955 -40829850.984970093 0 -40829850.984970093 -15229699.336983681 0 0 0 0 76701144.207530022 -86821751.107648849 0 -86821751.107648849 -52732981.483938217 0 0 0 0 79824686.975208282 -87139338.031335831 0 -87139338.031335831 -107272548.73744488 0 0 0 0 62413488.152774811 -95228476.512266159 0 -95228476.512266159 -30313854.486069679 0 0 0 0 62895329.135213852 -92984178.101752281 0 -92984178.101752281 -54126534.303878784 0 0 0 0 74465520.455334663 -68528874.692569256 0 -68528874.692569256 -3329818.8336734772 0 0 0 0 24098979.149809361 -67147140.274539232 0 -67147140.274539232 -1941872.5030708313 0 0 0 0 28199705.992654324 -78493508.645479202 0 -78493508.645479202 29090480.159254074 0 0 0 0 4643006.512799263 -51042696.921047211 0 -51042696.921047211 40812361.364627838 0 0 0 0 7289850.9653177261 -35742746.817107558 0 -35742746.817107558 5392990.3855571747 0 0 0 0 16701966.932560563 -13553054.117652416 0 -13553054.117652416 -26376554.217264175 0 0 0 0 -3504799.9004440308 -9122773.2046718597 0 -9122773.2046718597 -10888210.198301315 0 0 0 0 21103222.582304001 -31041065.546089172 0 -31041065.546089172 3967385.5053701997 0 0 0 0 35684348.642949104 -54809189.521314621 0 -54809189.521314621 11108618.481383324 0 0 0 0 29744927.607388616 -27689466.172629356 0 -27689466.172629356 6738699.332195282 0 0 0 0 -439669.55657801358 -1556175.0171467615 0 -1556175.0171467615 -851115.41182138026 0 0 0 0 55977956.793771744 -35961414.53104353 0 -35961414.53104353 -2121260.9054384232 0 0 0 0 6234641.1174163073 -6666409.3640355254 0 -6666409.3640355254 -7790254.9096130347 0 0 0 0 -7472569.9549484253 -12526520.992783308 0 -12526520.992783308 -1566867.6874858737 0 0 0 0 11812466.133777618 -13876621.614744782 0 -13876621.614744782 -35280876.815423071 0 0 0 0 -8893632.5731811523 -32418800.618764818 0 -32418800.618764818 -30807626.864796519 0 0 0 0 -70175131.146453857 58766823.145890474 0 58766823.145890474 104723791.9009428 0 0 0 0 -49928730.409606934 -50921211.356154442 0 -50921211.356154442 1890472.3086042404 0 0 0 0 -45247327.29624939 -59564915.855225086 0 -59564915.855225086 -49079190.682995498 0 0 0 0 -7833349.6608409882 -20775975.896428511 0 -20775975.896428511 6776751.4155634046 0 0 0 0 -68828.889762878418 -12885087.14739491 0 -12885087.14739491 -60564562.279619753 0 0 0 0 11009881.369628398 -4518503.6125368001 0 -4518503.6125368001 -7349069.8457757551 0 0 0 0 1686129.119456768 16458997.853227854 0 16458997.853227854 -32693915.176397562 0 0 0 0 13193651.076169301 -5219392.9365371773 0 -5219392.9365371773 -6845092.3581421487 0 0 0 0 4448082.940328598 -4550519.5419692993 0 -4550519.5419692993 -4567209.0198938847 0 0 0 0 8827008.1889885329 -1941917.5124636679 0 -1941917.5124636679 -7074983.8514271136 0 0 0 0 56705638.935182571 24815188.964756742 0 24815188.964756742 -107119989.36682296 0 0 0 0 16282993.189215982 -4196923.1985399369 0 -4196923.1985399369 -3126333.4749257881 0 0 0 0 67052041.55531311 -11238062.934373856 0 -11238062.934373856 -45982665.775344253 0 0 0 0 5038287.7519343738 -3110126.4319875776 0 -3110126.4319875776 -4126885.4129710658 0 0 0 0 -9377807.4682769775 -46511149.601422489 0 -46511149.601422489 -28228882.756927013 0 0 0 0 -147186383.07810974 -42058068.535701752 0 -42058068.535701752 39524828.235787511 0 0 0 0 -134275.51049924828 -328490.3256018199 0 -328490.3256018199 -64365.207191900874 0 0 0 0 125835572.34622955 -92454556.231988087 0 -92454556.231988087 -148312309.62004805 0 0 0 0 130163108.89343643 -56890010.336237341 0 -56890010.336237341 -52590212.068490624 0 0 0 0 28853852.502548218 -103176308.80535662 0 -103176308.80535662 19134308.449941635 0 0 0 0 -87711591.520742893 -477439.99553272128 0 -477439.99553272128 -2561650.9352407455 0 0 0 0 12957899.248739243 -73156290.849808067 0 -73156290.849808067 3608245.4221301079 0 0 0 0 -438471.91308112489 -990357.78547433205 0 -990357.78547433205 -328230.55785209406 0 0 0 0 34337230.326993942 -31108598.536060661 0 -31108598.536060661 30091309.752316475 0 0 0 0 -1109024.9667930603 -91010804.969081759 0 -91010804.969081759 37732458.125162601 0 0 0 0 9177178.8730545044 -83486730.932524443 0 -83486730.932524443 -34921427.207710028 0 0 0 0 -91634779.903427124 -82139265.240946114 0 -82139265.240946114 27342074.555722356 0 0 0 0 -15740006.425802231 -54855629.312412575 0 -54855629.312412575 9258578.4899990559 0 0 0 0 -40104724.512908936 -27149982.881497979 0 -27149982.881497979 12852248.019942522 0 0 0 0 -16173455.416024208 -11507467.864002764 0 -11507467.864002764 -12045252.04582119 0 0 0 0 48649888.012752533 -14008805.948204875 0 -14008805.948204875 -77148417.351854086 0 0 0 0 -1300905.5119243991 -706275.87504795566 0 -706275.87504795566 -208363.09860084258 0 0 0 0 -44851944.911865234 -15782292.263438225 0 -15782292.263438225 8699623.7497050762 0 0 0 0 -31263920.95741272 -32153157.515530646 0 -32153157.515530646 15208531.303034246 0 0 0 0 -35232381.137168884 -22134209.084363103 0 -22134209.084363103 11411468.566701293 0 0 0 0 -40206232.759231567 -22186595.872368097 0 -22186595.872368097 12408992.23810333 0 0 0 0 5214840.0381698608 -18035900.801384926 0 -18035900.801384926 -14708747.033356428 0 0 0 0 -4361304.8501934055 -2100676.5395063786 0 -2100676.5395063786 -476369.11257341923 0 0 0 0 -25510928.25276947 -11560373.718920648 0 -11560373.718920648 -1911588.4159575701 0 0 0 0 6912550.8124923706 -7193307.1075093746 0 -7193307.1075093746 -12249428.032208443 0 0 0 0 -1051826.3462812249 -17552183.783058833 0 -17552183.783058833 -7007204.6370909419 0 0 0 0 -7416934.5529556274 -7961728.6294093132 0 -7961728.6294093132 -6010115.1075804234 0 0 0 0 -2307456.2994808052 -1982645.4818103388 0 -1982645.4818103388 -811988.06238054647 0 0 0 0 1862305.5043811104 417030.26575216278 0 417030.26575216278 -1540304.8678114312 0 0 0 0 -8360927.4840698242 -19892976.864312768 0 -19892976.864312768 -9820312.3093385696 0 0 0 0 2364726.3692398071 -311853.49583661556 0 -311853.49583661556 -1716618.9032797813 0 0 0 0 -154136636.37720013 -14845812.600586891 0 -14845812.600586891 66598749.608388424 0 0 0 0 13984177.432365417 -96851986.991034776 0 -96851986.991034776 43365222.662275314 0 0 0 0 -59170128.554779053 26503194.180557013 0 26503194.180557013 6518198.0762300491 0 0 0 0 -135701507.80229187 -25879816.929662228 0 -25879816.929662228 36755381.203492403 0 0 0 0 -90251390.973266602 -22248040.129587412 0 -22248040.129587412 -11614009.132000446 0 0 0 0 -209565758.4175415 -104715983.5050211 0 -104715983.5050211 -24479919.685046434 0 0 0 0 -49128.205445483327 -69491.761836245656 0 -69491.761836245656 -126281.14510852762 0 0 0 0 284638952.80587387 -14955226.487970173 0 -14955226.487970173 48336070.753385931 0 0 0 0 132050259.52050781 -11663593.425867796 0 -11663593.425867796 52651331.34511596 0 0 0 0 222542518.44972229 -123428494.31047416 0 -123428494.31047416 -3920544.552524358 0 0 0 0 317923832.29096222 -196646851.27319223 0 -196646851.27319223 109340945.38386273 0 0 0 0 540725295.29307938 25571981.48911342 0 25571981.48911342 7218183.7450511456 0 0 0 0 1122995979.9165459 -426810323.28915024 0 -426810323.28915024 25388809.12110579 0 0 0 0 1378481046.968605 578977613.39868891 0 578977613.39868891 -9129883.4593992233 0 0 0 0 693662670.78470993 210875349.56607592 0 210875349.56607592 -78304647.02925998 0 0 0 0 387431801.13036346 -80428913.034863174 0 -80428913.034863174 -26967033.771511585 0 0 0 0 183138760.96762276 5424997.1529404521 0 5424997.1529404521 11067497.430933118 0 0 0 0 -83350803.650794983 -54013152.951099873 0 -54013152.951099873 3912740.5393891558 0 0 0 0 334934259.50511932 67574279.678605944 0 67574279.678605944 -141586528.03813723 0 0 0 0 -6600051.9537258148 -49634272.116424799 0 -49634272.116424799 -39276107.624106809 0 0 0 0 11207746.051444579 -3016638.7043844671 0 -3016638.7043844671 -644925.15189552994 0 0 0 0 268829606.43695164 175988486.86279297 0 175988486.86279297 61919692.311509907 0 0 0 0 493881237.21496773 147125823.17611709 0 147125823.17611709 -113239717.43181026 0 0 0 0 314036669.63832855 80583530.706238478 0 80583530.706238478 -49546742.430396132 0 0 0 0 481248109.98655319 166222969.77195877 0 166222969.77195877 65264414.669168666 0 0 0 0 764490121.99095726 509330847.0948267 0 509330847.0948267 152424335.82273751 0 0 0 0 2197968632.8423891 1297252928.7511005 0 1297252928.7511005 580792713.3167876 0 0 0 0 2203246889.2578602 389715233.91397262 0 389715233.91397262 -318236056.6267935 0 0 0 0 2724703.5321395192 107811.14520763047 0 107811.14520763047 -955454.82431887952 0 0 0 0 744193787.40514946 -233200126.19519931 0 -233200126.19519931 -504169715.50574005 0 0 0 0 593159481.81759834 344465296.59955573 0 344465296.59955573 -64831894.758249164 0 0 0 0 595522348.21244049 359928235.86938345 0 359928235.86938345 -18699435.993076399 0 0 0 0 1495786.8641338758 -232186.2758071553 0 -232186.2758071553 -220139.72186450829 0 0 0 0 438252586.18350983 -714383918.38272965 0 -714383918.38272965 -388422402.2968995 0 0 0 0 2202099102.2837257 879055307.42685735 0 879055307.42685735 -232974830.62574404 0 0 0 0 929295209.34695339 437500033.00017136 0 437500033.00017136 -328741537.76986104 0 0 0 0 1537840732.9211235 -84856322.049822196 0 -84856322.049822196 -920584184.80871201 0 0 0 0 1155235334.4595337 -671200443.89434195 0 -671200443.89434195 -48705929.896174252 0 0 0 0 1272274345.2025661 303915148.10316437 0 303915148.10316437 -1131785460.6156034 0 0 0 0 1508912016.4573956 -83054038.597743273 0 -83054038.597743273 -920066380.50170672 0 0 0 0 -170634584.06829834 -825805767.04656744 0 -825805767.04656744 235424824.18337038 0 0 0 0 -112685930.18278503 -392281021.48150826 0 -392281021.48150826 -1270947098.7294254 0 0 0 0 305756445.94477844 -214304582.90593457 0 -214304582.90593457 -488578161.02450085 0 0 0 0 -797271859.13743591 189888233.46631718 0 189888233.46631718 -767656883.2879324 0 0 0 0 113306830.83065414 27526016.860803843 0 27526016.860803843 -750716758.22139633 0 0 0 0 -1194193755.2331429 -664836835.24667025 0 -664836835.24667025 -377106269.00144291 0 0 0 0 -447299645.03575516 -786062875.40789211 0 -786062875.40789211 -370544919.31227398 0 0 0 0 -308105038.24892998 -638893159.62908792 0 -638893159.62908792 -268833176.51343632 0 0 0 0 391766682.97580719 -907672272.25266743 0 -907672272.25266743 -171298063.1458061 0 0 0 0 459387196.29442024 -119708403.8320955 0 -119708403.8320955 -461341037.39141899 0 0 0 0 5197030.7949530492 -2528707.4870009013 0 -2528707.4870009013 -2684339.2806401057 0 0 0 0 280342784.52173424 -452195484.59916234 0 -452195484.59916234 423804273.2431637 0 0 0 0 891783826.22415161 -312567389.30085635 0 -312567389.30085635 188825854.34224576 0 0 0 0 722439407.4371351 -971800578.70711446 0 -971800578.70711446 256494184.76886767 0 0 0 0 1027843400.2246685 -538354542.90425527 0 -538354542.90425527 563441188.10528946 0 0 0 0 2206471772.2586913 -726333508.12775254 0 -726333508.12775254 -365252603.72817528 0 0 0 0 424950269.03450584 -187583404.26450551 0 -187583404.26450551 277093165.27587533 0 0 0 0 2201160075.1052055 -1350797021.0313766 0 -1350797021.0313766 962454124.19991052 0 0 0 0 5118121.7849054579 -2547009.7485627974 0 -2547009.7485627974 -2100274.8378790622 0 0 0 0 2180303642.3886952 -1331638469.929462 0 -1331638469.929462 293484914.763798 0 0 0 0 184191848.39936066 -596866886.76087165 0 -596866886.76087165 1524185738.100657 0 0 0 0 4103156.7826389559 -1515486.9795420929 0 -1515486.9795420929 549262.64350394148 0 0 0 0 -77471818.984505653 -80149068.439535394 0 -80149068.439535394 698230599.32839262 0 0 0 0 170428080.35541153 -381584752.59276879 0 -381584752.59276879 437581479.62888658 0 0 0 0 290266723.77991104 -483806956.05826414 0 -483806956.05826414 519426405.15072405 0 0 0 0 148365771.03511351 -224624698.55860072 0 -224624698.55860072 338872223.08824158 0 0 0 0 125677151.35153198 -107216768.72666609 0 -107216768.72666609 117253874.48729217 0 0 0 0 44186081.198625684 18434336.252803385 0 18434336.252803385 37405957.750576496 0 0 0 0 -2952845.8549294472 -91102820.34902215 0 -91102820.34902215 271653493.91178036 0 0 0 0 175127712.52267933 -251719970.58848214 0 -251719970.58848214 250401706.55369598 0 0 0 0 109391065.10988426 -158663153.59449482 0 -158663153.59449482 152541478.35732913 0 0 0 0 73684328.013486862 -195812770.15936577 0 -195812770.15936577 325261175.73945141 0 0 0 0 184583112.92216778 -287480643.16834927 0 -287480643.16834927 270762656.66985106 0 0 0 0 177096757.09276438 -258839217.73447049 0 -258839217.73447049 447890462.24359703 0 0 0 0 97212304.805294991 -272171219.22171712 0 -272171219.22171712 397496657.06204939 0 0 0 0 333337831.29142952 -308639531.44471478 0 -308639531.44471478 333056353.25467241 0 0 0 0 2295133987.2936668 -245951893.01402354 0 -245951893.01402354 -331104705.97022265 0 0 0 0 3251421.1720348713 -1045252.2376018451 0 -1045252.2376018451 -464685.21682685293 0 0 0 0 -252227693.03615189 -1215641411.347918 0 -1215641411.347918 -755345646.95203328 0 0 0 0 1414788144.6962256 1035890089.5491059 0 1035890089.5491059 -55266310.227638721 0 0 0 0 317461625.46730328 -748228122.78836632 0 -748228122.78836632 -426332968.43967962 0 0 0 0 123160228.61508298 -1148612608.4584541 0 -1148612608.4584541 -752244569.35472131 0 0 0 0 4430394.0668543708 -2405887.4315976803 0 -2405887.4315976803 -2270061.0229215645 0 0 0 0 198317715.82194901 -396245359.91715336 0 -396245359.91715336 465405464.04923135 0 0 0 0 232452863.90098488 -311626366.82344288 0 -311626366.82344288 350993240.49006462 0 0 0 0 57799164.901227474 -264287759.9676249 0 -264287759.9676249 431801646.41027117 0 0 0 0 95737382.20352602 -234848144.22554326 0 -234848144.22554326 400773314.11816382 0 0 0 0 7766672.5842376947 -200745021.05095816 0 -200745021.05095816 590601156.24512529 0 0 0 0 -1242978.9751325846 -237143536.14051962 0 -237143536.14051962 443793280.74519634 0 0 0 0 49342023.385037184 -365026582.90230227 0 -365026582.90230227 500086944.97610998 0 0 0 0 60546274.309951544 -276126725.58679485 0 -276126725.58679485 227276380.57893682 0 0 0 0 -34982870.553341761 -295114381.76397079 0 -295114381.76397079 142306557.44989491 0 0 0 0 -57929904.484940529 -267839743.18540478 0 -267839743.18540478 232892130.22475511 0 0 0 0 83338199.927742004 -183899939.86042291 0 -183899939.86042291 54728679.449603081 0 0 0 0 21061233.430697918 -297133707.8057307 0 -297133707.8057307 415045336.09449816 0 0 0 0 111021121.20072794 -283961689.1816721 0 -283961689.1816721 233319150.7950573 0 0 0 0 60242267.3312397 -193175153.35822797 0 -193175153.35822797 278767454.65098232 0 0 0 0 56145516.453732491 -110079590.40884978 0 -110079590.40884978 146141273.63320363 0 0 0 0 92043307.588111401 -226859179.72667897 0 -226859179.72667897 123293839.32969832 0 0 0 0 31591051.403666496 -18612573.983494699 0 -18612573.983494699 47197923.870155454 0 0 0 0 76452261.450077772 -142146846.91487035 0 -142146846.91487035 4043814.7330672145 0 0 0 0 88208440.727876663 -165925556.92267811 0 -165925556.92267811 154474628.70315272 0 0 0 0 73718288.595723629 -28618145.777737498 0 -28618145.777737498 14826708.728549957 0 0 0 0 6320628.3518595695 -4691229.6251699924 0 -4691229.6251699924 14580233.030993462 0 0 0 0 32030554.820710182 -35107898.190656424 0 -35107898.190656424 169680996.68287155 0 0 0 0 38958410.393759251 -28325800.254817009 0 -28325800.254817009 23055499.034292698 0 0 0 0 16614302.992076635 3233285.5451728106 0 3233285.5451728106 12725737.958451271 0 0 0 0 -9789698.3702902794 4362195.239202857 0 4362195.239202857 8137036.6163465977 0 0 0 0 7564355.636164153 1121620.8665918279 0 1121620.8665918279 -5539678.9814271526 0 0 0 0 -1404957.2480312288 17176896.580093145 0 17176896.580093145 4194866.6377124786 0 0 0 0 -5691444.1317710876 7597448.3650774956 0 7597448.3650774956 5533081.1253845692 0 0 0 0 10699930.533551216 -5516061.0364866257 0 -5516061.0364866257 -138449.79630076885 0 0 0 0 26707688.355473995 -31159895.610322893 0 -31159895.610322893 21356126.560937509 0 0 0 0 15966520.867801666 -12838747.555848241 0 -12838747.555848241 -12620793.076071501 0 0 0 0 10166523.843636662 -12442463.954124808 0 -12442463.954124808 -10585527.528134584 0 0 0 0 884273.88324766548 -674877.44477140938 0 -674877.44477140938 -451525.80958891055 0 0 0 0 -180004249.12084496 -122897595.25636889 0 -122897595.25636889 -164416563.93675846 0 0 0 0 19215017.810419798 -9539762.3734008968 0 -9539762.3734008968 -13063536.341938138 0 0 0 0 12897555.79934743 -9779790.7534442544 0 -9779790.7534442544 -11573877.692180991 0 0 0 0 61728448.924412467 -187593767.20929059 0 -187593767.20929059 -259423699.73757434 0 0 0 0 56636306.077008247 -151214430.06183445 0 -151214430.06183445 101513189.10372162 0 0 0 0 29881585.39645347 -55895888.481318697 0 -55895888.481318697 -85105178.732555866 0 0 0 0 119434035.54827809 -95126962.150191069 0 -95126962.150191069 -241125957.94691101 0 0 0 0 22332786.560347557 -178350756.65772662 0 -178350756.65772662 -155566976.51839733 0 0 0 0 52142724.435319901 -94017510.490521893 0 -94017510.490521893 -224229940.00280344 0 0 0 0 4894798.2703382643 -7205709.633920854 0 -7205709.633920854 -3693546.8544839709 0 0 0 0 4988547.9620322678 -4772518.1911194809 0 -4772518.1911194809 -2947596.8260154044 0 0 0 0 4504864.3728435636 -4187771.1874558032 0 -4187771.1874558032 -2524423.8233337402 0 0 0 0 10003995.714034557 -4292424.0812301636 0 -4292424.0812301636 -12215216.66424489 0 0 0 0 9301289.5071550012 -19505687.078083754 0 -19505687.078083754 2145446.4841184616 0 0 0 0 4760576.8679045253 -6761663.4259162415 0 -6761663.4259162415 -1769502.2952079768 0 0 0 0 1003219.9548254013 -7176893.2287549973 0 -7176893.2287549973 5284423.3525422215 0 0 0 0 1471318.2455477091 -1780477.376049866 0 -1780477.376049866 -39451.56337571959 0 0 0 0 118631025.90428579 194029253.84501505 0 194029253.84501505 -305596237.03843677 0 0 0 0 2861969.4669284821 -47817673.752917051 0 -47817673.752917051 -112406160.17486072 0 0 0 0 360227018.96384954 -209778552.42432427 0 -209778552.42432427 71753977.566689491 0 0 0 0 220679496.57619894 135518946.80254337 0 135518946.80254337 152624014.48171568 0 0 0 0 184392697.73838615 1385918.991784811 0 1385918.991784811 -101455349.29901218 0 0 0 0 247204555.65466928 -199420276.80951691 0 -199420276.80951691 154031305.66798711 0 0 0 0 106810854.37163091 -235842253.02732682 0 -235842253.02732682 144593461.48535728 0 0 0 0 761557006.43340492 -553059399.60309148 0 -553059399.60309148 487566483.12795913 0 0 0 0 152848993.55760932 -169579456.96978211 0 -169579456.96978211 365799228.32790232 0 0 0 0 490676984.02965593 154931489.80566144 0 154931489.80566144 519261978.04737616 0 0 0 0 190561534.58396292 -138491093.68023944 0 -138491093.68023944 261036347.93284893 0 0 0 0 300471097.74388456 -220433910.05460906 0 -220433910.05460906 -72411898.929685593 0 0 0 0 499260560.3443222 -596029211.49197984 0 -596029211.49197984 634035801.41783333 0 0 0 0 478570933.94090748 -11923033.02699101 0 -11923033.02699101 -609922028.42820835 0 0 0 0 2065757.7184298038 -262764216.31499195 0 -262764216.31499195 1451725481.5284266 0 0 0 0 1196112.3783789226 -1204084.8934307313 0 -1204084.8934307313 172099.1156913836 0 0 0 0 -24913353.896629333 -33440222.250210524 0 -33440222.250210524 -320534363.05583715 0 0 0 0 757775276.93549347 -293766312.67487144 0 -293766312.67487144 -445509610.08809996 0 0 0 0 333976357.02588928 -36459019.134156823 0 -36459019.134156823 -251989323.58510256 0 0 0 0 333724347.59654868 -24403086.952076331 0 -24403086.952076331 -406162531.01470804 0 0 0 0 453779692.30302715 -75558265.250000477 0 -75558265.250000477 -283554411.05263138 0 0 0 0 421996404.66654068 -207518067.0197643 0 -207518067.0197643 -74643661.542425632 0 0 0 0 313062793.02954626 -32998960.593565166 0 -32998960.593565166 -28350903.760538578 0 0 0 0 178316773.18954778 -64031822.367902994 0 -64031822.367902994 -1130492.5510239601 0 0 0 0 276016999.75924313 -58383594.564041883 0 -58383594.564041883 -206354521.87383032 0 0 0 0 300190992.03049612 12246232.759764314 0 12246232.759764314 -146877481.31506145 0 0 0 0 697864.18986940384 -44824310.517723799 0 -44824310.517723799 40710062.593065023 0 0 0 0 109475187.97543955 145016206.83236396 0 145016206.83236396 -204291664.27166343 0 0 0 0 481570.27620973531 -17165.203424707055 0 -17165.203424707055 -114751.80837947957 0 0 0 0 1319507.1012067581 -271936.70258698647 0 -271936.70258698647 -301053.49351402058 0 0 0 0 46573303.612304926 -57556552.431332618 0 -57556552.431332618 -261046732.73066092 0 0 0 0 -110231172.33159351 -95442434.595941722 0 -95442434.595941722 -167446508.8391068 0 0 0 0 -96534523.779415131 -96461193.752162457 0 -96461193.752162457 -254875233.37608996 0 0 0 0 13557186.420557976 -100157312.8990065 0 -100157312.8990065 -518697538.58493215 0 0 0 0 7099598.3775138855 -42493286.017606735 0 -42493286.017606735 -708527030.70289469 0 0 0 0 17216301.651330948 -72606271.180843592 0 -72606271.180843592 -197252609.53280264 0 0 0 0 -108451622.99779606 -224356142.59160376 0 -224356142.59160376 -437279148.14407313 0 0 0 0 -29072918.596824646 20477487.197434902 0 20477487.197434902 -366279950.88347507 0 0 0 0 3186831.7881077421 -3378835.6248002825 0 -3378835.6248002825 242128.94229355059 0 0 0 0 -179452687.0288868 -285974509.28891826 0 -285974509.28891826 -420928001.2673502 0 0 0 0 34377298.398624182 -148007570.23711538 0 -148007570.23711538 519404376.28026485 0 0 0 0 648122.18980972376 -393696.45262372075 0 -393696.45262372075 -451716.56737096864 0 0 0 0 -16374070.565550804 -234538967.84656096 0 -234538967.84656096 -563757191.61957479 0 0 0 0 -10053922.368856549 -152543713.95817238 0 -152543713.95817238 531001292.34227562 0 0 0 0 6821330.4353150222 -507756.7327206271 0 -507756.7327206271 -1441726.3206055823 0 0 0 0 2925205.0168805146 -3838481.0618435848 0 -3838481.0618435848 -2172184.1770492713 0 0 0 0 56867094.710784197 -189418826.03878832 0 -189418826.03878832 400727838.45528036 0 0 0 0 62779814.764792442 -165196285.85348606 0 -165196285.85348606 499146584.18890762 0 0 0 0 -257523218.1799798 -104056754.73820359 0 -104056754.73820359 -42795891.920957327 0 0 0 0 -216138080.60647345 -216625106.56069618 0 -216625106.56069618 263101654.06261247 0 0 0 0 1311789343.8354535 749453898.16590619 0 749453898.16590619 163076039.10706848 0 0 0 0 1285190593.0544872 1375297699.3273985 0 1375297699.3273985 588809040.95663786 0 0 0 0 1188906709.2759778 747749177.89686823 0 747749177.89686823 396911203.25239563 0 0 0 0 3062356.7652590456 13746.963998295076 0 13746.963998295076 -573964.17758520436 0 0 0 0 1269837595.7644696 616271397.54621351 0 616271397.54621351 100576350.27200517 0 0 0 0 200796694.82258284 -285629840.31314844 0 -285629840.31314844 -479972082.6034956 0 0 0 0 -22999005.872717619 -55724583.351714492 0 -55724583.351714492 -500233560.66932654 0 0 0 0 -148567359.56104708 -32615600.812318802 0 -32615600.812318802 -263664262.0543654 0 0 0 0 -45520850.30645895 -77373667.166769147 0 -77373667.166769147 -272486708.65283406 0 0 0 0 91722062.809772491 86357882.113149852 0 86357882.113149852 -325557682.25482434 0 0 0 0 646487864.06307602 -334868429.06167984 0 -334868429.06167984 -72137408.984594762 0 0 0 0 396196299.21959209 -376464381.83444715 0 -376464381.83444715 -24418200.052931905 0 0 0 0 438337.74967384338 -144323416.96138126 0 -144323416.96138126 -41726144.995278031 0 0 0 0 842520.75881668041 -279943.6131358319 0 -279943.6131358319 -202138.99362042104 0 0 0 0 18973418.206978083 -44236343.236577183 0 -44236343.236577183 -437278680.63412392 0 0 0 0 974836446.83486843 199813081.03580272 0 199813081.03580272 -446503192.05947834 0 0 0 0 1157302081.3596334 224747593.49897614 0 224747593.49897614 -7977930.3674388453 0 0 0 0 3881195.1980511337 -1945879.233173742 0 -1945879.233173742 54923.246052804403 0 0 0 0 1150467680.2242751 147848150.30571175 0 147848150.30571175 -723314840.22167027 0 0 0 0 1347712167.2043505 120697631.47051972 0 120697631.47051972 31819436.480595827 0 0 0 0 777250910.83516121 -164674821.60391966 0 -164674821.60391966 -94357838.65627563 0 0 0 0 748805437.49623489 -119331958.76165938 0 -119331958.76165938 -164796903.10423827 0 0 0 0 925665415.16032171 -33503102.106577098 0 -33503102.106577098 -202024959.8602851 0 0 0 0 2981951.3430284201 -1627290.2558572292 0 -1627290.2558572292 -366818.83971728326 0 0 0 0 2205500372.2769637 239523327.07346779 0 239523327.07346779 -131682155.65719476 0 0 0 0 2201171344.1688132 -162879610.53524762 0 -162879610.53524762 -392582374.19767696 0 0 0 0 1220422649.6197515 -299373601.85238242 0 -299373601.85238242 -14684675.635733724 0 0 0 0 1409797219.7053909 -28240209.889637262 0 -28240209.889637262 -221531030.66026214 0 0 0 0 1802747017.767468 -544450228.09261405 0 -544450228.09261405 -307111729.43995452 0 0 0 0 1448414034.7418165 -72392895.840207726 0 -72392895.840207726 -493757893.49184912 0 0 0 0 1973221950.1331406 667197873.83812129 0 667197873.83812129 -677416238.34270656 0 0 0 0 1171113785.706418 586175008.71871781 0 586175008.71871781 259456399.20217419 0 0 0 0 1005409701.7979112 235591660.79015017 0 235591660.79015017 441305811.22877502 0 0 0 0 1796975584.353961 -533363907.93022573 0 -533363907.93022573 714156769.49011731 0 0 0 0 1047651392.7808666 689726821.90657902 0 689726821.90657902 470432198.3292048 0 0 0 0 912743955.57925248 355833238.57818651 0 355833238.57818651 480851204.78561401 0 0 0 0 4722710.7619912848 -1549788.9459399167 0 -1549788.9459399167 -1543744.5469898686 0 0 0 0 1128606695.2242031 643453825.22016811 0 643453825.22016811 236128614.64153957 0 0 0 0 958777800.9339602 609488861.48637867 0 609488861.48637867 399380971.15302229 0 0 0 0 1191170286.216924 543853037.12907708 0 543853037.12907708 394641645.22672081 0 0 0 0 312134.11218390288 -142373.40393234044 0 -142373.40393234044 -495321.29395124363 0 0 0 0 7589645.0702705383 -70866889.693380594 0 -70866889.693380594 -821338331.99001002 0 0 0 0 -1114037968.659729 -1401992962.4015734 0 -1401992962.4015734 -2397990433.0505276 0 0 0 0 2200174924.4061575 -92285535.801131561 0 -92285535.801131561 -1191199682.4594257 0 0 0 0 207588.07184599526 -2860900.5603688951 0 -2860900.5603688951 527430.03708469681 0 0 0 0 213220777.44872856 -345727279.03732598 0 -345727279.03732598 548723281.58520555 0 0 0 0 1437944277.7215433 294716767.76377606 0 294716767.76377606 -733963028.86810887 0 0 0 0 162052616.47910774 -140502052.33039474 0 -140502052.33039474 -86282412.329991341 0 0 0 0 -40761196.928996384 -53950396.599163055 0 -53950396.599163055 -104621259.42584455 0 0 0 0 170168167.82176286 -142406646.47159719 0 -142406646.47159719 -116701320.72067738 0 0 0 0 235323657.74109697 -230515388.20651293 0 -230515388.20651293 -63946069.806499958 0 0 0 0 277018642.08804774 -151219133.78504753 0 -151219133.78504753 -102114955.62872982 0 0 0 0 242511818.45974994 -210032366.93721533 0 -210032366.93721533 -49301231.245298624 0 0 0 0 216491112.96358556 -61405426.31515789 0 -61405426.31515789 -60901144.287387371 0 0 0 0 158788617.88305831 -3695700.4270792007 0 -3695700.4270792007 -131844096.70356178 0 0 0 0 103186353.2025702 -103374668.92764759 0 -103374668.92764759 -65748377.921652794 0 0 0 0 54596241.110084534 91265530.755332947 0 91265530.755332947 -84519663.207217216 0 0 0 0 98278205.711573601 120381104.47589111 0 120381104.47589111 -103837366.43035698 0 0 0 0 150721131.26061821 31838886.148576736 0 31838886.148576736 -52446698.528145313 0 0 0 0 78119522.663934231 124988738.90198612 0 124988738.90198612 -31292052.096242905 0 0 0 0 94539777.329992771 107827750.54745865 0 107827750.54745865 -171253816.68835258 0 0 0 0 11333316.770776749 139362841.18052387 0 139362841.18052387 -104062241.18943787 0 0 0 0 -17358906.248996735 144248831.06868744 0 144248831.06868744 -167300704.92324948 0 0 0 0 -80384047.974481583 211896361.62567711 0 211896361.62567711 -236351537.05259132 0 0 0 0 7009147.4708023071 -63139058.987121582 0 -63139058.987121582 -75522918.735753059 0 0 0 0 42717575.796101332 49718363.230452538 0 49718363.230452538 -153594953.43735981 0 0 0 0 -32119396.354271412 31698221.674839973 0 31698221.674839973 -147771381.06752396 0 0 0 0 -10353833.04994604 -61669168.834361553 0 -61669168.834361553 -230699214.67987633 0 0 0 0 -155946995.70285082 134920522.61354494 0 134920522.61354494 -215057700.47956657 0 0 0 0 -146232751.06660652 165678475.06113148 0 165678475.06113148 -573656213.8284874 0 0 0 0 -239895821.45278373 103315746.19519472 0 103315746.19519472 -225574131.49492645 0 0 0 0 -42769657.122573242 214601551.64610371 0 214601551.64610371 -241178187.83641624 0 0 0 0 -253101950.45457745 36272397.532286644 0 36272397.532286644 -303456496.80769444 0 0 0 0 -291202404.27495527 278260822.34590721 0 278260822.34590721 -247297175.71391392 0 0 0 0 -98396528.033640862 355018134.50469875 0 355018134.50469875 -364186341.52866745 0 0 0 0 63442566.38423419 -52903258.43430233 0 -52903258.43430233 -109132646.35680389 0 0 0 0 -34733918.120951176 161970677.18030262 0 161970677.18030262 -446278319.97478676 0 0 0 0 383248.54732288374 -510217.49975619838 0 -510217.49975619838 -740387.97722813487 0 0 0 0 -670232256.70978439 500443632.07498741 0 500443632.07498741 -281750494.27431107 0 0 0 0 -457958507.57197285 452455838.60580063 0 452455838.60580063 -489043849.35352373 0 0 0 0 -235357108.8392942 209623596.556427 0 209623596.556427 -322965926.91583824 0 0 0 0 -633098444.28651273 290591031.5643332 0 290591031.5643332 -161787417.65721512 0 0 0 0 -107650334.92735739 95142631.355190277 0 95142631.355190277 -207148562.56091285 0 0 0 0 -124071100.02935642 82563869.997197628 0 82563869.997197628 -45057406.948755264 0 0 0 0 70256709.096840858 -3705689.4379043579 0 -3705689.4379043579 -170552006.26071453 0 0 0 0 -267075257.98638123 194503704.56186676 0 194503704.56186676 -220716729.97420502 0 0 0 0 -63226707.530590415 6731384.78145504 0 6731384.78145504 -271629385.1130321 0 0 0 0 132031228.8443501 -107004714.6653018 0 -107004714.6653018 -177536438.19394875 0 0 0 0 -85528271.669511855 5004655.8091208935 0 5004655.8091208935 -89886293.614910126 0 0 0 0 112974489.50805223 -158225916.46422195 0 -158225916.46422195 -20471130.013712883 0 0 0 0 247297748.29263473 -109437384.40432739 0 -109437384.40432739 -98808948.578011513 0 0 0 0 52973150.195664048 -49237963.730668068 0 -49237963.730668068 45415178.759676933 0 0 0 0 195967548.79448342 -8618178.8007370234 0 -8618178.8007370234 -66373366.720945358 0 0 0 0 181604815.42104825 -52267309.392479658 0 -52267309.392479658 207893252.73603249 0 0 0 0 434617128.54824305 -181284841.87134075 0 -181284841.87134075 16396611.233947754 0 0 0 0 482661561.93192029 -93097351.763917923 0 -93097351.763917923 39679786.787242889 0 0 0 0 673509569.76591063 -262470062.18017006 0 -262470062.18017006 149391232.07857418 0 0 0 0 854294095.42162514 -238942259.12374496 0 -238942259.12374496 111417263.33306694 0 0 0 0 378734147.81779015 -61864341.166023016 0 -61864341.166023016 335235209.64662552 0 0 0 0 1365029109.9860075 -244524356.11957455 0 -244524356.11957455 36363546.720052719 0 0 0 0 1180401616.8752537 -168250924.39717102 0 -168250924.39717102 58095913.785873413 0 0 0 0 929757357.19577169 -27840213.486480236 0 -27840213.486480236 150401063.51548004 0 0 0 0 71297.572353933938 -1582557.2923479567 0 -1582557.2923479567 860479.22373748943 0 0 0 0 -38904028.778121397 104522292.23102623 0 104522292.23102623 206931874.48213387 0 0 0 0 42517.54932872951 -89252.029570940882 0 -89252.029570940882 -100943.13863556599 0 0 0 0 658286674.87377691 -69325507.045707703 0 -69325507.045707703 165274250.13373375 0 0 0 0 1120027767.0400381 124535253.28417015 0 124535253.28417015 -66828666.801440477 0 0 0 0 2586501.5596186197 -818830.39528161031 0 -818830.39528161031 -6317199.977344377 0 0 0 0 679368203.22817135 -48409982.58970356 0 -48409982.58970356 -45939886.876332283 0 0 0 0 648965996.64162159 -19015752.594011068 0 -19015752.594011068 -49111521.269333839 0 0 0 0 9254997.8565783501 23150627.841024995 0 23150627.841024995 -67461936.948108435 0 0 0 0 281881992.7786817 -186361659.28775024 0 -186361659.28775024 -4688966.8320808411 0 0 0 0 247005381.83686072 -154417384.56879222 0 -154417384.56879222 52469589.211688995 0 0 0 0 435672056.88367558 -129597106.15777493 0 -129597106.15777493 -53695077.212353706 0 0 0 0 482112129.26645207 -200175842.27528763 0 -200175842.27528763 16284675.095165253 0 0 0 0 -29022387.63169384 10422157.381714821 0 10422157.381714821 51242721.274891853 0 0 0 0 87340618.97601366 -25319372.935707092 0 -25319372.935707092 7390945.1437134743 0 0 0 0 3682564.9846713133 -5132438.6249058181 0 -5132438.6249058181 -1060737.7949803865 0 0 0 0 -13868801.138302803 1003854.9709200859 0 1003854.9709200859 3815254.348780036 0 0 0 0 -27733736.389527924 -48002387.345569745 0 -48002387.345569745 130524166.63915253 0 0 0 0 15272878.433055878 -16084566.441539168 0 -16084566.441539168 5665917.2121478766 0 0 0 0 18512364.402956963 -24027959.499232531 0 -24027959.499232531 -73090266.746439457 0 0 0 0 98269296.172668934 -53952666.98852849 0 -53952666.98852849 -128519532.93303406 0 0 0 0 -70070938.83632803 159258214.79110557 0 159258214.79110557 38407323.583422661 0 0 0 0 -24672218.899279118 109689061.984815 0 109689061.984815 -172762437.89905167 0 0 0 0 -141331194.33120346 59583208.144708157 0 59583208.144708157 36672128.742794037 0 0 0 0 -8807177.1798819304 51334824.981572628 0 51334824.981572628 -9336107.0921533108 0 0 0 0 -58581038.647598267 66961985.403140068 0 66961985.403140068 -21513826.341559887 0 0 0 0 -28361659.931685448 -27490179.745055199 0 -27490179.745055199 164491483.78671277 0 0 0 0 74704024.063521266 88622392.13024658 0 88622392.13024658 285741243.78888035 0 0 0 0 382822645.96073413 -186657941.43866682 0 -186657941.43866682 -71805664.84099865 0 0 0 0 382787548.4920156 -102600543.42717436 0 -102600543.42717436 -49962983.166065216 0 0 0 0 1328166.6038737604 -432324.64286836702 0 -432324.64286836702 -4020550.6679375698 0 0 0 0 383540691.36347485 -75621273.606606007 0 -75621273.606606007 1829115.0951342583 0 0 0 0 249257415.39799619 -85838442.24866724 0 -85838442.24866724 -24413717.258654356 0 0 0 0 238754823.99082017 -205517213.8173871 0 -205517213.8173871 -44400649.313488007 0 0 0 0 271149986.41514325 -181517964.20014501 0 -181517964.20014501 -30042380.636219978 0 0 0 0 599010.13712434773 -610702.36888170522 0 -610702.36888170522 -1888721.5646790473 0 0 0 0 64278870.74173975 -142025029.67983079 0 -142025029.67983079 18425767.609092951 0 0 0 0 43042275.159116745 -52315524.792812824 0 -52315524.792812824 -61940104.618489742 0 0 0 0 -267403880.53343248 -82697546.615391731 0 -82697546.615391731 141863830.37373877 0 0 0 0 165168.18402180349 -398338.26154702133 0 -398338.26154702133 -477132.13416464068 0 0 0 0 139455781.95507574 -209450318.56346047 0 -209450318.56346047 83115617.925136089 0 0 0 0 188142847.36288321 -152937691.11140156 0 -152937691.11140156 35596792.687828064 0 0 0 0 223465923.91008615 -310317175.04550803 0 -310317175.04550803 187374046.23420918 0 0 0 0 -233078823.2749711 -46914670.40690314 0 -46914670.40690314 175972183.86176896 0 0 0 0 -4847403.4234652519 -130677432.39489257 0 -130677432.39489257 27567224.088150263 0 0 0 0 76062609.646807194 -114138278.71907318 0 -114138278.71907318 -54804547.5393641 0 0 0 0 66940571.412465215 -127406139.74314243 0 -127406139.74314243 9371380.1214613914 0 0 0 0 267109583.31223679 -114917676.6060921 0 -114917676.6060921 -101581302.48251557 0 0 0 0 244617244.28933668 -180789991.89751923 0 -180789991.89751923 -35091986.429389894 0 0 0 0 111608982.63309908 -90207254.759038687 0 -90207254.759038687 -26799567.632388115 0 0 0 0 188112246.20431161 -121412520.25120759 0 -121412520.25120759 -17453465.000812054 0 0 0 0 9823091.380797863 21644994.524863482 0 21644994.524863482 87973672.595785871 0 0 0 0 192027315.87961578 -95885469.416666627 0 -95885469.416666627 68012865.39140977 0 0 0 0 111545460.4175632 -110529644.50125557 0 -110529644.50125557 268563494.61919308 0 0 0 0 77058373.579872131 -21225023.894029975 0 -21225023.894029975 45452422.130082011 0 0 0 0 134868101.99909902 7489371.4144195318 0 7489371.4144195318 161170082.49513006 0 0 0 0 -33541080.795240641 -159449640.92276955 0 -159449640.92276955 44014461.02025485 0 0 0 0 73378380.272079468 98186855.886990905 0 98186855.886990905 85673013.028188229 0 0 0 0 36683130.292033315 105528873.5951972 0 105528873.5951972 368078690.61695611 0 0 0 0 4820286.5673337318 104126496.11317992 0 104126496.11317992 540219470.88373613 0 0 0 0 228635495.08525753 59954274.093309641 0 59954274.093309641 363816205.19499421 0 0 0 0 310044937.31594682 -124641779.51394522 0 -124641779.51394522 780479703.29090118 0 0 0 0 380091782.85387135 258733813.32956976 0 258733813.32956976 495663572.82811105 0 0 0 0 564715418.25023723 -8839149.079588294 0 -8839149.079588294 543304101.94009316 0 0 0 0 423685878.67164385 -116614476.92087054 0 -116614476.92087054 235415569.74995399 0 0 0 0 476670130.21784127 -266066035.70683223 0 -266066035.70683223 611902949.54510081 0 0 0 0 178588096.94450259 -121758869.55093277 0 -121758869.55093277 542188424.28890014 0 0 0 0 288439355.42119265 -230740915.22025895 0 -230740915.22025895 89864586.446599483 0 0 0 0 296227291.95714402 -148532970.33687067 0 -148532970.33687067 111601393.06951046 0 0 0 0 406356269.87574315 -267592561.23554921 0 -267592561.23554921 239682800.50876197 0 0 0 0 491460689.38172525 -72137866.233875394 0 -72137866.233875394 105418026.47725296 0 0 0 0 422178697.4897415 -144979645.23381186 0 -144979645.23381186 52517325.051585197 0 0 0 0 340065752.01566857 -79238396.013944864 0 -79238396.013944864 -48194.280499458313 0 0 0 0 342725797.33122915 -239599215.13395163 0 -239599215.13395163 33575203.910181999 0 0 0 0 266889999.88910818 -177604951.08129358 0 -177604951.08129358 -16363006.069488049 0 0 0 0 264077375.6903919 -234053392.24861765 0 -234053392.24861765 -13800851.012124062 0 0 0 0 183530237.45402479 144428849.9392786 0 144428849.9392786 90103910.342809677 0 0 0 0 265968057.59484339 67125654.831715107 0 67125654.831715107 24296678.876982003 0 0 0 0 184056264.94775343 129731084.95716476 0 129731084.95716476 37275813.514261246 0 0 0 0 90333236.368513584 141551372.39499545 0 141551372.39499545 39452689.213182449 0 0 0 0 161024817.04932475 85341625.848720789 0 85341625.848720789 23467876.896334648 0 0 0 0 176909309.4003973 88328983.326192856 0 88328983.326192856 -24826059.78644371 0 0 0 0 243708164.62496424 54382785.265681744 0 54382785.265681744 -49741107.854719639 0 0 0 0 316113861.89352596 -114795936.2246685 0 -114795936.2246685 -37708184.474811316 0 0 0 0 194366458.2730689 1909424.8879489899 0 1909424.8879489899 8720834.328373909 0 0 0 0 253887496.47601438 76819655.81295681 0 76819655.81295681 96259499.728009224 0 0 0 0 373400025.24332809 -23490026.845435143 0 -23490026.845435143 12308580.575294495 0 0 0 0 393104808.80348206 49308220.76305604 0 49308220.76305604 96554181.496985435 0 0 0 0 391355133.97472584 5068049.1442770958 0 5068049.1442770958 55114141.718672752 0 0 0 0 531476364.31229335 -75537671.552559376 0 -75537671.552559376 96261984.944658279 0 0 0 0 461986867.20849645 -101006174.42053032 0 -101006174.42053032 224666602.49433708 0 0 0 0 452734429.56516004 128191149.8102473 0 128191149.8102473 194534460.33930111 0 0 0 0 341912462.21317911 204215981.40784502 0 204215981.40784502 194840191.64854813 0 0 0 0 214092882.63166523 204063912.7619853 0 204063912.7619853 292888923.03858757 0 0 0 0 262984669.93573284 109918171.68059015 0 109918171.68059015 97536253.711933136 0 0 0 0 161156957.80394363 153862455.01954609 0 153862455.01954609 140548924.9916153 0 0 0 0 160112180.44900656 159853498.99047291 0 159853498.99047291 258137646.31455564 0 0 0 0 403019512.15402275 323430058.41025233 0 323430058.41025233 525996789.68084753 0 0 0 0 321722068.02710533 161132418.10137624 0 161132418.10137624 284078883.84553409 0 0 0 0 109836134.91066933 147269491.92106616 0 147269491.92106616 529195906.42790031 0 0 0 0 805527319.42683053 -108459567.61789715 0 -108459567.61789715 224825219.28784752 0 0 0 0 722712513.81496406 77192020.918799818 0 77192020.918799818 203981794.66826919 0 0 0 0 1324581526.758621 -159028116.35179526 0 -159028116.35179526 367974981.59074372 0 0 0 0 637377584.97245932 10623344.986060411 0 10623344.986060411 344899697.76803017 0 0 0 0 1280272.6716375351 26967178.487648845 0 26967178.487648845 650885009.26720667 0 0 0 0 610690471.90818596 -235043866.10279214 0 -235043866.10279214 1343269594.0077143 0 0 0 0 596189479.85620034 478564536.61697417 0 478564536.61697417 951944390.91270113 0 0 0 0 1302884356.2053638 416615403.90129048 0 416615403.90129048 703436755.41227961 0 0 0 0 77881428.300914764 102993520.32214904 0 102993520.32214904 603002033.96811152 0 0 0 0 275842774.44226336 72997066.326832175 0 72997066.326832175 596819948.08736897 0 0 0 0 269701606.42655897 106079499.08761048 0 106079499.08761048 433089977.96266556 0 0 0 0 29274253.378898621 -131987855.02979875 0 -131987855.02979875 594161484.80357122 0 0 0 0 48098239.387023926 -70177124.378118992 0 -70177124.378118992 367929521.85060382 0 0 0 0 -26070261.470249176 -11624156.717287779 0 -11624156.717287779 436136144.1218518 0 0 0 0 28082156.933432579 -112082379.85529459 0 -112082379.85529459 352781379.41879082 0 0 0 0 53120224.943898678 -2112431.5859400034 0 -2112431.5859400034 389996054.71374655 0 0 0 0 -54690957.761623383 57814402.787947387 0 57814402.787947387 333145360.96502584 0 0 0 0 -21329119.159188271 -11015868.770375967 0 -11015868.770375967 310428391.34978771 0 0 0 0 -79761792.180277824 -3655757.4437752962 0 -3655757.4437752962 247981871.87073588 0 0 0 0 -77476035.216342926 1990694.2043993473 0 1990694.2043993473 260058781.41836059 0 0 0 0 -105433014.6397171 51763597.303081274 0 51763597.303081274 251096237.00508237 0 0 0 0 -60027347.713838577 -32297077.056880593 0 -32297077.056880593 321299525.24253559 0 0 0 0 -79020119.285741806 20039014.629007801 0 20039014.629007801 276539229.15235841 0 0 0 0 -87116429.161951065 100457488.35033393 0 100457488.35033393 255335763.85965896 0 0 0 0 -66445906.324988365 112663345.87550116 0 112663345.87550116 261111377.96521783 0 0 0 0 -21206950.11123085 89143239.078642607 0 89143239.078642607 232884556.99019003 0 0 0 0 -98772.5857629776 138531470.59504509 0 138531470.59504509 347442553.49473494 0 0 0 0 43369056.928161621 90457612.585850596 0 90457612.585850596 310842492.66429901 0 0 0 0 110380300.14822921 138163986.29145172 0 138163986.29145172 331381519.75492132 0 0 0 0 514972.32659339905 89479639.020829394 0 89479639.020829394 476374834.1058774 0 0 0 0 -16297797.436984062 36840669.367999986 0 36840669.367999986 312489284.93419194 0 0 0 0 -53703016.553633928 76134419.240523919 0 76134419.240523919 240173261.28780174 0 0 0 0 -156923551.74778748 46171703.49493289 0 46171703.49493289 241472163.65611073 0 0 0 0 -121629205.63248444 28965338.13404423 0 28965338.13404423 222442084.73719949 0 0 0 0 -127896875.50805497 71369808.768993229 0 71369808.768993229 166149941.77522945 0 0 0 0 -82940930.033669472 110451273.36635566 0 110451273.36635566 134289342.78717089 0 0 0 0 -107167988.43214989 55834873.533912472 0 55834873.533912472 88996371.669237733 0 0 0 0 -134922674.73073006 20670529.354373362 0 20670529.354373362 166426839.460756 0 0 0 0 -138878692.84930098 120142211.01777446 0 120142211.01777446 287863189.7209754 0 0 0 0 -122646375.16592932 200635825.35598099 0 200635825.35598099 -119815783.83588696 0 0 0 0 -182691123.19226074 100301923.86884427 0 100301923.86884427 108205581.94187176 0 0 0 0 -131311806.76654816 216649136.44579029 0 216649136.44579029 10173181.127050698 0 0 0 0 -102982306.9627552 104654536.39771068 0 104654536.39771068 -724497.01906013489 0 0 0 0 -122700805.78689098 116128390.4561044 0 116128390.4561044 151268119.44050884 0 0 0 0 -94658700.680006027 171924988.66826057 0 171924988.66826057 12251845.978335381 0 0 0 0 -98597686.056852341 229117688.96447706 0 229117688.96447706 -13458882.505518913 0 0 0 0 -111723176.66995811 204863630.60703182 0 204863630.60703182 -42009026.642774582 0 0 0 0 -119464962.57741928 214446834.0352931 0 214446834.0352931 -15730125.810100377 0 0 0 0 -188955636.1280553 137036058.34979883 0 137036058.34979883 -36749498.936733246 0 0 0 0 -190465215.46508598 174161796.40126419 0 174161796.40126419 -10706618.368950844 0 0 0 0 472032.06283950806 179690397.09018326 0 179690397.09018326 160824652.47865915 0 0 0 0 10910922.206103325 187083659.03820324 0 187083659.03820324 77023140.059985638 0 0 0 0 64198285.37577343 196041679.09100568 0 196041679.09100568 284596196.43432617 0 0 0 0 40982665.993492126 138078308.01406741 0 138078308.01406741 139995334.29289007 0 0 0 0 -30668532.605404854 158561477.32385075 0 158561477.32385075 277011482.37982845 0 0 0 0 -35922271.310937881 118100830.59229445 0 118100830.59229445 137557590.2059145 0 0 0 0 -48816447.532486916 153589835.20815039 0 153589835.20815039 72060002.496024609 0 0 0 0 -73841431.325366974 164304833.81714773 0 164304833.81714773 172369202.85316086 0 0 0 0 -48189778.50456512 165525939.90892833 0 165525939.90892833 74294735.288770676 0 0 0 0 -45294985.407753944 210936606.15463686 0 210936606.15463686 17490116.045202255 0 0 0 0 -102785403.4001255 185540185.0131526 0 185540185.0131526 90221302.110831499 0 0 0 0 -95893448.840755463 230369637.8306675 0 230369637.8306675 -24284402.652685165 0 0 0 0 -81912262.235641003 186595165.94341743 0 186595165.94341743 1453691.7716560364 0 0 0 0 -6958309.4057292938 206459087.68237734 0 206459087.68237734 -1750706.1001496315 0 0 0 0 15091457.337938309 152298823.72137976 0 152298823.72137976 -14339857.737071991 0 0 0 0 75048813.389616966 167183993.16855478 0 167183993.16855478 156503551.28977776 0 0 0 0 77085269.17884779 149698243.11953092 0 149698243.11953092 58900278.691952705 0 0 0 0 101544158.81588268 133782362.23793364 0 133782362.23793364 -26472041.356826782 0 0 0 0 24726908.730752945 184077522.27398205 0 184077522.27398205 61543857.472315311 0 0 0 0 20690438.319458008 154319240.34922314 0 154319240.34922314 -25253921.807179272 0 0 0 0 36661367.54635334 158034347.74043131 0 158034347.74043131 -98791188.483613968 0 0 0 0 -26434675.559434891 184176254.62419224 0 184176254.62419224 -21463758.857230425 0 0 0 0 -16176429.454117775 193191012.19833636 0 193191012.19833636 -79400109.925161362 0 0 0 0 -14995528.427107811 176011820.08898067 0 176011820.08898067 -172164894.05940628 0 0 0 0 34624333.861270428 161298652.07439923 0 161298652.07439923 -192740366.68552017 0 0 0 0 -32652561.809232712 164322085.97688293 0 164322085.97688293 -98459427.991256356 0 0 0 0 -855534.1880774498 226672303.17609012 0 226672303.17609012 -286521212.78572083 0 0 0 0 -6973368.5063018799 165133407.04762554 0 165133407.04762554 -188491179.45064116 0 0 0 0 3177418.6794233322 175982963.72449565 0 175982963.72449565 -282624037.08987427 0 0 0 0 -93047157.38384819 163778634.97385311 0 163778634.97385311 -173841112.45056725 0 0 0 0 43386652.049228668 208619811.04131889 0 208619811.04131889 -384883897.15424538 0 0 0 0 -23937930.874715805 150963581.32342339 0 150963581.32342339 -296658074.27280998 0 0 0 0 -37499874.570317268 104343133.95159316 0 104343133.95159316 -392301539.07564926 0 0 0 0 36295070.726379395 139410192.22729301 0 139410192.22729301 -393439937.38327038 0 0 0 0 34795279.308507919 157278480.55144119 0 157278480.55144119 -446806893.63311958 0 0 0 0 44250198.924707413 222408607.19423294 0 222408607.19423294 -305318559.86076355 0 0 0 0 -159001288.91384745 165435316.38611889 0 165435316.38611889 -334879913.94380569 0 0 0 0 -181849207.53206682 228674403.88554335 0 228674403.88554335 -269122242.5073204 0 0 0 0 -81298959.425666809 206626059.86171722 0 206626059.86171722 -394695697.1223526 0 0 0 0 -100174215.42353058 201535020.39611435 0 201535020.39611435 -395585898.97451401 0 0 0 0 -381774976.9382019 273910202.81993484 0 273910202.81993484 -370776378.78205538 0 0 0 0 -135303813.54944992 216684916.97554779 0 216684916.97554779 -288610422.17225266 0 0 0 0 -74333451.266864777 157020325.28496933 0 157020325.28496933 -236946409.72075146 0 0 0 0 -206968360.44757271 139625658.9042654 0 139625658.9042654 -237833059.31951714 0 0 0 0 -156308689.37722492 195185667.00085497 0 195185667.00085497 -152790753.95056725 0 0 0 0 -108466377.92742157 226339825.52360344 0 226339825.52360344 -203692461.95331287 0 0 0 0 -171472613.92474747 193687706.26661968 0 193687706.26661968 -215446105.14937019 0 0 0 0 -108604302.96729851 217958762.9186573 0 217958762.9186573 -267957498.59717178 0 0 0 0 -120292375.05823708 194670203.78669262 0 194670203.78669262 -152780140.57098484 0 0 0 0 -92771868.536335945 221028186.44505036 0 221028186.44505036 -107575292.90882874 0 0 0 0 -116103118.65026927 231825306.21436119 0 231825306.21436119 -110825120.8330822 0 0 0 0 -82726178.795520782 165398424.00740051 0 165398424.00740051 -90706266.905988693 0 0 0 0 -77887980.922412872 213432696.6906929 0 213432696.6906929 -113001398.01606083 0 0 0 0 -105587442.70213056 179054191.76370537 0 179054191.76370537 -148709112.47763824 0 0 0 0 -64890776.756902695 179454571.67160416 0 179454571.67160416 -14335212.004432678 0 0 0 0 -50846444.476567268 205741769.86828279 0 205741769.86828279 -53336675.636983871 0 0 0 0 -101015864.82106781 192617806.08897018 0 192617806.08897018 -56679028.908464432 0 0 0 0 -103445313.4781723 202116591.26442242 0 202116591.26442242 -49886267.214112282 0 0 0 0 -103204081.3680706 236106854.2188282 0 236106854.2188282 -70353774.533473015 0 0 0 0 -81868462.191688538 198416056.17980289 0 198416056.17980289 -108779273.17810917 0 0 0 0 -82008812.035978317 193819699.6602993 0 193819699.6602993 -132897320.01531601 0 0 0 0 -161136982.08456802 170224106.24535704 0 170224106.24535704 -61106734.178486824 0 0 0 0 -67702850.780916214 159543597.30346775 0 159543597.30346775 -64950053.138584495 0 0 0 0 -4832378.5132840872 25018516.732197553 0 25018516.732197553 -36113116.539413452 0 0 0 0 -13455488.727434158 105542592.51373482 0 105542592.51373482 -189729326.77131557 0 0 0 0 -21429949.688894272 91814092.619010448 0 91814092.619010448 -175785878.98051929 0 0 0 0 -93565511.318623543 228001567.43633413 0 228001567.43633413 -196537044.76089859 0 0 0 0 -50363209.505897522 185377868.14155197 0 185377868.14155197 -214390266.44188118 0 0 0 0 -99358938.984004974 227041684.08783245 0 227041684.08783245 -137205994.46242905 0 0 0 0 -116977160.83876038 216393972.06651306 0 216393972.06651306 -187515050.69383144 0 0 0 0 -56761655.501125336 167346075.10403252 0 167346075.10403252 -124505728.09830761 0 0 0 0 -62928939.448770523 211913579.18383026 0 211913579.18383026 -259579862.42235565 0 0 0 0 -81365673.282142639 201074984.71774673 0 201074984.71774673 -255056862.69839668 0 0 0 0 -2700136.4598846436 101440476.78062439 0 101440476.78062439 -321178278.05303574 0 0 0 0 38082057.685192108 78450240.322738647 0 78450240.322738647 -382494838.72041321 0 0 0 0 -44442708.314367294 204615038.99266815 0 204615038.99266815 -535656963.37129974 0 0 0 0 -8456973.8254852295 119187769.38501358 0 119187769.38501358 -335647094.66765213 0 0 0 0 44328905.107740402 95320044.550686836 0 95320044.550686836 -537232660.43370056 0 0 0 0 43352822.076915741 95427387.785495758 0 95427387.785495758 -528726714.68205261 0 0 0 0 20710779.612195075 5542160.2010592688 0 5542160.2010592688 -3020801.0478854151 0 0 0 0 22187679.903686523 1359874.2749328613 0 1359874.2749328613 8010193.8148202896 0 0 0 0 22889191.750198364 10425681.718034744 0 10425681.718034744 -5561945.9396438599 0 0 0 0 22718527.977783203 10878023.218644142 0 10878023.218644142 -6444270.8480625153 0 0 0 0 43947109.92276001 8997115.7800203562 0 8997115.7800203562 -61897127.700242996 0 0 0 0 45304032.426445007 1101386.6570611 0 1101386.6570611 -19290581.458942413 0 0 0 0 14391957.777235031 52961574.800519228 0 52961574.800519228 -19508583.033782959 0 0 0 0 32193530.575866699 23026561.744145393 0 23026561.744145393 -39791858.692316055 0 0 0 0 35328183.770172119 85024150.927196503 0 85024150.927196503 -5069117.4415283203 0 0 0 0 21390668.459964752 11181684.140918255 0 11181684.140918255 -3265255.6355648041 0 0 0 0 20741428.686378479 12319600.497010231 0 12319600.497010231 -5236566.9002780914 0 0 0 0 10557397.85785675 19601481.810106277 0 19601481.810106277 -7161259.6397690773 0 0 0 0 7801143.8573684692 9716955.1142520905 0 9716955.1142520905 6919890.2774953842 0 0 0 0 19479505.768396378 3610290.4111232758 0 3610290.4111232758 -272398.74771881104 0 0 0 0 176934763.09093857 -382917342.75123215 0 -382917342.75123215 -46255018.593021631 0 0 0 0 242937206.78685665 73478021.026555777 0 73478021.026555777 6287346.7484340668 0 0 0 0 -29919137.576334 196411345.36477184 0 196411345.36477184 -212185967.76638031 0 0 0 0 547770.41800382966 730421.36937321792 0 730421.36937321792 809481.03246412799 0 0 0 0 -54522383.699246407 293679492.98160267 0 293679492.98160267 -290503483.86319733 0 0 0 0 52451858.584060669 417024031.27571678 0 417024031.27571678 -149820752.99852133 0 0 0 0 93514892.966648102 365964851.68785667 0 365964851.68785667 -316281194.53371191 0 0 0 0 -39567562.975223869 296194574.08909631 0 296194574.08909631 -350657659.94289398 0 0 0 0 318385757.83832741 488373220.36097336 0 488373220.36097336 -347355961.80229378 0 0 0 0 122012348.69151831 296025351.19764161 0 296025351.19764161 -532030280.37430573 0 0 0 0 455890944.64988184 136455313.3216486 0 136455313.3216486 -782571835.58407974 0 0 0 0 -300447392.56874466 -89851017.25809288 0 -89851017.25809288 -518338973.97669411 0 0 0 0 13883117.852145094 8673334.0421502329 0 8673334.0421502329 1799080.8059137482 0 0 0 0 -25306388.821631432 250138380.66780853 0 250138380.66780853 160454563.03922462 0 0 0 0 -349483923.61894226 -130753852.78865051 0 -130753852.78865051 -111412179.48812675 0 0 0 0 -160717716.76180267 312829191.79704475 0 312829191.79704475 -581064672.26897049 0 0 0 0 -33616814.897521973 239842644.01189041 0 239842644.01189041 -677282808.25818777 0 0 0 0 -1732642.0859548813 5018128.9430579161 0 5018128.9430579161 1100975.3213266963 0 0 0 0 490363931.83617401 -265371369.08783722 0 -265371369.08783722 36714043.648426056 0 0 0 0 310774384.25326538 -141658764.85907936 0 -141658764.85907936 -37040962.108844757 0 0 0 0 50974427.985595703 -419948112.28809929 0 -419948112.28809929 -17364616.29946804 0 0 0 0 1027221530.0690231 -395679468.09845924 0 -395679468.09845924 -277799104.66128397 0 0 0 0 1153327246.4933014 -132109191.58993721 0 -132109191.58993721 -367608127.52235806 0 0 0 0 616791151.59227371 -96948013.185762405 0 -96948013.185762405 -223128722.13739586 0 0 0 0 736818646.76833344 -79997927.718259811 0 -79997927.718259811 -369403712.79111892 0 0 0 0 667418145.98244476 -337175151.58734322 0 -337175151.58734322 -285065501.81687951 0 0 0 0 540494433.45135117 -265217631.71531582 0 -265217631.71531582 -151015929.29288673 0 0 0 0 575775319.16587067 -144612395.09367943 0 -144612395.09367943 -93974810.452184677 0 0 0 0 565903867.38158417 -179004756.95918655 0 -179004756.95918655 -125512413.36102867 0 0 0 0 361404992.34576035 23946122.376523018 0 23946122.376523018 -260882914.61120033 0 0 0 0 662159864.93918228 -238691227.05779457 0 -238691227.05779457 7514728.0203819275 0 0 0 0 1042934566.4906387 62932662.497073174 0 62932662.497073174 -153272534.5464325 0 0 0 0 629866467.14562702 -63915071.445409171 0 -63915071.445409171 -160286380.08263397 0 0 0 0 629351699.88389587 -210617386.23436737 0 -210617386.23436737 -182550600.475811 0 0 0 0 118441617.02685165 148236039.71695328 0 148236039.71695328 12955062.0051651 0 0 0 0 513265758.56788635 -33841115.274759293 0 -33841115.274759293 -153118225.53741264 0 0 0 0 631073244.75280762 300584556.1064949 0 300584556.1064949 -84899947.515224457 0 0 0 0 699347766.31864929 277544581.33983421 0 277544581.33983421 -78199617.539378166 0 0 0 0 688722957.99729919 259770794.14748669 0 259770794.14748669 -107901922.45525742 0 0 0 0 1327794695.7015381 364269266.96648026 0 364269266.96648026 -94646438.807323456 0 0 0 0 1084728.7125340886 697984.48809215054 0 697984.48809215054 -293601.90902565699 0 0 0 0 255525583.22035217 183422329.15917397 0 183422329.15917397 75234969.933326721 0 0 0 0 106819002.5291748 -265940115.45848846 0 -265940115.45848846 -773547033.20500183 0 0 0 0 282461235.08518982 436310813.88169289 0 436310813.88169289 -177460994.6859169 0 0 0 0 254887224.18331528 451616452.03198528 0 451616452.03198528 -11204037.527114868 0 0 0 0 495968570.49024963 384695156.94369125 0 384695156.94369125 -218099966.98916626 0 0 0 0 576407244.03088379 534253807.9256444 0 534253807.9256444 52866052.202064514 0 0 0 0 169201762.36514282 -50445333.862926483 0 -50445333.862926483 -535136446.58243179 0 0 0 0 102820409.27549744 125771733.28131104 0 125771733.28131104 -156958348.56874847 0 0 0 0 99938564.76651001 89727506.030899048 0 89727506.030899048 -428581017.06166077 0 0 0 0 -46399241.287685394 1179035020.3551216 0 1179035020.3551216 57802254.297555923 0 0 0 0 39441519.914306641 -23027577.673740387 0 -23027577.673740387 -283138035.51114082 0 0 0 0 39056281.994659424 -17859455.327772141 0 -17859455.327772141 -82981868.868123055 0 0 0 0 -13509458.814243317 -25464730.294110298 0 -25464730.294110298 34437316.110028267 0 0 0 0 4687323.6457330845 368575.34894569032 0 368575.34894569032 -2482049.4550238177 0 0 0 0 19655806.297555845 4406388.0277722459 0 4406388.0277722459 -3394900.8579877876 0 0 0 0 -3588667.0503959656 -47048408.337736607 0 -47048408.337736607 -107395590.28187656 0 0 0 0 223077308.86351776 411106409.45734024 0 411106409.45734024 -338218351.09849548 0 0 0 0 -284758486.41283798 35026227.258683681 0 35026227.258683681 163903461.88082409 0 0 0 0 141544045.59754562 43863460.202073097 0 43863460.202073097 -4223328.1686515808 0 0 0 0 26074836.584777832 26652497.197049141 0 26652497.197049141 69238003.758916855 0 0 0 0 14012390.760901589 4384813.1728948941 0 4384813.1728948941 -2835859.2784243627 0 0 0 0 -14419596.161437988 52239060.410022736 0 52239060.410022736 -62863271.385901928 0 0 0 0 8912227.1362875272 -1009869.3137196042 0 -1009869.3137196042 -6067891.0257120738 0 0 0 0 -238746707.79325867 117631987.87085247 0 117631987.87085247 -12355478.431866407 0 0 0 0 -126662894.50355434 89377900.914618254 0 89377900.914618254 -8845598.5124921799 0 0 0 0 296229477.00262833 116386796.57824898 0 116386796.57824898 -16627045.749740601 0 0 0 0 166181432.1390152 102122476.76370859 0 102122476.76370859 44196311.156668663 0 0 0 0 270405210.56888199 139745145.14359379 0 139745145.14359379 -1832400.7365856171 0 0 0 0 466435441.37572479 263818418.35305214 0 263818418.35305214 -141763109.79821396 0 0 0 0 442358676.8050766 184148830.64947701 0 184148830.64947701 -80245508.962456703 0 0 0 0 479299728.81958008 301759439.89489174 0 301759439.89489174 -61289075.523406982 0 0 0 0 358890111.40189552 283494395.52681208 0 283494395.52681208 30004481.28332901 0 0 0 0 622796114.78234863 -506279840.90823746 0 -506279840.90823746 -136779983.08741951 0 0 0 0 1877013.9502487183 130390680.53968239 0 130390680.53968239 458888307.12289429 0 0 0 0 5141569.4432783723 1506806.8345524492 0 1506806.8345524492 -726892.44234143593 0 0 0 0 454563933.82551575 439002185.16313171 0 439002185.16313171 104237707.55705929 0 0 0 0 135259701.80132294 635283893.53984642 0 635283893.53984642 1400548400.648056 0 0 0 0 486166041.00642967 378793309.27643108 0 378793309.27643108 -146710748.85971832 0 0 0 0 -293585885.43011093 694628151.86642647 0 694628151.86642647 3012298422.9216118 0 0 0 0 844952430.64060974 1254250979.5609474 0 1254250979.5609474 738288490.32369423 0 0 0 0 2060819245.6116257 1231874712.0443487 0 1231874712.0443487 -1433694739.2365875 0 0 0 0 -122893288.36125398 -86341068.353255272 0 -86341068.353255272 -96574438.03061676 0 0 0 0 16519686.902421284 -15879549.972427804 0 -15879549.972427804 10956678.288667804 0 0 0 0 193248051.42821503 -243797585.6580019 0 -243797585.6580019 -307406733.5007143 0 0 0 0 -104002846.5885354 -116650715.85682532 0 -116650715.85682532 -107362788.24583435 0 0 0 0 956287021.02413559 -162394410.36573267 0 -162394410.36573267 -905719905.28743362 0 0 0 0 -181686433.34309745 -117522571.31500244 0 -117522571.31500244 -85290844.391616821 0 0 0 0 -329585259.0650208 -275131507.45425272 0 -275131507.45425272 -212768751.63576984 0 0 0 0 105421832.04043198 184060964.50873661 0 184060964.50873661 -359771501.13689423 0 0 0 0 -189090266.13757139 -78291825.779695392 0 -78291825.779695392 -60685719.424865723 0 0 0 0 356127338.39138412 196670715.74171472 0 196670715.74171472 131560766.57045937 0 0 0 0 400970453.31965256 194123761.02877331 0 194123761.02877331 82113648.097733498 0 0 0 0 511282269.99204254 244722660.1358099 0 244722660.1358099 62698732.583164215 0 0 0 0 528853422.17104626 216119703.25617218 0 216119703.25617218 21211005.720838547 0 0 0 0 490533465.56627655 351939087.14662409 0 351939087.14662409 120152947.73574972 0 0 0 0 628722877.84525299 307415361.26865482 0 307415361.26865482 62449346.559247971 0 0 0 0 -30429689.776678085 -615912734.49214935 0 -615912734.49214935 -116302907.98228455 0 0 0 0 -280668678.01934433 -640204878.22157288 0 -640204878.22157288 40862917.223758698 0 0 0 0 1738132.451511259 -686750.20319786202 0 -686750.20319786202 -1003460.3900325792 0 0 0 0 15434656.306929603 -14780413.393098295 0 -14780413.393098295 8349517.9501938652 0 0 0 0 694118003.60601044 163888176.22304583 0 163888176.22304583 103643565.3435297 0 0 0 0 664441284.72979736 197319770.87864113 0 197319770.87864113 69214355.532361984 0 0 0 0 646032253.10350037 77498582.474104404 0 77498582.474104404 236105481.19011116 0 0 0 0 -6760266.8132190704 -162425819.68394089 0 -162425819.68394089 -85501018.296653748 0 0 0 0 11821317.220243454 372878018.73853302 0 372878018.73853302 -771003918.40229607 0 0 0 0 -131169868.23400021 -307484701.36120796 0 -307484701.36120796 -218377361.72751617 0 0 0 0 -187474360.24560738 -363484605.30266571 0 -363484605.30266571 27445587.55758667 0 0 0 0 -353831901.30876732 -643914482.40934753 0 -643914482.40934753 314660300.44295502 0 0 0 0 -177209194.47795486 -329357452.09679985 0 -329357452.09679985 84062988.505207062 0 0 0 0 -176442257.03428841 -472407113.2155714 0 -472407113.2155714 679122771.00247192 0 0 0 0 311548976.07601988 -629900537.05360126 0 -629900537.05360126 259618077.74345398 0 0 0 0 -480584050.28348732 -217846339.41171265 0 -217846339.41171265 70462504.442443848 0 0 0 0 4513563.524390718 -2141448.5705492124 0 -2141448.5705492124 -3641661.1310513294 0 0 0 0 -154926889.09648228 155440119.80183864 0 155440119.80183864 -29739977.385293961 0 0 0 0 309777648.84189224 42091966.470473289 0 42091966.470473289 18465366.981722832 0 0 0 0 448447361.03778076 141392151.23497057 0 141392151.23497057 10727813.69598487 0 0 0 0 434734400.54537201 176805196.29258966 0 176805196.29258966 -13390395.57382834 0 0 0 0 550370838.53484535 126695865.05918145 0 126695865.05918145 95856278.29006958 0 0 0 0 455881090.6677599 101187380.58513832 0 101187380.58513832 116922794.41377926 0 0 0 0 533778501.41902924 165923140.79132223 0 165923140.79132223 167326604.97685146 0 0 0 0 490207454.87232208 332824598.36482418 0 332824598.36482418 367711123.67079705 0 0 0 0 458647644.42739868 202606928.67651701 0 202606928.67651701 174629062.55206585 0 0 0 0 524907706.54057312 162265313.70077896 0 162265313.70077896 392985961.79803276 0 0 0 0 525279584.46989632 174832798.24647874 0 174832798.24647874 179601426.93154526 0 0 0 0 496965354.40382385 372131152.75816113 0 372131152.75816113 240363215.4373886 0 0 0 0 430602653.24679756 218043847.55406708 0 218043847.55406708 -110879913.57259178 0 0 0 0 440359842.2389679 167804827.68600559 0 167804827.68600559 109977486.04197693 0 0 0 0 403318071.04865646 136148081.81055641 0 136148081.81055641 54126356.19595015 0 0 0 0 -590652231.03568459 178389729.34349686 0 178389729.34349686 24154008.310803592 0 0 0 0 1432625.9130688929 -1353829.1074669203 0 -1353829.1074669203 -1239438.3404453399 0 0 0 0 -121131411.15555573 -18410022.997240663 0 -18410022.997240663 32104156.730674148 0 0 0 0 196363705.75602341 576991291.21510124 0 576991291.21510124 -203162905.28633797 0 0 0 0 221838124.4177742 71533809.222413778 0 71533809.222413778 309527263.60093546 0 0 0 0 -259133913.06767654 242967244.11574414 0 242967244.11574414 321962496.42503762 0 0 0 0 -593850327.31827927 -43734876.650255203 0 -43734876.650255203 75280440.928695679 0 0 0 0 565225709.11594391 473896953.89147305 0 473896953.89147305 146531204.75091791 0 0 0 0 593049623.35626602 412585263.53909779 0 412585263.53909779 146117529.53819275 0 0 0 0 13418626.313301217 -12384361.152905304 0 -12384361.152905304 6338518.1412021667 0 0 0 0 602717525.81033325 407752219.992939 0 407752219.992939 43173582.847854614 0 0 0 0 542996904.70309448 318729689.00457007 0 318729689.00457007 -8723831.4105431065 0 0 0 0 359767357.33640671 329979996.16719341 0 329979996.16719341 63939651.384031087 0 0 0 0 560507671.12546635 476106209.42265379 0 476106209.42265379 23847502.572553873 0 0 0 0 496734393.62107086 384954611.35052377 0 384954611.35052377 -56291262.82200557 0 0 0 0 415679984.06307602 451471662.15793574 0 451471662.15793574 65526965.143645406 0 0 0 0 -489188578.67645931 -73122605.419876099 0 -73122605.419876099 23939266.060077667 0 0 0 0 -425005180.07399654 4821768.1196365356 0 4821768.1196365356 -72588646.771245956 0 0 0 0 583078993.74436283 350744981.05317342 0 350744981.05317342 769228521.9437561 0 0 0 0 619794307.44637871 210260080.89561439 0 210260080.89561439 6389404.6454801559 0 0 0 0 764322.31875818223 -235869.50726491306 0 -235869.50726491306 107839.03844953049 0 0 0 0 4476787.0612680726 -6236666.6738342037 0 -6236666.6738342037 7268785.2619215557 0 0 0 0 206381431.46588516 223011251.40085316 0 223011251.40085316 157650267.12079811 0 0 0 0 113359006.7610321 324782345.25924635 0 324782345.25924635 446818179.55752659 0 0 0 0 -45578757.612347364 140398840.95875841 0 140398840.95875841 243032217.24319839 0 0 0 0 13668641.354549408 143354683.14778709 0 143354683.14778709 233527359.46302366 0 0 0 0 -239514477.33967638 -26922696.945549011 0 -26922696.945549011 184114046.05411816 0 0 0 0 91873522.704963207 75070069.401616096 0 75070069.401616096 311350131.06032562 0 0 0 0 -114192008.76765156 -126619669.90676689 0 -126619669.90676689 130242051.08207607 0 0 0 0 -264574592.39741993 -54281880.75733757 0 -54281880.75733757 132805538.53896141 0 0 0 0 -137988087.39355588 -29798183.043891907 0 -29798183.043891907 26961032.971424103 0 0 0 0 -290948389.39935684 38769821.479862213 0 38769821.479862213 -186182462.595047 0 0 0 0 -644602257.19910812 214678605.55949211 0 214678605.55949211 -29540435.440074921 0 0 0 0 -434657093.99335814 -8358952.9703140259 0 -8358952.9703140259 101256876.50793076 0 0 0 0 -341676387.45188379 -13210018.641096115 0 -13210018.641096115 54230358.763671875 0 0 0 0 -479843368.54237175 53436326.874679565 0 53436326.874679565 79133587.738220215 0 0 0 0 -311024090.55811167 62048917.868368149 0 62048917.868368149 118309975.28655529 0 0 0 0 -358406667.22070217 136724524.59731531 0 136724524.59731531 11441428.111732483 0 0 0 0 -371825736.84051847 107584159.97337914 0 107584159.97337914 -28187286.257526398 0 0 0 0 -333866118.13739705 48741730.349483728 0 48741730.349483728 129450114.07226181 0 0 0 0 -418032374.56394291 60292720.342260361 0 60292720.342260361 129721983.71317482 0 0 0 0 -122023141.43414545 82148527.418973923 0 82148527.418973923 56252615.829008102 0 0 0 0 -60363866.743086159 -188529588.20780861 0 -188529588.20780861 313990462.81800842 0 0 0 0 50124018.588272572 -218259253.59855652 0 -218259253.59855652 151631353.85303307 0 0 0 0 337768854.89160728 -312147799.03375196 0 -312147799.03375196 179815703.2878933 0 0 0 0 365485790.29377246 -152318085.15455818 0 -152318085.15455818 304013674.53922653 0 0 0 0 556186340.32765245 -11331754.469143867 0 -11331754.469143867 298415129.0860405 0 0 0 0 -35279487.627414346 -143143975.27767134 0 -143143975.27767134 510370913.06144714 0 0 0 0 1190480079.0250907 805031418.24956417 0 805031418.24956417 774865910.96423912 0 0 0 0 330717698.81396627 203562724.55954456 0 203562724.55954456 355328074.02035904 0 0 0 0 1985663297.7044601 347413782.87301445 0 347413782.87301445 -28952675.520223498 0 0 0 0 572710054.72566128 78324592.392785072 0 78324592.392785072 8475616.4141521454 0 0 0 0 254914.19374420555 1116960.314699715 0 1116960.314699715 2911147.9103352763 0 0 0 0 -88300166.052505493 -170415056.1754694 0 -170415056.1754694 1109780728.5986404 0 0 0 0 65772504.555165291 848117673.07195282 0 848117673.07195282 1432137876.3815122 0 0 0 0 1849670773.6028581 203802080.84207916 0 203802080.84207916 115019210.37375546 0 0 0 0 -112143578.39251804 60734481.208516121 0 60734481.208516121 1296983792.0242682 0 0 0 0 748143384.25760674 -407461736.53187704 0 -407461736.53187704 -890531971.56407928 0 0 0 0 6381872.0253772177 1239844.4548905226 0 1239844.4548905226 -1859122.3992667226 0 0 0 0 -179191643.91991615 167036605.52233124 0 167036605.52233124 173233139.71625137 0 0 0 0 35950197.036317825 -73648153.508448601 0 -73648153.508448601 -246030274.25003004 0 0 0 0 91616702.151969433 -868284.24545097351 0 -868284.24545097351 -194522356.98629379 0 0 0 0 66808943.51722312 6092413.5363273621 0 6092413.5363273621 -172639735.77495766 0 0 0 0 69877773.921188116 16249296.75832355 0 16249296.75832355 -139112047.33378983 0 0 0 0 99144373.244804859 -173979963.48787928 0 -173979963.48787928 -447737723.14728487 0 0 0 0 36564539.78171894 -16124255.850791931 0 -16124255.850791931 -134738050.52748442 0 0 0 0 531371353.83639622 -20869688.220720053 0 -20869688.220720053 -278149777.09493065 0 0 0 0 194277271.1778636 253415493.64951515 0 253415493.64951515 71023696.251529694 0 0 0 0 49941267.171915531 -534145666.10176849 0 -534145666.10176849 11700039.181310654 0 0 0 0 2751903.7251073085 446482.38389494829 0 446482.38389494829 -728965.58749981178 0 0 0 0 -464979452.40997171 -87672447.402051926 0 -87672447.402051926 340388005.96026325 0 0 0 0 22099070.623023033 -51017069.048496723 0 -51017069.048496723 114649101.15416908 0 0 0 0 -131378425.42692184 95809266.021404266 0 95809266.021404266 12035899.930342674 0 0 0 0 85320211.460207939 35835890.160425186 0 35835890.160425186 -201780537.7083168 0 0 0 0 1548264.2499527 2589449.2727960786 0 2589449.2727960786 -748947.70574536454 0 0 0 0 -64087090.821378231 -49853986.506072521 0 -49853986.506072521 -21663380.848426819 0 0 0 0 55378138.046251297 268438320.18911934 0 268438320.18911934 127361598.07087135 0 0 0 0 259695798.12345695 393379841.43938732 0 393379841.43938732 164868077.17927504 0 0 0 0 -15881842.897334099 150129929.0242939 0 150129929.0242939 233895191.63994741 0 0 0 0 28552189.848261356 154554342.28358269 0 154554342.28358269 98073456.146453857 0 0 0 0 -36856306.684194088 112639388.65737534 0 112639388.65737534 21233904.323501587 0 0 0 0 36969994.621552467 -68229669.048353195 0 -68229669.048353195 77777985.654917717 0 0 0 0 15725446.880613327 565315317.42726994 0 565315317.42726994 482421306.50126123 0 0 0 0 -59911979.868190765 83196255.825052261 0 83196255.825052261 753257139.74243164 0 0 0 0 193816485.12773323 511393798.19870853 0 511393798.19870853 355621418.7784996 0 0 0 0 6407838.9887048844 2089183.2120114644 0 2089183.2120114644 -2232175.8753309157 0 0 0 0 554156368.36263657 291726093.97828484 0 291726093.97828484 -412081447.52574921 0 0 0 0 2912356.9978214642 1489363.8497683103 0 1489363.8497683103 -1230289.8061912064 0 0 0 0 302053365.38972473 692675305.97866869 0 692675305.97866869 629853710.39616299 0 0 0 0 101207307.27713108 524361750.19451571 0 524361750.19451571 355374000.83932495 0 0 0 0 86041403.935868263 216338143.91305017 0 216338143.91305017 208483313.13114166 0 0 0 0 666459180.8306675 366711626.22621965 0 366711626.22621965 199734856.94843081 0 0 0 0 196766547.7716713 149263562.25725365 0 149263562.25725365 189859423.81467438 0 0 0 0 248924710.69405317 37538481.106648684 0 37538481.106648684 419464123.58585167 0 0 0 0 493627808.07999516 270433549.89911413 0 270433549.89911413 77474428.5300107 0 0 0 0 188772166.884552 226251568.35519361 0 226251568.35519361 170726951.99810052 0 0 0 0 155713649.00104046 220390004.90495044 0 220390004.90495044 169703990.45318794 0 0 0 0 238229924.19089556 332745429.40982938 0 332745429.40982938 391779533.12633991 0 0 0 0 412352021.04452801 -82859765.4464463 0 -82859765.4464463 -136300335.51530147 0 0 0 0 114301401.75488925 28619581.177462041 0 28619581.177462041 27254240.710062027 0 0 0 0 109283926.94237518 -198194953.89511108 0 -198194953.89511108 -131376625.8529613 0 0 0 0 -27741035.695785761 11123897.682046294 0 11123897.682046294 -68221873.1024189 0 0 0 0 11652645.959354401 -69361384.823345184 0 -69361384.823345184 -16301863.920151711 0 0 0 0 99724764.653827667 -29307045.286350012 0 -29307045.286350012 -2293208.8340947628 0 0 0 0 6342150.7026219368 -27339586.507544279 0 -27339586.507544279 18636985.856664181 0 0 0 0 13786252.789001465 -67811077.682188749 0 -67811077.682188749 -81958456.131759405 0 0 0 0 6591846.5567302704 -23828686.469513774 0 -23828686.469513774 -17541467.905973315 0 0 0 0 71868481.025268555 -35591682.011468887 0 -35591682.011468887 -59053145.548043966 0 0 0 0 98846147.918058395 19807928.662378311 0 19807928.662378311 -38239220.557422638 0 0 0 0 84934068.332626343 -20147766.33490634 0 -20147766.33490634 -28351385.917562842 0 0 0 0 86794855.610159874 -32502454.706585407 0 -32502454.706585407 19468099.022814751 0 0 0 0 198093151.46839905 57435202.85566774 0 57435202.85566774 -12271739.595057487 0 0 0 0 231669148.16214752 74227130.771482497 0 74227130.771482497 -62662398.106910706 0 0 0 0 94851879.090969086 13850378.141638279 0 13850378.141638279 -23792743.544796765 0 0 0 0 93400343.598367691 103179055.19278044 0 103179055.19278044 26756298.476163983 0 0 0 0 261498035.67844391 220378412.28345111 0 220378412.28345111 81988018.578347862 0 0 0 0 173071070.01396942 137523339.54342112 0 137523339.54342112 5160035.687030077 0 0 0 0 -116689229.50022626 -86769847.575982094 0 -86769847.575982094 -27494906.945710182 0 0 0 0 177680840.68362379 59631530.486838818 0 59631530.486838818 -86703820.365221977 0 0 0 0 1888188.8853958731 -410957.41894885956 0 -410957.41894885956 -1450781.1657507038 0 0 0 0 -166819311.80779409 -77894895.013067245 0 -77894895.013067245 -1830481.8336019516 0 0 0 0 -115265807.76612806 -122109619.39731216 0 -122109619.39731216 -31609313.837069511 0 0 0 0 -136704952.38139582 -78170954.788338661 0 -78170954.788338661 -8582587.3176183701 0 0 0 0 -119184276.65909457 -74451416.289429188 0 -74451416.289429188 -52015018.694690704 0 0 0 0 -146212212.53499341 -151392298.5860815 0 -151392298.5860815 -116161095.24458504 0 0 0 0 3289472.1165428716 -1061069.408520652 0 -1061069.408520652 -2074398.0998252118 0 0 0 0 -88477957.103360415 -135455920.10940742 0 -135455920.10940742 -141409485.36672783 0 0 0 0 -106321743.49349535 -95282773.078436852 0 -95282773.078436852 -127060273.57769775 0 0 0 0 -104631911.73181051 -137038085.71016112 0 -137038085.71016112 -97220772.739768982 0 0 0 0 42598277.574804306 -1875273.8683767319 0 -1875273.8683767319 -103767697.45072079 0 0 0 0 -17634519.421597958 -31854612.439268112 0 -31854612.439268112 -89244997.40100193 0 0 0 0 55919637.345125198 -21375765.574532032 0 -21375765.574532032 -92469134.822530866 0 0 0 0 -19280503.20676899 -35652011.578979492 0 -35652011.578979492 35684079.833008766 0 0 0 0 105499031.42908621 -97211869.936226368 0 -97211869.936226368 19983649.262014389 0 0 0 0 69966941.484653473 21046731.870853424 0 21046731.870853424 72541553.300955474 0 0 0 0 16724937.772839546 -39718917.306855559 0 -39718917.306855559 5206032.6822686195 0 0 0 0 137527.0804901123 -12641399.059385955 0 -12641399.059385955 2596778.9410889205 0 0 0 0 -1443600.6422328949 -18121171.400947571 0 -18121171.400947571 31154227.456693888 0 0 0 0 8093024.4210031033 -31260788.65776208 0 -31260788.65776208 -6662572.3153693676 0 0 0 0 36388250.898769379 -27024381.051387787 0 -27024381.051387787 -148605678.58506513 0 0 0 0 -1872698.4915180206 -19902758.446604937 0 -19902758.446604937 -11439703.837009504 0 0 0 0 12963835.449681759 -34448763.221933298 0 -34448763.221933298 -71485319.173015326 0 0 0 0 -248711.39106178284 -15074989.859043121 0 -15074989.859043121 -77105315.289643168 0 0 0 0 48982103.429896355 -6100877.1515562832 0 -6100877.1515562832 -84704314.236842573 0 0 0 0 11055327.712950217 4566014.5934292078 0 4566014.5934292078 -6760658.7698030444 0 0 0 0 11754090.208333969 -56791555.001008749 0 -56791555.001008749 -111544496.19961762 0 0 0 0 -208753098.09856176 30373157.200092435 0 30373157.200092435 20917618.163408279 0 0 0 0 18316344.715718269 -8725044.7167436332 0 -8725044.7167436332 6150820.092045173 0 0 0 0 -5726033.5452600121 -133222384.83397129 0 -133222384.83397129 11061175.403094292 0 0 0 0 159170062.56588459 -212098013.66043949 0 -212098013.66043949 60942764.052173853 0 0 0 0 -17589948.402628899 30417147.83479619 0 30417147.83479619 34846878.278219223 0 0 0 0 3461430.027567341 1393913.1377691091 0 1393913.1377691091 -2087862.3342532329 0 0 0 0 30885797.406391144 -132051091.9346242 0 -132051091.9346242 -14015383.001042843 0 0 0 0 169199289.66861439 -188554135.95925117 0 -188554135.95925117 -39182710.179013491 0 0 0 0 273395082.90665925 13389239.678748012 0 13389239.678748012 -274708256.07808065 0 0 0 0 -126107750.46744585 -26337406.017232418 0 -26337406.017232418 -19187157.343484879 0 0 0 0 223555603.97087502 -129807360.11891592 0 -129807360.11891592 -95681508.223589897 0 0 0 0 15857382.800507242 -13516673.187484205 0 -13516673.187484205 12037468.081863726 0 0 0 0 -329246027.40594363 -511425872.31931925 0 -511425872.31931925 510292769.76610756 0 0 0 0 -185339352.92685246 -69713102.036520004 0 -69713102.036520004 -531229.32730102539 0 0 0 0 -196722075.12332463 -3692993.4364931583 0 -3692993.4364931583 -23008616.034957409 0 0 0 0 398008856.38170624 231978714.38985825 0 231978714.38985825 -319312843.38302326 0 0 0 0 -237577630.643013 212943870.02261734 0 212943870.02261734 -65853627.569045067 0 0 0 0 61088796.640419006 76925886.572045326 0 76925886.572045326 -1831918.5189118385 0 0 0 0 99770813.003181458 119844368.2224102 0 119844368.2224102 -51455087.118258834 0 0 0 0 156633546.94957733 -1918831.8121776581 0 -1918831.8121776581 23010251.469409943 0 0 0 0 153427592.97009277 61855098.931509018 0 61855098.931509018 -61082543.005250931 0 0 0 0 -87633031.985034943 37632972.88067627 0 37632972.88067627 -62081311.895907879 0 0 0 0 10361447.793233424 -5602053.5896196421 0 -5602053.5896196421 1378248.4185440138 0 0 0 0 -60320902.106563568 -7310969.6230144501 0 -7310969.6230144501 172446289.66159582 0 0 0 0 38593750.155021667 -46995878.882719994 0 -46995878.882719994 139969034.52527046 0 0 0 0 -52333418.437538147 48593576.157538414 0 48593576.157538414 65876392.292898178 0 0 0 0 130621127.52703857 65954288.833428383 0 65954288.833428383 54762623.014314651 0 0 0 0 54500596.894317627 107105888.96519756 0 107105888.96519756 97802060.500235558 0 0 0 0 -382786399.84129333 193719048.69109535 0 193719048.69109535 17070638.722022772 0 0 0 0 288373.41333335172 -230629.07903234288 0 -230629.07903234288 -369643.32202663645 0 0 0 0 204445538.70597076 89046147.029461384 0 89046147.029461384 -122315699.13736343 0 0 0 0 66921251.754106522 -136965932.04778159 0 -136965932.04778159 250287158.4820199 0 0 0 0 269296714.73257828 -5457435.0617439747 0 -5457435.0617439747 -66775372.510375023 0 0 0 0 28938491.394683838 14609858.70823431 0 14609858.70823431 -7503303.9984485507 0 0 0 0 24185176.357174397 41794032.955757976 0 41794032.955757976 -55752578.308482647 0 0 0 0 29791226.052123826 -6252963.2772080535 0 -6252963.2772080535 399377.83515949798 0 0 0 0 610032.65709101595 -4753392.0624315944 0 -4753392.0624315944 164681.04429499144 0 0 0 0 -11137692.716213226 -55630457.305839062 0 -55630457.305839062 -2149737.4608033895 0 0 0 0 51620625.813272476 -44543165.532051623 0 -44543165.532051623 -190757617.97319078 0 0 0 0 30326490.754789542 -5031312.9416004959 0 -5031312.9416004959 -2380595.6011285172 0 0 0 0 122906717.47178268 172567747.34010553 0 172567747.34010553 -227691357.78176546 0 0 0 0 10852325.394741058 105960876.64908385 0 105960876.64908385 156093977.72181797 0 0 0 0 7792097.7973137461 -665651.04919248074 0 -665651.04919248074 -2025814.7237339164 0 0 0 0 -38317987.313400269 373640456.17229176 0 373640456.17229176 -136254352.6378746 0 0 0 0 -45868250.9804039 192567090.28465843 0 192567090.28465843 358482099.16288567 0 0 0 0 16659076.169448853 45291105.764582634 0 45291105.764582634 -39690259.823814392 0 0 0 0 143357565.03495026 -107131554.84334278 0 -107131554.84334278 -61537383.216194153 0 0 0 0 293298231.5122261 122003202.85722136 0 122003202.85722136 -28749314.382062912 0 0 0 0 -12846006.406494141 21049931.082133293 0 21049931.082133293 -61468758.245177746 0 0 0 0 52455876.613067627 194515933.98954201 0 194515933.98954201 132998433.30042434 0 0 0 0 90564598.482948303 108318937.74525118 0 108318937.74525118 -42151678.703262329 0 0 0 0 -63348408.983055115 106326309.34854794 0 106326309.34854794 66273707.55973053 0 0 0 0 -58532629.515630722 170784425.0360679 0 170784425.0360679 453070795.87557602 0 0 0 0 16615.75232783705 2167666.7599379169 0 2167666.7599379169 753577.41669970145 0 0 0 0 123538202.15519333 149447.2536444068 0 149447.2536444068 -22240845.229394913 0 0 0 0 246219589.62641144 -60115426.841820717 0 -60115426.841820717 -11276732.450777411 0 0 0 0 2265277.7301982194 264398.19270231854 0 264398.19270231854 -896918.95912753791 0 0 0 0 183009780.63370705 -178909164.5900805 0 -178909164.5900805 82468344.035036087 0 0 0 0 -815179.86437797546 1911978.8171311617 0 1911978.8171311617 -2816827.3367357254 0 0 0 0 1754464.2439648584 1962823.2862532765 0 1962823.2862532765 -61561.473910353845 0 0 0 0 38936019.571861267 -26095323.022174835 0 -26095323.022174835 -72702412.414308548 0 0 0 0 28446.162811279297 3332641.4068450928 0 3332641.4068450928 -5920424.2547264099 0 0 0 0 1806980.5716150403 1332816.2617497286 0 1332816.2617497286 -626402.21703658346 0 0 0 0 -33774.277053833008 2290384.3851633072 0 2290384.3851633072 -2858322.0233963728 0 0 0 0 -99345143.782974243 77765918.971241951 0 77765918.971241951 -129343310.85106277 0 0 0 0 3217114.7697254326 521218.99833064526 0 521218.99833064526 -1626232.3597691534 0 0 0 0 23673870.491455078 133413679.5869894 0 133413679.5869894 -188171120.42196798 0 0 0 0 -50593.991012573242 1150943.4175758362 0 1150943.4175758362 -9299125.8988752365 0 0 0 0 1361773.8415390886 1422545.7098037179 0 1422545.7098037179 -391538.97901796969 0 0 0 0 -44191765.102825165 113128060.11390567 0 113128060.11390567 -87406984.800367355 0 0 0 0 15984705.992649078 151476364.89525747 0 151476364.89525747 -82800938.416399002 0 0 0 0 -46557421.353134155 74720627.031490326 0 74720627.031490326 -25267286.855361938 0 0 0 0 112465058.12595367 23607768.009444475 0 23607768.009444475 -69483392.441890717 0 0 0 0 97285460.451696396 118452614.94010031 0 118452614.94010031 61953778.963949203 0 0 0 0 94117498.346793175 99852629.457399845 0 99852629.457399845 -29894271.877067566 0 0 0 0 1416498.1593721984 -151272.93209365197 0 -151272.93209365197 -1925882.1278669108 0 0 0 0 -75841909.818222046 -62936731.482206345 0 -62936731.482206345 -27242422.27996254 0 0 0 0 -52472242.710638225 63185698.812881321 0 63185698.812881321 -59738849.287592888 0 0 0 0 -77753463.382125854 166534698.14101696 0 166534698.14101696 -92488735.171583176 0 0 0 0 -206120390.80247116 154393982.19214487 0 154393982.19214487 -57067487.372838974 0 0 0 0 75018795.4301548 32991468.905306429 0 32991468.905306429 -25883292.600207329 0 0 0 0 62874894.798254013 37518991.929515362 0 37518991.929515362 -12052444.250436068 0 0 0 0 155182568.88723755 62876415.658318639 0 62876415.658318639 -27477629.92269063 0 0 0 0 83965451.312112808 1464013.1349360943 0 1464013.1349360943 -44278603.555976868 0 0 0 0 2311828.6985626221 -15784235.338145256 0 -15784235.338145256 -23405671.525971413 0 0 0 0 27990529.629125595 -57021444.653902531 0 -57021444.653902531 -69011251.151004076 0 0 0 0 176133198.19945145 -492491346.43322492 0 -492491346.43322492 -136166782.85001945 0 0 0 0 26213540.823973116 -5957265.7214046773 0 -5957265.7214046773 -1635652.2099307668 0 0 0 0 48180834.949079037 -23646909.583412766 0 -23646909.583412766 -62301211.846123695 0 0 0 0 39710680.369373322 -17648091.755607128 0 -17648091.755607128 -38679605.614356995 0 0 0 0 -11294229.042469025 -50906042.960211754 0 -50906042.960211754 -49034236.325471163 0 0 0 0 -267653880.3169632 70264173.482897758 0 70264173.482897758 17471584.419169426 0 0 0 0 687760801.1451416 201716510.80066967 0 201716510.80066967 32227938.786367774 0 0 0 0 244839762.46239471 -462371587.30611348 0 -462371587.30611348 -110852448.77995682 0 0 0 0 682775444.90653229 392869655.90816712 0 392869655.90816712 370587441.97143936 0 0 0 0 484306.8437759541 789854.937651827 0 789854.937651827 238896.67605049349 0 0 0 0 243700496.28909302 -314618785.97690582 0 -314618785.97690582 160185821.41165638 0 0 0 0 52567729.435482025 35591988.27613616 0 35591988.27613616 235337747.01395512 0 0 0 0 447259589.72518158 -70101405.762199879 0 -70101405.762199879 -34654198.400974274 0 0 0 0 199634282.16029358 -44075848.386681557 0 -44075848.386681557 -31843497.691569567 0 0 0 0 614255.08241345175 488491.13620511442 0 488491.13620511442 292345.54876042157 0 0 0 0 -25506558.452680588 -106254933.90716457 0 -106254933.90716457 75047552.329221725 0 0 0 0 241126622.46130371 -414406062.26952171 0 -414406062.26952171 -183051857.56529999 0 0 0 0 43128271.934783936 311417036.35065341 0 311417036.35065341 -69106655.11449182 0 0 0 0 22879914.080537666 -4572057.2115243245 0 -4572057.2115243245 -1942534.0650948854 0 0 0 0 39123473.439785004 -12493874.028861046 0 -12493874.028861046 -46255806.377108574 0 0 0 0 -16338404.898639679 -78101187.201966047 0 -78101187.201966047 -27494795.665518284 0 0 0 0 40755492.594583511 35293435.546562195 0 35293435.546562195 10021168.766222954 0 0 0 0 21841893.769193649 3105710.8000788689 0 3105710.8000788689 1254197.7859320641 0 0 0 0 31199750.915618896 15478063.943005562 0 15478063.943005562 9665115.7149271965 0 0 0 0 23673131.380470276 27195435.096512794 0 27195435.096512794 17842164.947084427 0 0 0 0 12925658.372146606 7012094.2876195908 0 7012094.2876195908 14698423.932928324 0 0 0 0 10692954.974422455 10745460.756917238 0 10745460.756917238 8551520.1854906082 0 0 0 0 -24476724.033176422 -22453014.303876877 0 -22453014.303876877 16027070.360754013 0 0 0 0 -16935396.260041714 15386331.123555988 0 15386331.123555988 55297743.429475784 0 0 0 0 25182266.164590836 39273153.990155935 0 39273153.990155935 27992454.440444946 0 0 0 0 1940270.9366392083 2183719.7118700743 0 2183719.7118700743 1227663.2255103262 0 0 0 0 55220501.090267181 31274156.717346907 0 31274156.717346907 10789016.205161572 0 0 0 0 -90161671.479721069 -40661270.452231884 0 -40661270.452231884 35926743.730172157 0 0 0 0 22240985.574478149 23758243.468888283 0 23758243.468888283 9740662.1091737747 0 0 0 0 -33866113.868652344 -3075758.51354599 0 -3075758.51354599 -52945057.604389191 0 0 0 0 -31398762.750305176 15070599.77740097 0 15070599.77740097 -46862186.502776146 0 0 0 0 -27319249.105529785 23828464.783819199 0 23828464.783819199 -28123112.362425804 0 0 0 0 -40694693.456237793 -8990966.3718452454 0 -8990966.3718452454 -13774298.105447769 0 0 0 0 -38384470.926239014 -20952743.971477509 0 -20952743.971477509 -38559727.964141846 0 0 0 0 -43403269.941726685 -20539308.714675903 0 -20539308.714675903 -26847494.669206619 0 0 0 0 25408.190188169479 15801663.998896867 0 15801663.998896867 15451420.547115326 0 0 0 0 -47547844.895767212 -915642.19771957397 0 -915642.19771957397 13753779.231456757 0 0 0 0 41956.288909912109 16095406.522148132 0 16095406.522148132 -17756507.033088684 0 0 0 0 -27292186.673736572 19224687.858892441 0 19224687.858892441 -39009.837108612061 0 0 0 0 45059555.630874634 22707871.593793392 0 22707871.593793392 40782086.72064209 0 0 0 0 41178376.964508057 10062962.172895432 0 10062962.172895432 2422649.9428663254 0 0 0 0 45182637.027942657 -22639907.474385023 0 -22639907.474385023 40042218.177902222 0 0 0 0 -17671330.397094727 18150386.193916321 0 18150386.193916321 19686955.864677429 0 0 0 0 37285819.305648804 -4152838.409031868 0 -4152838.409031868 19491609.576941922 0 0 0 0 116137158.91529846 67790171.923230171 0 67790171.923230171 -61330781.278670311 0 0 0 0 -110222845.63900375 51667635.499428034 0 51667635.499428034 56065348.575342178 0 0 0 0 134486268.51342773 63099473.169047356 0 63099473.169047356 29212623.544775963 0 0 0 0 171435772.50514221 -902065.39659023285 0 -902065.39659023285 -28643454.038192749 0 0 0 0 201794636.33247375 -34377758.562087059 0 -34377758.562087059 -8372187.5401325226 0 0 0 0 177342097.64237213 -34693072.488463163 0 -34693072.488463163 47260627.486255646 0 0 0 0 417909.98028048873 234204.83302191831 0 234204.83302191831 -293741.87860434689 0 0 0 0 270663396.9686842 -107993374.80557197 0 -107993374.80557197 33209894.360044479 0 0 0 0 283445728.43680573 -12305771.591709137 0 -12305771.591709137 -36332133.713983536 0 0 0 0 161704548.65220642 -45098578.93456316 0 -45098578.93456316 25054815.784513474 0 0 0 0 269345060.61081696 -115720787.38930869 0 -115720787.38930869 18424478.439323425 0 0 0 0 40418628.577800751 -780677.83841609955 0 -780677.83841609955 694075.407787323 0 0 0 0 270819.2485856209 275683.7946170643 0 275683.7946170643 -79674.168100461364 0 0 0 0 35354431.251922607 -3602120.4991760254 0 -3602120.4991760254 19667836.089170098 0 0 0 0 32209937.536773682 -5461728.7354707718 0 -5461728.7354707718 -1256726.2947616577 0 0 0 0 23423568.939870834 781773.76764297485 0 781773.76764297485 -8588676.7785282135 0 0 0 0 9457300.5504379272 7912321.8665475845 0 7912321.8665475845 -1640089.2529373169 0 0 0 0 15309876.0415802 9502144.0613837242 0 9502144.0613837242 -13727901.677940369 0 0 0 0 -13050809.169311523 17121651.303227901 0 17121651.303227901 -1081267.8408594131 0 0 0 0 -7773731.5458145142 31913100.131715298 0 31913100.131715298 3161338.9141521454 0 0 0 0 17188282.496433258 20805914.084403515 0 20805914.084403515 -3274380.5895500183 0 0 0 0 13087885.165603638 18058366.981847763 0 18058366.981847763 -2726703.3499016762 0 0 0 0 14152201.115646362 40481607.449151039 0 40481607.449151039 7723939.6871285439 0 0 0 0 57112921.949012756 9647715.2120270729 0 9647715.2120270729 -4739048.9568767548 0 0 0 0 3720178.9543609619 24499863.618216515 0 24499863.618216515 -6900237.0576972961 0 0 0 0 -27723789.645202637 21438978.518671036 0 21438978.518671036 2518964.7764476538 0 0 0 0 1920943.1086883545 2102418.2317957878 0 2102418.2317957878 1094410.7954406738 0 0 0 0 647697.57267908566 3564391.9168363921 0 3564391.9168363921 3873272.7734839777 0 0 0 0 -46444649.356391907 17138785.597262859 0 17138785.597262859 3957700.634885788 0 0 0 0 -34285009.014587402 33582947.245269775 0 33582947.245269775 -10624599.57857132 0 0 0 0 2904936.2812376767 1134910.8141134828 0 1134910.8141134828 -699236.64968233183 0 0 0 0 15394231.040405273 16537990.643556595 0 16537990.643556595 17583946.879626274 0 0 0 0 4627721.2094559222 5373169.792472329 0 5373169.792472329 490341.80823940318 0 0 0 0 -29255817.811805725 15584036.126439095 0 15584036.126439095 -1268230.8387470245 0 0 0 0 4019893.5014419556 -5849913.733944416 0 -5849913.733944416 -56685551.918466568 0 0 0 0 8236744.6759262085 6026699.433013916 0 6026699.433013916 -49207770.708054543 0 0 0 0 -10689915.871040344 23462709.466239929 0 23462709.466239929 590563.05118846893 0 0 0 0 4660533.635769695 6408743.7971489746 0 6408743.7971489746 5433272.5844345912 0 0 0 0 -7627952.8086700439 12253871.988880873 0 12253871.988880873 23863021.897827148 0 0 0 0 651004.18753736466 2633696.1372156516 0 2633696.1372156516 1468025.0050255028 0 0 0 0 6092886.5028647855 1908636.3427295387 0 1908636.3427295387 -5325939.6570580173 0 0 0 0 40004556.367492676 47856662.758678436 0 47856662.758678436 -9830000.1564759612 0 0 0 0 6864770.0265311301 1185308.5106156468 0 1185308.5106156468 -5085262.5094089247 0 0 0 0 15200644.446090698 12695169.90294838 0 12695169.90294838 1579323.79529953 0 0 0 0 25567526.691696167 18359621.516933441 0 18359621.516933441 3324742.3688189983 0 0 0 0 11852693.856441498 6825517.4140803814 0 6825517.4140803814 20126687.096061707 0 0 0 0 36407916.928100586 2683820.5982351303 0 2683820.5982351303 -8192884.6343536377 0 0 0 0 18322633.603027344 15162651.963586807 0 15162651.963586807 2013088.3733882904 0 0 0 0 15907480.821637154 453175.30108562112 0 453175.30108562112 -2934542.735212326 0 0 0 0 15111874.445139885 19121083.163181901 0 19121083.163181901 30024061.008968353 0 0 0 0 1384441.9516385794 -107102.48695614003 0 -107102.48695614003 -1365438.2323553804 0 0 0 0 -3280060.7599029541 2697305.2674694061 0 2697305.2674694061 110207.38657951355 0 0 0 0 3020492.8422603235 1253983.342011245 0 1253983.342011245 -1368534.0502499146 0 0 0 0 -2288848.1209869385 5884387.2647123337 0 5884387.2647123337 -6338997.3932597637 0 0 0 0 -227275.35578918457 1441710.814912796 0 1441710.814912796 -3279684.0641040802 0 0 0 0 -9049137.5355758667 -36220554.649207115 0 -36220554.649207115 24960628.695585251 0 0 0 0 110312936.48094177 931948.25258541107 0 931948.25258541107 -10490951.470452785 0 0 0 0 -70290154.489993095 -8495645.2467698455 0 -8495645.2467698455 -589094.81206130981 0 0 0 0 -23531226.556728363 -13099008.112321138 0 -13099008.112321138 -11783324.182042122 0 0 0 0 -393459.75981967151 734607.0418084627 0 734607.0418084627 -101711.56117076054 0 0 0 0 -980368.66830444336 1808951.3459649086 0 1808951.3459649086 749276.08222007751 0 0 0 0 4117806.8735809326 8126099.1024808884 0 8126099.1024808884 -4320760.3417835236 0 0 0 0 -5123344.429649353 8296451.9357676506 0 8296451.9357676506 10170724.409143806 0 0 0 0 9872680.1128520966 21870744.501613379 0 21870744.501613379 11465662.880573273 0 0 0 0 323827593.139534 22406389.291315079 0 22406389.291315079 -42033191.768847942 0 0 0 0 230191748.96906281 -82977950.314418793 0 -82977950.314418793 15658934.658201218 0 0 0 0 391479.54949712753 249294.17448117211 0 249294.17448117211 -147681.37984077353 0 0 0 0 125295445.44182587 13620504.636479378 0 13620504.636479378 33821317.087110996 0 0 0 0 267361690.54679871 -154164583.19712007 0 -154164583.19712007 57371107.018082619 0 0 0 0 649362.64280700684 1097083.6626114845 0 1097083.6626114845 -4381767.9120426178 0 0 0 0 132101024.99356079 -83773689.751524925 0 -83773689.751524925 56443363.22088246 0 0 0 0 730688.67921997607 804051.92982740887 0 804051.92982740887 -177808.46146697039 0 0 0 0 149242369.53629303 -51996241.456650138 0 -51996241.456650138 -9402710.5757112503 0 0 0 0 87521424.937765121 -25319458.373346806 0 -25319458.373346806 5667757.9039506912 0 0 0 0 134071265.46689606 -67864010.863387585 0 -67864010.863387585 8868936.6822471619 0 0 0 0 171548161.24028778 -73455540.194600582 0 -73455540.194600582 8478298.3918333054 0 0 0 0 179485729.80083084 -53913344.152599812 0 -53913344.152599812 10118495.972332239 0 0 0 0 675924.13647278026 337555.98726595938 0 337555.98726595938 -530385.88257240504 0 0 0 0 208626982.55319595 -73984806.658573389 0 -73984806.658573389 -13414225.429636002 0 0 0 0 183049770.17227173 -41030729.921954632 0 -41030729.921954632 30161013.072609901 0 0 0 0 688112.83960974775 678968.96840794384 0 678968.96840794384 -121268.37969481386 0 0 0 0 172053371.0013504 -17890224.197690248 0 -17890224.197690248 23207319.245523453 0 0 0 0 64400356.627326965 -52060542.832289696 0 -52060542.832289696 4791191.0600061417 0 0 0 0 167179173.05585098 -31615169.790844202 0 -31615169.790844202 -12191117.015293121 0 0 0 0 125476450.65675354 -68382989.843941689 0 -68382989.843941689 17905213.623224258 0 0 0 0 335200.3258761391 1425536.5636376236 0 1425536.5636376236 106562.44620126719 0 0 0 0 17698926.216751099 40822074.138325572 0 40822074.138325572 -18779323.50034523 0 0 0 0 79146794.267111778 -21401286.840516746 0 -21401286.840516746 -24036240.610655785 0 0 0 0 -621068.22542190552 3280334.3245229721 0 3280334.3245229721 -4001748.2568135262 0 0 0 0 13680047.341041565 48923437.968194485 0 48923437.968194485 39335512.799157143 0 0 0 0 3273073.743022237 1756207.2579713315 0 1756207.2579713315 -1169932.6189656779 0 0 0 0 352709238.10005951 -64790229.736402512 0 -64790229.736402512 -24214085.445222855 0 0 0 0 436925192.44952011 67026185.681697011 0 67026185.681697011 -83190276.18413353 0 0 0 0 392225658.79821014 86152117.232455254 0 86152117.232455254 -80736927.547246695 0 0 0 0 400823449.77710724 47395867.2042768 0 47395867.2042768 -85580321.699940681 0 0 0 0 132632690.65847015 -42116405.331886292 0 -42116405.331886292 -9842914.7912607193 0 0 0 0 378109171.78471756 53460412.402561903 0 53460412.402561903 -47959936.621045113 0 0 0 0 -75222.672662973404 282123.14289846271 0 282123.14289846271 21657.314146607649 0 0 0 0 385181099.89452362 24805489.979152679 0 24805489.979152679 -42394180.131390333 0 0 0 0 48057920.601911545 83719388.324899435 0 83719388.324899435 49640076.643139839 0 0 0 0 173642855.07103539 127241699.87873626 0 127241699.87873626 24028655.543526649 0 0 0 0 385271513.76720428 28842373.071066141 0 28842373.071066141 -30314733.389719963 0 0 0 0 590166230.59905243 3105401.2579798698 0 3105401.2579798698 -27627498.197009087 0 0 0 0 447312331.50526428 -122336673.92816973 0 -122336673.92816973 36537834.961749077 0 0 0 0 192865563.14956665 113371525.34982204 0 113371525.34982204 85206700.157121181 0 0 0 0 304337983.86920166 44849811.400486946 0 44849811.400486946 -21530038.502182007 0 0 0 0 449414159.50675201 188798459.22980332 0 188798459.22980332 -18226314.519608498 0 0 0 0 682411.96773691475 394773.07604265609 0 394773.07604265609 -146857.34003999131 0 0 0 0 -60434632.42411232 -46127839.413628459 0 -46127839.413628459 54042790.261975288 0 0 0 0 146704113.5752182 39453573.30140686 0 39453573.30140686 43284703.727786779 0 0 0 0 332447197.85464859 -32137084.54419446 0 -32137084.54419446 -465063.94359779358 0 0 0 0 328947484.06389999 -43461511.289421082 0 -43461511.289421082 47210632.231800079 0 0 0 0 414437637.04466629 -17714747.493834376 0 -17714747.493834376 19448821.606480598 0 0 0 0 171123598.22497559 95633557.69761467 0 95633557.69761467 41424146.341918945 0 0 0 0 43854.656115725636 136583.85288008861 0 136583.85288008861 439200.5534372828 0 0 0 0 49827352.305652618 -12536190.5137012 0 -12536190.5137012 142270869.70288277 0 0 0 0 361816902.6679306 99507021.284426332 0 99507021.284426332 -78019032.895258904 0 0 0 0 375316514.83824921 63761887.830653191 0 63761887.830653191 5018566.4082813263 0 0 0 0 378077450.01547813 58927808.478345633 0 58927808.478345633 -87842222.018365383 0 0 0 0 20234.78960839659 251567.8807974942 0 251567.8807974942 1057309.758882843 0 0 0 0 21627179.721115112 -51246119.1615839 0 -51246119.1615839 35796610.891346931 0 0 0 0 -57269678.072151184 -57694428.506790876 0 -57694428.506790876 -2346933.2365365028 0 0 0 0 56876130.659034729 -28438913.699905157 0 -28438913.699905157 5165375.7705860138 0 0 0 0 -13643712.065177917 -12620999.586321831 0 -12620999.586321831 35076193.884183668 0 0 0 0 -3882106.1131362915 39620463.139995337 0 39620463.139995337 -22861424.031172752 0 0 0 0 -26473614.131481171 4205159.7463879585 0 4205159.7463879585 31774894.027748108 0 0 0 0 -36771221.39919281 13877732.124893188 0 13877732.124893188 30795616.867990017 0 0 0 0 -33561568.5909729 9231340.0715322495 0 9231340.0715322495 36556110.224226475 0 0 0 0 -153455078.12857819 43606022.349415302 0 43606022.349415302 26837696.556418657 0 0 0 0 -19128344.831768036 108970942.41125309 0 108970942.41125309 -46104705.28455162 0 0 0 0 42903071.030708313 32451862.881082535 0 32451862.881082535 -24755051.305086136 0 0 0 0 110816312.08469391 83146805.732089996 0 83146805.732089996 -78560281.139843941 0 0 0 0 6229433.0671386719 54867893.733516932 0 54867893.733516932 -36731176.73285675 0 0 0 0 111846303.55058289 757095.50602912903 0 757095.50602912903 -51680503.717187405 0 0 0 0 27932611.332832336 11862575.00429821 0 11862575.00429821 -53045780.153730392 0 0 0 0 15664980.00579834 78874676.201858521 0 78874676.201858521 27009924.621902108 0 0 0 0 937242.42402333766 5486.1576777584851 0 5486.1576777584851 -1139964.1186324591 0 0 0 0 93590058.997573853 1044569248.9304581 0 1044569248.9304581 -356905220.28321838 0 0 0 0 -14968368.002471924 -180130767.02173519 0 -180130767.02173519 446854061.69779587 0 0 0 0 -135795019.08732224 30569885.667786002 0 30569885.667786002 12622452.829416275 0 0 0 0 1080216.1801767722 1670905.3087632079 0 1670905.3087632079 -27735.051846656017 0 0 0 0 29837767.194347382 -89050677.274339914 0 -89050677.274339914 -109760175.50043392 0 0 0 0 -120679616.36421204 -1688048.6543560028 0 -1688048.6543560028 5238612.5033826828 0 0 0 0 1844770.9747063518 6031048.0728696529 0 6031048.0728696529 5540531.6241317159 0 0 0 0 -94050455.445045471 2582153.7419896126 0 2582153.7419896126 5031445.4241316319 0 0 0 0 -87089892.019371033 39278392.271582127 0 39278392.271582127 13218651.65089488 0 0 0 0 -257691.69371414185 16467292.097826958 0 16467292.097826958 -7634339.9565315247 0 0 0 0 -769371.28123664856 14350193.557000875 0 14350193.557000875 -7926679.7618656158 0 0 0 0 3013332.0354027748 14518814.651578963 0 14518814.651578963 -11133602.818675995 0 0 0 0 1707067.2914199829 61106809.037175179 0 61106809.037175179 29853229.022701263 0 0 0 0 -23107931.25189209 -13372755.32673502 0 -13372755.32673502 74424217.547576904 0 0 0 0 -28221959.709701538 18629823.714408398 0 18629823.714408398 -48448394.051866293 0 0 0 0 -105881800.2604599 61520377.6932621 0 61520377.6932621 12093947.572826385 0 0 0 0 -92818392.870681763 54753796.206589699 0 54753796.206589699 22246648.611703873 0 0 0 0 -23897418.232147217 26906533.594759941 0 26906533.594759941 4020852.7398872375 0 0 0 0 -76894694.246879578 60276273.494612455 0 60276273.494612455 -41250566.323021889 0 0 0 0 25275461.713104248 69387873.197898865 0 69387873.197898865 19770453.609333396 0 0 0 0 80738374.071983337 -15702951.982995987 0 -15702951.982995987 38293688.834693909 0 0 0 0 -2251389.9063034058 28167769.326919556 0 28167769.326919556 -41634629.905982971 0 0 0 0 -20195035.18347168 115187426.66207027 0 115187426.66207027 -50340378.172313422 0 0 0 0 259186.12328689918 -4046.178713278845 0 -4046.178713278845 -203862.80504202098 0 0 0 0 -81902348.245827913 140690918.11623809 0 140690918.11623809 -3836573.8893051147 0 0 0 0 1483240.4022456892 4634793.8202007087 0 4634793.8202007087 5695412.8175532017 0 0 0 0 -15001063.403190613 30730306.892726898 0 30730306.892726898 -20997665.809303284 0 0 0 0 -30641674.477294922 23662257.557663918 0 23662257.557663918 -15552940.490755081 0 0 0 0 -11658386.41658783 20470256.170543671 0 20470256.170543671 -25329630.668781281 0 0 0 0 -93424215.32578671 -65699705.916432545 0 -65699705.916432545 -36688325.796471596 0 0 0 0 -106520964.85826874 205561012.61754847 0 205561012.61754847 3291651.1202870607 0 0 0 0 3256838.3003120422 15163668.584568977 0 15163668.584568977 -11497417.543556213 0 0 0 0 4562663.820892334 15875190.333591461 0 15875190.333591461 -16344412.853047848 0 0 0 0 -269621.05230712891 19332386.20177269 0 19332386.20177269 -15372332.493345261 0 0 0 0 -17009977.246799469 24418055.903030396 0 24418055.903030396 -12240142.227352142 0 0 0 0 -7201283.8180236816 15476305.760614395 0 15476305.760614395 -7991222.0994567871 0 0 0 0 277290.7734375 20169479.521089554 0 20169479.521089554 -22963754.362348557 0 0 0 0 -10737958.54668045 23260021.671959877 0 23260021.671959877 -16949503.485881805 0 0 0 0 -2595711.1925735474 19105106.148112297 0 19105106.148112297 -15883105.753818512 0 0 0 0 -1588132.2364044189 19840506.715036392 0 19840506.715036392 -20077496.064069748 0 0 0 0 7295688.8811569214 16201278.745836258 0 16201278.745836258 -18414886.101660728 0 0 0 0 5719174.2765197754 13367372.537100792 0 13367372.537100792 -13534601.370152473 0 0 0 0 4200085.2249221802 15765950.264369965 0 15765950.264369965 -14966142.987098694 0 0 0 0 8976895.7096209526 14755758.454142928 0 14755758.454142928 -16460581.531044006 0 0 0 0 13571187.137493134 15880281.86354208 0 15880281.86354208 -13155116.82682991 0 0 0 0 4909661.9127883911 12554183.476063728 0 12554183.476063728 -1682488.8580532074 0 0 0 0 7308177.7490921021 11358853.657855988 0 11358853.657855988 -14793165.150818348 0 0 0 0 -831121.33083343506 17170317.260196686 0 17170317.260196686 -12620942.711639404 0 0 0 0 -4742125.4973220825 14743385.628310204 0 14743385.628310204 -14671625.745290756 0 0 0 0 1064805.0371665955 18405622.984306335 0 18405622.984306335 -13051031.536128998 0 0 0 0 12171824.578811646 15617346.568697929 0 15617346.568697929 -4723129.9697380066 0 0 0 0 4865920.8326377869 9561240.6714668274 0 9561240.6714668274 -9183606.7910308838 0 0 0 0 13480854.398133384 8117296.5446515093 0 8117296.5446515093 -604581.22558007482 0 0 0 0 14118512.607097626 3101073.7068929672 0 3101073.7068929672 -5036039.3117694855 0 0 0 0 -28753261.393244743 42415668.7401793 0 42415668.7401793 55729927.69517231 0 0 0 0 1324138.4128535204 3489422.4999111798 0 3489422.4999111798 4509747.3525139131 0 0 0 0 -31149680.055496216 48084873.561033249 0 48084873.561033249 -29173236.850961685 0 0 0 0 -6106770.9125289917 30016055.257194519 0 30016055.257194519 -37779308.423740387 0 0 0 0 -6904007.1405944824 26705832.736937523 0 26705832.736937523 -23445461.626634598 0 0 0 0 -13645784.831207275 16457029.908322334 0 16457029.908322334 -10647291.681688309 0 0 0 0 3521234.5167121887 18611779.049072266 0 18611779.049072266 -3875343.267663002 0 0 0 0 -1339023.8013095856 23590017.93850112 0 23590017.93850112 -6525901.0954856873 0 0 0 0 -33410113.15712738 7882075.0349273682 0 7882075.0349273682 8743326.7909889221 0 0 0 0 -8754489.9728240967 39765656.678829193 0 39765656.678829193 -1499199.5572490692 0 0 0 0 -490386.25598144531 55841513.994179726 0 55841513.994179726 27660576.367418289 0 0 0 0 -36520714.806671143 89927676.225482941 0 89927676.225482941 -4559578.4462885857 0 0 0 0 1192978.7614067644 2060887.2148163021 0 2060887.2148163021 2047702.1377235483 0 0 0 0 -112859327.91044617 147169966.21796608 0 147169966.21796608 291134824.61640978 0 0 0 0 -35602555.6823349 -3130878.0021514893 0 -3130878.0021514893 156635071.52342987 0 0 0 0 -446193265.07252502 214375923.61392498 0 214375923.61392498 36063514.076591492 0 0 0 0 41998616.411552429 250594879.79602337 0 250594879.79602337 -48287841.34692347 0 0 0 0 1046598.2509863786 51726.994016773999 0 51726.994016773999 -610727.76458852226 0 0 0 0 -70674235.833935261 -153797239.84609008 0 -153797239.84609008 1793731.1998023987 0 0 0 0 1202573448.828949 -390574652.53493643 0 -390574652.53493643 -231624846.58826256 0 0 0 0 427749379.85955811 -463175997.74605227 0 -463175997.74605227 -170734338.7576077 0 0 0 0 1768140968.3141174 806822927.34450531 0 806822927.34450531 1301283322.2888412 0 0 0 0 1085878.9503007047 15762.406353922561 0 15762.406353922561 -655363.70539519936 0 0 0 0 67848159.176821947 -286313260.51912373 0 -286313260.51912373 -81407470.712312698 0 0 0 0 91403089.38747406 -186051143.47966051 0 -186051143.47966051 264523998.17078018 0 0 0 0 -175405568.02246857 -246043372.57849312 0 -246043372.57849312 160084882.55448151 0 0 0 0 -218720945.72994232 -352847261.87043381 0 -352847261.87043381 -97283983.863868713 0 0 0 0 268150012.33277893 131398881.55102444 0 131398881.55102444 -207497460.67344666 0 0 0 0 285415263.45428467 232514567.21116829 0 232514567.21116829 130246193.87088966 0 0 0 0 -49484212.606071472 -1262840027.8507538 0 -1262840027.8507538 -349538481.64591408 0 0 0 0 579896589.50737762 481297836.78651619 0 481297836.78651619 340158518.82905197 0 0 0 0 1113292401.699975 -335561488.9735589 0 -335561488.9735589 24015409.834352493 0 0 0 0 3558868.6069026738 -1454891.3531739509 0 -1454891.3531739509 523578.19315364619 0 0 0 0 342345470.42834473 353619517.83409214 0 353619517.83409214 677259339.58721983 0 0 0 0 208137423.24285889 -429087254.23431778 0 -429087254.23431778 480954022.52556634 0 0 0 0 121500481.00594711 -100563644.57154655 0 -100563644.57154655 124900065.39035606 0 0 0 0 593715350.86280823 145621180.09911442 0 145621180.09911442 -54281009.480705261 0 0 0 0 28341969.735686302 29397154.175111085 0 29397154.175111085 342626412.00304794 0 0 0 0 282924618.48641968 245585765.76792526 0 245585765.76792526 249889711.13208342 0 0 0 0 1266150915.9127808 423551641.75377083 0 423551641.75377083 57952069.519613266 0 0 0 0 563192399.61724091 71246984.241900921 0 71246984.241900921 -100293023.60129976 0 0 0 0 540781001.49831009 -64932352.118950129 0 -64932352.118950129 -218535777.14053822 0 0 0 0 811283135.90582275 -4678337.2583751678 0 -4678337.2583751678 -239544165.44906998 0 0 0 0 547560189.40581894 -62071230.160131454 0 -62071230.160131454 -238082690.77541351 0 0 0 0 335789248.39723206 84755513.020926476 0 84755513.020926476 -93858201.12795639 0 0 0 0 322454745.80728149 28791902.533910751 0 28791902.533910751 -100641383.33079433 0 0 0 0 278266444.33218384 21184058.139922142 0 21184058.139922142 -96949563.736277819 0 0 0 0 285441217.44248962 75185728.06184864 0 75185728.06184864 -92112708.655682921 0 0 0 0 306954614.68095398 -166728497.45752096 0 -166728497.45752096 -132444093.71003675 0 0 0 0 549491285.68572235 -41013001.493980408 0 -41013001.493980408 -209623914.12709427 0 0 0 0 502757836.96385193 93518685.733837605 0 93518685.733837605 44310968.749923557 0 0 0 0 355430391.17247868 -15636146.838298649 0 -15636146.838298649 -68427709.365004539 0 0 0 0 349195934.59610748 -59681958.426006794 0 -59681958.426006794 -108529266.14858246 0 0 0 0 121968993.03380585 -32681939.330424309 0 -32681939.330424309 -52222929.926810741 0 0 0 0 -39542171.912857056 34523045.856801152 0 34523045.856801152 12461459.319257736 0 0 0 0 132021017.71022415 6348804.8104197979 0 6348804.8104197979 -20358159.85640049 0 0 0 0 8393830.4241104126 36860114.205839157 0 36860114.205839157 -77173778.003070831 0 0 0 0 119885084.94714737 -37977988.472532272 0 -37977988.472532272 -65659537.384730339 0 0 0 0 -37545634.382202148 -171552808.41726589 0 -171552808.41726589 -35140745.70852375 0 0 0 0 360314064.21687698 -163213505.47096467 0 -163213505.47096467 -76010564.51540947 0 0 0 0 462134975.40815735 -36702710.634940624 0 -36702710.634940624 -113312778.85945523 0 0 0 0 
</DataArray>
<DataArray type="Float64" Name="cross_section_updated" format="ascii">
1 1 1 1 1 0.051116749128754316 1 1 1 1 1 1 1 0.050039087902800941 1 1 1 1 0.049926382732206023 1 1 0.051896829697228898 1 1 1 1 0.050711217486769614 1 1 1 1 0.052699940110086163 1 1 1 1 1 1 1 1 1 1 1 1 1 0.049970463185081457 1 1 0.049942807589789362 1 1 1 1 1 0.050220771399708625 1 1 1 1 1 1 1 0.051412341212910773 1 1 1 1 0.051132811894967642 1 1 1 1 1 1 1 1 1 0.051147657508084358 1 1 0.052502383994625902 1 1 0.055884278611684088 1 1 1 1 0.0498435030262806 1 1 1 1 1 1 1 0.055862377000084833 0.049979062132142385 0.046799393740873288 1 1 0.04761901471307288 1 1 1 1 1 0.05216888316117721 1 1 1 1 1 1 1 1 1 1 1 1 1 0.04972039081864231 1 1 1 0.048894611555289132 1 1 1 1 1 1 0.049762109640771275 1 1 1 1 1 1 1 1 1 1 1 1 1 1 1 1 1 1 1 1 1 1 1 1 1 0.049994297706451765 1 1 1 0.050360555120997692 1 1 0.049632141084604432 1 1 1 1 1 1 1 1 1 1 1 0.050174665668989149 1 1 1 1 1 1 1 1 0.050707604545616701 1 1 1 1 1 1 1 1 0.051370309238569105 1 1 1 1 1 1 1 1 1 0.050115808467228226 1 1 1 1 1 1 1 1 1 1 1 1 1 1 1 1 1 1 1 1 1 1 1 0.050006672013201907 1 1 1 0.052112655777316254 1 0.050027981274817848 1 0.050672210952995372 1 1 0.054762281540724919 1 1 1 0.050443990273289475 1 0.051005486454486618 1 0.051575165894238793 1 0.05082790505763693 0.053932258602603214 1 0.051696104038396633 1 1 0.052949078258024314 1 0.051258583662884855 1 1 1 0.050753627773176171 1 0.050433106063521568 0.051342615577279378 1 1 0.051301975846998922 1 1 1 0.050207425618798908 1 0.050893110656137878 0.050931040509861941 0.049849564614223366 1 0.050837774988653786 1 1 1 0.04997689549333495 1 0.050830379884290691 0.051360960253753626 0.049987564174627228 1 1 0.053422727223023575 0.053962410412192963 1 1 1 1 0.055164345681171068 1 0.049965048971064373 1 1 0.050602515400968232 1 1 1 0.050286358313776293 1 0.049981167344612998 0.050513149827596568 0.049656224013778005 1 1 1 0.050727375923896673 1 0.050332323005610483 0.051699316833434941 0.050810510981305776 0.051473991236302842 1 1 1 0.050654876388606059 0.049999853381148901 1 1 0.049836375527733276 0.051073100320755439 0.050699460701689278 1 0.050579407618317349 1 1 1 1 0.049999295412957771 1 1 1 1 1 1 1 0.051813496837588492 1 1 1 1 1 1 0.050270084011172347 0.049999245353974472 1 1 1 0.051847223451049779 1 1 1 0.05001431329147582 1 0.050785904996755803 1 0.048364166664803081 0.053952108882103118 1 1 1 1 0.050160634359097442 1 1 0.053968087230336956 1 1 1 1 0.050017036390516259 1 0.049975615675830164 1 1 1 1 1 0.049008847408710497 0.055459113427728454 1 1 1 1 1 1 1 1 0.049976669890104117 1 1 1 0.049526833266963291 1 1 0.05273146963396648 1 0.049996824819453778 1 1 1 1 1 1 1 1 1 1 1 0.053638493131794487 1 0.050180456020618658 1 0.053183431028575354 1 1 1 0.049539060596009168 1 0.050004816779986708 1 0.050335445681691078 1 1 1 1 1 1 0.051358970836359152 1 0.051687747612655544 1 1 1 0.051393988579127442 1 1 1 0.051579327547321044 1 0.0509063627781478 0.050217766438814246 1 1 1 1 0.053569554311951963 1 1 1 1 0.053678109774488864 0.049692834935110564 1 1 0.049679005860504111 1 0.050617854472544938 1 0.053583380457395836 0.053150949958085815 1 1 1 0.050030498635810619 1 1 1 1 0.051925482407957996 1 1 1 1 1 1 1 1 1 1 1 0.050003503732834437 1 1 1 1 0.053390490809542931 1 1 1 0.051073678741182779 1 0.049905691947170455 0.049960728373246638 0.049999719962658569 1 1 1 0.052038751832201594 0.054310065203282999 1 0.055392526978101139 1 1 0.050397197391275156 1 1 1 1 0.055482691934319706 1 1 1 1 1 1 1 1 1 1 1 0.056190902895644504 0.048677610362280667 1 1 0.0533987449515387 1 1 1 0.049995975949589891 1 1 1 1 1 1 0.053227192970995235 1 1 1 0.047564346140184996 1 1 1 0.052343345434671097 1 1 1 1 1 1 1 1 1 1 1 0.051871073201053886 1 1 1 0.050456483986018319 1 1 1 1 1 1 1 0.050158630415347835 1 1 1 1 1 0.050294117786485376 1 1 1 1 1 1 1 1 1 1 1 1 1 1 1 1 1 1 1 0.058862372150447324 1 1 1 1 0.056956980409794952 1 1 0.052868012119667462 1 1 1 1 1 1 1 0.050004772456219246 1 1 1 1 1 1 1 1 0.049778555314959227 1 0.049715998283150417 1 1 0.057610597856673496 1 1 1 0.057164853047034253 1 1 0.060038161671339289 1 1 1 0.050355024310049873 1 0.051228197772531292 1 1 0.049992600642157693 1 0.060062220382887666 1 1 1 1 1 1 1 1 1 1 1 1 1 1 1 1 1 1 1 1 1 1 0.050509911918694535 1 0.050328531081890664 1 0.050141707709479906 1 1 1 1 1 1 1 1 1 1 1 1 1 1 1 0.050225084227516245 1 1 1 1 1 1 1 1 1 0.050284827691178285 1 1 1 1 1 1 1 1 1 1 1 1 1 1 1 1 1 1 1 1 1 1 1 1 1 1 1 1 1 0.050930704161789402 1 1 0.050865828567750321 1 1 1 0.054238043841807131 0.049903191731318595 1 0.051799583709853131 1 1 1 1 1 0.054444880273203614 1 1 1 1 1 0.053828437141967618 1 1 1 1 1 1 1 1 1 1 1 1 1 1 1 1 1 1 1 1 1 1 1 1 1 1 1 1 1 1 1 1 1 1 1 1 1 1 1 1 1 1 1 1 1 1 1 1 1 0.050984857368589521 1 1 1 1 1 1 1 1 1 1 1 1 1 1 1 0.052549956904283317 1 1 1 1 0.051298020067985346 1 1 1 1 1 1 1 1 1 1 1 1 1 1 1 1 1 1 1 1 1 1 1 1 1 1 1 0.052036017120955437 1 1 0.050237657944200875 1 0.05298865543524664 0.050413390148939544 0.048775982402001705 0.049732310938813758 1 1 0.049962475162586839 1 1 1 1 1 1 1 1 1 1 1 1 1 1 1 1 1 0.053724432792496585 1 1 0.054560624627372767 1 0.051888746862037531 1 1 1 1 0.055453537039688597 1 0.049950184312282334 1 1 1 1 0.05003575010933986 1 1 1 0.050758352168607947 1 1 1 1 1 0.050476847452041902 1 0.052316631876450963 1 1 0.050175609409347635 0.052320236227898789 1 0.051528302640793881 1 1 1 1 1 1 1 1 1 1 1 0.056436742559165046 1 1 1 0.054952866897660282 1 1 1 0.052870654857750471 1 1 0.055026380833795775 0.049722055416784802 0.049916654606980304 1 1 1 1 1 1 1 1 1 1 1 0.049996851443505845 1 1 1 1 1 1 1 1 0.054289737504120111 0.058089185853281003 0.053531018457423252 1 1 1 1 1 1 1 1 0.056981738048628446 0.050058413225119933 1 1 1 0.048634382190116648 1 1 0.050223714580998773 1 1 1 1 1 1 1 1 1 1 1 0.050092808873046249 1 1 1 1 1 1 1 1 0.049975901455918632 1 1 1 1 1 1 1 1 1 1 0.049980948842509559 1 0.051629443581889527 0.057287237391871956 0.049764405280442361 1 1 1 1 1 1 1 0.05419361549271362 0.059612640360576064 1 0.049474825730442422 1 1 1 1 1 0.051486080948105417 1 0.049840819918427273 0.05123413412513355 1 1 1 0.052784979336473609 1 0.053916693093853982 1 1 1 1 0.050007699308063383 1 1 1 1 1 1 1 1 1 1 1 1 1 1 1 1 1 0.052781843560744793 1 1 1 0.055260563904501972 1 1 1 1 1 0.051165832834280334 1 1 1 1 1 1 0.053872263988288212 1 0.051509368698772345 1 1 1 1 1 1 1 1 0.049699560574091389 1 1 1 0.051024906051163013 1 1 1 1 1 1 1 1 1 1 1 1 1 1 1 1 1 1 1 1 1 1 1 1 1 0.049075088882834135 0.049807473555548001 0.05654071042432092 1 1 1 1 0.048172160895812381 1 1 1 1 0.046845749638131651 1 1 1 1 1 1 1 0.051315799154300831 1 1 1 1 1 1 1 1 0.052347566352003307 1 1 1 1 1 1 1 1 1 1 1 1 0.051590680374806526 1 1 1 1 1 1 0.050222358250107332 1 1 1 1 1 1 1 1 0.048727081527379576 1 1 1 0.054537780530630256 1 1 1 1 1 1 1 1 1 1 1 1 0.051031767197702478 1 1 1 1 1 1 1 1 1 1 1 1 1 1 1 1 1 1 1 1 1 1 1 1 1 1 1 1 1 1 1 1 1 1 1 1 1 1 1 1 1 1 1 1 1 1 1 0.050052871684617528 1 1 1 1 1 1 1 1 1 1 1 1 1 1 1 1 1 1 1 1 1 1 1 1 0.051113195634090482 1 1 1 1 1 1 1 1 1 1 0.051350788405009083 1 1 0.052382028940785946 1 1 1 1 1 1 1 1 1 0.052935939283321472 1 0.05335738470893471 1 1 1 1 0.052616381151709364 1 1 0.055903268560622853 1 0.050544331503668952 1 1 1 1 1 0.052903586507489261 1 1 1 1 1 1 1 1 0.053374600987222923 1 1 1 1 1 1 1 1 1 1 1 1 1 1 0.056297566389721387 1 0.054293503833155524 0.049115413478599268 1 1 1 1 1 0.049685023735087236 1 1 1 1 1 1 1 1 1 1 1 1 1 1 1 0.05245901251808454 1 1 1 1 1 1 1 1 1 1 1 1 1 1 1 1 0.049802325254478801 1 1 1 1 1 0.058405076626921196 0.050677325117336851 1 1 0.056252998912986442 1 1 1 1 1 1 1 1 1 1 0.049880018850176469 1 1 1 1 1 1 1 1 1 0.050606474296437824 1 0.063327246565325915 1 1 1 1 1 0.049921036510193528 1 1 1 1 0.064043319030838486 1 1 1 0.049532483199097491 1 1 1 0.063599580971482189 1 1 0.048683541157190299 1 1 1 1 1 1 1 1 1 1 1 1 1 1 1 1 0.050353200726042019 1 1 1 1 1 1 1 0.048978812079361625 1 1 1 1 1 1 1 1 1 1 1 1 1 1 1 1 1 1 1 1 1 1 1 1 1 1 1 0.065573963164589244 1 1 1 1 0.049591810352253018 1 1 1 0.038811417077892138 1 1 1 1 1 1 1 1 1 0.039689207191580297 1 0.050003903033764327 1 1 1 1 1 1 1 1 1 1 1 1 1 1 1 1 1 1 0.050018810852118872 0.060279855058399084 1 1 1 0.048108251278535033 1 1 0.055556662375035759 1 1 0.053978095583095298 1 1 1 0.050128018947426245 1 1 0.051471647573163817 1 1 1 1 1 1 1 1 1 1 1 1 1 1 1 1 1 1 1 1 0.049930344201905036 1 0.050399645827326978 1 1 1 1 1 1 1 1 1 1 1 0.050207715002971241 1 0.048704229603253019 1 1 1 0.054635687561860317 1 1 1 1 1 0.050177715941880426 1 1 1 1 1 1 0.053176025632355635 1 1 1 1 1 1 1 1 1 1 1 0.05553429254701988 1 1 1 1 1 1 1 1 0.051622131816557705 1 1 1 0.049327982889800767 1 1 0.057785299136321452 1 1 1 1 1 0.050380888068152462 1 1 1 1 1 1 1 1 1 0.050047079456428126 1 1 0.053222502151256929 1 0.052346213736310647 1 0.05015893385167889 0.05076205602794031 0.050282144943739289 1 0.050029735869484462 1 1 1 1 1 1 0.048282861652644629 1 1 1 1 1 1 0.050128866397481889 1 1 1 1 1 1 1 0.047105445543724388 1 1 1 1 0.045779573265558871 1 1 1 1 1 0.051976383236333648 1 0.050027912793765443 1 1 1 1 1 1 1 1 1 1 0.050311449526543289 1 1 1 1 1 1 1 0.059966976757777513 1 1 1 1 1 1 1 0.049996476996092692 1 0.050434238444216191 1 1 1 1 1 1 1 1 0.059182210252130218 1 1 1 0.070596451224684276 0.050016831595600213 1 1 1 1 1 0.057912572483956079 0.049876118424399124 1 0.055332682140837142 1 1 0.050825568955913628 1 1 0.060872436451540821 1 1 1 1 1 1 1 1 0.060076487130588191 1 1 1 1 1 0.063536894380107692 1 1 1 1 0.077600403165544285 1 1 0.074529024534523036 1 1 1 1 1 1 1 1 1 1 1 1 1 1 1 1 1 1 1 1 1 1 1 1 1 1 1 1 1 1 1 1 1 1 1 1 1 1 1 1 1 0.049194358780056929 1 1 0.050087647490084417 1 1 1 1 1 0.051618043370102742 1 1 1 1 0.049527258460526212 1 1 1 1 1 1 1 1 1 1 1 1 1 1 1 1 1 1 1 1 1 1 1 1 0.051292061611569781 1 1 1 0.050546932883837888 1 1 1 1 1 1 0.050176359692404152 1 1 1 1 1 1 1 1 1 1 1 0.052139402333328942 1 0.04882258934972971 0.052085044848609388 1 1 0.05114492360801063 1 1 1 1 1 1 1 1 1 1 1 0.053829755010214579 1 1 0.051992082957418917 1 1 1 1 1 1 1 1 1 1 1 1 1 1 1 0.052737258464531873 1 1 1 1 1 1 1 0.05004076965581597 1 0.050903568918762285 1 1 1 1 0.049373050720519618 1 0.050253273570395801 1 1 1 1 1 1 1 1 1 0.051359272895870015 1 1 1 1 1 1 1 1 1 1 1 1 1 1 1 1 1 0.049696225230745447 1 1 1 1 1 1 1 1 1 1 1 1 1 1 1 1 1 1 1 1 1 1 1 1 1 0.05005924199205472 0.050129185476043926 1 1 1 1 1 1 1 1 1 1 1 0.050450763647965087 1 1 1 1 0.049641947437595153 1 1 1 1 0.049982105736105509 1 1 1 1 1 1 1 1 0.050742288624713194 1 1 1 1 1 1 1 1 1 0.050338168018352954 1 1 1 1 1 1 1 1 1 1 1 1 1 1 1 1 1 1 1 1 0.054942297048121355 1 1 1 1 1 1 1 1 1 1 1 1 1 1 0.049467130575396243 1 0.050149426429576364 1 1 1 1 1 1 1 1 0.050793481586353724 1 1 0.05032578612198052 1 1 1 1 1 1 1 1 1 1 1 1 1 1 1 1 1 1 1 1 1 1 1 1 1 1 1 1 1 1 1 1 1 1 1 1 0.050052777280810916 1 1 0.050150139890616202 1 1 1 1 0.046852161391200381 1 0.058068440977101794 1 1 0.056064430591890396 1 0.051474131223315039 1 1 1 1 1 0.050641726207797097 1 1 1 1 1 1 1 1 1 1 1 1 0.05208309651825458 1 1 1 0.044365591475282462 1 1 1 1 1 1 1 1 1 0.055289881643672698 1 1 1 1 0.054646167363611463 0.047391341472975808 1 1 1 1 1 1 1 1 0.050148004553920829 1 1 1 1 1 0.050253816046887397 1 1 1 0.050385278583740062 1 1 1 0.053808800959565091 1 1 1 1 0.048051427620400114 1 1 1 1 1 1 1 1 1 1 1 1 1 1 0.052137828559626426 1 1 1 1 1 1 0.04680225635738245 1 0.051609622535165614 0.050002314643259368 1 0.041340292089543568 1 0.053449524487681907 1 1 1 1 0.049961391292191043 1 1 1 1 0.04981181238319559 1 1 1 1 1 1 1 1 1 0.050722771865037208 1 1 1 1 1 1 1 1 1 1 1 1 1 1 0.051555176880555151 1 1 1 0.050110410363412704 1 1 1 0.050297658463810027 1 0.050023323893408765 1 1 1 1 1 1 1 1 1 1 1 1 1 1 1 1 0.05118588953992876 1 1 1 1 1 1 0.053836207071392826 1 1 1 1 1 1 1 1 1 1 1 1 1 1 1 1 1 1 0.058707751718551193 1 1 1 1 1 1 1 1 1 1 1 1 1 1 1 1 1 1 1 1 1 1 1 1 1 1 1 1 1 1 1 1 1 1 0.049698403941585298 1 1 1 1 0.050234908433772152 1 1 1 1 1 1 1 0.057437234712473362 1 1 1 1 1 1 1 1 1 0.049942536334593599 1 1 0.061770056737443242 1 1 1 1 1 0.050003794049796921 1 1 1 0.050211553976149889 1 1 0.05104014646177444 1 1 1 1 1 1 1 1 1 1 1 1 1 1 1 1 1 1 1 1 0.052804944027578085 1 1 1 1 1 1 1 1 1 1 0.050665464933805582 0.055316473849380758 1 0.067646515086456471 1 1 1 1 1 0.070162239574946758 1 1 1 1 0.050391358915003771 1 1 1 1 1 0.049890382457073806 1 0.049971287176478765 1 1 0.049025862148651109 1 1 1 1 1 1 1 1 0.049679207500450462 1 1 1 1 1 1 0.050318665616413079 1 1 1 1 1 1 0.050434895455319644 1 1 1 1 0.05119728354681391 1 1 0.049957389243693334 1 0.051826002312974156 1 1 0.050131384619933127 1 1 1 1 1 1 0.050144471292560916 1 1 1 1 0.050049376512531156 1 1 1 1 1 1 1 1 0.051187021457164 0.052376733026651717 1 1 1 1 1 1 1 1 0.050367425006118204 1 1 1 1 1 1 0.050174282397535575 1 1 1 1 1 1 1 0.051401868311757748 1 1 1 0.053354745512952398 1 1 1 1 1 1 1 1 1 1 1 1 0.050106547217041678 1 1 1 1 0.051364500548933281 1 1 0.050164410526971945 1 1 1 1 0.049417416155857666 1 1 1 0.050023728322701917 0.048911079487527362 1 1 1 0.050543988452187313 1 1 1 0.05005169875468149 1 1 1 1 1 1 1 1 1 0.049083375610634777 1 1 1 0.049998957429452151 1 1 1 1 1 1 1 1 1 1 1 1 0.048505027613259699 1 0.050135994942815031 1 1 0.05048814556213034 1 1 0.05052361872845202 1 1 1 1 1 1 1 0.05001240886775677 1 1 1 1 1 0.049976916081656525 1 0.049867780964708758 1 1 1 0.046247455364959215 0.055557979178639631 1 0.052008964563953292 0.047239062919177538 1 0.04906736970952992 1 1 1 1 1 1 0.050215513463176618 1 0.055868217104889387 1 1 1 1 1 1 1 1 1 1 1 1 1 0.049944786876646094 1 1 0.053383687098828847 1 0.050686724709347639 1 1 0.055196686513206528 1 1 1 0.050833175593771956 0.05087944752845798 1 1 0.055582656438471503 1 1 1 1 1 1 1 1 1 1 1 1 1 1 1 1 1 1 1 1 1 1 1 0.050146861437768815 0.049974108353687784 1 0.050546388973453607 1 0.051720926593773135 1 1 0.050000102805730896 0.048324832205284197 1 1 0.049998236269732411 1 1 0.051446952568081579 1 1 0.049298354666067634 1 0.05183861380620941 1 1 1 1 0.049962252436176982 1 1 1 1 0.050335122856966542 1 0.050825398090698998 0.050884769491696957 1 0.049903551148882952 1 1 0.055178478313562151 0.050259974618357031 1 1 1 0.052040121103249619 1 1 1 1 0.053517972558489071 0.050243801996209245 1 1 1 1 1 0.049809801013587257 1 1 1 1 1 1 1 1 1 1 1 0.049407200894811647 1 0.050057490047771949 1 0.051782624145495018 1 1 0.049998071774145635 1 0.052748720892684078 1 1 1 1 1 1 1 1 0.051186737855949425 1 1 0.04934480437740827 1 1 1 1 0.049999726705464001 1 1 1 1 1 1 1 1 1 1 1 1 0.050858253616815771 1 1 1 1 1 1 1 1 1 1 1 0.050098287847033844 1 1 1 1 1 1 0.050022824719418844 1 0.049451835007377598 1 1 0.050278031876279328 1 1 1 1 1 1 1 1 1 1 1 1 1 1 1 1 1 0.050222085392389995 0.053634698179041637 1 1 1 0.049940028183514923 1 1 0.054038591374024447 1 1 1 1 1 1 1 1 1 1 1 1 1 1 1 1 1 1 1 1 1 1 1 1 1 0.050002396069135591 0.052042830549267956 1 1 1 1 1 1 1 1 1 1 1 0.052302023125790659 1 1 1 1 1 1 1 1 1 1 1 1 1 1 1 1 1 1 1 1 1 1 1 1 1 1 1 1 1 1 1 1 1 0.050064488686094949 1 1 1 1 1 0.050071534645923864 1 1 0.049746607277130886 1 1 0.052748503161261256 0.048376912898626272 1 1 1 1 1 1 1 1 1 1 1 1 1 0.04843919209750689 1 1 0.04991594814056536 1 1 1 1 1 1 0.04999899995440453 1 1 0.048535095761572403 1 1 1 1 1 1 1 1 1 1 1 1 1 0.050125669260322005 1 1 1 1 1 1 1 0.049998635458068361 1 1 1 1 1 1 1 1 1 1 1 1 0.050031896290927566 1 1 0.050009071571508718 1 1 1 1 1 1 1 1 1 1 1 1 1 1 1 1 1 1 1 1 0.050195683582152116 1 1 0.049991412177636405 1 0.049864731714819081 1 1 1 0.050002970102463781 1 1 0.051707808183977612 1 0.050398440480699094 1 1 1 0.051209436380029401 1 1 1 1 0.050035400426007702 1 1 1 1 1 1 1 0.050103276438783782 1 1 1 0.050410042805469346 1 1 1 1 1 1 1 1 1 1 1 1 0.050005835896960657 1 1 1 1 1 1 1 1 0.05045946606492472 1 1 1 1 1 1 1 1 1 1 1 0.050737178396921934 1 1 1 1 1 1 1 1 1 1 1 1 1 1 1 1 1 1 1 0.051046774353103487 0.050444935478457076 1 1 1 0.050168043888480472 1 1 1 1 1 1 1 1 1 1 1 1 0.050018999874743543 1 1 1 1 1 1 1 1 1 0.050063727795813737 1 1 1 1 1 1 1 1 1 1 1 1 1 1 1 1 0.055688199464004759 1 0.050366372273027489 1 1 1 1 1 0.054301754370991023 1 1 1 1 0.050386760580052488 1 1 1 0.049988097854809607 1 1 1 0.05102709235935364 1 1 1 1 1 1 1 1 1 0.051035060673170429 1 1 1 0.052827333264667056 1 1 0.050484251369109126 1 1 1 1 1 1 0.050244356143422896 1 1 1 1 1 1 1 1 0.050835103446206314 1 1 1 0.050405159744792524 1 1 1 1 1 1 1 1 1 1 1 1 1 1 1 1 1 1 1 1 1 1 1 1 1 1 1 0.05030435409915332 1 1 1 1 1 1 1 0.050191392817459969 1 1 1 1 1 1 1 1 1 1 1 1 1 1 1 1 1 1 1 1 1 1 1 1 1 0.050118182870044034 1 0.050073111717001843 1 1 1 1 1 1 0.050067072189267092 1 1 1 0.04993486750789778 1 1 0.049834359660740797 1 1 1 1 1 1 1 1 1 1 1 1 0.057304084482014128 1 1 1 1 1 0.056095410475390121 1 1 1 1 1 1 1 1 1 1 1 1 1 0.050022001036224902 1 1 1 0.049989551313012984 1 1 1 1 1 1 1 1 1 1 1 1 0.049954835502128869 0.051363445199526389 1 1 1 1 0.050396566370603149 1 1 1 1 1 1 1 1 1 0.049951782009916346 0.052757942396709806 1 1 1 1 1 0.053739325542999337 1 1 1 1 1 0.050197259018045323 1 1 1 1 1 0.0499888402715645 1 0.04955921887173987 1 1 1 1 0.051093429866402987 1 0.049458233610120222 1 0.050746671909194525 0.05000503333377404 1 1 1 1 1 1 1 0.049950693341068136 0.050666540434306143 1 1 1 1 1 1 0.049999282813054532 0.054183683163319021 0.050867620220895832 1 0.049802429863809727 0.049268344862487094 1 1 1 0.049897272816268559 1 1 1 1 1 0.05369142786469841 0.051009567481750479 0.049999431563607769 1 0.049510662932309685 1 1 1 0.050001293972170603 1 0.053980731430298648 0.050044235906494886 1 1 1 1 1 1 1 0.050926312569393763 0.048930075256608058 1 1 0.054594558050940663 0.056739012441540906 0.047788349521105659 1 1 1 1 1 1 1 1 1 1 1 1 1 1 1 1 1 1 1 1 1 1 1 1 1 1 1 1 1 1 1 1 1 1 1 1 1 1 1 1 0.050012183781374488 1 1 1 1 1 1 1 1 1 1 0.050037668938354325 1 1 1 1 1 1 0.050080194874426269 1 1 0.049741491122201983 1 1 1 1 1 1 1 1 1 1 1 1 1 0.049974139254803977 1 0.049646172947990778 1 1 1 1 0.051131177051267643 1 1 1 0.058240002927607407 1 1 0.057806570178529096 1 1 1 0.049997030615643916 1 1 0.050073906602355146 1 1 1 1 1 0.050038291746727401 1 1 1 1 1 1 1 0.050011117662034928 1 1 1 1 1 1 1 0.057117045408764409 1 1 0.056313352795099386 1 1 1 1 0.049880454527950986 1 0.050019832862162911 1 1 1 1 1 0.049629908207056803 1 1 1 1 0.050280381689433926 1 1 1 1 1 1 0.050888952143922681 0.049134147662050744 1 1 1 1 1 0.054090397207574178 1 1 0.05241585788267851 1 1 1 1 1 1 1 1 1 1 0.052313012339619575 1 1 1 1 1 1 1 1 1 1 1 1 1 1 1 1 1 1 0.050790969777502248 1 1 1 1 1 1 0.049891471043888767 1 1 1 1 1 1 1 0.047255748226396256 0.049637458815379648 1 1 1 1 0.049959729766013976 1 1 1 1 1 1 1 0.048776052682418157 1 1 0.050803393104205286 1 0.053056226793229092 0.048483538001875826 0.052372456427242448 1 1 1 1 1 1 0.050646489294479 1 1 1 1 1 0.049997930341837374 1 1 1 1 0.051702263357800322 1 1 1 0.046725757431062144 1 1 1 0.050870774642748903 1 1 1 1 1 1 1 1 1 1 1 1 1 1 1 1 1 1 1 1 1 1 1 1 1 0.051764125141589998 1 1 1 1 1 1 1 0.050091698569583766 1 0.051104339153140964 1 1 1 1 1 1 0.055731279314622059 1 1 0.050381327422407363 1 1 1 0.05001468394295313 1 1 0.051264161953265157 1 1 1 1 1 0.049940795758392741 1 1 1 0.049977993230809127 0.050314832695619191 1 1 1 1 1 1 1 1 1 1 1 1 0.049508818947470425 1 1 1 1 1 1 1 1 1 0.048245939382375078 1 1 1 1 1 0.049978550864434042 0.051260683691713479 1 1 1 1 1 1 1 1 1 0.050189766668969751 1 1 1 1 1 1 1 1 0.050813341964763628 1 1 1 1 1 1 1 1 1 1 1 1 1 1 1 1 1 1 0.05030238756944598 1 1 1 1 0.050712430374915317 1 0.050283266901905287 1 0.050029772449057167 1 1 1 1 1 1 1 1 1 1 1 1 1 1 1 1 1 0.049896006453839216 1 1 1 1 1 0.051782789481702313 1 1 1 0.049446175529814895 0.052308573905104169 1 1 1 1 1 0.050598534716167445 1 1 1 1 0.04983759977026897 1 1 1 1 1 1 1 1 0.051680783560588327 1 1 1 1 1 1 1 0.05092937647549256 1 1 1 1 1 1 1 1 1 0.049821135623851619 1 1 1 1 1 1 1 1 1 1 1 1 1 1 1 1 1 1 0.049940685223815937 1 1 1 1 1 1 1 1 1 1 1 1 1 0.050032767752101803 1 1 1 1 1 1 0.050076945529864761 1 1 0.050429943701413807 1 1 0.050080341282317448 1 1 1 1 1 1 1 1 1 1 1 1 1 1 1 1 1 1 1 1 1 1 1 1 1 1 0.050038181552385194 1 0.050337402111788727 1 0.050000379593449544 0.049476206189804112 1 1 1 0.050449647088221472 1 1 1 1 1 1 1 1 1 0.049829648886824424 0.050082059648288837 1 0.051885152304391211 1 1 1 1 1 1 1 1 1 1 1 1 1 1 0.049999802032256388 1 0.049326877689883475 0.04897408879389642 1 0.050816544735516236 1 1 1 1 1 1 1 1 1 0.047906362390184858 0.049696525506695566 1 1 1 1 1 1 1 1 1 1 1 1 1 1 1 1 1 1 1 1 1 1 0.05092598178271375 1 1 1 1 1 0.049522161754596582 1 1 1 1 1 0.04838025629651084 1 1 1 0.052937528830139871 1 1 1 1 1 1 1 1 1 0.051822488314430551 1 1 1 1 0.052627535955745625 1 1 1 1 1 1 0.047558547447209602 1 1 1 1 1 1 1 0.050273422606173804 1 1 1 1 0.047596308165382302 1 1 1 1 1 1 1 1 1 1 0.050627231880987084 1 1 1 1 0.052113009402109028 1 1 1 0.05403085529869716 1 1 1 1 1 0.049738284587687691 1 1 1 1 1 1 1 1 1 1 1 1 1 1 0.049002433156672548 0.057244358335925373 1 1 0.055131298959514977 1 1 1 1 1 1 1 0.049634766309202341 1 1 1 1 1 1 0.050291252293496076 1 1 1 1 1 1 1 1 1 1 1 1 1 1 1 1 1 1 1 1 1 1 1 0.05114615030437536 1 1 1 1 1 1 1 1 0.05003377984764236 1 1 1 1 0.050054512016633627 1 1 1 1 1 0.052239383819242952 1 0.049982631087292589 1 0.051554926094770817 1 1 1 1 1 1 1 0.049886715190493341 1 1 1 0.056083054017897593 1 1 1 1 1 0.052873847516223815 1 1 1 1 1 0.049751859965426692 1 0.050570773905869552 1 1 0.050848225306525219 1 0.049475567446232174 1 1 1 1 1 0.050062240990170481 1 1 1 0.050089471916809618 1 1 1 1 1 1 1 1 1 1 0.049660680913129883 1 1 1 1 1 1 1 1 1 1 1 1 1 1 1 1 1 1 1 1 1 1 0.052769934519566734 1 1 1 1 1 1 1 1 1 1 1 1 1 1 1 1 1 1 0.057019838808930662 1 1 1 0.059801055474972567 1 1 1 1 1 1 0.06842944552671916 1 1 1 0.052077999710916326 0.054017343478839498 1 0.060533327273195617 1 0.050743078549750513 0.057701193726794435 1 0.056801248582059011 1 1 0.053638088656481266 1 1 0.048600845558901665 0.053893761284704418 1 1 1 1 1 1 1 1 0.051646209872617151 1 0.051556332688245401 1 1 1 1 1 1 1 1 1 1 1 1 1 1 1 1 1 1 1 1 1 1 0.053763321804083157 1 1 1 1 1 1 1 1 0.055562775363823216 1 1 0.050063150671463948 1 1 0.05668902713646818 0.050204102527644436 1 1 0.050058359069582101 1 1 1 1 1 1 1 1 1 1 1 1 1 1 1 1 1 1 1 1 1 1 1 1 1 1 1 1 1 1 1 1 1 1 1 1 1 1 1 0.078526978021811661 1 0.073776280076813763 1 1 1 1 1 1 1 1 1 1 1 1 1 1 1 1 1 1 1 1 1 1 1 1 1 1 1 1 1 1 1 1 1 1 1 1 1 1 1 1 0.052339647920193182 1 1 0.052384614388545366 1 1 1 1 1 0.049581614403457666 1 0.050104036594750594 1 1 0.049158334602234961 1 1 1 1 1 1 0.045437713966311674 1 1 1 1 1 1 1 1 1 1 1 0.049998287814884385 1 1 0.056316486786096222 0.076536551937197148 1 0.086021315989242481 1 1 0.043051963330911373 1 1 1 1 0.082523085620285971 1 1 1 1 1 1 1 1 1 0.0500668180675801 1 0.048889497174269089 1 1 1 1 1 1 1 0.050142315707699045 1 0.044858470408666376 1 1 1 1 1 1 1 1 1 0.049632024751820131 1 0.046376475803658154 1 1 1 1 1 1 1 1 1 1 0.04886591249971186 1 1 1 0.048007310317194504 1 1 0.05000619070790227 1 1 0.055922448403152504 1 1 1 1 0.053524305363704262 1 1 1 0.050003395752452676 1 1 1 1 1 1 1 1 1 1 1 1 1 1 0.0511722300110104 1 1 1 1 1 1 0.052799440775667006 1 0.048989400767351088 1 0.078540845869428305 1 1 1 0.051816182389668342 1 1 1 1 1 1 1 1 0.083484768036191842 1 1 1 1 1 0.050047787706433658 1 1 0.084917986664702849 1 1 1 1 1 1 1 1 1 0.055867846166097787 1 1 1 0.052047192935586857 1 1 1 1 1 1 0.059169065745499835 1 1 1 1 1 1 1 1 1 1 1 1 1 1 1 1 1 1 1 1 1 1 1 1 1 1 1 1 1 1 1 0.052248157014875757 1 1 1 1 1 0.05059368838045656 1 1 0.049647398485740013 0.051139605721199244 1 1 1 1 0.051582238131874951 1 1 1 1 1 0.050798613495174658 1 1 1 1 1 1 1 1 1 1 1 1 1 1 1 1 0.050900780510861193 1 1 1 1 1 1 1 1 0.051319451167030995 0.053015344182481314 1 1 1 1 1 1 0.05258555735324788 1 1 1 1 0.051768672048194644 1 1 1 1 1 1 1 1 1 1 1 1 1 1 1 1 1 1 1 1 1 1 1 1 0.052103969513540217 1 1 0.050756593009525647 1 1 1 1 1 1 1 1 1 1 1 1 1 1 1 1 1 1 1 1 1 1 1 1 1 1 1 0.051037921149069583 1 0.052305931164536058 1 1 1 1 1 0.054748125499030874 1 1 1 1 1 1 1 1 1 1 1 1 1 1 1 1 1 1 1 1 0.053013336376887606 0.051801842860055534 1 0.054033856503699386 1 1 1 1 1 1 1 1 1 1 1 1 1 1 1 1 0.054034021076555409 1 1 1 0.051864177582029478 1 1 1 1 1 1 1 1 1 1 1 1 1 0.052442194334494811 1 1 1 1 1 1 1 1 1 1 1 1 1 1 1 1 1 1 1 1 1 1 0.070886748038701569 1 1 1 1 1 1 1 1 1 1 1 1 1 0.070595432406220349 1 0.06117199115698356 1 1 0.066218865927800769 0.060290153499239316 1 1 1 1 1 1 1 1 1 1 1 1 1 1 1 1 1 1 1 1 0.049049690179339085 1 1 0.062364407316325428 1 1 1 0.050277179624380754 1 1 1 1 1 1 0.061099807369394021 1 1 1 0.050327914911632347 1 1 1 1 1 1 1 1 0.050023838609367856 1 1 0.051399903517307922 1 1 0.054219224844916918 1 0.05406542847234045 1 1 1 1 0.054565695393358364 0.063010530251728522 1 1 0.049553666963097376 0.062865608281493929 1 1 0.054609312068060988 1 1 1 1 0.050011020510415019 1 1 0.05410093566238855 0.050336883309116537 1 0.050008603808649847 1 1 1 1 1 1 1 1 1 1 1 1 1 1 1 1 1 1 1 1 0.050027893902192255 1 1 1 1 0.051151875303641146 1 1 1 1 0.049914915482220656 0.050324117779010136 1 1 1 1 1 1 1 1 1 1 1 1 0.05011947633401509 1 1 1 0.058599581334871143 1 1 1 1 1 1 1 0.059757499340384546 1 1 1 0.049770132034447925 1 1 0.049981991578311367 0.049744314080889897 1 1 1 0.060737110126976454 1 1 1 0.04991957665427129 1 1 1 1 1 1 1 1 1 1 1 1 1 1 1 1 1 1 0.050404721196047372 1 1 1 1 1 1 1 1 1 1 1 1 1 1 1 1 1 1 0.049926508961658608 0.051129460013795133 1 1 1 1 1 0.051730146684001867 0.049802474623595792 1 0.052279660962609081 1 1 1 1 1 1 1 1 1 0.07635358572673899 1 1 1 0.074064798141241117 1 1 1 1 1 1 1 1 1 1 1 1 1 1 0.06211236662585716 1 1 1 1 1 1 1 0.068979076724615285 1 1 0.071608608356289016 1 1 1 1 1 1 0.056269461163709865 1 1 1 1 0.058160001729613407 1 1 1 1 1 1 0.04822967695801246 1 1 1 1 1 1 1 1 0.049867455059916507 0.054461251836087785 1 1 1 0.052364628009323164 0.048424046910177994 1 1 1 1 1 0.050779907664007577 1 1 1 1 1 1 0.05030612204905887 1 1 1 1 0.050168567876752362 1 1 1 1 1 0.050162040893294707 1 1 1 1 0.046506511429396685 1 1 1 1 1 1 1 1 1 1 1 1 1 1 1 1 1 1 1 1 1 1 1 1 1 0.049935596919953328 1 1 1 1 0.060943115101492425 1 0.051577573547537912 1 0.065398180031651154 1 1 0.050173991203684362 1 1 0.049014721811249204 1 1 0.049757956368100549 1 1 1 1 1 1 0.045719442617112388 1 1 0.047520225336601607 1 0.05121957644158974 0.049398355930577856 0.048636133875993533 1 1 0.050854178430153496 1 0.050922061183785824 0.050852367667241799 1 1 1 0.049918593710599174 1 0.049992106339973891 1 1 1 1 1 1 0.051729887364128251 1 1 1 0.04998087110090714 1 1 1 1 1 1 1 0.051517477827244841 1 1 1 0.053756929810800338 1 0.041901521377972109 0.043784508818298727 1 1 1 1 1 1 1 0.050507830724182683 1 1 1 1 1 1 1 1 0.049699552141876484 0.052818731966331599 1 1 1 1 0.054241412923921442 1 1 0.054246254328462959 1 1 1 0.049999184623011735 1 1 1 0.053218140646891531 0.051324119287273567 1 1 1 1 0.049797634945519254 1 1 1 1 1 0.051495699914280588 0.05298486560355678 1 1 1 1 1 1 1 1 1 1 1 1 1 1 1 1 1 1 1 1 1 1 1 1 1 1 1 1 1 1 1 0.051263435199373202 1 1 1 0.050089162159006315 1 1 1 1 1 1 1 1 1 1 1 1 1 1 1 0.052931157734117107 1 0.049703111401611252 0.047871126924422219 1 1 0.053499508250440746 1 1 1 1 1 1 1 1 1 1 1 1 1 1 1 1 1 1 1 1 1 1 1 0.04947833951058659 1 1 0.052436592062563341 0.050040792545993709 1 1 1 1 1 1 1 0.051559091391645329 1 1 1 0.048597435334304828 1 1 1 1 0.049668857279790583 0.049889919993012122 1 1 1 1 1 1 1 0.053330063954341221 1 1 1 1 0.052168302359090535 1 1 1 1 0.050374171534910708 1 1 1 1 1 1 1 1 1 1 1 1 1 1 1 1 1 1 1 0.049485833210444106 1 1 1 1 1 1 1 1 1 1 1 1 1 1 1 1 0.049398656557587427 1 1 1 0.049786651277209763 1 1 1 1 1 1 1 1 1 0.050782676563051056 1 1 1 1 1 1 1 1 1 1 1 1 1 1 1 1 1 1 1 1 1 0.050626266610073412 1 1 1 1 1 1 1 1 1 1 1 1 1 1 1 1 1 0.051673249092039616 1 1 1 1 1 0.049905759525120379 1 1 1 1 1 1 1 1 1 1 1 1 1 1 1 1 1 1 1 1 1 1 1 1 1 1 1 0.049755150544959159 1 1 0.04377956795451568 1 1 1 0.042626617259036881 1 1 1 1 1 1 1 1 1 1 1 1 1 1 1 0.040486217258636131 1 0.05221932377247708 1 1 1 1 1 1 1 1 1 0.042885817953029787 1 1 1 1 1 1 1 1 1 0.048952778457640157 0.045780323350719264 1 1 1 1 1 1 1 1 1 1 1 1 1 1 1 1 1 1 1 1 1 1 1 1 1 1 1 1 1 1 1 1 1 1 1 1 1 1 1 1 1 1 1 1 1 1 1 1 1 1 1 1 1 1 1 1 1 1 1 1 1 1 1 1 1 1 1 1 1 1 1 0.049076105512003643 1 1 1 1 1 1 0.04735461613456337 1 1 1 1 1 1 1 1 1 0.048681340423353009 1 0.047231289080199884 1 1 1 1 1 1 1 1 1 1 1 1 1 1 1 1 1 1 1 1 1 1 1 1 1 1 1 1 1 1 1 1 1 1 0.051110815906896118 1 1 1 0.051125522470192572 0.049392374849411502 1 1 1 1 1 1 1 1 1 1 1 1 1 1 1 1 1 1 1 1 1 1 0.050528271827435481 0.050727392418330172 1 1 1 1 1 1 1 1 0.048760333993817066 1 1 1 1 1 1 0.049194069699743673 1 1 1 1 1 0.050605299688703746 1 1 1 1 0.050226354101571995 1 1 1 0.045562455238288085 1 1 1 0.047401480946844869 1 1 0.04901879539168854 1 1 1 1 1 1 1 1 1 1 1 1 1 0.050381823970711948 1 1 1 1 1 1 1 1 0.050980738579475771 1 1 1 1 1 1 1 1 1 1 1 0.050057980388541846 1 1 1 0.05002819965652499 1 1 1 1 0.050989791790596928 1 1 1 1 1 1 1 1 0.050592536204912941 1 0.049040453956352072 1 1 0.052677532808779071 1 1 1 1 1 0.050098128505409428 1 1 1 1 1 1 1 1 1 1 1 1 0.050427869852872988 1 1 1 1 1 1 1 1 1 0.050959873720765457 1 1 1 1 1 1 0.049863119531572637 1 1 1 1 1 1 1 0.050450213379303915 1 1 1 1 1 0.050878083232176886 1 1 1 1 1 1 1 1 1 1 1 1 1 1 1 1 1 1 1 1 1 1 1 1 1 1 1 1 1 1 1 1 1 1 1 1 1 1 1 1 1 1 1 1 1 1 1 0.050287066320544603 1 0.050541133132592835 1 1 1 1 1 1 1 1 1 1 1 1 1 1 0.049925919685300295 1 1 1 1 1 1 1 1 1 1 1 1 1 1 1 0.052357782052634 1 1 0.050637361411506369 1 0.048500957432266137 1 1 1 1 1 0.050810328655376887 1 1 1 1 1 1 1 1 1 1 1 1 1 1 1 1 1 1 1 1 0.053324359186455089 1 1 1 1 1 1 1 1 1 1 1 0.052979200476300344 1 0.050173657921783764 1 1 0.052203999174768326 1 0.057972830999891048 1 1 1 1 1 1 1 0.049963481828802621 1 0.054213102805108895 1 1 1 1 0.053756858995823394 1 1 1 1 0.050544786654328683 0.050818254942674522 1 1 0.047596253709146857 1 1 1 1 1 1 1 1 1 1 1 1 1 1 1 1 0.049804163287350031 1 1 1 1 1 1 1 1 1 1 1 1 1 1 0.049424098083829388 1 0.050151939876799875 1 1 1 1 1 1 1 0.057189676365353791 1 0.057518426582315978 1 1 1 1 1 1 1 1 1 0.050078942202700177 0.055942684072987636 1 1 1 0.056027061759773122 1 1 1 1 0.059562438062875908 1 0.054699870355632882 1 1 0.049574807370085162 1 0.059958034831817553 0.059551607974752896 0.050179449849288557 1 1 0.050002510272269013 1 1 1 0.05066602239820673 0.053149557818158971 0.049134080600821375 1 1 1 1 1 1 1 1 1 1 1 0.049669392302439844 1 1 1 1 1 1 0.059157649326501784 1 1 1 0.050052110945867048 1 1 1 1 1 1 1 1 0.049931514658955144 1 1 1 0.049983785667850548 1 1 1 1 1 1 1 1 1 1 1 1 1 1 1 1 1 1 1 1 1 1 1 1 1 1 1 1 1 1 1 1 1 1 1 1 1 1 1 1 1 1 1 1 1 1 1 1 1 1 1 1 1 1 1 1 1 1 1 1 0.051355201430424852 1 1 1 1 1 0.053434299879614809 1 1 1 1 0.051209383522062474 1 1 1 0.054940726867837866 1 1 1 1 1 1 1 1 1 1 1 1 1 1 1 1 1 1 1 1 1 1 1 1 1 1 1 1 1 1 1 1 1 1 1 1 1 1 1 1 0.052278395708311762 1 1 0.055786480575268658 1 1 1 1 1 1 1 0.049643807334858694 1 1 1 1 1 1 1 1 1 1 1 0.048402209658723418 1 1 0.050066141645658417 1 0.051873043644910181 1 1 1 0.057763197693986343 1 1 1 1 1 1 1 1 0.049851019135917406 1 1 1 1 0.049496819017183433 1 1 1 1 0.056924219353923507 1 0.051541177952646372 1 1 1 1 1 1 1 1 1 1 1 1 0.052714525452184732 1 0.054981259486615877 1 1 1 1 1 1 1 1 1 1 1 1 1 0.050164985456827627 1 1 1 1 1 1 1 1 1 0.050405949784533964 1 1 1 0.05024096432770634 1 1 1 1 1 1 1 1 1 1 1 1 1 1 1 1 1 1 1 1 1 1 1 1 1 1 1 1 1 1 1 1 1 1 1 0.050483136865368101 1 1 0.049980644632781797 1 1 1 1 0.051227453840515455 1 1 1 1 1 1 1 1 1 1 1 1 1 1 1 0.050888633717062336 1 1 1 1 1 1 1 1 1 0.050472907855293091 1 0.050436087296031072 1 1 1 1 1 1 1 0.050568091125407839 1 1 1 1 1 1 1 1 1 1 1 1 1 1 0.051205283040795524 1 1 1 1 1 1 1 1 1 1 1 0.052962986487418762 1 1 1 1 1 1 1 1 1 1 1 1 1 1 1 1 1 1 1 1 1 1 1 0.049851391203835867 1 0.049676476638924175 1 1 1 1 1 1 0.052399274866135048 1 0.051622533500014542 1 1 1 0.052148046907136356 1 1 1 0.049259698033399489 1 1 1 0.05198467116879734 1 1 0.049075977866568726 1 1 1 1 1 1 1 0.049515529402511319 1 1 1 1 1 1 1 0.055698897905953344 1 1 1 1 1 1 1 1 1 1 1 1 1 0.051219274620580429 1 1 1 1 1 1 1 1 0.055990976032637058 1 1 1 1 1 1 1 1 1 1 1 1 1 1 1 1 1 1 1 1 0.054189392280504955 1 1 1 1 1 1 1 1 1 1 1 1 1 1 1 1 1 1 1 1 1 1 1 1 1 1 1 1 1 1 1 1 1 1 1 1 1 1 1 1 1 1 1 1 1 1 1 1 1 1 0.049341907998895131 1 0.052766224565735237 1 1 1 0.050260054203130608 1 1 0.049881066790493957 0.053406687063780461 1 0.04794066126027377 1 1 1 1 1 1 1 1 1 1 1 1 1 1 1 1 1 1 1 1 1 1 1 1 1 1 1 1 1 1 1 1 1 1 1 0.049777994271086416 1 1 1 1 0.048766395147242694 1 1 0.051413466227594733 1 1 1 0.050819263792630569 1 1 1 1 0.047455539954313244 1 0.050056828524503411 0.054931879535192941 1 1 1 1 0.054162637043280615 1 1 1 0.046940118991225604 1 1 1 0.051788906977060761 1 1 1 1 1 1 0.049985353763053152 1 1 1 1 1 1 1 1 1 1 1 1 1 1 1 1 1 1 1 1 0.049088323806604155 1 1 1 1 1 1 1 1 1 1 1 1 1 1 1 1 1 1 0.04972185258268056 1 1 0.049240561933162896 1 1 0.060118232282734052 1 1 1 1 1 1 1 1 1 1 1 0.048672005171606372 1 1 1 1 0.050230731580793136 1 1 1 1 0.051978153660089003 1 1 1 0.051356238900002751 1 1 1 1 1 1 1 1 1 1 1 1 1 1 1 1 1 1 1 1 1 1 1 1 1 0.050604615498791833 1 1 1 1 1 1 1 1 0.051353405738811919 1 1 1 0.059299108512779766 1 1 1 1 1 1 1 1 1 1 1 1 1 1 1 1 1 1 1 1 1 1 1 1 0.048258646083536777 1 1 1 0.051784222733183519 1 1 1 1 1 1 1 1 0.048431803524150357 1 1 0.051084148810427263 1 1 1 1 0.05030668010706757 1 1 1 1 1 1 1 0.058468501328181696 1 0.048811245805124373 1 1 0.047558209184574096 1 1 0.060590100582440305 0.050007653674071548 1 1 1 1 1 1 1 1 1 1 1 1 1 1 1 1 1 1 1 1 1 0.053676152939237526 1 1 1 1 0.056124653579680508 1 1 1 1 1 1 1 1 1 1 1 1 1 0.052034577273577409 1 1 0.050058401354994814 1 1 1 1 1 1 1 1 1 1 1 1 1 1 1 1 1 1 1 1 1 1 1 1 1 1 1 1 1 1 1 1 1 1 1 1 1 1 1 1 1 1 1 1 1 1 1 1 1 1 1 1 1 1 1 1 1 1 1 1 1 1 1 1 1 1 1 1 1 1 1 1 1 1 1 1 1 1 1 1 1 1 1 1 1 1 1 1 1 1 1 1 1 1 1 1 1 1 1 1 1 1 1 1 1 1 1 1 1 1 1 1 1 1 1 1 1 1 1 1 1 1 1 1 1 1 1 1 0.049652243055428535 1 1 1 1 1 1 1 0.049340703142520315 1 1 1 1 1 1 1 1 1 0.048342541318014298 1 0.054437682645298482 1 1 1 0.051969066529757184 1 1 0.052723766960565438 1 1 1 1 1 1 1 1 1 1 1 1 1 1 1 1 1 1 1 1 1 1 1 1 1 1 1 1 1 1 1 1 1 1 1 1 1 0.049142501481337454 1 1 0.052391035142297884 0.047770332465167417 1 1 0.049692981327031815 1 1 0.056617125289196747 1 1 1 0.055069199091698294 1 1 1 1 1 1 1 1 1 0.051846765324778041 1 1 1 1 1 1 0.049814031771972619 1 1 1 1 1 1 1 1 1 1 1 1 1 1 1 1 1 1 1 1 1 1 1 1 1 1 1 1 1 1 1 0.049019101071215418 1 1 1 1 1 1 1 1 1 1 1 1 1 1 1 1 1 1 1 1 1 1 1 1 1 1 1 1 1 1 1 1 1 1 1 1 1 1 1 1 1 1 1 1 1 1 0.056014663261521248 1 0.050338568877165715 1 1 1 1 0.05007204730091034 1 1 1 1 0.055348255358772462 1 1 1 1 0.049895194076557348 1 1 1 1 1 1 1 1 0.050461121647798167 1 1 0.050279626361347106 1 0.0501412098286345 1 1 1 1 0.050696514709946718 1 1 0.050715656492060973 0.052412264194205742 1 1 1 1 1 1 0.050040582081444331 1 1 1 1 1 1 1 1 1 1 0.050670195664518795 0.054901884424134892 1 1 1 1 1 0.055082187914701139 1 1 0.050369755256926843 1 1 1 1 0.050878351815274184 1 1 0.050001873622633225 1 1 1 1 1 1 1 1 1 1 1 1 1 1 1 1 1 1 1 1 1 1 1 1 1 1 1 1 1 0.050061964983512522 1 0.050018224837088648 1 1 1 1 1 1 1 1 1 1 1 1 1 0.049977233580427452 1 1 1 1 0.059221781939837209 0.059415311270187947 1 1 1 1 1 1 1 1 1 1 1 1 1 1 1 1 1 1 1 1 1 1 1 1 1 1 1 1 1 1 1 1 1 1 1 1 1 1 1 1 1 1 0.050022666397735234 1 1 1 0.050045432817307806 1 1 1 1 1 1 1 1 1 1 1 1 1 1 1 1 1 1 1 1 0.058986987880399702 1 1 0.05869694319379945 1 1 1 1 1 1 1 1 1 0.050000947204004033 1 1 1 1 1 0.056556038949560919 1 1 1 1 1 0.049943355262371758 1 0.049963543952685804 1 1 1 1 1 1 1 1 1 1 1 1 1 0.051736602726291589 1 1 1 0.053337863475401918 0.056028457128855888 1 1 1 1 1 1 1 1 0.05000077950478312 1 1 0.054514596771775496 1 1 0.050002087715608622 0.051948921186924082 1 1 1 1 1 0.049967569110555173 1 1 1 1 1 1 1 0.05051915175438372 1 1 0.051186397329393396 0.050355483250990395 1 1 1 1 1 1 0.053725942998632106 0.048786364794774592 1 1 1 0.05147214944096061 1 1 1 1 1 1 1 0.051258933346220378 1 1 1 1 1 1 1 1 1 1 1 1 1 1 1 1 1 1 1 1 1 1 1 1 1 1 0.05562857847751039 1 1 1 1 1 1 1 0.050057915708707823 1 1 1 1 1 1 1 1 1 1 1 0.056107259174579739 1 1 1 1 1 1 1 1 0.051413661396447485 1 1 1 1 1 1 1 1 1 1 1 1 1 1 1 1 0.051366790440479412 1 1 1 0.050854093518263407 1 1 1 1 1 0.053344016067602598 1 1 1 1 1 1 1 1 1 1 1 1 1 1 0.049720604471767668 1 1 1 1 0.049023677181019382 1 1 0.048087978186607767 1 1 1 1 1 0.050004967822563084 1 1 1 1 1 1 1 1 1 1 1 1 1 1 0.050142703422199883 1 0.048106200334960089 1 1 1 0.050686454817731777 1 0.050807689610711484 1 0.051293807440618649 1 1 1 1 1 1 0.050085448561911716 0.052734625460504704 1 1 1 1 1 1 0.053062915006913638 1 0.050351420891352298 1 1 1 1 1 1 1 1 1 1 1 1 1 1 1 1 1 0.053660975631149639 1 1 1 0.049888424028310105 0.05348896673410191 1 1 1 1 1 0.050859759916334846 1 1 0.050066841531986123 0.050356800718946583 1 1 1 1 1 1 1 1 1 1 1 1 1 1 1 1 1 1 1 1 1 1 1 1 1 1 1 1 1 1 1 1 1 1 1 1 1 1 1 1 1 1 1 1 0.04810282132694374 1 1 0.05342249756711899 0.052212356974825014 0.05013513664309617 1 1 1 1 1 1 0.049821218190720121 1 1 1 1 1 1 1 1 1 0.050155868352371472 1 1 1 0.049854873530038743 1 1 1 1 1 1 1 1 1 1 1 1 1 1 1 1 1 1 1 1 0.050754437228979453 1 1 1 1 0.050437862086165262 1 1 1 1 1 1 1 1 1 1 1 1 1 1 1 1 1 1 1 1 1 1 1 1 1 1 1 1 1 1 1 1 1 1 0.049620579074772429 1 0.050249436270204319 1 1 1 1 1 1 1 1 0.050516002132840347 1 1 1 0.04922176456592197 1 0.050266565862636038 1 1 1 1 1 1 1 1 0.055175888309583504 1 1 1 1 0.05210545141138466 1 1 1 1 0.049967706240811281 1 1 1 1 1 1 1 0.050809967381316705 1 1 1 1 0.050443446631654967 1 1 1 1 1 1 1 1 1 1 1 1 1 1 1 1 1 1 1 1 1 1 1 1 1 1 1 1 1 1 1 1 1 1 1 1 1 1 1 1 1 1 1 1 1 1 0.050575756864738558 1 1 1 1 0.050003210351914865 0.050278660473563788 1 1 0.050590944255072018 0.050664134013920684 1 1 1 1 1 1 1 1 1 1 1 1 1 1 1 1 1 1 1 0.050295956209618888 1 1 1 0.050074030139119111 0.050001337107165776 1 1 1 1 1 1 1 1 1 1 1 1 1 1 1 1 1 1 1 1 1 1 1 1 1 1 1 0.050201793069789238 1 1 1 1 1 1 1 0.04991442416813964 1 1 1 1 1 1 1 1 1 1 1 1 1 1 1 0.049471128727249278 1 1 1 1 1 1 1 1 0.050407266846931517 1 0.049678285021774057 0.051048138560864653 1 1 1 1 1 1 1 1 1 1 1 1 0.050559567878184081 1 1 1 1 1 1 1 1 1 1 1 1 1 1 1 1 1 1 0.055838372377583823 1 1 1 0.050844780412272805 1 1 1 1 1 1 1 1 0.050285811590077015 1 1 1 1 1 1 1 1 1 1 1 1 1 1 1 0.051162845978899051 1 1 1 0.050405462780406383 1 1 1 1 1 1 1 1 1 1 1 1 1 1 1 1 1 1 1 1 1 1 1 1 1 1 1 1 1 1 1 1 1 0.050366571236476122 1 0.050164975369766551 1 1 1 1 1 1 1 1 0.049985826349223904 1 1 1 1 1 1 1 1 1 0.049913035576262504 1 1 0.049986501556117856 1 1 1 1 1 0.049984162022110021 1 1 1 1 0.049990422402123293 1 1 1 1 0.049694050095735444 1 1 1 0.050083303322232375 1 0.049185461670796488 1 1 0.049641248785380725 1 1 1 1 1 1 1 1 1 1 1 1 1 1 0.049996596540743246 1 1 0.050005481456832243 1 0.049992810165255155 1 1 1 0.050014571457646859 1 1 0.048557749808340003 1 1 1 1 0.050523610770684457 1 0.050521357721079449 1 1 1 1 1 1 0.050193788182167569 1 0.050139310574289539 1 1 1 1 1 0.057771731543738609 1 1 1 1 0.050526148118400394 1 1 1 1 1 1 0.057470633852773498 1 1 1 1 1 1 1 1 1 1 1 1 1 1 1 1 1 1 1 1 1 1 1 1 1 1 1 1 1 1 1 1 1 0.050045315241276041 0.05000233928177672 1 1 1 1 1 1 1 1 1 1 0.057790153210449134 1 1 0.050504234121673396 0.05664794102753698 1 0.049984711294685971 1 1 1 1 1 1 1 0.056875048641057684 1 1 1 1 1 1 1 1 1 1 1 1 0.049626324232084136 1 1 1 1 0.049857983396378272 1 1 1 1 1 1 1 1 1 1 1 1 0.051254440987070153 1 1 1 1 1 1 1 1 1 1 1 1 1 1 1 1 1 0.051133633480957126 1 1 1 1 1 0.050349458705343263 1 1 1 0.052408852325330504 1 1 1 1 1 1 0.051596074641746863 1 0.05162288846959559 1 1 1 0.051039437155547977 1 1 1 1 1 1 1 1 1 0.052934077509401906 1 1 0.050013343875613674 1 1 1 1 1 1 1 0.050640232423119304 1 1 1 1 1 1 1 1 1 1 1 1 1 0.049178657079115465 1 1 0.05028050848619231 1 1 1 1 1 1 0.04995115061888513 1 1 1 1 1 1 0.054004272718207021 1 1 1 1 1 1 1 0.055702842985308698 1 1 1 1 1 1 1 1 1 1 1 1 1 1 1 1 1 1 1 1 1 1 0.050415727293088422 1 1 1 1 1 1 1 1 1 1 0.052868575913434801 1 1 1 1 0.05277226857445394 0.05081495716402197 1 1 1 1 0.050742569767645289 1 1 1 1 1 1 1 1 1 0.05062571533535655 1 1 1 1 1 1 1 1 1 1 1 0.053123585319192076 1 1 1 0.051481141133477827 1 1 1 0.051210571068229432 1 1 1 1 1 1 1 1 1 1 1 1 0.052933103499508485 1 1 1 1 1 0.049996205146830668 1 1 0.049966731739023523 1 1 1 1 1 1 1 1 1 1 1 1 1 1 0.052560945182874352 1 1 1 1 1 1 1 0.05680444478091385 1 1 1 0.059391092363773004 1 1 1 1 1 0.049934068644468477 1 1 1 1 1 1 1 1 1 0.049963542052275614 1 1 1 1 1 1 1 1 0.060685111092038238 1 1 1 1 1 0.050823151337813212 1 1 1 1 1 1 1 0.050292757023193899 1 1 1 1 1 1 1 1 1 1 1 1 1 1 1 1 1 1 1 1 1 1 1 1 1 1 1 1 1 1 1 1 1 1 1 1 1 1 1 1 1 1 1 1 1 1 1 1 0.051453010106702939 1 1 1 1 1 1 1 0.050581396873822362 1 1 1 1 1 1 1 1 1 1 1 1 1 1 1 1 1 1 1 1 1 1 0.050075627678146564 0.050269433212526735 1 1 0.051737229417290413 0.05444446406809416 1 1 1 1 1 1 1 0.056740044460865474 1 1 1 1 1 1 1 1 1 1 1 1 1 1 0.049983910344052793 1 1 1 1 1 1 1 1 0.049970265413208301 1 1 0.050066421648420734 1 1 1 0.050205680118908178 1 1 1 1 1 1 1 1 1 1 1 1 1 1 1 1 1 1 1 1 1 1 1 1 1 1 1 1 0.049915072657826257 1 1 1 1 1 1 1 1 0.049990010782293405 1 1 1 1 1 1 0.049622802742873201 0.049964343436823454 1 1 1 1 0.050018941627985578 1 1 0.049887846159633265 1 1 0.049383943726004867 1 1 1 1 1 1 0.050005116907973754 1 1 1 1 1 1 1 1 0.050001557248873653 1 1 1 1 1 1 1 1 1 1 1 0.050005665855346833 1 1 0.050004110921608988 1 1 1 1 1 1 1 0.049993182717625817 1 1 1 0.050024433302358104 1 0.050073527569136939 1 0.050005244394113212 1 1 1 1 1 1 1 1 1 1 1 1 1 1 1 1 1 0.050113033321950315 1 0.049999826707472002 1 1 1 1 1 1 1 1 1 1 0.050132222087111898 1 1 1 1 1 1 1 0.050137438199905918 1 1 1 0.049998115977655314 1 0.051961447876693337 0.051648364655543275 1 1 0.053577220532950054 1 1 1 1 0.051052961318797038 1 1 1 0.051863271838282883 1 1 1 0.052173629785020055 1 0.053595932528975668 0.049575883438572318 1 1 1 1 1 1 0.05405280498786659 1 1 1 1 1 1 1 1 0.047786914425802005 0.05000104567049133 0.048750710108602963 1 0.046559436343406896 1 1 0.05497545581300059 0.050000601611225257 1 1 0.061332131289787442 1 1 1 1 1 1 1 1 1 1 1 0.04998440694671194 1 1 1 1 1 1 1 1 1 1 1 1 1 0.049324123467150587 0.048198831807672822 1 1 1 1 0.04902705018127762 1 1 1 0.051196764386526518 1 1 1 1 1 0.048860746994292346 0.049998419396523747 1 1 1 0.051327923402962258 1 1 1 1 1 1 1 1 1 1 1 1 1 1 1 0.050615139776617954 1 1 1 0.050715233946003122 1 1 1 0.050296421374400019 1 1 1 1 1 1 0.052369502322479403 1 1 1 1 1 0.05190104501338863 1 1 1 1 1 1 1 1 0.05000779030872031 1 1 1 1 1 1 1 1 1 0.050025676258932589 1 1 1 1 0.050010334174264683 1 0.050015869787651393 1 1 0.049647779915066574 1 0.050702943014333465 1 1 1 1 1 1 0.05042502276067512 1 0.050015194829624521 0.050336795244401461 1 1 1 1 1 1 1 1 0.052989905600270254 1 0.050154967008791934 1 0.050036545167166713 1 0.049763901257259109 1 1 1 1 1 1 1 1 1 1 1 0.050343213967121075 1 1 1 0.050334315674389438 1 1 1 1 1 1 1 1 0.049991101707268379 1 1 1 1 1 1 1 1 1 0.05032126699947792 1 1 1 1 0.052928933445106768 1 1 0.05743084733513773 1 1 1 1 1 1 1 1 1 0.060861475537871607 1 1 1 0.059850250948901507 1 1 1 1 1 1 1 1 1 1 1 1 1 1 1 1 1 1 1 0.060984916341999679 1 1 1 1 1 1 1 1 1 1 0.049739634562726183 1 1 1 1 1 1 1 1 1 1 1 1 1 1 1 1 1 1 1 1 1 1 1 1 1 1 1 1 1 1 1 1 1 1 1 1 1 1 1 1 1 1 1 1 1 0.047937682172588182 0.050034272454170442 1 1 1 1 1 1 1 1 1 1 1 1 1 0.047230335401502413 0.055809174985294641 1 1 1 0.054350945716875911 1 1 0.04879788146206019 1 1 1 0.046847573507122493 1 1 1 0.047678085627163434 1 1 1 1 1 1 1 1 0.050291867806689532 1 1 0.049643368145981616 1 0.051952120411036723 0.049886449425940317 1 1 1 1 1 1 0.049367689105655956 1 0.051282867259799518 0.049835801682705586 0.049942083647113215 1 1 0.050577892332348565 1 1 0.048751953125455362 0.048810201032735506 1 1 1 1 1 1 1 1 1 1 1 1 1 1 1 1 1 1 1 1 1 0.060937411336227362 1 1 1 1 1 1 1 1 1 0.050214546652392771 1 1 1 1 1 1 1 0.050768272702376709 0.060647849447185612 1 1 1 1 1 1 1 1 1 1 1 1 1 1 1 1 1 1 1 1 1 1 1 0.049565570610043352 1 0.05001326431977883 1 1 1 1 1 1 1 0.049199680261444986 1 1 1 0.05308398735006134 0.060996951827360139 1 1 0.052052691225777645 1 1 1 1 0.05248648274568498 1 1 1 0.059699193635918225 1 1 1 0.048833280891150493 1 1 1 1 1 1 1 1 1 0.046966080139249369 0.052362170010946105 1 1 1 1 1 0.048415283225671263 1 1 0.051990072716930555 0.046764065270573356 0.047861461129614355 1 1 1 1 1 0.059828923749033799 1 1 1 1 1 1 1 1 1 0.05037554594317642 1 0.050159695973180499 1 1 1 1 1 1 1 1 1 1 1 1 1 1 1 1 1 1 1 1 1 1 1 1 0.051038512834954697 1 1 1 1 0.049345387400840351 0.053100792369986258 1 1 1 0.047646506795170934 1 1 1 1 1 1 1 1 1 1 1 1 1 1 1 1 0.056725869427440526 1 1 1 0.050035461712543944 1 1 0.058521176380893519 1 1 1 1 1 1 1 1 1 1 1 1 1 0.055065610907202231 1 1 0.053649604642711034 1 1 1 0.055886420313289761 1 0.050699545999540692 1 0.050235475210436246 1 0.047990597740959061 0.055190066715154931 0.050066369443572928 1 1 1 1 1 1 1 1 0.050669657857996292 1 1 1 1 1 1 1 1 0.057895618190079649 1 1 0.045770142558087257 1 1 1 1 1 1 1 1 1 1 1 1 1 1 1 1 1 1 1 1 1 0.054836180107553874 1 1 1 1 1 1 1 1 1 1 0.053016125117396742 1 0.049381988582683382 1 1 0.051422180754188432 1 0.054826297349570174 1 0.049955974259857087 1 1 0.04993543164069425 1 0.056196255334136518 1 1 0.050897726295880859 1 1 1 0.049408492049016151 1 1 1 1 1 1 1 1 1 1 1 1 1 1 1 1 1 1 1 1 1 1 1 1 1 1 1 1 1 1 1 1 1 1 1 1 1 1 1 1 1 1 1 1 1 1 1 1 1 1 1 1 1 1 1 1 1 1 1 1 1 0.05292125763248165 1 1 0.055693442788722146 1 1 1 1 1 1 0.048188754656394994 0.05522556980674477 1 1 1 1 1 1 1 1 1 1 1 1 1 1 1 1 1 1 0.053227871726757026 1 1 1 0.050085222216499192 1 1 1 1 1 1 1 1 1 1 1 1 1 1 1 1 0.049997871938697716 1 1 1 1 1 1 1 0.056327518147561595 1 1 1 1 1 1 1 1 0.054884406088917571 1 0.050196842545803248 1 1 1 1 1 1 1 1 1 1 1 1 1 1 1 1 0.052988767735474687 1 1 1 1 1 1 1 0.057619783647505966 1 1 1 1 0.049428940864131174 1 1 1 1 1 1 1 0.047664559484793208 1 1 0.054895480649794277 0.049737897525692576 1 1 0.058414213176331234 1 1 1 1 1 1 0.060550581879008462 1 1 1 1 1 1 1 1 1 0.047647956016635469 1 1 0.050083496782461524 1 1 0.04992518166377162 1 1 0.054251505151558979 1 1 1 1 1 0.053457801321763983 1 1 1 1 1 1 1 1 0.050138122035427612 1 1 1 1 1 1 1 0.050443065866118367 1 1 1 1 1 1 1 1 1 1 1 1 0.051051087332248661 1 1 1 1 1 1 1 0.049842432556973001 0.049908777785119679 1 0.039383763907501347 1 0.047453267890405257 1 1 1 1 1 1 1 1 1 1 1 1 1 1 1 0.04999905700716361 1 0.046385042215073155 1 1 1 1 1 1 1 1 0.057568744802273364 1 0.051547978353310556 1 0.046039510848199662 1 0.060844080949306684 1 0.049655513335654045 1 1 0.050022448554451857 1 1 1 1 1 0.049984047105699148 1 1 1 1 1 1 1 1 0.050087769667966839 1 1 1 1 1 0.050274538892746828 1 1 0.039595589992562033 1 0.050347170144145435 0.048993054456576562 1 1 1 1 1 1 1 1 0.049972598136682055 1 1 1 1 1 1 1 1 1 1 1 1 1 0.057507545269059532 1 1 1 1 1 1 1 0.050604159637412653 1 1 1 0.050603310908347743 1 1 1 1 1 1 1 1 1 1 1 1 1 1 1 1 1 0.049759071174789053 1 1 1 1 1 1 1 0.049863462687715958 1 1 0.052833961256812653 1 1 1 1 1 1 1 1 1 1 1 1 1 1 1 0.052152499761563956 1 1 1 1 0.049643942759339005 1 1 1 1 1 1 1 1 1 1 1 1 1 1 1 1 1 1 1 1 1 1 1 1 1 0.046446916616027276 1 1 1 1 1 1 0.049847063021310735 1 1 1 1 1 1 1 1 1 0.047294088959040664 0.053645155362105498 1 1 1 0.053721283681161712 1 0.049613464492455003 1 1 1 1 1 1 1 1 1 1 1 1 1 1 1 0.051068887215467922 1 1 1 1 1 1 1 1 1 1 1 1 0.05030089520288223 0.050799420044631338 1 1 1 1 1 1 1 1 0.052889327899667805 1 1 0.049892087266389148 1 1 0.05419513510120208 0.048200380305546055 1 1 1 1 1 1 1 0.051816741418846277 1 1 1 1 1 1 1 1 1 0.050498524841749118 1 1 1 0.050570492365477018 1 1 1 1 1 0.050218297022429172 1 1 1 1 1 1 1 1 1 1 1 1 0.049517145197106399 1 1 1 0.049736286574765358 1 1 1 0.051556593610118148 1 1 1 1 1 1 1 1 1 1 1 1 1 1 1 1 1 1 1 1 1 1 1 1 1 1 1 1 1 1 1 1 0.049412710954906812 1 1 1 1 1 1 1 1 1 1 1 1 1 1 1 1 1 1 1 1 1 1 1 1 0.050654205987351271 1 0.050035953991217519 1 1 0.046062453000499291 1 1 1 1 1 1 1 1 1 0.052869463914885284 1 1 1 1 1 1 1 1 1 1 1 1 1 1 0.047487230634677795 1 1 1 1 0.048847703963051943 1 1 1 0.049725796270312747 1 1 1 1 1 1 1 1 1 1 1 1 1 1 1 1 1 1 1 1 1 1 1 1 1 1 1 1 1 1 1 1 1 1 1 1 1 1 1 1 1 1 1 1 1 1 1 1 1 1 1 1 1 1 1 1 1 1 1 1 1 1 1 1 1 1 1 1 1 1 1 1 1 1 1 1 1 1 1 1 1 1 1 1 1 1 1 1 1 1 1 1 1 1 1 1 1 1 1 1 1 1 1 1 1 1 1 1 1 1 1 1 1 1 1 1 1 1 1 1 1 1 1 1 1 1 1 1 1 1 1 1 1 1 1 1 1 1 1 1 1 1 1 1 1 1 1 1 1 1 1 1 1 1 1 1 1 1 1 1 1 1 1 1 1 1 1 1 1 1 1 1 1 1 1 1 1 1 1 1 1 1 1 1 1 1 1 1 1 0.063662675725982568 1 1 1 1 1 1 1 1 1 1 1 1 1 1 1 1 0.050893637137088624 1 1 1 1 1 1 1 1 0.059225650356852733 1 1 1 1 0.049492242887079443 1 1 1 1 1 1 1 1 1 1 1 1 1 1 1 1 1 1 1 1 1 1 0.050620501300074214 1 1 1 1 1 1 1 1 1 1 1 1 1 0.048414415315876098 0.062865737580537137 1 1 1 1 1 0.059312741646251596 1 0.046293220990318837 1 1 1 1 1 1 1 1 1 1 1 0.053407025041724385 1 1 1 1 1 1 1 0.066495759932128445 1 1 1 1 1 1 1 1 1 1 1 1 1 1 1 0.050632178010108046 0.064476922141528017 1 1 1 1 1 1 1 1 1 1 1 1 0.047915741629369429 1 1 1 1 1 1 1 1 1 1 1 1 1 1 1 1 0.049348578880053784 1 1 1 1 1 1 1 0.061890578538913284 1 1 1 1 1 1 1 1 1 1 0.050100655343848284 0.057587141996186537 1 1 1 1 1 1 1 1 1 1 1 1 1 1 1 1 1 1 1 1 1 1 1 1 1 1 1 1 1 1 0.052071864142652968 1 1 1 1 1 0.053129939610675407 1 1 1 1 1 1 1 1 1 1 0.051385852495768332 1 1 1 1 0.049432529593685375 1 1 1 1 1 1 1 1 1 1 0.052814836026030765 1 0.051070748911123683 1 1 1 1 1 1 1 1 1 1 1 1 1 1 1 1 1 1 1 1 1 1 1 1 1 1 1 1 1 1 1 0.050354861844632164 1 1 1 1 1 0.050987039854740207 1 1 1 1 1 1 1 1 1 1 1 1 1 1 1 1 1 1 0.050692326437204303 1 1 0.060564001183261815 1 1 1 0.050243799207458202 1 1 1 1 1 0.065620120893083861 1 1 1 1 1 1 1 1 1 1 0.05601613081349343 1 1 1 1 1 1 0.049721770425253026 1 1 1 1 1 0.068218331756027775 0.049935478784025975 1 1 0.065586601169594985 1 1 0.050605098507049029 1 1 1 1 1 1 1 1 1 1 0.05069863090685043 1 1 0.051146841336062621 1 1 0.051640605831775863 1 1 0.051511218269358991 1 1 0.049280521232488647 1 1 0.051229343103337016 1 1 1 1 1 1 0.048847364102305335 1 1 1 1 1 1 1 1 1 1 1 0.064511344300656748 1 1 1 1 1 1 1 0.050684110430481225 1 1 1 1 0.050012931652013495 1 1 1 0.06218941306056943 1 1 1 1 1 1 1 1 1 1 1 0.049955892395708239 1 1 1 1 1 1 1 1 1 1 1 1 1 1 1 1 1 1 1 1 1 1 1 1 0.049999882568282993 1 1 1 1 1 0.050034471558685858 1 1 1 1 1 1 1 1 1 1 1 1 1 1 0.050803083327264006 1 1 0.0496230091735409 1 0.055138012581930095 1 1 1 1 0.057236442840715412 1 0.049819672842699267 0.047833192726885534 1 0.048525143898400624 1 1 1 1 1 1 1 0.050014549419867327 1 0.049637949161883244 1 1 1 1 1 1 0.0501713965843886 1 1 1 1 1 1 0.050234241928649961 1 1 1 1 0.050683597925536353 1 1 1 1 1 0.04995103318716812 1 1 0.050130866050520258 1 1 1 1 0.051044706356996136 1 1 1 1 0.049909268400718784 1 1 1 1 1 1 0.050111955716424683 1 1 1 1 1 1 1 1 1 0.050521189855372184 1 1 1 1 1 1 0.050256979508551278 1 1 1 1 0.050546842105196638 1 1 1 1 1 1 1 1 1 1 1 1 1 1 1 1 0.049836045639137946 1 1 1 0.049753095999357462 1 1 0.056310068727596127 1 1 1 1 1 1 1 1 1 1 1 1 1 1 1 1 0.050023042588820101 1 0.055394460562179677 1 1 1 1 1 1 1 1 1 1 1 1 1 1 1 1 1 1 1 1 1 1 1 1 1 1 0.057821476014939165 1 1 0.054198340746612644 1 1 1 1 1 1 1 1 1 1 0.052363613066447115 1 1 1 1 0.050199958462824767 1 1 1 1 0.05017691587400467 1 1 1 1 1 1 1 1 1 0.052111001699076509 1 1 1 1 1 1 1 1 1 1 1 1 1 1 1 1 1 1 1 1 1 1 1 1 1 1 1 1 
</DataArray>
</CellData>
</Piece>
</UnstructuredGrid>
</VTKFile>
